order = 5;
grid = [|8, 5, 0, 0, 21, 0, 19, 22, 3, 1, 4, 11, 25, 0, 17, 24, 0, 10, 2, 0, 12, 23, 15, 0, 9
|2, 18, 4, 13, 11, 6, 0, 12, 0, 17, 0, 0, 0, 0, 3, 25, 9, 1, 19, 23, 24, 0, 16, 8, 20
|0, 7, 9, 0, 1, 0, 8, 15, 0, 0, 0, 0, 5, 23, 0, 0, 22, 11, 21, 0, 4, 14, 0, 25, 0
|22, 15, 24, 17, 23, 20, 0, 0, 0, 10, 0, 1, 0, 16, 0, 18, 0, 0, 0, 4, 21, 6, 0, 0, 19
|0, 16, 20, 3, 19, 0, 23, 9, 4, 21, 0, 0, 12, 6, 14, 0, 17, 0, 5, 7, 0, 2, 10, 1, 0
|19, 20, 7, 18, 5, 0, 1, 8, 0, 24, 0, 0, 21, 4, 11, 0, 0, 17, 9, 14, 3, 0, 13, 16, 6
|4, 0, 23, 2, 14, 17, 20, 11, 13, 19, 16, 18, 6, 0, 24, 3, 12, 0, 0, 5, 0, 0, 1, 21, 0
|16, 17, 21, 9, 8, 0, 0, 0, 12, 0, 0, 14, 1, 3, 0, 22, 20, 19, 24, 0, 10, 15, 11, 23, 0
|0, 24, 6, 0, 0, 15, 7, 0, 0, 16, 0, 23, 9, 0, 0, 0, 10, 13, 0, 25, 20, 19, 0, 18, 0
|0, 0, 15, 25, 0, 18, 0, 0, 0, 0, 0, 8, 19, 10, 0, 0, 6, 7, 0, 0, 17, 0, 14, 22, 0
|18, 1, 0, 5, 0, 2, 16, 7, 0, 23, 3, 12, 22, 17, 0, 11, 8, 0, 0, 0, 9, 21, 24, 14, 25
|15, 0, 0, 16, 0, 1, 24, 5, 18, 0, 0, 10, 7, 20, 21, 9, 13, 12, 3, 0, 0, 0, 22, 0, 11
|23, 14, 10, 7, 0, 22, 15, 17, 8, 9, 11, 0, 4, 2, 0, 20, 18, 24, 0, 0, 5, 13, 19, 0, 1
|0, 12, 25, 11, 9, 21, 13, 3, 14, 20, 0, 15, 0, 1, 18, 16, 19, 2, 23, 0, 7, 10, 17, 6, 4
|6, 8, 22, 21, 0, 0, 4, 19, 0, 12, 25, 13, 24, 9, 23, 0, 1, 0, 14, 17, 0, 18, 0, 15, 0
|0, 0, 0, 0, 25, 0, 6, 0, 20, 8, 1, 4, 17, 0, 13, 2, 15, 14, 0, 11, 0, 3, 23, 5, 0
|0, 22, 5, 0, 0, 0, 25, 13, 0, 11, 12, 9, 3, 0, 15, 0, 23, 0, 18, 1, 0, 0, 6, 24, 16
|17, 0, 11, 12, 6, 9, 0, 0, 0, 0, 10, 5, 16, 19, 22, 0, 24, 25, 7, 8, 0, 20, 0, 4, 14
|7, 4, 1, 0, 13, 0, 12, 16, 23, 5, 0, 2, 20, 11, 0, 0, 3, 22, 0, 9, 0, 17, 8, 10, 21
|14, 2, 0, 0, 16, 4, 18, 1, 7, 0, 6, 0, 23, 0, 8, 12, 0, 20, 17, 10, 19, 25, 9, 0, 0
|5, 3, 8, 0, 0, 12, 2, 0, 0, 0, 23, 0, 0, 25, 0, 0, 0, 0, 0, 0, 14, 4, 21, 17, 22
|0, 0, 16, 22, 15, 3, 17, 25, 0, 14, 0, 0, 11, 0, 4, 5, 21, 6, 0, 24, 18, 1, 2, 20, 23
|21, 6, 2, 4, 24, 5, 9, 20, 0, 15, 0, 17, 18, 0, 0, 14, 25, 0, 0, 12, 8, 16, 7, 3, 10
|0, 9, 12, 23, 17, 0, 22, 4, 16, 0, 21, 0, 14, 24, 10, 15, 7, 18, 20, 0, 6, 11, 25, 19, 5
|11, 25, 0, 0, 7, 0, 10, 18, 21, 6, 22, 20, 0, 8, 5, 17, 0, 0, 1, 3, 13, 0, 0, 0, 15|];