order = 5;
grid = [|23, 24, 3, 0, 0, 7, 0, 0, 0, 4, 19, 16, 0, 1, 20, 0, 0, 12, 0, 17, 11, 5, 10, 6, 8
|20, 6, 18, 17, 8, 10, 2, 1, 12, 3, 5, 21, 25, 14, 0, 13, 9, 0, 23, 7, 16, 0, 19, 15, 22
|19, 12, 7, 11, 1, 14, 0, 9, 0, 0, 0, 2, 15, 22, 0, 10, 3, 0, 6, 18, 0, 25, 0, 0, 21
|2, 0, 10, 5, 4, 0, 19, 8, 22, 0, 0, 6, 24, 17, 3, 14, 25, 20, 16, 15, 18, 0, 7, 9, 12
|0, 0, 9, 0, 25, 11, 0, 20, 21, 0, 18, 0, 7, 0, 0, 24, 19, 4, 0, 0, 13, 2, 14, 0, 3
|0, 13, 0, 8, 19, 0, 7, 24, 4, 1, 0, 10, 0, 0, 0, 18, 16, 0, 22, 0, 9, 0, 20, 21, 0
|0, 0, 14, 0, 2, 16, 0, 0, 0, 12, 9, 0, 21, 8, 1, 7, 20, 0, 0, 0, 4, 6, 22, 3, 5
|5, 1, 0, 0, 15, 13, 9, 17, 6, 10, 0, 22, 14, 20, 7, 3, 4, 8, 19, 21, 2, 18, 16, 0, 23
|21, 10, 4, 9, 16, 22, 0, 0, 0, 18, 0, 19, 0, 0, 0, 12, 11, 2, 5, 0, 7, 15, 25, 13, 1
|7, 0, 0, 0, 20, 0, 0, 0, 2, 0, 0, 18, 16, 0, 23, 1, 6, 17, 13, 9, 24, 19, 0, 8, 10
|0, 15, 20, 1, 0, 0, 0, 25, 0, 19, 0, 5, 8, 2, 9, 0, 17, 0, 7, 0, 6, 3, 4, 23, 0
|16, 25, 8, 18, 3, 4, 24, 2, 0, 9, 0, 0, 0, 11, 19, 6, 0, 0, 21, 22, 17, 12, 5, 1, 7
|9, 5, 0, 0, 21, 18, 1, 13, 0, 0, 7, 14, 0, 24, 0, 0, 23, 0, 3, 4, 8, 22, 15, 0, 2
|12, 7, 24, 19, 11, 0, 17, 0, 3, 22, 23, 0, 18, 0, 16, 5, 2, 15, 9, 0, 14, 0, 13, 20, 25
|0, 2, 0, 4, 23, 0, 0, 6, 16, 7, 0, 1, 3, 0, 17, 20, 8, 13, 24, 12, 0, 11, 0, 10, 18
|13, 17, 1, 25, 5, 2, 20, 19, 9, 24, 14, 3, 0, 0, 11, 23, 0, 7, 8, 6, 21, 4, 18, 12, 16
|18, 0, 6, 16, 0, 17, 0, 14, 0, 15, 0, 25, 0, 9, 0, 0, 0, 1, 0, 0, 3, 7, 8, 0, 13
|0, 0, 15, 0, 10, 1, 13, 12, 7, 11, 0, 17, 2, 16, 0, 22, 0, 3, 20, 0, 0, 0, 0, 0, 9
|11, 14, 0, 0, 22, 25, 0, 21, 5, 0, 13, 0, 23, 0, 0, 0, 0, 0, 4, 0, 1, 17, 2, 0, 0
|3, 0, 0, 20, 12, 6, 0, 0, 18, 23, 1, 7, 5, 19, 8, 0, 13, 0, 25, 24, 0, 10, 11, 14, 15
|0, 3, 16, 15, 0, 21, 10, 0, 13, 2, 6, 9, 0, 23, 22, 25, 24, 19, 0, 20, 5, 8, 1, 18, 14
|24, 0, 5, 0, 9, 20, 23, 18, 15, 25, 10, 11, 0, 7, 2, 4, 1, 16, 0, 3, 12, 13, 21, 22, 6
|25, 11, 0, 0, 0, 19, 0, 22, 0, 0, 0, 24, 20, 18, 0, 8, 21, 9, 10, 13, 15, 16, 17, 2, 4
|0, 19, 0, 2, 18, 0, 12, 3, 17, 16, 0, 8, 0, 4, 5, 15, 7, 6, 0, 23, 10, 0, 24, 0, 11
|1, 20, 21, 0, 6, 0, 11, 4, 8, 0, 0, 15, 17, 13, 25, 2, 12, 22, 18, 5, 23, 0, 3, 7, 19|];