order = 5;
grid = [|3, 0, 24, 16, 13, 0, 0, 1, 0, 0, 7, 20, 5, 15, 9, 0, 0, 0, 11, 0, 17, 0, 6, 0, 18
|0, 5, 21, 7, 25, 0, 12, 22, 3, 20, 11, 23, 14, 18, 0, 0, 13, 17, 24, 0, 0, 0, 0, 8, 19
|15, 20, 2, 9, 17, 0, 11, 13, 6, 19, 24, 22, 0, 0, 0, 10, 18, 0, 7, 3, 14, 23, 0, 0, 25
|0, 4, 23, 12, 0, 14, 17, 18, 16, 9, 19, 6, 13, 25, 0, 21, 5, 1, 15, 2, 24, 0, 0, 0, 3
|6, 10, 0, 14, 11, 15, 0, 0, 0, 24, 17, 4, 0, 2, 8, 0, 19, 23, 0, 12, 21, 16, 1, 13, 9
|5, 0, 0, 25, 9, 12, 15, 17, 0, 2, 18, 10, 11, 21, 0, 7, 1, 0, 3, 0, 23, 0, 4, 14, 0
|0, 24, 4, 0, 0, 11, 22, 3, 0, 25, 0, 0, 0, 0, 15, 17, 21, 12, 14, 5, 19, 20, 2, 16, 13
|2, 0, 1, 0, 23, 0, 9, 21, 0, 16, 20, 0, 7, 0, 13, 0, 0, 19, 25, 4, 5, 0, 0, 0, 15
|21, 14, 17, 10, 19, 6, 1, 0, 24, 0, 25, 5, 16, 0, 22, 15, 23, 0, 0, 0, 9, 12, 8, 3, 11
|16, 0, 20, 0, 0, 5, 0, 0, 0, 8, 0, 3, 17, 14, 24, 13, 22, 9, 6, 10, 25, 0, 18, 0, 0
|23, 12, 5, 0, 21, 24, 0, 20, 1, 6, 0, 15, 19, 0, 4, 9, 11, 3, 0, 25, 0, 0, 0, 0, 14
|9, 0, 0, 24, 0, 0, 25, 0, 0, 3, 6, 14, 18, 12, 2, 8, 10, 20, 0, 0, 16, 4, 11, 0, 1
|0, 1, 7, 20, 16, 2, 0, 10, 17, 5, 8, 0, 9, 0, 0, 18, 0, 15, 13, 14, 12, 25, 24, 23, 6
|19, 25, 3, 8, 6, 22, 18, 0, 12, 14, 10, 0, 0, 7, 11, 0, 2, 0, 1, 17, 20, 9, 13, 15, 21
|13, 18, 0, 4, 10, 7, 8, 0, 15, 0, 5, 1, 20, 24, 0, 16, 6, 21, 12, 23, 3, 19, 22, 17, 2
|0, 0, 16, 1, 3, 0, 4, 5, 9, 10, 22, 19, 12, 23, 6, 20, 7, 13, 0, 15, 0, 17, 0, 18, 24
|25, 23, 9, 21, 0, 16, 20, 15, 13, 7, 0, 0, 4, 5, 18, 0, 12, 0, 17, 0, 22, 3, 14, 0, 8
|8, 6, 10, 0, 0, 1, 21, 12, 0, 22, 3, 17, 25, 16, 7, 4, 0, 2, 18, 0, 13, 11, 19, 9, 20
|20, 0, 19, 17, 2, 3, 24, 0, 8, 18, 0, 0, 10, 11, 0, 1, 16, 0, 23, 22, 4, 5, 7, 6, 12
|4, 7, 12, 22, 18, 19, 0, 6, 11, 17, 0, 0, 24, 0, 20, 5, 3, 10, 9, 21, 15, 0, 16, 0, 23
|10, 9, 22, 0, 4, 0, 6, 2, 18, 0, 16, 24, 8, 3, 0, 0, 0, 11, 5, 19, 0, 0, 0, 21, 17
|12, 2, 11, 23, 14, 20, 3, 8, 0, 0, 4, 18, 6, 10, 17, 0, 15, 22, 16, 0, 1, 24, 9, 19, 5
|24, 21, 0, 0, 15, 0, 13, 11, 22, 4, 12, 25, 2, 19, 0, 3, 17, 7, 10, 0, 8, 14, 23, 20, 16
|7, 16, 8, 19, 20, 17, 5, 24, 0, 12, 0, 0, 15, 13, 23, 2, 0, 0, 4, 1, 0, 18, 3, 0, 0
|17, 3, 25, 0, 1, 0, 14, 0, 19, 15, 9, 7, 22, 0, 0, 23, 24, 8, 0, 6, 11, 13, 12, 0, 4|];