order = 5;
grid = [|25, 21, 14, 0, 5, 0, 8, 17, 0, 0, 2, 16, 6, 9, 7, 18, 0, 11, 0, 20, 22, 10, 0, 0, 12
|2, 0, 0, 19, 8, 14, 0, 0, 21, 0, 5, 0, 12, 17, 24, 0, 0, 0, 7, 3, 0, 9, 25, 20, 13
|10, 0, 7, 18, 1, 24, 5, 15, 12, 0, 23, 20, 0, 4, 0, 6, 0, 0, 25, 0, 8, 19, 0, 11, 17
|0, 0, 9, 0, 24, 23, 20, 0, 0, 7, 1, 8, 0, 15, 18, 0, 12, 10, 5, 17, 14, 0, 3, 0, 16
|12, 20, 3, 0, 22, 16, 6, 0, 0, 1, 25, 10, 0, 0, 14, 19, 15, 8, 9, 4, 7, 0, 18, 5, 23
|21, 0, 18, 23, 12, 8, 24, 0, 0, 0, 0, 1, 25, 5, 16, 0, 10, 9, 4, 22, 17, 2, 7, 0, 20
|20, 7, 6, 0, 0, 10, 15, 0, 1, 22, 13, 0, 0, 3, 19, 14, 0, 25, 0, 11, 0, 0, 0, 23, 24
|17, 8, 0, 24, 4, 20, 14, 12, 0, 11, 6, 7, 9, 18, 23, 0, 16, 21, 15, 2, 3, 0, 0, 13, 0
|0, 1, 10, 0, 3, 9, 16, 5, 4, 17, 22, 0, 24, 0, 0, 12, 8, 7, 0, 13, 0, 18, 6, 21, 0
|15, 5, 13, 22, 0, 18, 7, 3, 0, 23, 17, 12, 0, 21, 10, 24, 6, 1, 20, 19, 9, 0, 4, 14, 0
|0, 19, 20, 12, 14, 0, 0, 23, 5, 10, 0, 24, 17, 25, 0, 0, 7, 4, 2, 0, 0, 16, 0, 3, 0
|0, 18, 24, 0, 0, 12, 25, 4, 6, 0, 16, 0, 22, 10, 15, 1, 17, 19, 14, 21, 20, 23, 8, 0, 0
|16, 10, 17, 2, 9, 15, 0, 0, 0, 0, 0, 0, 1, 7, 4, 25, 24, 20, 0, 0, 11, 5, 13, 0, 19
|1, 15, 25, 0, 0, 3, 19, 20, 7, 2, 0, 5, 13, 0, 8, 9, 22, 16, 0, 18, 24, 4, 0, 12, 14
|0, 4, 21, 8, 13, 17, 0, 1, 24, 16, 0, 19, 0, 14, 9, 15, 5, 12, 11, 0, 10, 25, 2, 18, 6
|0, 0, 12, 0, 25, 0, 2, 14, 0, 20, 8, 0, 16, 6, 11, 23, 21, 15, 1, 7, 0, 3, 5, 0, 0
|19, 3, 15, 7, 0, 25, 11, 22, 17, 24, 10, 18, 0, 0, 0, 0, 0, 0, 0, 9, 23, 14, 0, 6, 1
|9, 14, 0, 11, 10, 0, 0, 13, 16, 6, 7, 3, 0, 22, 0, 4, 25, 0, 0, 0, 2, 0, 0, 24, 8
|8, 23, 22, 0, 0, 4, 3, 9, 18, 0, 19, 0, 0, 1, 2, 20, 11, 0, 0, 0, 21, 0, 10, 25, 0
|0, 0, 5, 20, 17, 0, 0, 8, 15, 21, 24, 14, 0, 12, 25, 22, 19, 3, 6, 0, 18, 13, 11, 16, 9
|13, 0, 8, 5, 18, 0, 0, 0, 23, 4, 20, 0, 0, 16, 12, 2, 0, 24, 19, 15, 25, 22, 14, 1, 3
|6, 22, 11, 14, 20, 2, 17, 7, 0, 15, 4, 25, 18, 23, 0, 10, 3, 13, 8, 16, 12, 21, 24, 0, 5
|0, 9, 4, 21, 0, 1, 18, 0, 0, 25, 15, 22, 10, 8, 3, 0, 0, 6, 12, 5, 13, 17, 0, 0, 2
|23, 25, 16, 10, 7, 22, 12, 24, 0, 14, 11, 13, 2, 19, 5, 0, 20, 18, 21, 0, 6, 0, 0, 8, 0
|0, 12, 2, 1, 15, 0, 0, 19, 0, 5, 9, 21, 0, 24, 17, 7, 0, 23, 22, 25, 16, 0, 20, 10, 0|];