order = 5;
grid = [|0, 0, 3, 0, 1, 11, 16, 10, 20, 18, 5, 0, 0, 17, 23, 8, 22, 14, 13, 19, 4, 6, 0, 0, 0
|6, 8, 10, 9, 0, 0, 0, 0, 1, 0, 0, 0, 0, 13, 4, 23, 0, 0, 2, 12, 0, 22, 16, 0, 7
|0, 17, 16, 0, 0, 7, 3, 22, 14, 2, 19, 18, 8, 25, 9, 0, 6, 24, 11, 10, 15, 0, 1, 13, 20
|13, 0, 0, 0, 0, 8, 4, 15, 21, 6, 3, 20, 0, 16, 0, 0, 0, 0, 0, 7, 24, 23, 12, 2, 14
|4, 0, 0, 24, 14, 13, 12, 0, 9, 23, 22, 2, 7, 6, 21, 0, 1, 15, 18, 0, 19, 17, 0, 11, 0
|14, 11, 13, 5, 6, 24, 18, 0, 25, 9, 0, 8, 0, 21, 3, 17, 15, 1, 10, 22, 2, 12, 0, 19, 0
|18, 24, 2, 0, 3, 22, 6, 8, 0, 10, 1, 13, 20, 11, 12, 21, 9, 7, 16, 0, 17, 15, 5, 14, 23
|22, 0, 0, 19, 16, 4, 20, 1, 2, 17, 0, 6, 14, 10, 25, 18, 0, 23, 12, 5, 11, 7, 8, 21, 0
|0, 20, 0, 10, 0, 0, 0, 23, 12, 14, 0, 0, 17, 18, 0, 0, 19, 11, 8, 0, 22, 0, 13, 6, 9
|23, 12, 0, 0, 17, 15, 0, 13, 16, 11, 9, 7, 0, 0, 22, 0, 14, 3, 20, 6, 25, 18, 24, 10, 4
|1, 0, 24, 25, 13, 0, 7, 16, 0, 19, 17, 5, 0, 0, 20, 0, 0, 22, 6, 14, 21, 11, 0, 23, 0
|0, 0, 0, 15, 22, 20, 0, 0, 11, 3, 6, 1, 0, 23, 0, 0, 2, 0, 24, 21, 7, 25, 4, 0, 17
|16, 0, 0, 23, 18, 6, 14, 2, 5, 24, 15, 0, 25, 0, 11, 20, 10, 0, 9, 17, 13, 0, 0, 1, 12
|0, 3, 4, 20, 8, 23, 25, 17, 22, 13, 21, 24, 18, 14, 16, 5, 11, 12, 7, 1, 10, 0, 6, 15, 0
|17, 10, 12, 0, 0, 0, 0, 18, 15, 0, 7, 4, 0, 9, 0, 19, 0, 0, 0, 0, 20, 0, 0, 22, 5
|0, 4, 22, 0, 5, 1, 17, 0, 18, 0, 12, 16, 3, 0, 6, 10, 23, 2, 21, 0, 0, 0, 25, 8, 15
|8, 13, 18, 17, 15, 9, 24, 3, 6, 12, 0, 21, 22, 2, 5, 0, 20, 19, 14, 16, 0, 0, 0, 0, 10
|24, 23, 0, 0, 0, 5, 0, 21, 8, 25, 0, 0, 4, 0, 15, 22, 7, 0, 1, 18, 0, 0, 0, 0, 19
|11, 21, 25, 16, 2, 0, 23, 0, 10, 15, 18, 17, 9, 7, 0, 3, 24, 8, 4, 13, 0, 20, 0, 0, 6
|0, 1, 9, 0, 20, 0, 22, 4, 7, 0, 23, 19, 13, 8, 14, 0, 0, 5, 25, 15, 18, 21, 17, 0, 0
|0, 22, 23, 0, 10, 14, 15, 19, 3, 1, 2, 25, 6, 4, 0, 9, 0, 13, 5, 11, 8, 16, 0, 0, 24
|3, 6, 17, 0, 24, 16, 10, 20, 0, 22, 0, 0, 5, 12, 18, 7, 4, 0, 15, 0, 23, 0, 0, 25, 1
|0, 16, 5, 13, 0, 18, 8, 6, 23, 7, 10, 0, 11, 22, 17, 0, 3, 25, 19, 0, 0, 0, 15, 12, 0
|2, 14, 0, 18, 9, 0, 11, 5, 0, 4, 0, 0, 0, 15, 19, 0, 0, 10, 22, 0, 0, 3, 7, 17, 13
|0, 0, 19, 8, 7, 12, 2, 9, 17, 0, 13, 3, 16, 1, 0, 0, 18, 0, 0, 20, 0, 0, 11, 4, 22|];