order = 5;
grid = [|5, 8, 23, 15, 20, 0, 22, 0, 10, 0, 12, 0, 7, 0, 2, 9, 0, 0, 1, 11, 24, 6, 13, 21, 25
|24, 21, 0, 0, 2, 5, 0, 0, 0, 0, 25, 0, 15, 14, 11, 23, 17, 0, 13, 10, 4, 12, 0, 3, 7
|9, 0, 17, 3, 0, 11, 0, 13, 15, 1, 0, 23, 18, 19, 22, 0, 0, 7, 0, 0, 5, 2, 20, 0, 10
|10, 13, 0, 11, 19, 0, 12, 7, 0, 0, 4, 5, 1, 0, 6, 2, 8, 0, 0, 20, 9, 15, 0, 14, 23
|0, 4, 7, 0, 1, 2, 18, 3, 20, 23, 9, 0, 8, 10, 21, 24, 6, 0, 12, 5, 16, 0, 11, 19, 22
|22, 20, 6, 0, 25, 0, 1, 0, 4, 8, 0, 18, 12, 0, 14, 7, 23, 13, 0, 15, 0, 5, 0, 9, 0
|11, 19, 0, 2, 24, 12, 21, 0, 0, 15, 23, 4, 3, 9, 0, 22, 0, 16, 5, 0, 20, 1, 17, 0, 18
|12, 3, 0, 4, 0, 23, 20, 0, 11, 0, 21, 17, 13, 0, 5, 0, 1, 0, 6, 14, 15, 0, 22, 25, 0
|1, 15, 8, 5, 0, 7, 9, 0, 13, 0, 0, 0, 10, 6, 25, 11, 0, 21, 19, 0, 2, 14, 0, 4, 3
|17, 18, 9, 13, 21, 22, 16, 10, 14, 0, 0, 15, 20, 0, 1, 25, 3, 12, 24, 4, 7, 0, 0, 11, 19
|2, 14, 24, 20, 0, 9, 4, 15, 22, 11, 3, 12, 19, 5, 18, 16, 13, 10, 23, 7, 6, 21, 0, 0, 17
|0, 22, 0, 7, 15, 0, 0, 12, 0, 6, 17, 0, 2, 23, 20, 21, 14, 1, 9, 18, 13, 10, 19, 16, 0
|21, 25, 5, 0, 16, 10, 3, 0, 7, 0, 0, 0, 0, 4, 0, 0, 11, 20, 17, 19, 0, 8, 9, 2, 12
|0, 23, 18, 10, 17, 14, 0, 1, 5, 16, 0, 7, 0, 21, 8, 12, 15, 25, 4, 2, 11, 24, 3, 0, 0
|6, 9, 0, 19, 12, 21, 23, 20, 0, 0, 0, 10, 16, 25, 0, 0, 22, 0, 8, 24, 0, 7, 4, 0, 14
|16, 1, 25, 0, 9, 15, 2, 0, 18, 20, 5, 8, 0, 0, 3, 14, 24, 17, 0, 0, 22, 0, 0, 7, 11
|15, 5, 3, 24, 4, 13, 8, 0, 16, 10, 20, 2, 0, 0, 23, 1, 0, 18, 11, 0, 17, 19, 14, 12, 21
|14, 17, 13, 0, 10, 4, 7, 0, 0, 25, 18, 21, 11, 0, 16, 3, 0, 6, 0, 23, 0, 20, 2, 24, 0
|19, 0, 12, 23, 11, 0, 17, 0, 0, 14, 0, 24, 25, 15, 10, 20, 0, 8, 7, 9, 0, 18, 5, 0, 16
|20, 0, 21, 8, 18, 6, 0, 11, 0, 3, 14, 19, 17, 22, 9, 0, 0, 0, 16, 12, 0, 0, 15, 10, 4
|0, 0, 20, 25, 5, 18, 15, 14, 0, 22, 10, 6, 23, 0, 0, 8, 2, 4, 0, 3, 0, 11, 16, 0, 1
|0, 6, 1, 0, 0, 20, 11, 8, 19, 4, 15, 16, 5, 3, 17, 10, 12, 24, 14, 25, 21, 0, 0, 18, 2
|18, 10, 15, 12, 3, 0, 13, 21, 2, 0, 11, 25, 14, 20, 24, 17, 9, 5, 22, 1, 19, 4, 8, 23, 6
|4, 0, 19, 21, 14, 0, 0, 0, 1, 24, 0, 0, 22, 8, 12, 0, 7, 11, 0, 6, 25, 3, 10, 0, 13
|8, 11, 0, 17, 22, 25, 10, 0, 3, 12, 7, 1, 21, 0, 4, 19, 0, 23, 20, 13, 14, 9, 0, 0, 15|];