order = 5;
grid = [|16, 20, 3, 1, 19, 0, 7, 18, 12, 0, 0, 10, 0, 0, 2, 9, 21, 15, 0, 0, 0, 22, 8, 17, 0
|0, 15, 13, 8, 18, 10, 23, 0, 0, 14, 1, 9, 0, 21, 22, 0, 7, 6, 12, 0, 0, 4, 24, 0, 2
|2, 0, 0, 9, 10, 15, 19, 11, 8, 3, 16, 7, 0, 0, 13, 24, 0, 22, 5, 0, 0, 12, 0, 21, 20
|0, 22, 7, 25, 0, 0, 13, 6, 9, 16, 0, 11, 23, 17, 0, 2, 1, 0, 3, 18, 0, 10, 14, 15, 5
|0, 14, 23, 0, 21, 17, 0, 2, 1, 22, 8, 0, 0, 12, 15, 0, 20, 11, 0, 16, 9, 7, 13, 25, 18
|3, 23, 9, 14, 15, 4, 8, 0, 0, 6, 19, 13, 0, 0, 16, 5, 25, 2, 7, 12, 0, 0, 0, 22, 1
|25, 0, 20, 19, 0, 11, 0, 0, 16, 0, 10, 5, 6, 14, 12, 4, 17, 24, 0, 21, 0, 3, 2, 7, 9
|0, 0, 10, 0, 17, 25, 12, 0, 5, 0, 22, 0, 2, 7, 23, 18, 13, 1, 0, 0, 8, 0, 16, 19, 0
|0, 12, 16, 21, 11, 19, 2, 9, 7, 0, 17, 0, 20, 0, 8, 3, 22, 0, 0, 10, 4, 18, 5, 0, 6
|13, 2, 0, 7, 0, 0, 17, 0, 14, 24, 0, 0, 15, 0, 0, 0, 6, 0, 16, 0, 10, 21, 25, 0, 0
|7, 11, 2, 17, 3, 14, 9, 19, 6, 12, 13, 18, 0, 0, 21, 15, 0, 0, 20, 0, 0, 16, 0, 10, 8
|18, 1, 8, 13, 5, 0, 21, 16, 0, 10, 0, 14, 11, 15, 0, 25, 4, 12, 19, 6, 0, 23, 9, 20, 22
|0, 21, 0, 16, 0, 0, 15, 13, 0, 0, 23, 0, 19, 0, 0, 1, 9, 10, 18, 0, 6, 0, 12, 14, 11
|14, 9, 6, 10, 0, 24, 18, 5, 23, 0, 4, 0, 0, 0, 0, 11, 0, 3, 22, 0, 7, 19, 15, 1, 21
|20, 19, 25, 15, 23, 7, 0, 1, 0, 11, 5, 12, 10, 6, 9, 16, 14, 21, 0, 8, 0, 13, 3, 2, 24
|5, 13, 0, 20, 6, 1, 22, 25, 15, 0, 18, 4, 21, 3, 0, 0, 16, 23, 24, 0, 2, 8, 0, 12, 10
|21, 0, 11, 0, 2, 0, 10, 12, 18, 0, 24, 15, 16, 19, 5, 0, 8, 25, 6, 0, 23, 14, 22, 0, 4
|23, 25, 0, 22, 14, 0, 0, 17, 4, 0, 2, 0, 0, 0, 10, 13, 5, 7, 11, 0, 20, 9, 21, 0, 0
|0, 10, 0, 4, 1, 2, 0, 8, 24, 0, 0, 0, 13, 23, 0, 12, 0, 0, 21, 22, 16, 25, 19, 6, 17
|17, 8, 24, 12, 16, 0, 3, 21, 0, 23, 0, 6, 22, 9, 0, 20, 19, 4, 10, 2, 15, 0, 18, 5, 0
|0, 6, 21, 11, 0, 22, 20, 24, 10, 1, 3, 2, 0, 5, 0, 7, 15, 0, 14, 4, 12, 17, 23, 8, 13
|0, 0, 0, 2, 7, 0, 11, 14, 13, 18, 12, 16, 0, 1, 0, 8, 10, 17, 25, 3, 21, 6, 0, 9, 0
|8, 3, 12, 24, 20, 9, 16, 15, 17, 21, 14, 23, 0, 0, 25, 6, 18, 13, 2, 5, 22, 11, 1, 4, 19
|15, 0, 1, 0, 13, 0, 0, 0, 19, 8, 21, 17, 4, 20, 6, 0, 0, 9, 23, 24, 14, 2, 10, 0, 25
|0, 17, 0, 23, 9, 6, 25, 4, 3, 0, 0, 22, 8, 0, 11, 21, 0, 0, 0, 19, 0, 0, 7, 18, 16|];