order = 5;
grid = [|4, 0, 15, 8, 0, 22, 20, 10, 0, 0, 24, 0, 0, 16, 0, 0, 14, 0, 13, 2, 5, 11, 9, 12, 0
|0, 13, 0, 17, 22, 4, 0, 16, 0, 2, 0, 0, 20, 0, 3, 9, 15, 6, 5, 0, 0, 0, 1, 8, 25
|2, 25, 3, 0, 23, 14, 5, 19, 0, 0, 15, 8, 0, 9, 6, 22, 16, 0, 0, 12, 21, 7, 20, 24, 4
|1, 19, 11, 24, 0, 3, 0, 17, 0, 0, 4, 0, 13, 5, 21, 23, 7, 0, 10, 0, 0, 16, 22, 6, 2
|5, 20, 16, 14, 9, 21, 8, 15, 1, 6, 22, 0, 12, 0, 2, 11, 0, 18, 24, 25, 0, 19, 3, 0, 13
|13, 11, 0, 22, 15, 6, 0, 18, 24, 10, 16, 5, 4, 0, 0, 0, 1, 21, 25, 19, 20, 3, 12, 23, 8
|10, 23, 12, 20, 0, 25, 0, 2, 14, 3, 19, 6, 24, 21, 0, 18, 8, 13, 9, 0, 0, 5, 0, 7, 22
|16, 9, 24, 2, 0, 0, 21, 5, 13, 8, 0, 18, 0, 0, 11, 17, 3, 22, 20, 6, 10, 4, 0, 1, 15
|18, 8, 6, 1, 7, 0, 22, 0, 0, 0, 20, 0, 3, 13, 10, 4, 5, 24, 12, 23, 14, 0, 2, 17, 0
|3, 21, 25, 5, 0, 7, 0, 0, 12, 20, 17, 15, 0, 0, 23, 14, 2, 10, 11, 16, 9, 6, 13, 18, 24
|6, 16, 10, 12, 3, 1, 0, 0, 8, 23, 14, 0, 0, 24, 5, 0, 9, 20, 22, 18, 0, 0, 0, 11, 17
|0, 2, 0, 18, 0, 0, 0, 12, 21, 0, 10, 1, 8, 3, 15, 25, 17, 0, 7, 0, 0, 20, 24, 0, 0
|0, 15, 8, 21, 20, 5, 2, 0, 0, 14, 9, 11, 16, 0, 22, 19, 6, 0, 0, 24, 0, 18, 23, 25, 10
|17, 22, 1, 0, 0, 24, 0, 3, 0, 4, 0, 19, 0, 7, 20, 16, 10, 12, 15, 13, 0, 0, 14, 21, 5
|14, 4, 0, 9, 0, 15, 10, 0, 20, 19, 0, 0, 21, 0, 17, 2, 11, 23, 3, 8, 7, 12, 6, 16, 1
|23, 7, 2, 0, 0, 12, 14, 11, 0, 24, 0, 9, 0, 0, 16, 20, 22, 3, 21, 4, 0, 0, 18, 13, 6
|20, 5, 13, 15, 6, 0, 3, 8, 0, 18, 25, 23, 11, 22, 7, 24, 12, 2, 0, 0, 16, 0, 21, 0, 14
|22, 10, 0, 11, 0, 19, 23, 21, 6, 17, 2, 0, 14, 20, 8, 5, 13, 16, 18, 0, 25, 0, 7, 15, 3
|0, 17, 9, 16, 8, 13, 1, 20, 4, 0, 21, 0, 5, 0, 0, 6, 25, 15, 0, 7, 12, 23, 0, 2, 0
|21, 1, 18, 3, 0, 0, 15, 0, 7, 0, 13, 0, 17, 6, 0, 10, 23, 11, 8, 0, 24, 22, 5, 0, 0
|11, 14, 21, 23, 16, 8, 12, 0, 15, 1, 3, 0, 0, 4, 18, 13, 0, 0, 0, 0, 22, 25, 0, 0, 7
|0, 24, 17, 0, 5, 18, 13, 6, 19, 0, 8, 22, 9, 1, 12, 15, 20, 0, 2, 0, 0, 0, 11, 14, 0
|9, 0, 0, 0, 0, 10, 16, 14, 22, 25, 23, 21, 19, 15, 13, 12, 0, 4, 17, 11, 6, 2, 8, 5, 18
|15, 18, 19, 13, 10, 17, 7, 23, 2, 9, 5, 0, 0, 11, 14, 8, 0, 25, 16, 22, 1, 0, 0, 3, 12
|8, 12, 0, 6, 2, 20, 11, 4, 3, 5, 0, 16, 0, 17, 0, 1, 0, 14, 23, 10, 19, 13, 15, 9, 0|];