order = 5;
grid = [|0, 11, 0, 0, 1, 18, 0, 17, 16, 13, 5, 3, 14, 23, 2, 15, 6, 0, 7, 24, 20, 0, 0, 10, 8
|13, 0, 6, 21, 2, 4, 19, 25, 23, 5, 18, 7, 0, 8, 20, 14, 11, 22, 1, 12, 3, 9, 24, 0, 17
|0, 0, 15, 23, 14, 21, 0, 10, 24, 20, 11, 16, 0, 0, 6, 9, 0, 18, 0, 19, 0, 1, 4, 22, 5
|5, 19, 22, 24, 17, 7, 0, 6, 9, 14, 1, 21, 25, 0, 15, 0, 0, 0, 0, 20, 0, 0, 23, 12, 0
|8, 10, 20, 3, 18, 0, 0, 0, 2, 0, 22, 0, 0, 0, 19, 13, 23, 0, 17, 0, 7, 14, 0, 16, 0
|22, 0, 16, 19, 6, 24, 11, 0, 0, 0, 12, 23, 0, 0, 9, 1, 0, 3, 25, 0, 0, 2, 7, 0, 18
|0, 3, 13, 11, 7, 5, 0, 8, 0, 9, 19, 0, 16, 2, 4, 12, 18, 0, 24, 0, 6, 22, 10, 1, 25
|17, 0, 14, 15, 10, 1, 4, 0, 19, 0, 0, 24, 3, 11, 0, 7, 22, 5, 2, 16, 23, 20, 8, 0, 9
|18, 23, 0, 0, 24, 3, 14, 0, 7, 16, 20, 22, 13, 10, 1, 8, 21, 4, 11, 6, 5, 0, 19, 17, 15
|0, 5, 8, 1, 4, 0, 25, 20, 22, 10, 0, 0, 17, 18, 14, 0, 9, 19, 0, 15, 24, 0, 21, 0, 16
|11, 0, 24, 0, 12, 6, 15, 0, 18, 0, 0, 8, 20, 4, 0, 16, 0, 0, 0, 9, 21, 25, 3, 23, 1
|19, 2, 4, 14, 20, 9, 0, 0, 12, 8, 15, 0, 0, 0, 11, 5, 10, 24, 0, 0, 16, 17, 0, 18, 6
|21, 9, 25, 0, 0, 0, 13, 0, 10, 0, 0, 19, 0, 6, 22, 18, 15, 12, 3, 4, 11, 7, 0, 0, 24
|0, 6, 18, 17, 5, 25, 0, 0, 0, 0, 13, 14, 1, 9, 0, 0, 7, 23, 20, 0, 0, 15, 22, 0, 12
|0, 0, 0, 0, 0, 0, 24, 7, 14, 22, 16, 18, 0, 21, 12, 11, 0, 2, 6, 25, 8, 10, 9, 0, 4
|6, 20, 23, 0, 16, 11, 10, 0, 1, 3, 2, 17, 19, 12, 0, 24, 8, 0, 9, 18, 22, 21, 15, 0, 13
|7, 24, 11, 0, 0, 0, 9, 0, 0, 12, 0, 13, 23, 22, 0, 0, 14, 1, 21, 3, 0, 0, 17, 0, 0
|0, 17, 5, 0, 19, 0, 18, 4, 13, 0, 14, 11, 21, 20, 7, 10, 0, 15, 0, 2, 1, 3, 12, 6, 0
|0, 18, 10, 12, 15, 2, 0, 21, 25, 7, 3, 4, 0, 1, 8, 0, 13, 0, 0, 23, 0, 5, 16, 11, 20
|3, 13, 0, 8, 0, 0, 6, 0, 20, 23, 9, 0, 15, 16, 0, 0, 0, 11, 12, 0, 0, 0, 2, 14, 0
|0, 25, 21, 18, 3, 17, 20, 9, 0, 19, 4, 5, 22, 14, 0, 0, 1, 8, 0, 7, 12, 23, 11, 24, 0
|24, 4, 0, 20, 0, 14, 7, 0, 0, 25, 0, 1, 0, 15, 23, 17, 3, 0, 0, 22, 0, 13, 0, 8, 19
|23, 14, 0, 5, 0, 0, 1, 0, 3, 0, 8, 0, 6, 25, 10, 2, 4, 20, 0, 11, 17, 16, 0, 7, 0
|15, 1, 17, 6, 13, 0, 5, 22, 0, 18, 0, 2, 0, 7, 0, 19, 12, 0, 0, 21, 25, 0, 20, 9, 3
|0, 8, 7, 0, 0, 23, 2, 16, 0, 4, 17, 20, 18, 19, 3, 25, 24, 0, 0, 13, 0, 6, 0, 21, 14|];