order = 5;
grid = [|12, 0, 3, 10, 18, 0, 20, 5, 13, 0, 0, 21, 22, 2, 0, 0, 0, 9, 17, 0, 0, 0, 24, 19, 0
|1, 19, 13, 8, 25, 24, 9, 12, 0, 7, 0, 11, 0, 0, 10, 0, 16, 22, 14, 0, 0, 0, 0, 3, 0
|15, 0, 0, 21, 0, 11, 25, 3, 0, 16, 0, 13, 0, 7, 17, 24, 10, 6, 0, 4, 9, 12, 14, 5, 20
|6, 0, 11, 5, 0, 10, 4, 17, 19, 2, 24, 0, 0, 25, 12, 18, 0, 1, 3, 21, 16, 0, 7, 22, 0
|16, 24, 7, 17, 20, 0, 22, 15, 18, 0, 19, 4, 0, 9, 3, 12, 13, 11, 2, 5, 0, 21, 0, 23, 1
|0, 0, 5, 18, 0, 21, 19, 0, 17, 20, 22, 2, 7, 1, 23, 3, 9, 8, 6, 0, 11, 15, 12, 16, 25
|17, 23, 0, 24, 0, 0, 0, 7, 14, 5, 9, 15, 19, 0, 20, 10, 18, 25, 12, 11, 3, 0, 22, 0, 0
|0, 15, 2, 0, 22, 9, 3, 25, 6, 12, 0, 18, 0, 14, 13, 1, 4, 21, 16, 17, 23, 5, 19, 10, 24
|10, 6, 0, 3, 1, 23, 16, 22, 0, 24, 21, 5, 25, 12, 4, 14, 7, 19, 15, 0, 18, 9, 13, 17, 0
|11, 0, 25, 19, 0, 4, 0, 18, 15, 1, 3, 24, 17, 0, 16, 22, 23, 5, 0, 2, 14, 7, 20, 0, 6
|2, 21, 16, 20, 19, 18, 24, 13, 10, 9, 23, 0, 12, 11, 1, 15, 5, 7, 0, 14, 8, 4, 17, 6, 3
|13, 7, 6, 22, 0, 17, 1, 11, 16, 0, 14, 0, 0, 4, 8, 19, 3, 0, 21, 12, 24, 23, 0, 9, 10
|0, 1, 9, 0, 0, 0, 2, 8, 20, 0, 15, 7, 10, 0, 19, 0, 22, 23, 18, 6, 5, 0, 0, 11, 0
|25, 17, 15, 0, 8, 7, 21, 0, 5, 3, 0, 0, 0, 0, 18, 4, 0, 0, 11, 0, 19, 22, 2, 12, 0
|18, 0, 10, 0, 4, 6, 0, 0, 22, 0, 17, 3, 9, 0, 21, 2, 24, 13, 8, 16, 25, 0, 1, 7, 15
|21, 0, 20, 4, 7, 3, 6, 2, 12, 10, 25, 14, 16, 0, 0, 0, 17, 15, 0, 0, 0, 11, 23, 8, 0
|5, 0, 17, 9, 12, 13, 15, 1, 0, 14, 11, 10, 3, 23, 24, 21, 8, 4, 20, 18, 0, 2, 6, 0, 19
|8, 3, 1, 11, 0, 22, 18, 16, 25, 21, 0, 9, 13, 0, 5, 23, 0, 2, 10, 7, 0, 24, 0, 20, 14
|23, 10, 19, 0, 24, 8, 5, 20, 9, 11, 7, 0, 1, 0, 15, 0, 14, 12, 22, 3, 0, 0, 21, 0, 16
|22, 13, 14, 0, 0, 19, 23, 0, 0, 17, 12, 8, 21, 20, 0, 6, 0, 16, 9, 1, 0, 0, 3, 18, 5
|19, 22, 23, 15, 10, 5, 0, 6, 2, 18, 13, 0, 0, 8, 0, 0, 21, 0, 0, 25, 20, 3, 9, 4, 12
|0, 25, 18, 0, 0, 0, 17, 0, 24, 8, 0, 23, 5, 22, 0, 0, 12, 3, 0, 15, 21, 1, 10, 2, 7
|0, 0, 24, 0, 0, 15, 7, 0, 1, 22, 10, 12, 4, 16, 11, 0, 2, 18, 5, 19, 17, 25, 8, 14, 0
|9, 5, 4, 0, 2, 12, 14, 21, 23, 13, 18, 19, 15, 0, 25, 0, 20, 0, 7, 10, 6, 16, 0, 24, 22
|0, 0, 12, 16, 0, 20, 0, 4, 3, 0, 0, 1, 24, 0, 9, 11, 0, 14, 23, 22, 0, 0, 5, 15, 18|];