order = 5;
grid = [|17, 2, 23, 0, 0, 0, 0, 11, 25, 6, 21, 12, 16, 14, 4, 9, 8, 20, 0, 10, 5, 22, 19, 3, 7
|1, 10, 0, 0, 6, 5, 7, 0, 4, 20, 15, 23, 17, 0, 22, 0, 14, 2, 12, 21, 24, 13, 0, 18, 25
|0, 13, 9, 5, 0, 10, 17, 14, 3, 2, 0, 1, 8, 11, 0, 0, 15, 19, 7, 0, 23, 4, 12, 0, 21
|14, 19, 25, 4, 18, 21, 8, 16, 0, 12, 20, 0, 9, 7, 0, 0, 22, 23, 0, 24, 17, 0, 6, 1, 15
|11, 21, 7, 12, 8, 15, 0, 24, 23, 19, 3, 6, 5, 13, 18, 17, 16, 4, 0, 1, 0, 14, 10, 0, 9
|8, 0, 11, 0, 25, 23, 12, 1, 22, 14, 0, 21, 24, 18, 0, 7, 2, 17, 4, 9, 0, 15, 0, 0, 0
|2, 0, 17, 0, 1, 0, 16, 6, 9, 15, 0, 8, 0, 3, 12, 20, 0, 10, 18, 11, 22, 5, 23, 21, 0
|7, 20, 24, 19, 16, 0, 2, 5, 21, 3, 0, 14, 22, 17, 1, 0, 0, 0, 15, 0, 18, 0, 9, 10, 11
|0, 9, 5, 6, 22, 20, 25, 0, 0, 8, 11, 0, 19, 16, 13, 21, 0, 14, 24, 23, 12, 7, 3, 17, 2
|23, 12, 18, 0, 21, 17, 11, 13, 0, 0, 10, 0, 4, 2, 0, 8, 5, 0, 0, 0, 0, 20, 24, 14, 0
|15, 0, 10, 18, 19, 0, 6, 0, 0, 23, 0, 7, 3, 9, 11, 0, 13, 0, 0, 0, 0, 21, 16, 24, 0
|20, 0, 13, 7, 24, 0, 10, 19, 0, 0, 18, 22, 2, 4, 21, 0, 0, 0, 0, 16, 0, 23, 1, 0, 3
|3, 22, 14, 11, 5, 0, 24, 20, 7, 0, 8, 0, 10, 0, 16, 23, 21, 9, 2, 18, 4, 6, 15, 19, 0
|12, 0, 1, 2, 4, 8, 0, 0, 11, 16, 19, 24, 15, 0, 23, 10, 20, 7, 5, 0, 0, 25, 18, 13, 14
|21, 23, 16, 0, 9, 0, 4, 17, 15, 0, 1, 13, 20, 5, 14, 24, 11, 0, 6, 19, 0, 10, 22, 0, 0
|10, 16, 22, 3, 12, 7, 0, 21, 20, 4, 13, 17, 0, 8, 5, 6, 0, 0, 19, 0, 14, 0, 2, 0, 18
|19, 0, 6, 0, 13, 16, 0, 0, 24, 11, 0, 0, 0, 0, 2, 3, 7, 22, 10, 5, 21, 0, 17, 25, 23
|25, 0, 8, 23, 7, 2, 19, 12, 10, 0, 16, 20, 14, 24, 15, 1, 4, 18, 21, 0, 3, 9, 0, 0, 6
|5, 0, 4, 21, 14, 6, 23, 18, 0, 22, 12, 19, 0, 10, 3, 2, 9, 8, 0, 13, 15, 16, 20, 7, 0
|18, 24, 0, 0, 17, 0, 3, 15, 1, 0, 22, 11, 6, 21, 7, 16, 23, 12, 0, 0, 13, 19, 0, 8, 10
|13, 5, 12, 1, 2, 19, 20, 0, 0, 10, 14, 0, 11, 25, 0, 15, 3, 21, 0, 8, 6, 0, 7, 4, 22
|16, 0, 20, 0, 23, 11, 0, 0, 0, 24, 0, 5, 0, 15, 0, 14, 18, 0, 0, 2, 10, 0, 25, 0, 0
|6, 0, 19, 14, 10, 0, 15, 25, 0, 18, 7, 3, 13, 0, 0, 12, 24, 0, 16, 20, 0, 2, 21, 23, 0
|24, 0, 15, 25, 0, 14, 13, 4, 12, 21, 2, 10, 0, 0, 8, 22, 6, 5, 23, 7, 0, 0, 11, 0, 0
|9, 8, 0, 22, 11, 3, 5, 7, 2, 17, 6, 16, 12, 0, 0, 19, 10, 25, 0, 0, 20, 0, 0, 0, 13|];