order = 5;
grid = [|25, 14, 0, 0, 16, 7, 23, 0, 20, 0, 10, 1, 5, 6, 21, 15, 0, 11, 13, 0, 9, 19, 17, 0, 22
|0, 5, 0, 1, 0, 15, 25, 24, 21, 10, 2, 0, 22, 16, 18, 3, 14, 0, 0, 0, 23, 0, 12, 0, 0
|12, 15, 10, 7, 0, 19, 6, 0, 14, 0, 0, 0, 17, 3, 0, 22, 5, 4, 16, 0, 2, 8, 21, 24, 0
|11, 0, 21, 6, 24, 13, 0, 0, 22, 0, 20, 0, 9, 4, 7, 23, 25, 1, 12, 2, 0, 0, 15, 16, 0
|4, 0, 0, 19, 18, 0, 0, 8, 1, 5, 12, 0, 15, 14, 11, 0, 10, 7, 17, 0, 6, 20, 0, 25, 13
|0, 24, 11, 13, 7, 0, 19, 15, 0, 18, 0, 21, 0, 0, 0, 12, 9, 5, 4, 17, 25, 0, 2, 0, 23
|0, 0, 6, 5, 8, 2, 20, 12, 11, 25, 9, 23, 0, 17, 10, 0, 16, 15, 22, 21, 19, 3, 14, 0, 7
|0, 12, 22, 16, 0, 9, 0, 0, 24, 8, 15, 11, 2, 19, 20, 1, 7, 23, 0, 25, 5, 18, 13, 21, 17
|3, 23, 4, 0, 0, 0, 0, 7, 17, 0, 5, 12, 18, 0, 24, 2, 0, 0, 14, 11, 0, 0, 0, 8, 15
|19, 0, 0, 15, 0, 21, 5, 0, 13, 0, 0, 22, 3, 0, 1, 8, 0, 10, 0, 20, 0, 0, 16, 9, 11
|5, 21, 2, 10, 14, 11, 15, 22, 18, 6, 0, 4, 1, 13, 25, 19, 12, 0, 0, 24, 3, 17, 0, 0, 20
|22, 11, 0, 20, 12, 4, 14, 0, 7, 24, 19, 0, 16, 15, 9, 0, 23, 3, 10, 1, 21, 0, 0, 0, 0
|0, 16, 0, 0, 6, 0, 21, 10, 0, 3, 23, 7, 24, 18, 12, 13, 17, 9, 2, 0, 15, 4, 0, 0, 0
|7, 0, 19, 9, 15, 23, 13, 16, 8, 0, 3, 14, 0, 20, 2, 0, 0, 0, 11, 4, 12, 24, 0, 6, 0
|13, 0, 24, 4, 23, 17, 12, 9, 0, 2, 0, 5, 21, 11, 6, 18, 20, 25, 8, 15, 0, 14, 7, 1, 10
|2, 0, 25, 0, 4, 3, 18, 0, 12, 13, 11, 0, 19, 22, 15, 14, 1, 21, 5, 7, 0, 0, 0, 17, 0
|15, 0, 7, 8, 19, 25, 0, 5, 0, 21, 18, 10, 0, 1, 17, 0, 13, 24, 23, 0, 4, 16, 22, 14, 0
|18, 20, 0, 11, 0, 10, 0, 0, 0, 22, 6, 0, 14, 24, 0, 17, 4, 19, 25, 16, 0, 21, 0, 0, 3
|0, 10, 0, 0, 0, 0, 24, 1, 4, 0, 21, 0, 0, 9, 5, 11, 2, 12, 15, 22, 18, 23, 0, 20, 0
|24, 1, 5, 22, 21, 14, 16, 17, 2, 7, 25, 0, 0, 23, 4, 10, 8, 18, 9, 6, 0, 15, 0, 11, 12
|10, 13, 0, 0, 0, 0, 1, 19, 0, 15, 0, 9, 8, 2, 22, 25, 18, 20, 0, 5, 0, 7, 4, 0, 21
|23, 0, 20, 0, 25, 24, 8, 0, 9, 11, 7, 15, 4, 0, 0, 16, 22, 17, 0, 10, 14, 0, 18, 0, 6
|21, 19, 8, 0, 5, 0, 0, 2, 10, 4, 1, 20, 0, 12, 0, 0, 11, 14, 0, 0, 22, 9, 23, 15, 0
|17, 7, 9, 18, 1, 0, 22, 3, 25, 14, 24, 6, 11, 21, 16, 4, 15, 8, 19, 23, 0, 13, 10, 2, 0
|6, 4, 0, 14, 0, 5, 0, 21, 16, 20, 17, 18, 0, 10, 13, 9, 3, 2, 1, 12, 0, 25, 0, 19, 0|];