order = 5;
grid = [|8, 0, 25, 22, 1, 9, 24, 20, 12, 0, 14, 6, 4, 19, 15, 13, 0, 2, 18, 23, 0, 0, 10, 0, 0
|24, 10, 9, 0, 0, 18, 0, 23, 5, 6, 17, 2, 7, 21, 12, 20, 15, 1, 22, 3, 8, 16, 14, 19, 4
|15, 20, 0, 7, 5, 21, 13, 0, 2, 1, 8, 16, 11, 18, 0, 17, 19, 4, 0, 24, 12, 22, 0, 9, 25
|0, 0, 12, 0, 6, 10, 8, 19, 4, 0, 3, 0, 1, 13, 25, 16, 9, 0, 0, 0, 0, 18, 0, 0, 24
|18, 19, 2, 4, 0, 16, 11, 0, 22, 0, 9, 20, 0, 5, 0, 14, 25, 0, 0, 12, 1, 6, 0, 7, 13
|11, 0, 23, 2, 18, 3, 6, 0, 0, 0, 0, 19, 8, 22, 4, 10, 21, 0, 25, 7, 0, 0, 12, 15, 16
|6, 13, 5, 20, 19, 7, 2, 25, 15, 18, 0, 9, 21, 3, 0, 0, 22, 0, 12, 8, 4, 0, 17, 0, 0
|25, 3, 1, 8, 10, 22, 14, 11, 0, 0, 0, 17, 15, 0, 24, 6, 18, 13, 9, 0, 23, 2, 7, 0, 19
|9, 0, 17, 0, 0, 0, 21, 5, 13, 12, 20, 7, 0, 0, 14, 0, 16, 3, 19, 1, 6, 10, 25, 0, 22
|7, 0, 16, 21, 12, 4, 10, 8, 24, 19, 25, 23, 6, 1, 2, 15, 0, 11, 14, 5, 18, 0, 3, 20, 9
|20, 0, 18, 3, 14, 1, 4, 13, 7, 22, 0, 10, 0, 25, 8, 0, 23, 15, 21, 17, 2, 9, 11, 0, 0
|10, 1, 13, 9, 23, 8, 5, 18, 6, 24, 12, 0, 2, 15, 0, 4, 20, 7, 16, 22, 25, 14, 19, 17, 3
|19, 0, 24, 12, 0, 2, 0, 17, 0, 20, 0, 0, 5, 9, 22, 0, 8, 18, 0, 14, 0, 21, 1, 4, 0
|0, 2, 0, 15, 8, 0, 3, 9, 23, 21, 4, 0, 20, 6, 1, 5, 12, 19, 13, 25, 10, 0, 0, 16, 18
|0, 21, 0, 16, 0, 0, 0, 12, 14, 0, 24, 18, 17, 7, 0, 9, 1, 6, 10, 0, 0, 23, 0, 22, 20
|16, 12, 0, 0, 24, 5, 18, 0, 8, 3, 19, 0, 25, 23, 13, 11, 0, 14, 15, 0, 0, 0, 20, 10, 7
|13, 8, 14, 10, 2, 25, 20, 4, 19, 23, 1, 0, 9, 24, 5, 21, 7, 17, 0, 16, 22, 0, 0, 18, 0
|1, 18, 0, 11, 0, 0, 17, 0, 16, 10, 6, 0, 0, 0, 7, 22, 13, 0, 23, 0, 0, 0, 4, 0, 21
|23, 0, 6, 5, 3, 14, 0, 0, 21, 13, 0, 0, 0, 10, 20, 1, 24, 0, 4, 19, 0, 25, 16, 2, 11
|22, 7, 4, 19, 25, 0, 0, 2, 9, 0, 21, 0, 12, 16, 17, 18, 10, 8, 5, 20, 14, 3, 0, 24, 23
|12, 24, 10, 25, 13, 19, 7, 21, 0, 5, 0, 0, 23, 0, 9, 8, 4, 16, 2, 18, 11, 0, 22, 0, 14
|0, 11, 19, 14, 9, 13, 23, 15, 25, 2, 22, 12, 0, 17, 6, 7, 5, 21, 24, 0, 3, 20, 18, 0, 0
|21, 5, 7, 0, 0, 0, 12, 0, 1, 0, 2, 24, 3, 8, 19, 0, 14, 0, 20, 0, 16, 0, 9, 0, 0
|0, 23, 8, 0, 0, 0, 9, 10, 11, 0, 7, 5, 13, 4, 18, 12, 0, 22, 17, 15, 0, 19, 21, 0, 2
|2, 15, 20, 6, 17, 24, 22, 0, 18, 8, 11, 25, 10, 14, 21, 19, 3, 0, 1, 13, 7, 0, 5, 0, 12|];