order = 5;
grid = [|17, 15, 19, 0, 25, 24, 16, 20, 5, 14, 0, 2, 1, 11, 9, 21, 13, 12, 0, 7, 10, 22, 6, 0, 0
|1, 0, 3, 0, 20, 0, 10, 9, 6, 18, 7, 14, 21, 13, 0, 0, 25, 22, 15, 17, 0, 4, 8, 12, 16
|0, 2, 13, 0, 6, 0, 17, 0, 23, 0, 18, 12, 0, 0, 22, 14, 1, 9, 8, 0, 3, 15, 7, 0, 25
|16, 0, 0, 0, 0, 0, 25, 3, 0, 22, 17, 5, 8, 10, 4, 2, 6, 0, 20, 0, 1, 9, 13, 0, 21
|12, 9, 21, 4, 22, 0, 2, 1, 13, 7, 23, 6, 0, 25, 24, 16, 0, 3, 10, 0, 0, 0, 0, 11, 19
|0, 1, 7, 22, 13, 9, 14, 12, 17, 0, 6, 0, 19, 0, 15, 18, 4, 2, 25, 0, 8, 21, 0, 0, 11
|9, 11, 0, 25, 8, 0, 23, 2, 0, 19, 4, 7, 0, 5, 14, 3, 12, 21, 0, 1, 13, 24, 15, 16, 0
|21, 14, 16, 19, 17, 1, 24, 0, 0, 0, 12, 0, 25, 22, 0, 9, 15, 8, 11, 10, 23, 2, 5, 20, 6
|20, 3, 0, 12, 5, 6, 15, 0, 21, 0, 11, 8, 9, 0, 2, 13, 23, 7, 17, 0, 25, 1, 18, 0, 0
|0, 10, 6, 15, 0, 0, 18, 25, 8, 0, 1, 0, 0, 17, 20, 0, 22, 24, 14, 16, 19, 7, 0, 0, 12
|0, 17, 5, 0, 12, 23, 0, 15, 0, 0, 9, 0, 20, 8, 16, 0, 0, 18, 0, 6, 24, 19, 2, 0, 13
|10, 13, 2, 0, 0, 14, 19, 7, 18, 12, 22, 17, 23, 0, 6, 0, 0, 0, 0, 25, 5, 0, 0, 21, 20
|8, 6, 0, 21, 14, 13, 0, 5, 4, 0, 0, 24, 7, 12, 1, 10, 9, 16, 19, 0, 0, 25, 0, 0, 15
|0, 0, 24, 7, 0, 0, 0, 11, 2, 0, 5, 0, 0, 0, 21, 8, 0, 20, 0, 0, 12, 23, 22, 1, 14
|18, 20, 0, 23, 0, 17, 8, 24, 16, 25, 10, 13, 14, 19, 11, 12, 0, 0, 0, 2, 7, 3, 9, 6, 4
|6, 18, 8, 17, 3, 21, 20, 23, 25, 0, 14, 19, 2, 4, 13, 7, 16, 10, 5, 0, 9, 11, 12, 0, 0
|0, 0, 9, 14, 11, 16, 7, 19, 3, 15, 24, 0, 5, 0, 10, 20, 0, 4, 23, 18, 0, 0, 17, 25, 2
|7, 22, 20, 0, 19, 4, 12, 0, 11, 0, 21, 0, 0, 16, 3, 0, 2, 0, 9, 13, 0, 0, 0, 15, 0
|0, 0, 0, 2, 0, 0, 0, 0, 0, 6, 0, 0, 11, 7, 25, 0, 0, 0, 21, 12, 0, 13, 3, 23, 0
|25, 5, 0, 24, 21, 2, 0, 13, 10, 17, 0, 0, 6, 18, 12, 0, 3, 14, 0, 22, 4, 16, 19, 7, 8
|0, 4, 12, 16, 0, 18, 5, 0, 0, 10, 0, 20, 22, 0, 7, 0, 19, 11, 0, 14, 6, 17, 23, 13, 9
|5, 19, 0, 13, 18, 0, 1, 6, 14, 21, 16, 10, 3, 0, 23, 0, 7, 0, 0, 4, 0, 0, 25, 8, 24
|15, 7, 0, 0, 23, 25, 4, 0, 0, 3, 0, 1, 0, 14, 8, 0, 20, 13, 18, 9, 11, 10, 21, 0, 5
|0, 0, 0, 0, 24, 12, 0, 0, 9, 0, 13, 18, 4, 2, 5, 0, 10, 0, 16, 8, 15, 14, 20, 19, 7
|14, 0, 0, 0, 0, 7, 0, 22, 0, 2, 0, 11, 24, 0, 17, 25, 5, 23, 12, 21, 16, 18, 1, 4, 3|];