order = 5;
grid = [|21, 11, 0, 0, 0, 1, 4, 13, 0, 0, 0, 23, 12, 19, 0, 8, 3, 0, 17, 24, 0, 6, 0, 22, 0
|20, 0, 19, 0, 6, 0, 21, 16, 24, 17, 8, 0, 15, 1, 13, 14, 11, 0, 0, 0, 0, 23, 0, 2, 3
|23, 5, 0, 1, 12, 15, 3, 6, 14, 20, 17, 24, 7, 25, 9, 0, 0, 19, 18, 21, 0, 4, 8, 0, 10
|9, 24, 8, 18, 3, 0, 22, 7, 11, 19, 2, 0, 6, 0, 21, 10, 0, 20, 0, 13, 25, 17, 5, 15, 0
|2, 17, 14, 0, 0, 10, 0, 9, 0, 0, 11, 0, 0, 0, 20, 0, 15, 0, 4, 0, 0, 16, 0, 12, 21
|19, 0, 1, 4, 11, 0, 23, 8, 0, 0, 13, 12, 17, 16, 0, 20, 0, 22, 14, 3, 5, 0, 21, 9, 0
|16, 3, 17, 9, 0, 0, 0, 1, 20, 0, 4, 25, 21, 0, 6, 24, 0, 5, 8, 11, 14, 12, 10, 0, 23
|12, 25, 0, 23, 8, 0, 24, 4, 16, 21, 14, 15, 19, 0, 11, 7, 10, 13, 0, 0, 0, 0, 0, 3, 17
|0, 15, 13, 0, 14, 17, 11, 19, 3, 5, 0, 7, 0, 20, 23, 4, 0, 21, 9, 12, 18, 25, 16, 1, 8
|5, 0, 7, 6, 24, 25, 14, 12, 22, 0, 1, 8, 0, 0, 0, 23, 0, 0, 0, 16, 13, 11, 0, 4, 0
|11, 0, 0, 0, 0, 3, 1, 5, 0, 9, 0, 16, 23, 8, 15, 13, 0, 17, 10, 22, 0, 19, 12, 0, 7
|17, 0, 18, 5, 9, 20, 16, 14, 7, 0, 21, 11, 4, 13, 12, 0, 1, 24, 3, 25, 8, 10, 23, 6, 15
|8, 12, 0, 16, 0, 13, 0, 0, 21, 0, 7, 19, 9, 2, 24, 0, 5, 0, 20, 15, 17, 0, 0, 25, 22
|15, 0, 21, 13, 0, 24, 19, 25, 0, 23, 0, 0, 0, 10, 5, 16, 14, 12, 0, 8, 0, 0, 4, 20, 0
|25, 19, 10, 0, 0, 0, 0, 11, 4, 0, 3, 17, 20, 14, 1, 9, 23, 0, 21, 0, 16, 0, 13, 5, 2
|0, 9, 5, 3, 4, 21, 17, 22, 23, 25, 12, 20, 0, 6, 10, 18, 16, 0, 0, 0, 0, 0, 0, 0, 13
|0, 14, 0, 0, 15, 6, 13, 18, 1, 12, 0, 2, 0, 21, 0, 0, 24, 23, 11, 0, 4, 8, 3, 10, 0
|0, 16, 11, 12, 0, 0, 8, 2, 9, 14, 15, 0, 1, 24, 4, 5, 13, 6, 0, 20, 0, 7, 25, 0, 0
|13, 1, 22, 21, 19, 11, 0, 24, 15, 4, 9, 0, 0, 23, 17, 0, 0, 0, 12, 2, 0, 5, 20, 14, 16
|6, 0, 0, 8, 2, 0, 5, 0, 10, 3, 0, 13, 11, 7, 14, 1, 21, 15, 25, 0, 12, 0, 22, 0, 0
|18, 0, 2, 0, 7, 22, 20, 15, 0, 24, 10, 4, 3, 12, 16, 21, 9, 8, 6, 0, 1, 14, 11, 23, 5
|1, 20, 24, 0, 16, 14, 9, 21, 12, 11, 0, 5, 2, 18, 19, 0, 0, 3, 23, 10, 7, 13, 17, 8, 4
|0, 0, 12, 0, 21, 0, 18, 0, 13, 6, 22, 0, 0, 17, 0, 15, 20, 16, 24, 0, 10, 3, 0, 19, 0
|3, 0, 9, 25, 10, 7, 2, 17, 19, 1, 23, 21, 0, 11, 8, 12, 4, 18, 5, 14, 24, 20, 15, 16, 0
|14, 23, 6, 19, 0, 0, 10, 0, 8, 0, 20, 1, 0, 15, 0, 2, 7, 11, 0, 17, 0, 0, 9, 18, 0|];