order = 5;
grid = [|19, 3, 9, 0, 7, 10, 23, 17, 12, 0, 24, 0, 0, 0, 6, 0, 0, 0, 15, 18, 11, 2, 14, 21, 0
|16, 2, 1, 0, 11, 4, 22, 0, 5, 6, 12, 3, 10, 9, 17, 24, 20, 21, 0, 13, 15, 8, 25, 7, 18
|0, 0, 21, 12, 25, 14, 24, 1, 0, 15, 0, 0, 8, 23, 18, 6, 0, 11, 0, 17, 4, 0, 20, 19, 5
|18, 0, 0, 0, 22, 2, 3, 25, 13, 7, 19, 0, 0, 21, 0, 9, 0, 8, 0, 14, 1, 10, 24, 23, 17
|23, 8, 0, 24, 17, 21, 11, 0, 0, 20, 15, 0, 0, 25, 4, 19, 0, 7, 3, 1, 9, 0, 13, 6, 22
|0, 0, 23, 2, 0, 0, 14, 0, 19, 22, 16, 4, 3, 0, 15, 0, 24, 25, 0, 0, 12, 1, 7, 13, 0
|6, 11, 0, 25, 0, 24, 9, 0, 15, 18, 13, 5, 21, 12, 7, 4, 17, 0, 0, 3, 20, 0, 16, 22, 10
|12, 7, 0, 21, 0, 0, 0, 0, 17, 25, 0, 2, 24, 22, 11, 23, 6, 10, 13, 0, 3, 14, 8, 18, 15
|3, 4, 13, 18, 0, 7, 0, 6, 0, 10, 20, 19, 14, 0, 25, 2, 15, 16, 22, 0, 0, 0, 21, 0, 11
|15, 22, 16, 17, 24, 1, 12, 3, 11, 0, 10, 18, 6, 8, 0, 20, 0, 14, 9, 21, 0, 19, 4, 0, 0
|0, 0, 25, 23, 15, 3, 17, 9, 14, 0, 1, 12, 18, 16, 13, 0, 19, 6, 20, 7, 10, 22, 0, 8, 0
|2, 17, 10, 22, 21, 0, 18, 0, 6, 5, 25, 8, 11, 15, 3, 0, 16, 4, 14, 0, 7, 9, 12, 0, 19
|4, 0, 8, 13, 3, 12, 16, 24, 2, 11, 22, 0, 19, 10, 20, 21, 0, 0, 18, 5, 0, 15, 6, 0, 0
|20, 12, 18, 19, 0, 8, 7, 0, 4, 1, 0, 24, 0, 6, 5, 0, 23, 2, 10, 25, 16, 0, 3, 11, 21
|7, 0, 6, 11, 0, 0, 10, 0, 25, 19, 21, 23, 4, 2, 0, 22, 3, 0, 12, 8, 18, 5, 0, 17, 0
|8, 21, 4, 0, 18, 6, 1, 7, 22, 9, 0, 0, 15, 14, 19, 3, 13, 23, 24, 16, 5, 25, 11, 2, 12
|22, 19, 14, 3, 0, 0, 4, 5, 10, 17, 8, 25, 23, 7, 21, 0, 1, 9, 0, 0, 6, 0, 15, 0, 13
|17, 16, 24, 9, 13, 25, 15, 14, 8, 3, 0, 6, 0, 0, 2, 10, 22, 5, 19, 0, 0, 20, 23, 1, 7
|0, 23, 7, 0, 12, 11, 2, 13, 20, 16, 4, 0, 0, 3, 24, 14, 21, 15, 17, 6, 22, 18, 19, 0, 8
|1, 15, 11, 6, 2, 0, 21, 0, 24, 23, 5, 16, 22, 13, 10, 0, 8, 18, 25, 0, 17, 0, 9, 3, 14
|14, 20, 2, 8, 4, 5, 0, 0, 0, 12, 23, 21, 25, 19, 22, 17, 11, 24, 1, 10, 13, 7, 0, 15, 0
|0, 18, 22, 0, 6, 23, 0, 15, 1, 2, 0, 0, 0, 0, 0, 0, 4, 12, 21, 9, 19, 24, 10, 14, 20
|21, 25, 12, 15, 10, 17, 0, 8, 0, 14, 18, 0, 16, 24, 1, 13, 5, 19, 6, 0, 0, 11, 22, 0, 3
|9, 0, 17, 1, 0, 22, 19, 0, 21, 24, 2, 10, 0, 0, 14, 16, 0, 3, 7, 15, 8, 6, 5, 12, 25
|5, 24, 0, 0, 19, 9, 25, 0, 18, 4, 6, 15, 13, 11, 12, 8, 14, 0, 0, 22, 0, 21, 0, 0, 1|];