order = 5;
grid = [|0, 15, 9, 22, 3, 8, 6, 0, 2, 7, 11, 0, 0, 1, 12, 16, 25, 17, 21, 0, 0, 19, 24, 13, 14
|13, 0, 20, 19, 1, 16, 0, 11, 0, 21, 2, 0, 23, 8, 7, 0, 10, 0, 12, 14, 22, 0, 9, 6, 5
|11, 25, 2, 12, 8, 14, 17, 22, 0, 5, 3, 0, 0, 0, 0, 4, 13, 15, 9, 1, 20, 0, 16, 7, 18
|17, 7, 14, 6, 4, 3, 0, 9, 0, 0, 20, 13, 18, 10, 16, 2, 22, 0, 5, 24, 8, 1, 25, 21, 11
|16, 5, 21, 23, 0, 0, 0, 0, 1, 18, 17, 25, 22, 0, 14, 0, 0, 11, 8, 0, 0, 12, 4, 3, 2
|21, 4, 1, 0, 19, 0, 0, 0, 14, 17, 25, 7, 0, 13, 11, 18, 23, 22, 6, 9, 0, 8, 12, 16, 3
|23, 14, 22, 0, 0, 4, 20, 0, 0, 8, 0, 0, 15, 17, 18, 0, 0, 25, 0, 2, 7, 6, 13, 24, 19
|0, 18, 17, 15, 0, 0, 0, 13, 25, 0, 16, 2, 0, 22, 3, 0, 1, 8, 0, 0, 0, 0, 5, 23, 0
|0, 11, 10, 13, 2, 18, 3, 0, 0, 6, 0, 9, 19, 0, 4, 24, 16, 5, 14, 15, 25, 21, 0, 17, 22
|0, 16, 3, 25, 7, 23, 0, 24, 11, 2, 8, 5, 14, 6, 10, 13, 12, 21, 17, 19, 0, 15, 18, 0, 4
|24, 3, 12, 16, 6, 0, 7, 23, 0, 0, 10, 17, 0, 0, 22, 1, 18, 0, 13, 0, 0, 0, 2, 14, 15
|19, 9, 8, 0, 21, 0, 0, 25, 17, 0, 5, 14, 3, 0, 2, 23, 6, 16, 0, 12, 4, 13, 10, 22, 1
|15, 22, 11, 1, 18, 12, 4, 3, 0, 10, 21, 24, 13, 16, 0, 0, 9, 2, 7, 0, 19, 5, 17, 20, 23
|25, 10, 4, 2, 0, 5, 21, 0, 0, 15, 9, 1, 7, 20, 23, 17, 8, 24, 19, 11, 12, 16, 3, 0, 6
|5, 0, 23, 20, 14, 1, 0, 2, 0, 16, 6, 12, 11, 0, 15, 0, 4, 10, 0, 21, 24, 25, 8, 0, 0
|0, 0, 0, 17, 0, 7, 0, 0, 0, 11, 13, 10, 21, 3, 0, 0, 19, 4, 20, 16, 18, 9, 23, 2, 0
|3, 0, 13, 0, 15, 0, 0, 21, 0, 0, 14, 23, 16, 4, 0, 0, 2, 9, 24, 18, 17, 7, 0, 11, 8
|12, 1, 0, 18, 24, 17, 0, 4, 9, 3, 22, 6, 2, 11, 25, 10, 21, 14, 23, 0, 16, 20, 15, 0, 0
|4, 0, 25, 8, 20, 22, 2, 16, 0, 14, 0, 18, 17, 24, 0, 12, 7, 1, 0, 13, 0, 0, 19, 10, 21
|9, 2, 16, 21, 11, 6, 23, 10, 0, 13, 19, 0, 12, 0, 20, 5, 15, 3, 0, 17, 0, 24, 14, 4, 25
|1, 0, 0, 11, 0, 15, 10, 7, 0, 22, 0, 3, 25, 5, 17, 0, 14, 6, 16, 4, 0, 0, 21, 0, 24
|2, 21, 0, 14, 0, 11, 0, 6, 3, 4, 18, 0, 1, 15, 13, 19, 0, 0, 25, 0, 5, 10, 7, 12, 16
|10, 12, 0, 4, 16, 2, 0, 5, 0, 20, 24, 22, 9, 0, 19, 0, 11, 0, 1, 3, 23, 18, 6, 25, 0
|0, 8, 6, 3, 17, 0, 16, 0, 0, 0, 0, 0, 10, 23, 21, 15, 5, 13, 2, 20, 14, 22, 1, 0, 9
|22, 13, 19, 5, 25, 0, 14, 17, 23, 1, 7, 16, 8, 2, 0, 21, 0, 0, 0, 0, 3, 4, 11, 15, 0|];