order = 5;
grid = [|7, 5, 0, 0, 0, 20, 23, 0, 0, 18, 6, 0, 10, 1, 19, 0, 25, 4, 9, 0, 0, 3, 21, 17, 0
|8, 14, 13, 18, 0, 0, 22, 0, 19, 15, 12, 23, 25, 17, 0, 24, 0, 6, 3, 10, 20, 7, 1, 9, 0
|10, 0, 19, 15, 17, 9, 0, 5, 4, 7, 0, 11, 13, 0, 0, 14, 23, 0, 0, 1, 6, 22, 12, 0, 0
|2, 0, 24, 0, 0, 12, 6, 0, 17, 16, 0, 3, 5, 21, 14, 18, 0, 11, 19, 7, 4, 0, 15, 13, 10
|0, 20, 21, 1, 6, 25, 10, 0, 8, 14, 0, 15, 9, 22, 18, 0, 16, 17, 0, 0, 0, 0, 0, 23, 19
|3, 24, 0, 8, 20, 4, 14, 0, 0, 1, 19, 0, 17, 0, 11, 0, 18, 16, 12, 0, 2, 0, 6, 0, 25
|0, 21, 4, 9, 0, 15, 3, 2, 25, 24, 0, 0, 22, 8, 23, 10, 20, 14, 5, 6, 18, 17, 0, 0, 11
|23, 7, 14, 13, 11, 17, 18, 6, 0, 0, 15, 0, 21, 3, 25, 19, 4, 8, 0, 2, 0, 5, 0, 10, 20
|18, 2, 17, 25, 10, 0, 20, 19, 23, 5, 9, 0, 4, 14, 6, 3, 11, 21, 1, 0, 8, 24, 0, 0, 15
|5, 22, 0, 6, 19, 10, 0, 0, 11, 21, 0, 20, 18, 7, 0, 9, 15, 23, 17, 25, 0, 12, 3, 0, 4
|0, 17, 0, 0, 15, 3, 0, 4, 0, 0, 2, 7, 0, 18, 12, 16, 21, 13, 0, 9, 25, 19, 23, 6, 22
|9, 4, 12, 14, 7, 6, 1, 23, 15, 20, 5, 16, 0, 0, 22, 0, 2, 3, 25, 0, 0, 21, 0, 0, 17
|16, 23, 0, 3, 0, 0, 25, 24, 13, 19, 11, 0, 0, 6, 21, 17, 7, 0, 22, 18, 9, 10, 0, 15, 12
|1, 6, 18, 11, 25, 22, 21, 16, 12, 17, 14, 0, 19, 0, 13, 23, 0, 0, 4, 15, 5, 2, 20, 0, 0
|19, 0, 22, 21, 2, 0, 7, 0, 0, 9, 0, 17, 15, 23, 3, 6, 0, 0, 20, 0, 0, 1, 0, 0, 8
|6, 0, 5, 0, 13, 24, 17, 18, 0, 11, 10, 14, 0, 2, 9, 1, 0, 25, 15, 0, 0, 4, 0, 0, 21
|22, 0, 23, 16, 18, 21, 9, 12, 1, 2, 4, 19, 6, 13, 0, 20, 0, 7, 8, 0, 3, 15, 25, 5, 24
|17, 12, 1, 0, 0, 0, 19, 14, 10, 6, 0, 25, 0, 0, 0, 5, 9, 22, 16, 24, 11, 18, 2, 0, 23
|21, 11, 25, 7, 14, 0, 0, 15, 20, 3, 22, 0, 0, 16, 0, 2, 10, 18, 6, 23, 19, 13, 17, 0, 0
|15, 9, 20, 2, 0, 0, 16, 25, 0, 0, 18, 5, 3, 0, 1, 21, 0, 19, 0, 4, 12, 0, 10, 22, 14
|25, 15, 6, 17, 23, 18, 24, 0, 14, 4, 0, 0, 2, 0, 5, 12, 13, 9, 10, 0, 21, 16, 8, 0, 1
|11, 0, 9, 0, 12, 0, 15, 20, 0, 13, 0, 21, 24, 4, 8, 25, 1, 2, 0, 17, 0, 14, 22, 18, 0
|0, 18, 2, 20, 0, 1, 0, 0, 21, 0, 17, 6, 0, 25, 15, 22, 3, 24, 0, 0, 0, 9, 19, 0, 0
|24, 19, 3, 10, 21, 23, 0, 0, 2, 22, 0, 0, 0, 0, 7, 0, 0, 5, 18, 14, 15, 25, 0, 0, 0
|14, 1, 7, 22, 8, 0, 5, 0, 3, 25, 0, 18, 11, 0, 0, 4, 19, 15, 23, 21, 17, 20, 24, 0, 0|];