order = 5;
grid = [|0, 9, 13, 0, 0, 22, 0, 2, 10, 24, 17, 25, 20, 14, 7, 3, 11, 0, 0, 0, 5, 0, 0, 1, 21
|0, 11, 17, 6, 5, 9, 1, 0, 23, 0, 16, 10, 21, 0, 19, 22, 7, 8, 2, 0, 4, 25, 14, 0, 18
|0, 14, 0, 15, 0, 21, 25, 0, 0, 12, 13, 5, 8, 11, 22, 1, 9, 0, 17, 0, 0, 6, 24, 0, 23
|0, 25, 22, 1, 21, 7, 8, 3, 11, 0, 6, 4, 0, 0, 9, 20, 12, 13, 0, 0, 2, 17, 0, 10, 19
|10, 20, 19, 0, 8, 5, 16, 4, 0, 17, 2, 3, 23, 24, 0, 25, 14, 21, 0, 6, 0, 15, 0, 0, 22
|20, 10, 8, 14, 0, 13, 0, 17, 1, 9, 0, 2, 0, 23, 16, 0, 18, 24, 0, 11, 19, 3, 6, 0, 5
|13, 17, 4, 18, 22, 6, 0, 0, 24, 7, 10, 21, 15, 20, 3, 12, 19, 16, 8, 23, 14, 0, 9, 25, 2
|0, 0, 16, 2, 12, 18, 15, 0, 3, 0, 1, 19, 6, 0, 0, 0, 10, 14, 0, 9, 24, 22, 0, 8, 13
|0, 3, 6, 9, 0, 0, 19, 20, 2, 10, 11, 17, 22, 0, 24, 5, 13, 4, 25, 0, 21, 0, 23, 0, 0
|19, 15, 5, 21, 24, 12, 23, 0, 0, 8, 18, 9, 13, 25, 14, 2, 1, 6, 20, 3, 10, 4, 17, 0, 11
|12, 0, 25, 5, 0, 24, 0, 0, 21, 23, 9, 0, 4, 6, 13, 0, 15, 22, 1, 0, 16, 0, 11, 2, 10
|15, 6, 1, 7, 0, 11, 9, 13, 14, 16, 25, 0, 19, 17, 0, 10, 2, 0, 12, 21, 22, 24, 4, 18, 8
|9, 0, 20, 0, 16, 15, 0, 6, 0, 25, 14, 0, 0, 0, 2, 24, 0, 0, 4, 8, 0, 12, 21, 3, 1
|0, 0, 0, 0, 11, 2, 20, 8, 12, 18, 15, 0, 1, 0, 21, 9, 3, 19, 13, 7, 25, 14, 5, 17, 6
|8, 0, 21, 13, 14, 1, 17, 0, 22, 0, 24, 0, 10, 3, 12, 16, 20, 0, 6, 25, 15, 0, 19, 9, 0
|0, 0, 0, 10, 0, 4, 0, 12, 17, 19, 0, 24, 9, 0, 23, 0, 25, 20, 3, 18, 8, 7, 1, 0, 0
|0, 12, 9, 0, 15, 23, 24, 16, 6, 0, 0, 13, 25, 19, 18, 0, 8, 7, 10, 14, 20, 2, 0, 21, 17
|0, 7, 24, 20, 23, 8, 22, 18, 0, 13, 3, 1, 0, 0, 17, 15, 0, 0, 21, 16, 0, 0, 10, 14, 9
|25, 0, 18, 19, 17, 0, 21, 14, 5, 3, 0, 20, 0, 7, 15, 0, 24, 1, 9, 0, 0, 13, 0, 6, 4
|0, 8, 11, 3, 4, 20, 7, 0, 0, 2, 0, 12, 14, 10, 0, 13, 5, 17, 19, 22, 18, 0, 25, 0, 24
|14, 21, 7, 8, 0, 3, 0, 0, 20, 0, 19, 0, 0, 0, 11, 4, 17, 12, 24, 0, 23, 0, 0, 22, 25
|0, 0, 12, 16, 9, 17, 2, 0, 8, 11, 0, 14, 0, 0, 25, 7, 0, 0, 15, 13, 1, 10, 18, 19, 20
|0, 5, 15, 24, 20, 19, 14, 10, 0, 6, 0, 18, 3, 0, 4, 0, 0, 0, 11, 1, 17, 0, 13, 12, 0
|17, 19, 3, 0, 0, 0, 13, 24, 9, 15, 0, 0, 12, 1, 0, 18, 21, 23, 5, 0, 7, 11, 2, 0, 14
|0, 1, 23, 0, 13, 25, 12, 21, 4, 22, 0, 15, 0, 2, 0, 19, 0, 0, 14, 20, 6, 5, 0, 24, 0|];