order = 5;
grid = [|19, 7, 16, 0, 5, 0, 0, 0, 4, 0, 17, 0, 24, 11, 25, 3, 18, 2, 21, 14, 22, 15, 8, 0, 0
|3, 0, 21, 11, 24, 0, 15, 6, 0, 14, 0, 0, 0, 2, 0, 0, 5, 25, 9, 0, 16, 0, 7, 19, 13
|0, 14, 13, 0, 23, 11, 2, 0, 1, 17, 9, 4, 16, 0, 21, 0, 20, 7, 0, 0, 18, 0, 24, 3, 5
|22, 12, 0, 18, 17, 3, 24, 7, 0, 0, 13, 14, 19, 15, 8, 10, 16, 4, 11, 6, 0, 0, 1, 21, 0
|9, 1, 8, 20, 6, 21, 16, 10, 22, 0, 3, 0, 5, 12, 0, 23, 13, 0, 19, 15, 0, 4, 14, 17, 11
|23, 19, 12, 0, 16, 0, 4, 8, 24, 0, 0, 0, 22, 0, 17, 15, 0, 6, 5, 0, 3, 1, 10, 20, 9
|0, 21, 11, 6, 20, 0, 0, 14, 9, 0, 1, 0, 0, 0, 0, 0, 0, 0, 16, 24, 0, 22, 17, 0, 0
|18, 25, 3, 24, 0, 15, 20, 0, 0, 22, 16, 0, 7, 0, 0, 8, 1, 9, 4, 17, 19, 11, 5, 14, 23
|0, 0, 17, 0, 15, 0, 10, 0, 0, 19, 11, 8, 13, 23, 0, 0, 0, 20, 3, 12, 24, 7, 6, 16, 18
|4, 10, 0, 0, 8, 16, 12, 17, 6, 7, 0, 24, 9, 0, 20, 14, 23, 0, 0, 0, 21, 0, 2, 25, 15
|25, 13, 19, 17, 0, 24, 0, 0, 21, 0, 4, 23, 6, 20, 1, 0, 0, 0, 18, 16, 0, 14, 0, 0, 2
|16, 18, 20, 0, 14, 0, 0, 0, 0, 9, 7, 12, 0, 22, 5, 24, 25, 0, 0, 19, 11, 8, 3, 0, 0
|0, 0, 5, 22, 2, 18, 0, 0, 7, 16, 10, 19, 21, 0, 3, 11, 14, 8, 1, 23, 0, 6, 4, 9, 17
|0, 6, 10, 15, 3, 0, 19, 0, 0, 20, 14, 11, 2, 0, 16, 7, 4, 22, 13, 0, 5, 23, 25, 24, 21
|11, 23, 7, 4, 1, 5, 22, 3, 14, 13, 24, 9, 8, 25, 15, 0, 17, 21, 2, 20, 12, 18, 16, 10, 19
|21, 0, 24, 23, 25, 6, 0, 16, 0, 0, 2, 5, 0, 8, 0, 0, 0, 13, 17, 7, 4, 0, 9, 0, 22
|0, 20, 9, 3, 7, 22, 1, 24, 13, 5, 6, 10, 14, 16, 19, 4, 15, 11, 8, 21, 0, 2, 12, 18, 25
|13, 15, 18, 8, 0, 25, 0, 12, 3, 2, 0, 7, 4, 1, 0, 9, 22, 0, 24, 10, 6, 0, 20, 5, 0
|0, 2, 0, 14, 22, 0, 0, 18, 0, 0, 23, 13, 0, 0, 0, 5, 6, 16, 0, 3, 10, 0, 15, 0, 8
|0, 5, 6, 16, 12, 0, 17, 0, 11, 8, 15, 3, 25, 0, 22, 20, 2, 0, 0, 18, 14, 21, 13, 7, 24
|0, 17, 15, 7, 4, 10, 0, 9, 12, 6, 0, 2, 1, 0, 0, 0, 0, 3, 0, 0, 13, 16, 18, 8, 0
|2, 0, 23, 13, 18, 17, 5, 0, 0, 1, 8, 20, 11, 7, 0, 16, 9, 12, 14, 0, 15, 24, 21, 22, 10
|5, 9, 0, 12, 0, 0, 11, 23, 15, 24, 0, 16, 10, 4, 14, 18, 8, 17, 0, 13, 1, 20, 19, 2, 3
|20, 16, 25, 0, 0, 14, 3, 0, 8, 4, 12, 0, 18, 0, 0, 1, 24, 23, 15, 0, 0, 5, 11, 6, 7
|6, 8, 14, 1, 11, 2, 13, 0, 0, 18, 22, 15, 3, 24, 9, 21, 10, 19, 7, 5, 17, 25, 0, 4, 12|];