order = 5;
grid = [|3, 17, 13, 8, 0, 0, 15, 12, 21, 25, 0, 0, 20, 9, 4, 10, 19, 0, 0, 14, 0, 7, 6, 11, 24
|0, 0, 0, 6, 25, 19, 3, 0, 0, 0, 0, 17, 23, 21, 11, 0, 0, 24, 7, 4, 0, 16, 0, 8, 5
|12, 19, 23, 1, 0, 0, 10, 16, 4, 13, 14, 24, 8, 25, 0, 6, 9, 11, 17, 0, 21, 15, 0, 3, 18
|15, 11, 0, 0, 21, 20, 0, 23, 0, 8, 6, 13, 2, 18, 10, 22, 3, 16, 1, 25, 0, 4, 14, 0, 17
|24, 16, 0, 0, 0, 11, 6, 0, 17, 0, 0, 19, 0, 15, 5, 0, 12, 0, 21, 0, 0, 9, 0, 10, 23
|6, 0, 0, 0, 0, 25, 14, 4, 5, 0, 23, 0, 0, 3, 1, 0, 11, 0, 2, 17, 10, 8, 21, 0, 0
|16, 18, 3, 20, 4, 0, 12, 19, 0, 17, 5, 21, 14, 2, 15, 24, 0, 7, 0, 10, 9, 23, 11, 13, 0
|5, 1, 14, 0, 0, 0, 23, 13, 2, 3, 19, 11, 0, 17, 0, 4, 22, 0, 18, 9, 20, 12, 0, 0, 15
|0, 21, 11, 23, 15, 6, 7, 8, 20, 16, 4, 10, 0, 12, 0, 25, 14, 19, 0, 0, 0, 17, 0, 0, 1
|0, 24, 25, 17, 0, 0, 18, 0, 11, 10, 8, 0, 0, 13, 6, 12, 23, 1, 0, 16, 3, 0, 19, 4, 2
|4, 15, 22, 16, 0, 0, 0, 0, 6, 12, 17, 9, 0, 5, 23, 1, 0, 0, 24, 21, 13, 10, 0, 2, 0
|20, 0, 1, 9, 17, 16, 4, 2, 24, 15, 21, 8, 11, 6, 18, 3, 0, 13, 10, 12, 7, 22, 0, 14, 19
|19, 23, 2, 7, 24, 21, 0, 25, 0, 0, 10, 0, 16, 0, 13, 0, 17, 4, 11, 15, 18, 0, 1, 12, 8
|21, 8, 0, 14, 12, 17, 13, 11, 0, 0, 0, 2, 0, 7, 0, 19, 6, 22, 0, 23, 0, 0, 9, 15, 20
|18, 6, 10, 13, 11, 14, 9, 1, 23, 0, 24, 0, 15, 0, 12, 8, 0, 2, 0, 0, 0, 21, 5, 17, 3
|7, 2, 0, 15, 10, 12, 0, 0, 16, 23, 11, 6, 0, 14, 19, 5, 0, 8, 9, 22, 0, 3, 4, 0, 13
|9, 3, 8, 11, 0, 18, 2, 22, 25, 0, 0, 5, 10, 4, 20, 0, 0, 0, 15, 13, 24, 0, 12, 1, 21
|0, 20, 0, 12, 0, 7, 0, 6, 8, 0, 0, 0, 17, 1, 25, 21, 2, 3, 19, 24, 0, 5, 10, 0, 9
|0, 5, 0, 22, 19, 3, 0, 10, 13, 20, 2, 12, 0, 16, 9, 0, 4, 18, 14, 1, 0, 11, 8, 7, 6
|1, 0, 0, 24, 6, 0, 19, 5, 0, 21, 13, 3, 18, 0, 8, 7, 20, 10, 0, 11, 0, 25, 2, 16, 14
|23, 0, 24, 0, 0, 10, 0, 0, 14, 7, 15, 0, 12, 0, 0, 11, 21, 0, 20, 6, 0, 18, 0, 0, 22
|17, 0, 0, 21, 5, 23, 0, 0, 0, 24, 0, 0, 6, 10, 0, 13, 0, 0, 3, 19, 11, 2, 0, 9, 4
|0, 0, 7, 3, 0, 1, 0, 17, 0, 6, 9, 25, 4, 8, 0, 2, 0, 0, 22, 18, 14, 0, 15, 5, 0
|0, 0, 19, 0, 0, 0, 21, 0, 18, 11, 3, 1, 5, 0, 14, 16, 10, 9, 4, 7, 6, 0, 17, 0, 12
|10, 9, 6, 18, 16, 4, 25, 3, 22, 2, 20, 23, 13, 11, 17, 0, 15, 0, 0, 5, 19, 0, 24, 21, 7|];