order = 5;
grid = [|7, 9, 0, 0, 0, 0, 11, 10, 1, 0, 0, 5, 19, 16, 15, 13, 23, 17, 0, 8, 14, 4, 0, 22, 20
|11, 17, 0, 19, 15, 3, 0, 23, 14, 5, 8, 4, 24, 6, 1, 0, 12, 0, 16, 10, 0, 18, 13, 25, 7
|3, 14, 0, 0, 0, 0, 9, 16, 13, 7, 0, 11, 10, 23, 0, 0, 4, 0, 0, 0, 2, 0, 6, 0, 12
|13, 0, 4, 12, 1, 0, 19, 0, 15, 0, 22, 9, 21, 0, 0, 7, 5, 0, 0, 20, 23, 10, 0, 3, 11
|16, 8, 10, 18, 23, 4, 24, 21, 6, 0, 0, 7, 0, 0, 13, 0, 14, 22, 0, 0, 0, 15, 17, 0, 0
|22, 11, 25, 3, 20, 0, 0, 0, 0, 16, 21, 23, 17, 15, 8, 6, 10, 19, 7, 0, 24, 0, 0, 12, 0
|0, 10, 0, 0, 13, 1, 21, 20, 0, 3, 0, 25, 12, 0, 11, 14, 9, 15, 17, 4, 7, 2, 18, 8, 6
|18, 6, 16, 7, 12, 0, 0, 2, 0, 17, 19, 13, 9, 1, 4, 0, 24, 0, 20, 3, 22, 0, 11, 0, 5
|17, 0, 0, 0, 4, 10, 0, 12, 11, 0, 5, 3, 14, 7, 6, 1, 0, 21, 13, 22, 16, 0, 25, 20, 15
|21, 1, 0, 15, 8, 7, 6, 0, 24, 25, 0, 18, 22, 2, 0, 16, 11, 5, 0, 0, 4, 3, 19, 17, 13
|0, 0, 1, 6, 0, 11, 4, 22, 0, 9, 15, 17, 25, 10, 12, 18, 0, 3, 0, 0, 8, 0, 23, 5, 0
|0, 3, 0, 10, 0, 14, 1, 0, 17, 6, 11, 16, 7, 20, 2, 0, 19, 23, 0, 21, 18, 22, 12, 13, 4
|8, 15, 17, 0, 14, 0, 23, 0, 3, 2, 0, 21, 0, 22, 19, 4, 0, 0, 25, 7, 0, 9, 10, 0, 0
|12, 0, 0, 5, 2, 24, 16, 18, 0, 15, 0, 14, 0, 8, 0, 0, 22, 10, 0, 6, 25, 0, 20, 0, 19
|23, 0, 18, 4, 22, 0, 12, 19, 0, 10, 0, 0, 6, 5, 9, 20, 8, 0, 14, 0, 0, 16, 0, 2, 3
|25, 22, 3, 24, 19, 6, 0, 0, 16, 0, 0, 12, 20, 13, 18, 10, 0, 0, 21, 23, 17, 5, 8, 11, 0
|14, 5, 0, 8, 18, 20, 7, 0, 9, 13, 0, 19, 4, 25, 23, 11, 17, 0, 0, 0, 0, 12, 0, 15, 21
|0, 0, 23, 13, 0, 19, 25, 0, 0, 21, 7, 22, 1, 0, 0, 24, 3, 0, 4, 15, 6, 20, 14, 0, 18
|10, 0, 21, 0, 7, 18, 3, 17, 12, 22, 24, 0, 15, 0, 0, 0, 6, 0, 5, 0, 0, 25, 9, 4, 0
|4, 0, 15, 0, 0, 23, 10, 14, 0, 0, 3, 6, 5, 0, 0, 12, 0, 20, 0, 19, 13, 0, 7, 1, 22
|15, 0, 0, 17, 21, 22, 2, 0, 0, 11, 0, 20, 8, 0, 24, 23, 1, 18, 0, 16, 3, 13, 0, 14, 10
|9, 4, 0, 14, 3, 16, 0, 1, 18, 23, 6, 2, 0, 12, 0, 17, 0, 0, 10, 25, 0, 0, 22, 7, 8
|20, 23, 0, 2, 0, 0, 17, 0, 0, 4, 0, 0, 0, 0, 5, 0, 0, 13, 9, 11, 21, 6, 0, 18, 0
|1, 18, 13, 22, 0, 9, 0, 15, 0, 14, 17, 0, 16, 19, 7, 0, 21, 0, 6, 5, 12, 11, 0, 23, 25
|0, 25, 0, 0, 11, 0, 5, 3, 10, 0, 23, 15, 13, 18, 22, 0, 2, 0, 8, 0, 20, 0, 4, 9, 17|];