order = 5;
grid = [|17, 3, 11, 23, 0, 0, 2, 19, 8, 5, 13, 0, 0, 21, 20, 6, 16, 0, 14, 0, 22, 10, 15, 0, 25
|20, 9, 1, 14, 0, 3, 0, 24, 0, 4, 19, 5, 2, 6, 10, 7, 22, 11, 8, 0, 13, 12, 18, 23, 0
|19, 13, 0, 8, 0, 17, 0, 21, 0, 1, 0, 18, 0, 16, 0, 0, 12, 10, 3, 24, 0, 9, 2, 0, 20
|6, 10, 7, 15, 18, 16, 0, 0, 22, 11, 0, 25, 14, 0, 8, 5, 0, 17, 0, 0, 0, 0, 0, 19, 0
|2, 0, 4, 22, 0, 13, 0, 18, 12, 7, 0, 11, 9, 17, 3, 20, 25, 19, 15, 1, 0, 5, 14, 8, 16
|0, 20, 19, 4, 25, 5, 0, 0, 2, 15, 9, 24, 0, 11, 21, 18, 6, 0, 0, 0, 10, 17, 22, 3, 0
|8, 16, 18, 21, 17, 24, 0, 0, 20, 23, 0, 22, 4, 12, 1, 11, 9, 0, 10, 0, 15, 13, 25, 0, 14
|0, 7, 10, 5, 0, 21, 22, 0, 19, 25, 0, 17, 3, 0, 0, 0, 15, 8, 0, 14, 0, 16, 9, 1, 24
|0, 0, 9, 0, 0, 0, 17, 12, 4, 0, 6, 0, 19, 18, 14, 25, 7, 0, 0, 0, 21, 23, 8, 20, 2
|13, 2, 14, 24, 0, 6, 1, 8, 18, 0, 15, 10, 16, 0, 25, 21, 23, 20, 0, 3, 0, 19, 12, 0, 11
|4, 11, 8, 10, 13, 0, 12, 0, 23, 0, 3, 16, 0, 15, 0, 1, 14, 6, 0, 7, 17, 0, 20, 0, 0
|0, 23, 0, 19, 20, 0, 21, 1, 9, 0, 0, 6, 7, 22, 24, 8, 5, 0, 18, 10, 25, 0, 4, 15, 12
|0, 25, 2, 12, 0, 15, 0, 6, 10, 0, 8, 4, 17, 0, 5, 19, 3, 24, 11, 0, 16, 0, 0, 0, 0
|0, 5, 24, 1, 0, 11, 4, 0, 17, 19, 0, 0, 18, 20, 13, 22, 21, 25, 12, 15, 23, 0, 0, 0, 8
|18, 0, 0, 6, 15, 7, 8, 0, 3, 20, 25, 1, 0, 14, 0, 17, 0, 23, 16, 0, 24, 0, 10, 0, 13
|21, 0, 20, 25, 4, 23, 16, 10, 11, 0, 24, 9, 0, 19, 0, 0, 1, 15, 13, 0, 8, 0, 7, 18, 6
|9, 22, 6, 0, 10, 0, 19, 13, 0, 17, 16, 0, 15, 3, 0, 0, 0, 7, 5, 0, 0, 25, 11, 0, 0
|24, 0, 0, 0, 0, 20, 7, 4, 15, 0, 0, 0, 0, 25, 6, 10, 18, 16, 22, 12, 0, 0, 13, 0, 5
|11, 17, 12, 13, 8, 18, 5, 9, 24, 2, 7, 0, 23, 1, 22, 4, 19, 0, 6, 0, 3, 0, 16, 10, 0
|5, 1, 0, 16, 7, 25, 14, 22, 0, 0, 18, 8, 13, 0, 0, 9, 0, 0, 23, 2, 0, 0, 19, 12, 4
|15, 8, 16, 11, 24, 4, 0, 20, 0, 0, 22, 0, 10, 5, 18, 0, 0, 9, 19, 0, 12, 2, 17, 0, 21
|0, 4, 5, 17, 19, 0, 9, 3, 0, 0, 21, 0, 25, 0, 11, 2, 24, 1, 20, 6, 14, 0, 23, 0, 0
|25, 0, 21, 0, 2, 14, 23, 17, 0, 18, 1, 19, 24, 9, 12, 16, 8, 22, 7, 4, 0, 15, 3, 13, 10
|10, 0, 23, 7, 1, 8, 11, 15, 13, 22, 0, 14, 6, 0, 16, 12, 17, 0, 0, 5, 19, 20, 24, 25, 9
|3, 12, 13, 9, 14, 19, 24, 2, 16, 21, 17, 23, 20, 8, 0, 0, 10, 18, 0, 11, 4, 6, 5, 22, 0|];