order = 5;
grid = [|8, 25, 1, 0, 0, 0, 18, 24, 0, 4, 13, 0, 16, 14, 6, 22, 0, 9, 17, 20, 23, 10, 2, 0, 15
|19, 13, 10, 24, 4, 23, 22, 14, 0, 20, 0, 18, 9, 12, 15, 6, 8, 0, 2, 5, 21, 17, 3, 16, 25
|0, 0, 20, 15, 17, 19, 2, 12, 16, 8, 0, 0, 0, 0, 23, 10, 0, 14, 25, 0, 5, 0, 24, 6, 0
|0, 3, 0, 23, 11, 9, 0, 0, 13, 0, 10, 21, 25, 2, 0, 15, 19, 16, 1, 12, 0, 20, 0, 0, 8
|9, 0, 16, 22, 0, 10, 0, 0, 21, 25, 0, 19, 20, 17, 5, 4, 0, 0, 0, 23, 0, 1, 0, 7, 14
|18, 7, 2, 19, 0, 24, 0, 15, 0, 0, 17, 22, 0, 20, 21, 0, 0, 4, 0, 8, 14, 23, 10, 0, 3
|11, 4, 8, 3, 20, 17, 0, 10, 5, 16, 18, 6, 1, 0, 25, 12, 24, 2, 0, 14, 0, 0, 7, 0, 19
|22, 0, 23, 0, 15, 2, 12, 0, 4, 18, 14, 9, 7, 0, 19, 11, 5, 17, 20, 0, 0, 21, 25, 0, 24
|13, 5, 0, 6, 24, 11, 0, 9, 20, 14, 4, 23, 0, 10, 0, 25, 18, 22, 19, 7, 0, 0, 8, 17, 1
|17, 0, 9, 25, 0, 1, 19, 7, 22, 21, 0, 2, 0, 0, 3, 23, 15, 13, 10, 0, 12, 0, 4, 5, 0
|25, 20, 17, 4, 6, 0, 21, 18, 0, 0, 16, 1, 22, 3, 8, 5, 23, 19, 9, 15, 2, 13, 11, 0, 0
|16, 22, 12, 7, 0, 8, 5, 0, 0, 9, 15, 24, 19, 21, 11, 2, 20, 6, 3, 17, 1, 25, 18, 0, 4
|0, 2, 3, 8, 19, 0, 1, 16, 12, 22, 6, 0, 23, 0, 13, 24, 14, 21, 0, 18, 20, 7, 0, 15, 0
|21, 1, 24, 18, 13, 0, 11, 0, 0, 15, 0, 0, 0, 4, 2, 0, 10, 25, 12, 22, 3, 16, 6, 0, 9
|5, 15, 0, 14, 9, 25, 17, 3, 2, 6, 0, 10, 12, 18, 7, 13, 4, 0, 8, 16, 19, 24, 21, 23, 22
|6, 0, 0, 5, 0, 16, 0, 0, 0, 10, 9, 15, 11, 0, 0, 3, 0, 23, 0, 1, 25, 12, 20, 2, 18
|2, 0, 14, 21, 25, 0, 20, 0, 7, 24, 19, 8, 0, 5, 1, 0, 12, 10, 0, 0, 22, 15, 0, 4, 13
|0, 24, 15, 17, 22, 0, 4, 1, 25, 2, 23, 16, 13, 6, 0, 20, 0, 7, 5, 19, 8, 14, 9, 0, 10
|23, 9, 4, 0, 1, 15, 13, 5, 0, 12, 21, 0, 10, 0, 22, 0, 2, 8, 0, 25, 17, 3, 19, 24, 6
|20, 0, 18, 10, 0, 6, 9, 0, 19, 23, 12, 0, 0, 25, 4, 17, 21, 24, 15, 13, 7, 11, 16, 0, 5
|0, 0, 22, 0, 14, 13, 16, 0, 17, 3, 11, 12, 18, 8, 0, 19, 6, 15, 7, 10, 9, 5, 0, 25, 21
|3, 0, 6, 0, 18, 21, 24, 2, 15, 11, 1, 7, 17, 19, 0, 14, 25, 5, 23, 0, 10, 0, 13, 22, 0
|1, 0, 19, 0, 8, 22, 10, 0, 9, 0, 25, 13, 6, 23, 14, 21, 17, 0, 18, 2, 0, 4, 0, 0, 7
|0, 0, 25, 0, 10, 7, 6, 23, 18, 1, 3, 0, 21, 15, 16, 0, 9, 0, 22, 0, 11, 19, 0, 20, 0
|0, 21, 0, 9, 5, 12, 8, 0, 14, 0, 2, 4, 0, 22, 10, 0, 16, 20, 13, 11, 18, 6, 0, 3, 23|];