order = 5;
grid = [|0, 0, 17, 0, 2, 10, 21, 16, 24, 18, 14, 0, 0, 8, 23, 0, 22, 0, 1, 12, 5, 20, 7, 0, 6
|0, 21, 0, 0, 22, 20, 17, 15, 14, 2, 18, 24, 3, 5, 1, 6, 7, 11, 0, 23, 4, 10, 13, 0, 0
|0, 20, 7, 5, 18, 0, 12, 11, 22, 6, 15, 4, 0, 0, 25, 0, 0, 17, 24, 10, 1, 16, 0, 0, 8
|0, 9, 11, 4, 0, 8, 23, 3, 0, 0, 20, 6, 10, 19, 22, 14, 0, 2, 18, 13, 21, 17, 24, 12, 25
|10, 0, 0, 24, 0, 0, 0, 0, 19, 25, 7, 16, 12, 17, 2, 20, 8, 0, 5, 21, 0, 3, 14, 11, 22
|0, 6, 23, 25, 16, 12, 10, 14, 4, 0, 0, 0, 0, 21, 0, 18, 13, 19, 11, 5, 20, 0, 22, 7, 2
|2, 1, 4, 21, 14, 13, 11, 5, 8, 15, 12, 0, 0, 22, 0, 10, 17, 25, 9, 0, 24, 18, 19, 0, 0
|5, 11, 19, 10, 8, 2, 18, 20, 1, 0, 3, 13, 25, 9, 0, 22, 24, 23, 6, 16, 17, 15, 12, 21, 0
|9, 24, 3, 15, 12, 0, 6, 21, 25, 17, 10, 0, 11, 18, 0, 7, 4, 14, 2, 20, 0, 13, 5, 16, 1
|20, 0, 0, 18, 13, 16, 9, 24, 0, 19, 17, 5, 2, 0, 0, 1, 21, 8, 12, 15, 3, 25, 0, 10, 4
|7, 2, 0, 22, 0, 0, 13, 0, 0, 1, 6, 9, 15, 20, 5, 8, 12, 0, 25, 18, 10, 0, 21, 4, 17
|0, 12, 18, 16, 0, 23, 0, 10, 6, 0, 0, 14, 8, 2, 0, 0, 0, 24, 0, 0, 22, 11, 3, 13, 5
|11, 25, 15, 0, 19, 7, 20, 0, 16, 22, 0, 21, 0, 12, 10, 0, 5, 1, 17, 0, 14, 0, 9, 8, 24
|23, 0, 0, 6, 9, 21, 0, 0, 15, 12, 22, 25, 16, 1, 24, 11, 0, 13, 10, 14, 0, 0, 0, 2, 0
|8, 10, 0, 0, 0, 24, 5, 18, 2, 0, 0, 7, 19, 0, 3, 21, 0, 6, 4, 0, 0, 1, 0, 25, 12
|18, 5, 0, 0, 7, 0, 16, 0, 3, 10, 11, 12, 6, 0, 21, 15, 25, 0, 23, 9, 0, 4, 17, 0, 0
|19, 3, 10, 11, 17, 18, 15, 0, 0, 23, 0, 22, 14, 4, 20, 24, 0, 12, 0, 8, 7, 0, 0, 0, 9
|0, 8, 0, 0, 25, 11, 0, 7, 17, 20, 5, 3, 0, 0, 9, 4, 0, 18, 22, 1, 0, 0, 23, 19, 10
|4, 23, 24, 9, 0, 6, 0, 25, 12, 0, 8, 17, 1, 0, 0, 0, 2, 0, 21, 0, 16, 14, 20, 0, 11
|0, 0, 0, 12, 0, 5, 0, 1, 9, 0, 0, 0, 0, 0, 18, 17, 10, 7, 14, 0, 25, 8, 0, 0, 21
|15, 0, 25, 0, 0, 1, 0, 6, 5, 16, 9, 2, 17, 7, 11, 0, 23, 21, 8, 24, 13, 0, 4, 20, 18
|0, 13, 0, 1, 5, 0, 7, 22, 18, 24, 21, 0, 0, 23, 14, 9, 11, 0, 3, 4, 0, 0, 25, 17, 16
|22, 18, 8, 20, 0, 0, 19, 9, 13, 0, 0, 1, 0, 25, 0, 0, 14, 5, 7, 0, 23, 21, 0, 24, 15
|6, 16, 21, 23, 11, 0, 4, 12, 20, 0, 24, 0, 0, 0, 15, 13, 0, 22, 19, 0, 0, 2, 1, 14, 7
|0, 0, 0, 0, 4, 14, 2, 23, 10, 0, 19, 18, 22, 6, 13, 16, 1, 15, 20, 25, 0, 12, 0, 5, 3|];