order = 5;
grid = [|12, 0, 2, 8, 24, 19, 0, 10, 4, 15, 18, 11, 20, 22, 5, 0, 16, 6, 25, 14, 21, 0, 17, 13, 23
|0, 5, 0, 19, 9, 0, 14, 16, 25, 17, 21, 4, 3, 15, 0, 0, 22, 0, 24, 11, 6, 2, 0, 20, 12
|10, 21, 16, 6, 20, 13, 0, 18, 12, 8, 17, 25, 19, 9, 14, 0, 3, 5, 2, 1, 22, 7, 24, 15, 11
|0, 17, 0, 0, 14, 22, 2, 21, 24, 20, 13, 12, 16, 0, 0, 23, 15, 0, 0, 0, 0, 0, 18, 3, 4
|18, 0, 13, 22, 15, 5, 11, 0, 7, 3, 8, 23, 0, 1, 24, 0, 0, 12, 0, 20, 0, 25, 0, 0, 0
|0, 18, 0, 0, 21, 0, 7, 12, 0, 0, 25, 6, 14, 0, 1, 0, 0, 15, 4, 0, 13, 22, 0, 0, 24
|6, 11, 12, 15, 2, 14, 0, 0, 0, 0, 0, 13, 0, 0, 9, 19, 0, 3, 0, 0, 18, 23, 25, 4, 0
|4, 0, 10, 9, 17, 6, 21, 11, 8, 23, 3, 0, 15, 18, 19, 24, 0, 0, 7, 0, 16, 0, 0, 5, 14
|22, 19, 0, 5, 0, 0, 20, 15, 13, 0, 16, 7, 23, 21, 0, 0, 12, 0, 14, 25, 1, 9, 2, 0, 6
|8, 0, 14, 13, 7, 0, 25, 9, 16, 18, 4, 2, 17, 12, 20, 6, 5, 23, 11, 22, 10, 15, 21, 19, 3
|0, 7, 15, 21, 0, 25, 18, 20, 14, 24, 12, 8, 0, 0, 17, 22, 23, 2, 16, 0, 5, 4, 9, 11, 0
|5, 16, 25, 0, 18, 17, 19, 2, 6, 0, 22, 24, 0, 3, 13, 21, 9, 8, 0, 4, 0, 12, 20, 10, 1
|9, 0, 4, 0, 1, 23, 10, 8, 11, 0, 14, 0, 21, 0, 0, 0, 0, 25, 0, 13, 2, 0, 0, 22, 17
|19, 2, 8, 20, 22, 0, 1, 13, 9, 21, 15, 5, 6, 4, 23, 12, 0, 11, 10, 17, 0, 0, 3, 24, 18
|17, 0, 23, 11, 6, 0, 12, 22, 15, 0, 19, 18, 9, 2, 25, 14, 0, 24, 20, 5, 0, 13, 0, 0, 21
|24, 0, 22, 17, 8, 0, 3, 0, 2, 12, 0, 0, 5, 0, 4, 0, 11, 7, 13, 18, 0, 10, 23, 9, 16
|25, 20, 0, 12, 4, 18, 13, 0, 0, 6, 0, 10, 0, 0, 3, 5, 19, 14, 1, 15, 0, 8, 7, 2, 22
|11, 13, 19, 1, 0, 0, 5, 0, 0, 16, 0, 14, 12, 25, 0, 0, 8, 22, 0, 3, 0, 21, 4, 18, 15
|14, 15, 5, 2, 0, 0, 8, 25, 21, 0, 0, 0, 22, 23, 18, 0, 17, 4, 12, 0, 20, 3, 19, 6, 13
|7, 9, 3, 18, 16, 0, 4, 0, 22, 14, 11, 17, 8, 0, 15, 0, 6, 20, 23, 0, 0, 24, 5, 1, 0
|0, 24, 6, 4, 12, 21, 16, 3, 5, 11, 1, 15, 13, 0, 0, 0, 25, 19, 0, 8, 7, 0, 10, 23, 9
|13, 23, 18, 16, 19, 20, 17, 0, 0, 2, 5, 0, 0, 0, 0, 1, 0, 21, 3, 0, 0, 11, 22, 0, 0
|15, 8, 1, 3, 0, 9, 0, 14, 0, 13, 10, 20, 7, 17, 0, 11, 2, 16, 22, 23, 4, 19, 6, 12, 5
|0, 22, 9, 10, 11, 8, 6, 7, 1, 0, 23, 0, 0, 24, 0, 0, 0, 0, 5, 0, 0, 18, 13, 21, 0
|21, 0, 0, 7, 5, 12, 15, 23, 0, 22, 0, 3, 0, 11, 8, 0, 4, 9, 6, 10, 24, 16, 1, 25, 20|];