order = 7;
grid = [|4, 47, 0, 17, 2, 0, 0, 0, 0, 32, 15, 0, 0, 0, 43, 12, 44, 0, 0, 28, 19, 0, 30, 49, 0, 0, 31, 27, 0, 0, 39, 0, 0, 0, 0, 8, 36, 0, 0, 35, 23, 0, 26, 0, 0, 24, 48, 0, 41
|0, 0, 0, 0, 16, 0, 23, 0, 0, 30, 2, 0, 47, 48, 0, 40, 0, 0, 17, 0, 8, 0, 0, 35, 29, 11, 0, 33, 25, 43, 0, 0, 32, 24, 26, 7, 0, 37, 0, 0, 21, 14, 31, 0, 12, 0, 0, 27, 4
|9, 27, 0, 7, 0, 0, 0, 40, 29, 31, 43, 0, 0, 26, 0, 21, 41, 0, 0, 0, 0, 0, 0, 0, 0, 4, 32, 0, 23, 11, 15, 1, 3, 0, 2, 0, 12, 0, 0, 25, 24, 38, 30, 0, 0, 0, 0, 0, 49
|0, 39, 30, 21, 24, 0, 0, 27, 8, 0, 38, 37, 12, 0, 0, 0, 23, 2, 6, 49, 1, 0, 19, 0, 25, 26, 5, 48, 0, 41, 0, 0, 0, 0, 0, 0, 17, 11, 43, 34, 3, 9, 10, 16, 0, 0, 22, 0, 18
|42, 10, 20, 8, 0, 46, 32, 0, 3, 49, 0, 23, 0, 0, 0, 11, 7, 25, 22, 0, 18, 0, 0, 0, 0, 43, 36, 0, 30, 29, 0, 0, 40, 0, 0, 0, 31, 0, 48, 28, 1, 0, 0, 15, 5, 9, 2, 0, 0
|0, 0, 12, 3, 0, 14, 25, 0, 0, 0, 24, 0, 19, 0, 0, 29, 20, 0, 30, 15, 0, 17, 23, 9, 0, 7, 0, 0, 22, 45, 0, 0, 0, 0, 0, 0, 16, 0, 41, 0, 0, 40, 42, 0, 21, 33, 0, 8, 1
|0, 19, 41, 0, 43, 22, 0, 0, 0, 0, 0, 18, 9, 16, 10, 0, 0, 0, 0, 45, 0, 38, 0, 0, 0, 0, 0, 3, 0, 17, 0, 35, 48, 0, 12, 0, 0, 0, 46, 13, 30, 0, 36, 32, 0, 39, 0, 40, 0
|0, 7, 43, 0, 47, 44, 42, 0, 0, 0, 0, 0, 41, 0, 0, 39, 0, 26, 0, 5, 33, 20, 0, 30, 0, 0, 0, 0, 0, 8, 0, 34, 25, 0, 0, 0, 0, 6, 0, 18, 27, 49, 48, 21, 0, 0, 10, 14, 29
|2, 0, 0, 0, 46, 0, 19, 0, 0, 5, 0, 0, 0, 0, 0, 22, 8, 0, 20, 0, 28, 36, 39, 6, 4, 0, 0, 35, 47, 49, 21, 0, 23, 27, 0, 34, 0, 0, 37, 17, 9, 0, 0, 26, 15, 0, 45, 0, 7
|23, 33, 38, 0, 0, 30, 0, 9, 0, 0, 0, 6, 26, 39, 13, 0, 0, 45, 36, 0, 47, 0, 18, 32, 37, 46, 3, 0, 0, 0, 0, 0, 0, 0, 15, 12, 0, 0, 0, 1, 0, 4, 19, 27, 49, 28, 0, 41, 0
|0, 0, 45, 4, 0, 1, 18, 0, 47, 0, 29, 0, 8, 0, 7, 0, 40, 0, 21, 0, 9, 0, 0, 5, 49, 41, 0, 0, 0, 0, 30, 0, 13, 48, 0, 43, 0, 28, 0, 16, 0, 25, 0, 36, 46, 2, 12, 0, 0
|5, 0, 0, 49, 22, 0, 8, 0, 0, 20, 0, 36, 28, 3, 14, 0, 0, 37, 0, 0, 34, 0, 0, 0, 2, 0, 16, 45, 0, 12, 0, 7, 9, 0, 19, 11, 21, 0, 38, 0, 0, 48, 0, 0, 0, 0, 0, 43, 17
|26, 3, 0, 29, 0, 0, 27, 0, 7, 0, 0, 0, 31, 0, 0, 0, 48, 32, 0, 17, 12, 0, 0, 0, 0, 19, 23, 0, 0, 35, 0, 14, 10, 28, 20, 42, 8, 0, 0, 0, 5, 0, 9, 0, 6, 0, 39, 47, 0
|21, 25, 0, 13, 31, 0, 9, 16, 10, 0, 48, 0, 0, 46, 3, 0, 0, 0, 15, 6, 0, 0, 24, 0, 0, 0, 42, 0, 41, 0, 0, 44, 43, 32, 33, 22, 0, 0, 0, 36, 19, 0, 0, 0, 0, 34, 0, 5, 0
|0, 0, 0, 5, 0, 0, 0, 31, 48, 19, 0, 28, 0, 0, 0, 0, 0, 0, 0, 2, 0, 0, 0, 0, 12, 47, 0, 44, 0, 0, 0, 36, 30, 0, 45, 0, 0, 14, 7, 0, 13, 0, 24, 9, 27, 0, 23, 17, 6
|0, 49, 3, 2, 0, 0, 0, 0, 30, 40, 0, 0, 0, 0, 11, 0, 0, 9, 5, 0, 0, 0, 0, 27, 0, 45, 0, 18, 0, 1, 42, 0, 37, 10, 0, 41, 44, 48, 47, 43, 17, 0, 0, 0, 20, 12, 19, 26, 21
|46, 35, 0, 9, 36, 0, 0, 24, 0, 3, 10, 0, 1, 0, 0, 0, 6, 30, 0, 19, 17, 0, 0, 0, 23, 0, 33, 5, 0, 0, 43, 31, 0, 14, 0, 0, 0, 0, 29, 4, 0, 12, 39, 34, 0, 18, 0, 0, 0
|24, 1, 0, 0, 0, 0, 14, 42, 0, 0, 0, 0, 25, 0, 0, 0, 0, 18, 0, 37, 36, 7, 48, 0, 13, 38, 26, 0, 0, 0, 0, 32, 17, 0, 47, 30, 19, 0, 49, 0, 31, 35, 0, 11, 2, 10, 5, 0, 22
|0, 38, 0, 0, 12, 48, 0, 5, 46, 0, 4, 21, 0, 0, 47, 42, 0, 40, 49, 27, 7, 37, 0, 14, 24, 0, 1, 22, 0, 20, 0, 39, 29, 8, 23, 26, 0, 0, 0, 0, 0, 45, 0, 33, 0, 0, 30, 0, 0
|0, 16, 31, 15, 0, 43, 0, 47, 0, 33, 11, 0, 0, 20, 0, 35, 10, 0, 0, 22, 0, 29, 0, 0, 0, 34, 41, 0, 24, 0, 0, 25, 0, 0, 0, 9, 0, 0, 0, 6, 0, 0, 0, 7, 48, 40, 14, 0, 45
|18, 0, 0, 30, 0, 11, 29, 0, 0, 39, 0, 7, 17, 0, 8, 0, 0, 0, 0, 0, 16, 0, 0, 19, 6, 0, 10, 0, 2, 0, 0, 12, 27, 0, 0, 21, 0, 0, 40, 46, 0, 5, 0, 0, 0, 0, 0, 31, 0
|19, 36, 15, 0, 27, 18, 22, 0, 0, 0, 0, 5, 0, 0, 0, 16, 25, 0, 0, 0, 0, 0, 35, 0, 0, 44, 0, 0, 0, 2, 20, 0, 0, 29, 0, 47, 26, 0, 0, 0, 0, 0, 17, 23, 10, 0, 31, 0, 33
|39, 21, 35, 0, 0, 0, 24, 0, 41, 0, 23, 0, 40, 38, 42, 28, 0, 0, 0, 0, 6, 0, 2, 37, 0, 0, 45, 14, 0, 0, 26, 0, 4, 0, 0, 0, 0, 0, 33, 30, 0, 0, 0, 0, 0, 0, 0, 15, 5
|0, 8, 26, 10, 28, 42, 0, 0, 0, 0, 7, 3, 0, 0, 0, 49, 0, 0, 24, 18, 43, 0, 13, 0, 0, 0, 4, 0, 0, 0, 36, 15, 0, 45, 17, 0, 0, 0, 35, 27, 0, 0, 1, 40, 0, 0, 0, 0, 0
|0, 31, 0, 0, 14, 23, 20, 0, 0, 0, 33, 44, 0, 0, 0, 37, 0, 0, 26, 0, 0, 0, 16, 36, 0, 22, 0, 8, 35, 0, 9, 0, 0, 3, 30, 1, 46, 40, 0, 5, 12, 15, 7, 0, 0, 32, 0, 13, 0
|1, 0, 0, 0, 0, 0, 33, 37, 0, 0, 30, 35, 15, 0, 27, 0, 5, 48, 14, 46, 0, 24, 10, 0, 0, 18, 0, 0, 31, 0, 0, 16, 42, 22, 0, 0, 0, 49, 0, 0, 38, 2, 0, 43, 0, 0, 21, 0, 0
|43, 5, 0, 16, 11, 0, 3, 0, 31, 0, 12, 0, 6, 0, 0, 2, 0, 0, 35, 0, 0, 0, 0, 0, 9, 40, 29, 28, 38, 23, 0, 48, 1, 0, 0, 20, 0, 0, 0, 24, 36, 19, 0, 0, 0, 0, 27, 30, 34
|25, 0, 0, 0, 9, 2, 38, 43, 0, 16, 22, 0, 0, 0, 0, 1, 36, 0, 23, 31, 0, 47, 32, 0, 15, 27, 30, 0, 0, 19, 0, 28, 0, 0, 5, 39, 45, 44, 0, 7, 18, 37, 41, 4, 0, 35, 11, 6, 3
|31, 0, 0, 0, 8, 17, 0, 30, 37, 38, 47, 0, 35, 11, 44, 0, 24, 0, 0, 1, 5, 0, 45, 43, 0, 0, 0, 46, 0, 0, 0, 20, 0, 2, 0, 0, 0, 19, 26, 42, 0, 7, 0, 0, 0, 22, 0, 0, 0
|45, 30, 32, 18, 0, 49, 15, 21, 43, 29, 0, 26, 48, 0, 0, 9, 16, 0, 27, 0, 0, 6, 34, 13, 0, 39, 0, 7, 0, 0, 0, 0, 0, 0, 0, 35, 0, 31, 28, 33, 0, 0, 0, 0, 0, 0, 46, 0, 25
|47, 0, 37, 0, 0, 27, 39, 22, 2, 24, 0, 0, 3, 19, 15, 0, 0, 0, 42, 8, 0, 18, 0, 0, 35, 0, 38, 0, 0, 28, 32, 26, 0, 40, 0, 0, 6, 0, 4, 0, 48, 21, 44, 0, 45, 43, 0, 0, 12
|0, 42, 34, 38, 0, 5, 21, 0, 33, 0, 20, 0, 46, 0, 48, 19, 45, 0, 2, 0, 4, 0, 22, 10, 0, 36, 37, 40, 0, 9, 0, 11, 41, 0, 24, 0, 0, 0, 32, 0, 0, 0, 18, 0, 8, 26, 0, 28, 0
|0, 44, 0, 0, 0, 3, 40, 0, 25, 0, 39, 9, 23, 28, 12, 0, 0, 49, 13, 0, 0, 26, 29, 31, 5, 0, 8, 0, 10, 0, 0, 30, 45, 0, 0, 0, 0, 0, 2, 0, 0, 34, 0, 0, 0, 36, 1, 0, 24
|0, 43, 0, 1, 35, 0, 4, 10, 13, 45, 42, 49, 0, 34, 18, 0, 0, 0, 37, 26, 0, 0, 41, 2, 0, 0, 19, 0, 0, 0, 31, 0, 0, 21, 0, 23, 0, 9, 36, 38, 25, 8, 11, 0, 39, 48, 33, 16, 27
|10, 0, 25, 24, 19, 26, 0, 6, 44, 0, 1, 0, 0, 0, 0, 0, 3, 0, 0, 21, 0, 0, 0, 20, 0, 48, 0, 0, 0, 0, 0, 0, 8, 0, 0, 0, 13, 22, 45, 12, 47, 43, 14, 0, 31, 0, 0, 23, 0
|36, 0, 4, 0, 25, 0, 0, 14, 22, 41, 0, 0, 0, 31, 0, 0, 21, 42, 0, 0, 0, 0, 0, 3, 27, 0, 11, 0, 5, 0, 10, 0, 34, 0, 44, 38, 1, 0, 19, 32, 37, 0, 33, 0, 17, 0, 0, 0, 0
|44, 0, 0, 42, 30, 0, 11, 0, 0, 0, 35, 15, 0, 0, 1, 18, 26, 12, 0, 0, 31, 0, 0, 48, 0, 0, 0, 0, 37, 46, 0, 45, 0, 33, 13, 40, 0, 34, 0, 47, 43, 28, 8, 0, 0, 0, 3, 20, 10
|0, 28, 23, 6, 33, 20, 47, 0, 0, 0, 0, 2, 5, 43, 0, 13, 17, 0, 41, 24, 0, 19, 0, 0, 31, 29, 18, 1, 42, 36, 48, 0, 0, 38, 7, 0, 0, 0, 16, 0, 10, 0, 0, 35, 0, 15, 0, 0, 11
|22, 32, 48, 40, 0, 0, 0, 0, 0, 0, 28, 30, 37, 0, 0, 6, 27, 10, 0, 0, 39, 41, 0, 0, 0, 35, 24, 0, 0, 18, 0, 0, 0, 0, 8, 3, 2, 0, 0, 0, 42, 0, 38, 12, 0, 0, 25, 0, 0
|0, 0, 21, 0, 0, 0, 41, 0, 1, 0, 40, 25, 0, 47, 30, 32, 37, 44, 0, 0, 0, 5, 46, 0, 0, 0, 0, 12, 0, 0, 4, 0, 0, 0, 0, 0, 0, 24, 17, 0, 0, 0, 27, 0, 19, 42, 0, 36, 16
|0, 15, 0, 39, 0, 16, 0, 46, 32, 0, 13, 0, 0, 0, 25, 20, 38, 5, 34, 4, 0, 0, 40, 28, 7, 0, 47, 30, 0, 0, 14, 2, 19, 26, 43, 0, 41, 0, 0, 0, 35, 0, 21, 0, 23, 6, 18, 0, 44
|0, 0, 0, 0, 7, 35, 0, 0, 0, 0, 19, 39, 0, 0, 36, 0, 0, 0, 9, 23, 0, 0, 38, 44, 0, 15, 0, 37, 3, 0, 0, 0, 0, 0, 0, 13, 0, 5, 12, 0, 0, 6, 34, 29, 0, 0, 47, 0, 0
|27, 0, 5, 31, 44, 0, 0, 0, 28, 13, 0, 14, 0, 15, 38, 0, 0, 0, 47, 0, 48, 16, 37, 17, 0, 0, 35, 24, 0, 0, 0, 4, 0, 0, 0, 46, 42, 0, 0, 0, 0, 1, 0, 10, 30, 0, 41, 25, 0
|7, 0, 0, 0, 0, 0, 16, 48, 6, 47, 0, 0, 0, 0, 0, 43, 11, 0, 0, 41, 0, 45, 0, 0, 0, 0, 15, 34, 0, 24, 2, 0, 0, 9, 0, 44, 30, 0, 0, 37, 49, 20, 23, 0, 0, 0, 28, 1, 26
|0, 0, 1, 0, 32, 0, 43, 0, 49, 0, 21, 8, 44, 22, 0, 0, 0, 0, 0, 0, 0, 31, 0, 0, 0, 0, 0, 41, 0, 30, 45, 5, 0, 0, 0, 0, 34, 17, 6, 40, 0, 0, 12, 0, 0, 0, 0, 0, 0
|0, 4, 49, 0, 17, 34, 48, 0, 38, 0, 16, 32, 0, 0, 0, 3, 22, 21, 0, 12, 24, 0, 0, 0, 20, 0, 40, 23, 29, 42, 13, 0, 31, 37, 36, 0, 0, 0, 10, 0, 14, 0, 0, 44, 9, 45, 0, 0, 39
|41, 0, 42, 20, 0, 0, 0, 26, 23, 0, 0, 11, 0, 9, 0, 30, 0, 15, 0, 40, 44, 25, 0, 1, 0, 0, 7, 0, 0, 0, 0, 0, 0, 6, 32, 24, 0, 0, 0, 21, 29, 13, 2, 0, 0, 0, 0, 19, 0
|29, 23, 18, 0, 21, 38, 46, 0, 19, 0, 27, 45, 0, 10, 0, 0, 14, 0, 28, 0, 0, 8, 0, 0, 32, 30, 6, 0, 1, 44, 47, 0, 0, 25, 40, 0, 35, 4, 0, 0, 2, 0, 0, 0, 0, 31, 49, 0, 20
|0, 9, 0, 35, 0, 0, 30, 34, 18, 0, 5, 1, 24, 0, 45, 26, 49, 27, 0, 0, 0, 22, 0, 4, 0, 0, 44, 0, 39, 0, 12, 43, 0, 0, 0, 25, 0, 0, 0, 0, 0, 0, 6, 13, 0, 21, 0, 7, 48|];