order = 7;
grid = [|0, 0, 0, 49, 35, 11, 42, 12, 0, 43, 0, 0, 19, 1, 0, 0, 0, 10, 0, 0, 0, 0, 33, 0, 0, 0, 0, 0, 0, 0, 0, 15, 0, 0, 2, 0, 28, 36, 0, 0, 0, 0, 5, 0, 8, 0, 0, 41, 4
|3, 17, 0, 27, 0, 30, 0, 0, 23, 11, 0, 0, 10, 46, 16, 0, 6, 0, 0, 0, 0, 25, 2, 35, 9, 0, 21, 0, 44, 40, 0, 29, 0, 4, 39, 26, 0, 1, 0, 0, 8, 0, 0, 18, 0, 0, 0, 0, 0
|0, 13, 22, 0, 34, 0, 0, 20, 0, 33, 0, 0, 18, 0, 23, 25, 27, 0, 39, 31, 9, 4, 8, 0, 0, 0, 16, 29, 0, 0, 49, 42, 11, 38, 0, 0, 0, 2, 0, 19, 0, 43, 10, 0, 0, 12, 0, 0, 3
|0, 2, 9, 0, 26, 43, 0, 44, 30, 0, 0, 38, 0, 0, 48, 21, 0, 0, 0, 0, 34, 42, 19, 3, 28, 0, 1, 0, 0, 18, 0, 0, 37, 0, 5, 0, 49, 0, 20, 22, 0, 33, 46, 0, 0, 0, 0, 16, 47
|14, 0, 0, 0, 0, 46, 0, 0, 22, 0, 28, 8, 9, 0, 2, 7, 20, 0, 41, 26, 3, 5, 0, 36, 45, 0, 0, 0, 35, 0, 0, 0, 0, 19, 43, 4, 18, 0, 37, 12, 48, 17, 0, 0, 39, 0, 0, 27, 0
|0, 28, 33, 0, 10, 20, 0, 0, 0, 0, 0, 0, 4, 16, 5, 0, 22, 0, 0, 30, 0, 34, 0, 0, 0, 14, 0, 0, 41, 12, 0, 1, 13, 36, 26, 15, 0, 46, 0, 45, 0, 0, 19, 0, 2, 9, 43, 0, 0
|6, 0, 21, 12, 45, 18, 8, 35, 0, 42, 2, 0, 25, 29, 0, 0, 0, 49, 32, 1, 15, 0, 48, 0, 0, 27, 0, 0, 23, 0, 7, 0, 9, 34, 0, 47, 13, 16, 10, 0, 39, 0, 0, 0, 26, 0, 44, 0, 0
|0, 0, 0, 15, 37, 0, 0, 22, 0, 0, 0, 4, 0, 49, 0, 39, 0, 16, 12, 0, 0, 1, 0, 28, 0, 24, 33, 35, 11, 36, 0, 43, 0, 0, 3, 0, 47, 8, 0, 32, 0, 25, 44, 0, 19, 5, 0, 46, 23
|0, 0, 0, 0, 0, 0, 20, 0, 0, 28, 0, 0, 37, 0, 32, 0, 13, 0, 4, 46, 11, 23, 0, 0, 41, 0, 0, 25, 0, 0, 35, 0, 22, 0, 40, 0, 43, 0, 0, 3, 6, 0, 0, 0, 10, 0, 42, 49, 15
|0, 0, 0, 0, 0, 0, 23, 16, 0, 38, 0, 27, 17, 47, 0, 0, 0, 0, 28, 29, 0, 0, 43, 48, 18, 0, 0, 4, 10, 31, 46, 0, 0, 0, 0, 33, 0, 0, 34, 0, 0, 30, 12, 0, 0, 39, 0, 13, 0
|44, 21, 0, 43, 0, 3, 0, 0, 0, 0, 0, 0, 0, 23, 0, 41, 37, 0, 0, 0, 0, 0, 26, 45, 0, 0, 13, 19, 0, 0, 0, 0, 0, 0, 33, 0, 0, 0, 0, 0, 24, 0, 0, 0, 7, 4, 18, 0, 16
|0, 0, 29, 0, 0, 17, 0, 40, 41, 0, 0, 0, 0, 0, 33, 24, 42, 0, 25, 8, 0, 0, 7, 11, 0, 46, 34, 0, 16, 27, 0, 38, 0, 0, 0, 36, 0, 4, 45, 18, 0, 23, 0, 43, 0, 28, 0, 14, 20
|0, 35, 0, 11, 18, 48, 0, 45, 24, 0, 0, 0, 43, 0, 20, 10, 44, 47, 0, 40, 0, 0, 42, 0, 0, 0, 27, 0, 32, 37, 0, 0, 4, 0, 19, 39, 0, 13, 0, 38, 0, 7, 0, 0, 0, 41, 0, 0, 0
|0, 10, 42, 33, 0, 0, 0, 7, 0, 0, 8, 25, 39, 11, 19, 45, 9, 0, 0, 0, 0, 22, 40, 0, 0, 0, 31, 12, 0, 6, 15, 18, 23, 0, 34, 0, 20, 48, 41, 27, 0, 0, 32, 2, 0, 0, 37, 26, 35
|0, 0, 0, 0, 0, 34, 0, 0, 18, 0, 0, 17, 35, 37, 0, 46, 36, 26, 0, 38, 0, 0, 41, 0, 4, 2, 0, 0, 8, 0, 0, 0, 0, 12, 0, 19, 1, 45, 0, 0, 0, 0, 0, 6, 0, 49, 0, 0, 0
|42, 41, 0, 48, 39, 0, 21, 38, 33, 0, 0, 23, 0, 36, 0, 0, 32, 0, 10, 2, 45, 0, 0, 0, 16, 37, 20, 0, 9, 28, 24, 0, 35, 0, 0, 27, 0, 3, 22, 46, 40, 0, 0, 0, 17, 31, 0, 7, 13
|0, 0, 5, 44, 32, 14, 0, 34, 31, 7, 0, 40, 45, 39, 4, 16, 21, 0, 0, 11, 0, 0, 0, 0, 22, 28, 0, 33, 0, 15, 42, 27, 0, 0, 0, 0, 0, 17, 6, 2, 37, 0, 0, 10, 0, 48, 0, 0, 43
|0, 38, 27, 7, 0, 0, 0, 0, 14, 0, 0, 24, 11, 0, 0, 0, 40, 9, 0, 49, 0, 0, 0, 46, 0, 0, 0, 44, 39, 0, 0, 17, 0, 0, 37, 32, 26, 0, 0, 0, 0, 5, 0, 0, 35, 0, 0, 0, 0
|37, 30, 12, 8, 29, 0, 0, 2, 1, 6, 0, 0, 0, 22, 0, 31, 0, 0, 0, 0, 0, 39, 21, 9, 40, 25, 7, 0, 0, 0, 0, 36, 0, 0, 47, 11, 15, 0, 16, 0, 18, 0, 0, 0, 27, 46, 19, 0, 24
|0, 0, 0, 46, 0, 0, 10, 30, 19, 0, 0, 44, 20, 42, 0, 5, 33, 0, 15, 7, 14, 32, 0, 0, 0, 0, 0, 0, 0, 0, 0, 0, 41, 0, 38, 0, 0, 9, 0, 0, 28, 39, 0, 4, 23, 37, 8, 12, 22
|0, 40, 1, 0, 31, 0, 26, 28, 49, 0, 0, 0, 0, 0, 0, 0, 0, 29, 18, 0, 0, 10, 0, 8, 0, 0, 24, 45, 14, 0, 34, 0, 32, 0, 16, 0, 36, 35, 47, 20, 23, 42, 2, 30, 0, 0, 5, 44, 39
|0, 47, 0, 0, 40, 39, 0, 36, 0, 0, 37, 0, 0, 0, 0, 13, 34, 32, 2, 21, 10, 0, 6, 0, 24, 0, 41, 0, 31, 0, 0, 4, 27, 0, 0, 0, 0, 42, 0, 0, 0, 0, 0, 0, 0, 26, 48, 0, 9
|5, 0, 0, 34, 33, 36, 30, 0, 0, 13, 9, 21, 22, 12, 28, 19, 49, 43, 0, 24, 0, 45, 37, 4, 0, 0, 0, 40, 0, 41, 44, 23, 3, 25, 17, 10, 32, 0, 27, 0, 1, 46, 6, 14, 0, 2, 7, 39, 38
|27, 0, 10, 22, 0, 21, 18, 0, 46, 45, 0, 0, 0, 0, 12, 0, 0, 30, 35, 0, 0, 0, 0, 0, 0, 0, 0, 23, 0, 0, 37, 0, 0, 15, 49, 0, 0, 31, 0, 0, 0, 2, 0, 5, 0, 16, 36, 0, 0
|12, 11, 38, 0, 0, 23, 0, 31, 0, 17, 27, 28, 44, 41, 29, 36, 45, 0, 0, 48, 40, 15, 0, 42, 0, 7, 0, 2, 33, 5, 8, 46, 14, 32, 0, 0, 39, 6, 0, 16, 0, 37, 35, 0, 13, 18, 47, 10, 0
|17, 0, 0, 13, 28, 0, 4, 47, 0, 0, 24, 0, 1, 19, 0, 0, 0, 27, 31, 5, 46, 0, 0, 0, 30, 0, 0, 3, 0, 0, 43, 0, 2, 7, 18, 41, 0, 0, 40, 9, 38, 15, 20, 0, 0, 0, 45, 0, 49
|0, 0, 49, 0, 0, 0, 0, 0, 38, 40, 0, 0, 16, 0, 0, 11, 15, 41, 0, 4, 0, 18, 28, 5, 20, 10, 0, 0, 0, 13, 9, 0, 12, 6, 30, 21, 0, 0, 36, 0, 0, 35, 0, 0, 0, 0, 0, 37, 0
|0, 0, 43, 42, 46, 41, 2, 5, 0, 4, 0, 0, 29, 0, 0, 9, 0, 23, 3, 0, 18, 0, 13, 14, 0, 11, 47, 32, 0, 48, 0, 0, 26, 0, 0, 8, 0, 0, 7, 0, 34, 0, 22, 21, 31, 1, 12, 30, 40
|0, 0, 0, 17, 0, 44, 0, 0, 32, 0, 0, 0, 0, 24, 0, 20, 0, 0, 19, 0, 16, 0, 0, 34, 0, 0, 15, 21, 37, 42, 0, 0, 0, 9, 14, 46, 22, 0, 35, 10, 0, 0, 0, 39, 0, 3, 40, 5, 33
|47, 0, 0, 0, 0, 0, 0, 0, 40, 0, 0, 37, 38, 21, 0, 0, 2, 15, 0, 14, 35, 49, 0, 0, 0, 32, 0, 43, 1, 0, 0, 41, 0, 33, 28, 25, 0, 0, 0, 0, 0, 6, 0, 0, 0, 0, 22, 4, 11
|0, 27, 46, 0, 49, 26, 0, 6, 13, 22, 35, 36, 0, 3, 43, 0, 5, 21, 38, 10, 0, 11, 0, 40, 7, 17, 44, 0, 0, 4, 0, 34, 29, 16, 23, 0, 0, 0, 8, 33, 0, 1, 42, 37, 0, 15, 31, 48, 0
|1, 23, 28, 6, 0, 0, 35, 14, 0, 0, 0, 0, 0, 15, 45, 0, 30, 0, 29, 33, 48, 0, 0, 10, 0, 39, 22, 42, 7, 49, 0, 5, 46, 0, 0, 17, 0, 0, 18, 31, 0, 0, 0, 16, 0, 0, 2, 0, 0
|0, 0, 16, 39, 8, 0, 0, 0, 0, 0, 0, 42, 46, 0, 31, 28, 41, 0, 34, 0, 0, 19, 35, 30, 1, 0, 0, 37, 27, 43, 0, 0, 38, 17, 0, 0, 0, 0, 5, 0, 2, 0, 0, 0, 32, 10, 23, 24, 0
|4, 0, 30, 24, 0, 15, 41, 0, 25, 0, 0, 39, 33, 0, 22, 49, 11, 0, 7, 0, 0, 0, 0, 2, 23, 0, 9, 16, 0, 21, 32, 0, 0, 0, 31, 0, 0, 0, 38, 0, 45, 34, 43, 26, 0, 14, 0, 0, 6
|0, 0, 0, 10, 14, 0, 43, 0, 0, 44, 0, 0, 0, 28, 0, 26, 1, 46, 0, 0, 0, 0, 0, 0, 6, 31, 0, 0, 2, 19, 0, 0, 0, 22, 48, 12, 0, 30, 42, 15, 4, 0, 8, 17, 0, 0, 35, 21, 41
|30, 0, 0, 35, 3, 32, 0, 0, 0, 8, 42, 18, 0, 27, 34, 0, 0, 19, 0, 16, 0, 7, 0, 21, 5, 0, 0, 48, 0, 0, 13, 0, 33, 0, 6, 37, 31, 0, 0, 47, 0, 28, 26, 0, 0, 17, 0, 0, 29
|0, 0, 0, 0, 0, 0, 0, 3, 11, 0, 0, 34, 24, 0, 17, 0, 0, 39, 0, 41, 36, 0, 10, 0, 0, 19, 0, 0, 0, 46, 14, 25, 8, 0, 0, 40, 45, 38, 44, 0, 0, 9, 0, 0, 0, 0, 0, 47, 0
|10, 8, 0, 0, 0, 0, 0, 0, 2, 1, 36, 0, 26, 33, 37, 15, 0, 0, 46, 20, 28, 40, 18, 31, 0, 0, 0, 27, 38, 0, 4, 49, 39, 0, 29, 0, 7, 0, 32, 41, 21, 0, 0, 0, 0, 0, 0, 34, 0
|18, 46, 0, 37, 43, 29, 0, 41, 0, 35, 0, 0, 28, 0, 0, 0, 25, 22, 11, 32, 0, 9, 45, 24, 33, 0, 0, 0, 48, 34, 16, 0, 31, 0, 0, 0, 6, 12, 0, 1, 13, 4, 0, 0, 0, 7, 3, 40, 0
|11, 0, 17, 1, 23, 7, 49, 0, 0, 5, 45, 0, 0, 0, 21, 44, 12, 0, 0, 0, 24, 16, 0, 0, 0, 6, 0, 41, 0, 32, 0, 0, 15, 0, 36, 43, 30, 34, 29, 0, 0, 0, 0, 0, 20, 0, 38, 18, 0
|20, 0, 19, 0, 0, 4, 6, 0, 0, 21, 23, 7, 32, 30, 0, 0, 31, 40, 0, 42, 29, 0, 0, 0, 3, 0, 0, 26, 5, 9, 0, 37, 0, 0, 0, 22, 2, 33, 48, 0, 0, 0, 39, 0, 0, 13, 11, 35, 10
|21, 0, 0, 0, 0, 27, 34, 29, 16, 10, 4, 46, 0, 0, 0, 0, 14, 8, 48, 0, 0, 2, 39, 47, 32, 1, 0, 0, 45, 3, 0, 0, 0, 0, 7, 0, 0, 5, 0, 17, 0, 20, 49, 31, 0, 22, 0, 33, 42
|31, 0, 0, 0, 30, 0, 0, 33, 28, 18, 0, 20, 12, 26, 0, 0, 0, 45, 0, 43, 42, 0, 0, 27, 0, 15, 2, 0, 0, 29, 48, 24, 19, 0, 0, 14, 17, 32, 0, 7, 47, 8, 0, 0, 0, 0, 49, 3, 0
|0, 0, 36, 23, 25, 49, 0, 24, 0, 0, 21, 0, 0, 10, 0, 38, 0, 0, 0, 0, 4, 0, 31, 19, 14, 41, 29, 0, 0, 2, 0, 47, 40, 46, 0, 20, 0, 26, 33, 39, 30, 0, 0, 0, 18, 32, 0, 17, 0
|33, 0, 41, 29, 0, 10, 48, 25, 0, 31, 0, 0, 0, 43, 0, 0, 0, 0, 0, 44, 30, 0, 9, 0, 0, 0, 5, 0, 0, 26, 0, 0, 0, 37, 0, 0, 0, 27, 49, 21, 35, 0, 0, 0, 12, 0, 0, 0, 2
|0, 5, 0, 47, 22, 12, 0, 0, 39, 0, 49, 0, 27, 2, 41, 32, 26, 20, 0, 6, 17, 0, 0, 0, 0, 0, 30, 18, 36, 0, 0, 0, 0, 45, 9, 0, 0, 28, 0, 0, 0, 13, 15, 0, 43, 0, 10, 19, 0
|0, 0, 0, 0, 20, 0, 46, 0, 0, 30, 19, 29, 23, 40, 7, 3, 0, 18, 0, 0, 0, 0, 0, 0, 0, 0, 49, 8, 0, 14, 0, 33, 0, 28, 22, 2, 0, 10, 0, 24, 0, 0, 0, 0, 0, 0, 0, 31, 26
|0, 14, 0, 26, 0, 42, 40, 37, 35, 15, 0, 47, 34, 5, 11, 0, 10, 31, 21, 19, 0, 0, 32, 7, 48, 0, 4, 36, 0, 20, 12, 13, 0, 0, 44, 45, 38, 0, 0, 6, 0, 22, 24, 23, 30, 0, 0, 8, 0
|0, 0, 24, 0, 0, 8, 0, 0, 0, 0, 16, 11, 14, 32, 49, 0, 0, 0, 0, 15, 2, 0, 22, 26, 47, 40, 39, 0, 0, 0, 27, 0, 10, 0, 35, 31, 12, 23, 0, 36, 29, 0, 0, 41, 21, 25, 0, 0, 0|];