order = 7;
grid = [|32, 0, 0, 3, 0, 0, 16, 0, 0, 13, 35, 44, 2, 0, 0, 45, 22, 11, 0, 0, 0, 47, 0, 0, 0, 17, 15, 37, 40, 20, 46, 0, 0, 33, 0, 25, 0, 0, 4, 41, 0, 8, 0, 27, 0, 39, 0, 0, 29
|17, 0, 0, 0, 31, 6, 47, 8, 26, 0, 0, 37, 0, 4, 0, 0, 14, 19, 12, 0, 10, 34, 0, 1, 0, 3, 0, 0, 0, 0, 0, 0, 32, 0, 0, 0, 0, 0, 40, 0, 0, 0, 16, 0, 0, 0, 38, 0, 49
|0, 0, 8, 0, 0, 0, 24, 0, 0, 38, 0, 27, 9, 0, 2, 0, 13, 0, 20, 0, 0, 0, 0, 0, 0, 42, 40, 0, 11, 49, 0, 0, 0, 29, 21, 44, 0, 0, 31, 1, 34, 15, 28, 12, 0, 0, 3, 0, 4
|27, 13, 4, 0, 0, 0, 0, 0, 0, 33, 32, 20, 0, 0, 24, 5, 31, 0, 0, 0, 0, 25, 0, 0, 16, 45, 0, 0, 38, 17, 36, 37, 0, 0, 8, 2, 18, 28, 46, 49, 0, 12, 26, 41, 0, 14, 0, 0, 0
|12, 0, 41, 18, 0, 1, 0, 14, 40, 42, 25, 11, 0, 6, 0, 48, 46, 28, 49, 0, 36, 9, 27, 0, 0, 0, 0, 0, 45, 0, 3, 4, 30, 0, 19, 0, 10, 0, 0, 32, 47, 35, 43, 24, 31, 13, 17, 0, 37
|0, 22, 21, 11, 0, 0, 0, 49, 18, 0, 48, 0, 36, 0, 32, 0, 0, 0, 29, 0, 0, 6, 33, 0, 31, 24, 0, 41, 42, 25, 0, 10, 12, 0, 27, 0, 0, 7, 37, 30, 0, 3, 0, 0, 0, 0, 0, 0, 0
|0, 19, 15, 0, 23, 0, 0, 34, 7, 3, 0, 0, 0, 0, 30, 0, 47, 37, 18, 27, 0, 36, 0, 35, 49, 12, 48, 0, 0, 0, 28, 31, 0, 0, 39, 20, 43, 0, 0, 0, 13, 0, 32, 0, 22, 2, 0, 11, 42
|0, 36, 10, 49, 42, 11, 0, 25, 3, 30, 39, 0, 0, 0, 0, 0, 0, 0, 0, 0, 0, 0, 0, 0, 0, 0, 26, 0, 29, 0, 44, 15, 0, 40, 18, 0, 31, 0, 2, 37, 0, 20, 1, 4, 27, 0, 8, 0, 22
|14, 12, 0, 26, 2, 0, 13, 0, 0, 0, 0, 16, 0, 0, 20, 0, 23, 0, 44, 0, 31, 0, 0, 0, 0, 47, 0, 8, 3, 0, 0, 43, 0, 4, 0, 0, 27, 0, 22, 0, 49, 28, 30, 42, 0, 32, 5, 0, 34
|37, 0, 0, 0, 0, 33, 27, 0, 46, 0, 0, 0, 43, 23, 4, 0, 0, 42, 0, 1, 11, 0, 14, 44, 0, 0, 5, 3, 0, 38, 10, 0, 6, 0, 34, 0, 41, 0, 9, 16, 26, 21, 0, 0, 19, 36, 12, 0, 18
|0, 32, 44, 38, 25, 0, 19, 48, 0, 1, 0, 0, 49, 12, 36, 8, 0, 22, 9, 0, 27, 11, 21, 0, 37, 0, 0, 40, 0, 0, 41, 0, 0, 26, 0, 30, 0, 0, 15, 33, 0, 0, 3, 28, 35, 46, 16, 0, 6
|0, 0, 0, 23, 43, 41, 0, 38, 0, 0, 0, 0, 0, 11, 48, 10, 28, 0, 0, 0, 0, 17, 0, 0, 12, 13, 0, 22, 36, 0, 0, 42, 0, 46, 24, 3, 5, 0, 44, 4, 0, 0, 0, 0, 40, 25, 0, 49, 0
|47, 40, 30, 0, 0, 15, 0, 0, 0, 0, 14, 33, 0, 34, 25, 0, 43, 38, 3, 2, 16, 46, 0, 6, 45, 41, 18, 0, 0, 12, 35, 9, 22, 0, 0, 36, 0, 11, 0, 39, 42, 19, 7, 0, 13, 0, 37, 0, 10
|20, 0, 6, 0, 46, 5, 8, 42, 31, 0, 29, 40, 0, 24, 0, 0, 0, 0, 41, 26, 21, 15, 1, 23, 10, 36, 0, 0, 0, 30, 37, 32, 0, 28, 0, 0, 25, 18, 7, 0, 0, 0, 0, 0, 0, 0, 48, 0, 9
|33, 0, 46, 32, 0, 0, 26, 36, 48, 18, 0, 0, 25, 0, 40, 2, 0, 13, 16, 0, 0, 0, 31, 41, 0, 0, 6, 11, 0, 0, 8, 0, 38, 0, 0, 0, 12, 0, 24, 0, 0, 0, 9, 29, 0, 4, 23, 47, 0
|8, 0, 24, 25, 0, 44, 0, 30, 42, 45, 6, 0, 29, 0, 0, 0, 0, 0, 0, 19, 0, 0, 2, 12, 0, 7, 0, 0, 18, 0, 27, 0, 11, 49, 0, 0, 13, 43, 33, 48, 9, 46, 0, 0, 0, 0, 34, 35, 31
|28, 35, 0, 0, 0, 0, 3, 0, 19, 12, 0, 2, 31, 47, 33, 0, 0, 0, 27, 25, 0, 40, 0, 0, 46, 16, 0, 0, 0, 0, 4, 0, 7, 30, 0, 0, 0, 0, 10, 18, 6, 29, 13, 43, 0, 44, 42, 48, 39
|42, 16, 0, 0, 12, 0, 0, 4, 32, 0, 0, 0, 34, 35, 1, 23, 0, 43, 0, 0, 6, 13, 0, 0, 18, 15, 29, 24, 33, 47, 25, 36, 0, 17, 0, 0, 0, 0, 0, 0, 28, 0, 40, 49, 0, 0, 2, 0, 0
|7, 27, 0, 19, 40, 29, 0, 23, 43, 0, 0, 0, 5, 0, 21, 18, 0, 15, 0, 22, 12, 3, 0, 0, 17, 0, 49, 0, 26, 16, 6, 0, 42, 0, 0, 0, 35, 47, 0, 0, 0, 2, 41, 0, 0, 10, 25, 33, 0
|0, 0, 0, 0, 4, 47, 0, 41, 0, 0, 0, 0, 0, 0, 0, 0, 0, 0, 0, 0, 44, 20, 39, 36, 28, 38, 33, 35, 12, 13, 0, 0, 0, 23, 29, 5, 42, 32, 27, 0, 0, 7, 45, 0, 3, 24, 21, 0, 0
|0, 11, 0, 0, 0, 48, 0, 7, 21, 0, 3, 0, 0, 33, 29, 0, 4, 31, 0, 0, 46, 0, 0, 0, 0, 0, 0, 0, 0, 0, 0, 22, 37, 44, 43, 0, 26, 0, 1, 0, 0, 30, 38, 16, 12, 28, 18, 0, 0
|0, 0, 0, 0, 0, 8, 10, 0, 33, 20, 0, 0, 0, 0, 0, 0, 40, 27, 21, 0, 0, 0, 0, 0, 0, 0, 1, 45, 0, 4, 0, 0, 31, 16, 0, 28, 32, 41, 49, 17, 23, 36, 0, 0, 30, 9, 14, 0, 0
|0, 4, 25, 46, 0, 28, 42, 35, 0, 0, 0, 0, 30, 10, 0, 7, 0, 41, 0, 31, 0, 0, 47, 14, 0, 0, 0, 0, 0, 0, 0, 0, 29, 38, 9, 0, 0, 37, 0, 0, 0, 16, 18, 0, 11, 48, 0, 40, 45
|21, 0, 0, 20, 16, 24, 0, 0, 0, 0, 49, 0, 0, 26, 0, 0, 0, 1, 13, 28, 0, 8, 0, 0, 0, 34, 0, 0, 14, 5, 0, 12, 0, 0, 42, 0, 0, 0, 0, 0, 0, 0, 39, 0, 0, 0, 0, 0, 17
|3, 0, 0, 35, 0, 0, 0, 0, 38, 2, 0, 4, 0, 0, 11, 25, 26, 0, 14, 10, 9, 0, 0, 30, 0, 0, 0, 0, 47, 0, 0, 18, 24, 19, 15, 0, 0, 0, 0, 44, 0, 5, 34, 1, 43, 49, 0, 0, 41
|0, 0, 9, 40, 14, 0, 1, 39, 0, 0, 44, 47, 8, 27, 45, 22, 0, 18, 42, 24, 0, 0, 0, 25, 43, 28, 17, 13, 0, 46, 30, 0, 0, 0, 32, 31, 11, 48, 26, 0, 0, 0, 0, 19, 0, 5, 29, 0, 23
|13, 0, 0, 12, 19, 30, 33, 0, 0, 36, 0, 0, 0, 18, 0, 43, 6, 0, 35, 0, 0, 0, 41, 26, 40, 39, 23, 10, 0, 11, 49, 0, 28, 22, 0, 9, 15, 0, 14, 0, 25, 42, 0, 0, 0, 0, 0, 0, 0
|22, 41, 26, 44, 34, 2, 49, 0, 45, 0, 24, 0, 0, 29, 0, 47, 12, 16, 19, 4, 17, 48, 11, 0, 5, 20, 46, 0, 7, 0, 39, 25, 0, 36, 3, 13, 0, 0, 18, 0, 0, 0, 0, 0, 0, 21, 0, 0, 28
|0, 0, 0, 14, 3, 23, 36, 45, 41, 25, 9, 0, 48, 13, 0, 4, 0, 44, 0, 38, 26, 0, 43, 0, 34, 0, 2, 6, 17, 24, 0, 40, 0, 39, 30, 0, 0, 0, 0, 0, 15, 49, 0, 22, 0, 0, 0, 20, 0
|0, 44, 0, 0, 15, 13, 0, 0, 0, 29, 0, 0, 0, 21, 17, 46, 2, 24, 0, 0, 41, 33, 18, 45, 47, 0, 0, 9, 35, 0, 0, 27, 36, 0, 0, 26, 20, 3, 43, 0, 10, 1, 5, 0, 8, 0, 49, 14, 0
|0, 5, 0, 43, 7, 0, 22, 0, 20, 0, 0, 30, 32, 0, 12, 19, 11, 0, 0, 21, 0, 0, 42, 0, 0, 23, 0, 0, 0, 14, 26, 0, 3, 0, 0, 17, 40, 0, 0, 34, 24, 0, 25, 0, 29, 18, 0, 10, 0
|0, 0, 19, 27, 0, 16, 2, 0, 0, 0, 0, 38, 0, 39, 35, 15, 0, 8, 0, 29, 3, 0, 17, 24, 1, 40, 0, 36, 9, 0, 34, 33, 5, 12, 22, 42, 0, 25, 21, 46, 0, 0, 48, 0, 0, 0, 0, 4, 0
|10, 0, 39, 29, 0, 34, 25, 0, 0, 0, 5, 0, 0, 28, 0, 0, 0, 0, 31, 0, 22, 0, 0, 48, 0, 21, 0, 46, 2, 15, 18, 49, 4, 43, 0, 38, 0, 0, 13, 0, 14, 41, 42, 0, 23, 1, 0, 27, 24
|0, 0, 33, 24, 0, 38, 41, 0, 0, 14, 10, 0, 0, 0, 28, 0, 0, 0, 0, 0, 25, 30, 0, 39, 19, 35, 0, 0, 0, 0, 11, 0, 1, 0, 0, 37, 0, 0, 0, 27, 0, 0, 0, 0, 45, 43, 0, 0, 0
|40, 0, 0, 17, 48, 12, 4, 0, 24, 0, 19, 8, 3, 16, 0, 0, 0, 14, 47, 43, 13, 49, 28, 0, 11, 0, 0, 29, 31, 0, 0, 6, 23, 0, 25, 0, 2, 0, 30, 7, 33, 0, 35, 0, 32, 0, 36, 39, 44
|0, 15, 43, 0, 8, 40, 32, 47, 0, 31, 42, 0, 26, 19, 0, 0, 34, 10, 11, 18, 45, 44, 5, 0, 35, 6, 14, 20, 0, 36, 24, 0, 0, 0, 0, 39, 0, 0, 25, 0, 0, 23, 0, 7, 41, 38, 0, 0, 27
|0, 0, 0, 0, 18, 0, 14, 43, 0, 0, 0, 0, 0, 0, 6, 0, 15, 49, 26, 0, 48, 32, 0, 0, 36, 0, 0, 0, 30, 0, 13, 11, 0, 0, 0, 0, 7, 4, 8, 0, 0, 0, 0, 10, 20, 0, 0, 0, 33
|24, 0, 0, 36, 26, 20, 37, 0, 13, 0, 4, 0, 0, 14, 23, 39, 38, 12, 0, 35, 2, 28, 0, 0, 27, 11, 30, 47, 32, 6, 0, 45, 0, 0, 7, 0, 0, 5, 0, 0, 1, 0, 19, 0, 0, 0, 43, 0, 0
|0, 28, 0, 0, 0, 0, 5, 46, 30, 17, 0, 45, 0, 8, 22, 0, 21, 0, 32, 40, 43, 12, 38, 0, 7, 9, 0, 0, 49, 1, 15, 20, 18, 48, 0, 27, 14, 0, 41, 0, 31, 26, 0, 0, 0, 0, 4, 0, 25
|0, 0, 49, 0, 45, 46, 0, 0, 0, 44, 7, 0, 0, 0, 31, 27, 0, 0, 24, 5, 0, 0, 4, 21, 15, 0, 0, 43, 8, 0, 38, 0, 0, 0, 12, 22, 37, 13, 0, 40, 0, 0, 14, 0, 0, 0, 0, 18, 26
|30, 17, 7, 0, 27, 21, 6, 0, 39, 0, 11, 0, 12, 0, 0, 44, 20, 9, 0, 0, 4, 1, 34, 0, 0, 48, 8, 26, 0, 0, 0, 0, 46, 0, 0, 32, 0, 36, 42, 0, 43, 18, 23, 37, 16, 0, 0, 0, 40
|0, 10, 12, 9, 0, 0, 11, 0, 25, 0, 21, 32, 35, 36, 7, 0, 42, 47, 8, 0, 19, 0, 0, 31, 0, 0, 0, 0, 0, 22, 0, 17, 27, 0, 0, 0, 30, 0, 6, 0, 29, 34, 49, 13, 5, 3, 0, 0, 0
|0, 33, 0, 41, 30, 36, 12, 15, 0, 0, 0, 0, 0, 0, 0, 26, 7, 0, 0, 0, 0, 39, 0, 47, 9, 31, 0, 17, 0, 0, 21, 3, 40, 0, 4, 23, 0, 0, 28, 0, 44, 13, 8, 0, 0, 0, 35, 0, 0
|0, 0, 16, 0, 0, 0, 0, 0, 14, 10, 23, 0, 33, 0, 0, 0, 0, 0, 0, 12, 38, 45, 0, 0, 0, 0, 0, 0, 0, 0, 7, 30, 26, 32, 48, 0, 0, 46, 3, 47, 0, 25, 0, 17, 0, 0, 0, 0, 15
|45, 7, 40, 0, 0, 27, 9, 5, 0, 0, 0, 18, 0, 0, 49, 0, 0, 2, 0, 0, 23, 0, 0, 0, 0, 0, 0, 1, 15, 19, 0, 0, 25, 0, 0, 0, 17, 0, 0, 21, 4, 43, 12, 0, 0, 0, 20, 0, 0
|48, 43, 0, 0, 47, 0, 0, 0, 12, 0, 2, 36, 45, 0, 42, 3, 27, 0, 28, 0, 0, 22, 0, 46, 0, 0, 0, 33, 0, 37, 0, 0, 0, 0, 0, 0, 16, 30, 32, 31, 39, 0, 0, 44, 49, 0, 7, 0, 0
|0, 0, 0, 0, 21, 0, 0, 0, 29, 0, 16, 0, 0, 32, 19, 9, 0, 34, 0, 0, 0, 0, 0, 4, 3, 14, 38, 0, 24, 35, 0, 0, 0, 45, 0, 0, 0, 40, 36, 0, 18, 0, 0, 0, 10, 42, 0, 0, 43
|46, 0, 0, 0, 39, 0, 0, 40, 9, 0, 0, 17, 19, 48, 0, 31, 41, 0, 0, 36, 20, 0, 13, 0, 25, 0, 0, 34, 28, 0, 0, 16, 47, 5, 0, 0, 0, 0, 0, 0, 35, 0, 37, 23, 0, 0, 22, 0, 32
|0, 14, 5, 6, 22, 0, 0, 0, 0, 39, 0, 0, 11, 38, 0, 0, 25, 0, 43, 0, 0, 16, 0, 0, 23, 0, 0, 27, 0, 0, 33, 46, 8, 42, 0, 0, 29, 20, 19, 26, 0, 10, 0, 45, 1, 40, 0, 31, 0|];