order = 7;
grid = [|0, 10, 0, 0, 0, 35, 21, 3, 24, 8, 0, 0, 41, 0, 38, 0, 46, 0, 40, 0, 0, 19, 0, 0, 6, 0, 31, 0, 0, 18, 0, 0, 0, 0, 0, 47, 5, 43, 12, 0, 0, 42, 0, 9, 0, 0, 15, 0, 0
|0, 0, 18, 0, 37, 0, 9, 4, 0, 0, 49, 30, 11, 42, 0, 26, 0, 13, 7, 0, 47, 34, 16, 0, 0, 0, 39, 0, 0, 0, 12, 17, 0, 21, 15, 0, 0, 0, 14, 0, 10, 38, 31, 0, 6, 0, 0, 20, 41
|0, 1, 34, 12, 14, 0, 0, 0, 0, 48, 0, 0, 17, 0, 33, 19, 25, 31, 2, 0, 30, 32, 0, 0, 47, 7, 0, 0, 16, 0, 0, 0, 0, 11, 35, 6, 18, 0, 0, 0, 0, 46, 0, 0, 37, 0, 29, 44, 24
|0, 0, 42, 0, 38, 0, 0, 0, 37, 0, 0, 20, 28, 25, 0, 0, 15, 0, 0, 0, 0, 14, 10, 0, 0, 12, 3, 0, 0, 43, 44, 6, 0, 0, 0, 0, 26, 0, 41, 31, 29, 0, 35, 0, 0, 2, 23, 21, 0
|0, 0, 0, 0, 31, 39, 0, 0, 45, 6, 43, 0, 0, 34, 20, 0, 23, 0, 0, 0, 24, 0, 0, 0, 8, 38, 0, 21, 30, 48, 27, 3, 0, 32, 22, 25, 0, 0, 0, 7, 0, 0, 0, 0, 11, 0, 0, 4, 0
|19, 0, 0, 8, 17, 0, 49, 0, 0, 31, 5, 0, 14, 0, 0, 0, 0, 0, 42, 21, 12, 0, 0, 24, 37, 0, 44, 0, 25, 0, 4, 47, 2, 0, 10, 0, 30, 0, 11, 0, 9, 20, 1, 22, 45, 0, 18, 0, 33
|0, 2, 0, 20, 0, 0, 26, 32, 44, 0, 13, 0, 0, 0, 0, 5, 18, 35, 0, 0, 0, 27, 0, 0, 43, 15, 0, 46, 45, 42, 14, 0, 36, 0, 31, 0, 0, 24, 37, 21, 0, 3, 0, 39, 0, 0, 0, 34, 0
|27, 25, 3, 31, 0, 11, 0, 0, 0, 5, 0, 4, 0, 0, 47, 0, 40, 33, 12, 0, 44, 22, 13, 38, 0, 0, 0, 0, 29, 0, 23, 1, 0, 0, 0, 8, 0, 10, 39, 48, 0, 0, 37, 30, 43, 0, 0, 0, 0
|38, 37, 0, 0, 12, 0, 0, 0, 23, 0, 0, 35, 1, 0, 7, 0, 9, 0, 29, 31, 0, 0, 0, 21, 11, 0, 0, 0, 0, 0, 32, 27, 0, 43, 0, 0, 20, 5, 36, 0, 49, 40, 0, 14, 26, 8, 10, 13, 0
|21, 0, 0, 43, 39, 2, 22, 19, 0, 0, 26, 10, 31, 18, 1, 34, 0, 16, 36, 0, 13, 0, 0, 8, 0, 0, 6, 0, 0, 0, 0, 0, 11, 17, 38, 28, 42, 33, 0, 0, 4, 0, 0, 24, 0, 47, 9, 0, 27
|6, 23, 0, 5, 0, 9, 18, 0, 8, 0, 20, 0, 43, 39, 0, 17, 38, 14, 27, 0, 0, 0, 48, 36, 45, 24, 37, 32, 44, 0, 0, 0, 0, 42, 30, 0, 41, 25, 0, 15, 0, 0, 49, 3, 21, 0, 46, 1, 0
|0, 0, 0, 7, 15, 19, 0, 45, 33, 0, 0, 25, 22, 0, 0, 0, 0, 0, 0, 0, 37, 0, 0, 0, 0, 0, 0, 23, 21, 10, 9, 0, 46, 0, 0, 17, 0, 14, 0, 0, 31, 18, 0, 5, 0, 0, 20, 0, 11
|35, 0, 49, 44, 4, 48, 0, 6, 15, 0, 9, 34, 30, 0, 41, 0, 0, 0, 11, 0, 21, 10, 0, 46, 29, 31, 27, 0, 20, 14, 24, 0, 0, 0, 0, 0, 0, 22, 0, 0, 37, 0, 23, 33, 40, 18, 17, 0, 0
|33, 0, 17, 0, 0, 13, 0, 40, 48, 0, 7, 14, 0, 0, 0, 18, 0, 20, 0, 0, 0, 0, 44, 0, 0, 43, 30, 35, 31, 0, 47, 0, 0, 49, 0, 3, 11, 9, 27, 46, 0, 34, 0, 0, 38, 29, 0, 0, 0
|0, 35, 0, 38, 47, 8, 0, 0, 17, 40, 4, 0, 36, 0, 0, 12, 11, 0, 24, 0, 0, 0, 0, 10, 31, 23, 16, 0, 0, 0, 49, 42, 19, 0, 37, 0, 0, 39, 0, 34, 0, 0, 0, 0, 46, 26, 0, 0, 21
|48, 9, 0, 0, 0, 0, 0, 0, 0, 45, 44, 0, 0, 0, 0, 41, 0, 26, 10, 7, 0, 29, 0, 12, 19, 20, 24, 0, 6, 0, 0, 38, 0, 16, 0, 0, 0, 35, 4, 0, 0, 23, 25, 43, 47, 0, 8, 0, 49
|0, 46, 6, 25, 0, 23, 0, 5, 16, 1, 37, 49, 0, 15, 39, 36, 0, 0, 38, 40, 0, 0, 0, 44, 0, 0, 0, 0, 41, 0, 0, 28, 47, 0, 43, 0, 0, 0, 24, 17, 11, 14, 0, 12, 0, 0, 27, 0, 31
|0, 0, 44, 0, 20, 4, 33, 0, 0, 10, 0, 0, 0, 0, 0, 0, 0, 6, 0, 0, 23, 0, 0, 0, 0, 25, 11, 39, 15, 0, 0, 7, 29, 0, 0, 13, 1, 0, 26, 0, 0, 19, 28, 0, 0, 30, 0, 0, 14
|14, 18, 12, 26, 5, 1, 0, 20, 11, 0, 29, 8, 0, 23, 32, 13, 0, 49, 35, 0, 0, 2, 0, 0, 0, 48, 0, 28, 0, 0, 0, 0, 25, 24, 0, 21, 0, 31, 0, 41, 3, 0, 10, 0, 0, 6, 19, 0, 0
|0, 22, 24, 0, 0, 0, 29, 47, 0, 28, 0, 3, 48, 26, 46, 0, 19, 9, 0, 25, 0, 0, 0, 0, 38, 45, 14, 0, 0, 39, 0, 31, 10, 5, 0, 43, 0, 0, 49, 42, 20, 0, 0, 0, 16, 0, 0, 23, 13
|7, 0, 0, 0, 40, 28, 16, 30, 0, 0, 0, 0, 0, 0, 0, 0, 0, 0, 37, 17, 20, 0, 22, 0, 46, 32, 0, 0, 0, 23, 0, 0, 0, 0, 0, 0, 0, 0, 9, 0, 45, 0, 41, 0, 0, 0, 39, 5, 0
|49, 0, 0, 47, 0, 0, 44, 0, 0, 23, 25, 0, 0, 33, 30, 0, 7, 29, 32, 20, 35, 0, 31, 0, 0, 0, 0, 0, 0, 4, 0, 12, 0, 10, 11, 46, 27, 0, 0, 0, 0, 0, 48, 0, 0, 0, 3, 28, 43
|22, 13, 23, 39, 43, 40, 0, 0, 0, 32, 11, 0, 47, 0, 26, 10, 0, 34, 0, 16, 0, 5, 0, 0, 44, 8, 48, 0, 46, 37, 38, 0, 0, 35, 0, 0, 0, 20, 0, 6, 0, 33, 29, 0, 0, 1, 30, 7, 19
|0, 0, 20, 0, 42, 31, 25, 0, 0, 0, 16, 0, 38, 49, 0, 48, 12, 46, 0, 19, 0, 30, 0, 0, 0, 26, 0, 0, 2, 0, 15, 44, 5, 28, 0, 0, 0, 7, 40, 18, 1, 43, 17, 27, 0, 0, 13, 0, 0
|8, 0, 0, 19, 16, 0, 0, 0, 0, 0, 30, 0, 7, 43, 0, 39, 22, 3, 0, 33, 0, 0, 21, 20, 0, 36, 0, 14, 0, 0, 0, 0, 6, 1, 0, 0, 0, 0, 45, 0, 0, 28, 15, 0, 25, 23, 0, 18, 44
|41, 0, 48, 0, 0, 10, 35, 0, 20, 27, 0, 0, 0, 3, 0, 49, 0, 38, 0, 0, 36, 17, 6, 2, 0, 0, 0, 0, 32, 25, 30, 23, 0, 14, 7, 0, 21, 19, 34, 29, 24, 0, 0, 26, 0, 46, 47, 0, 12
|15, 3, 0, 0, 29, 33, 2, 0, 19, 0, 28, 36, 0, 44, 0, 0, 1, 25, 17, 24, 4, 9, 0, 13, 0, 0, 0, 7, 0, 26, 0, 0, 41, 20, 27, 10, 23, 8, 0, 5, 48, 0, 0, 0, 31, 42, 0, 32, 38
|46, 0, 0, 21, 1, 0, 12, 0, 0, 41, 0, 42, 0, 10, 43, 0, 0, 0, 28, 6, 0, 45, 4, 34, 0, 11, 47, 0, 0, 0, 19, 0, 31, 8, 13, 16, 49, 44, 0, 0, 26, 37, 0, 0, 0, 22, 33, 9, 0
|44, 48, 31, 0, 9, 0, 46, 23, 35, 21, 33, 0, 49, 19, 16, 0, 3, 2, 0, 47, 7, 18, 0, 14, 0, 17, 0, 37, 0, 0, 0, 0, 26, 29, 5, 42, 0, 0, 0, 0, 0, 0, 11, 6, 4, 0, 0, 8, 15
|0, 0, 13, 2, 8, 0, 0, 42, 9, 0, 40, 11, 44, 0, 0, 0, 28, 0, 1, 38, 0, 33, 0, 0, 49, 0, 0, 26, 34, 21, 48, 20, 0, 0, 19, 0, 31, 0, 35, 23, 0, 24, 0, 18, 36, 5, 32, 0, 0
|0, 0, 39, 0, 0, 14, 19, 0, 0, 38, 48, 0, 0, 22, 44, 0, 36, 4, 26, 27, 0, 41, 0, 0, 0, 40, 8, 0, 0, 0, 1, 0, 0, 0, 49, 20, 28, 0, 0, 0, 0, 0, 16, 2, 9, 0, 37, 43, 0
|30, 32, 0, 35, 0, 25, 36, 13, 10, 0, 0, 0, 45, 1, 15, 6, 0, 11, 0, 9, 14, 0, 2, 0, 0, 27, 0, 0, 0, 16, 8, 0, 43, 0, 0, 0, 0, 0, 0, 47, 39, 5, 0, 29, 0, 0, 42, 0, 40
|1, 0, 47, 0, 33, 0, 38, 14, 0, 0, 0, 0, 16, 0, 0, 0, 13, 42, 0, 0, 0, 0, 12, 0, 36, 0, 34, 44, 0, 0, 41, 0, 0, 40, 0, 2, 29, 0, 21, 0, 17, 4, 0, 31, 0, 39, 0, 0, 0
|12, 0, 37, 0, 0, 16, 0, 41, 0, 0, 6, 0, 20, 36, 8, 46, 0, 48, 22, 0, 0, 3, 32, 0, 0, 1, 0, 0, 38, 17, 0, 11, 0, 0, 0, 0, 0, 0, 0, 45, 0, 0, 0, 0, 0, 34, 0, 30, 0
|0, 26, 28, 0, 3, 43, 5, 0, 29, 18, 0, 0, 0, 0, 0, 45, 0, 19, 41, 34, 0, 0, 11, 0, 0, 0, 46, 0, 33, 0, 31, 0, 0, 0, 44, 40, 0, 0, 0, 0, 8, 36, 0, 1, 0, 25, 22, 24, 48
|0, 0, 0, 37, 0, 17, 0, 38, 0, 0, 21, 23, 0, 0, 35, 9, 29, 24, 0, 0, 0, 0, 36, 0, 41, 0, 32, 12, 10, 0, 20, 0, 8, 27, 0, 0, 0, 0, 6, 0, 7, 2, 0, 0, 1, 0, 43, 39, 22
|20, 0, 0, 0, 0, 0, 0, 0, 18, 44, 0, 0, 0, 8, 0, 27, 37, 0, 0, 0, 46, 23, 0, 3, 0, 0, 45, 0, 0, 0, 0, 0, 0, 30, 0, 24, 0, 36, 0, 0, 42, 11, 2, 21, 0, 0, 0, 26, 0
|11, 0, 0, 23, 35, 0, 27, 0, 14, 0, 0, 0, 10, 0, 13, 0, 33, 0, 21, 30, 0, 0, 0, 29, 34, 0, 0, 16, 47, 0, 0, 0, 48, 22, 24, 0, 45, 37, 18, 32, 44, 41, 5, 0, 0, 0, 49, 0, 6
|0, 19, 0, 0, 0, 0, 0, 34, 32, 0, 0, 22, 0, 11, 49, 0, 0, 0, 0, 0, 31, 1, 0, 33, 21, 5, 43, 0, 0, 12, 26, 0, 16, 0, 17, 0, 48, 46, 29, 38, 0, 27, 0, 23, 13, 0, 0, 0, 3
|0, 33, 0, 0, 22, 0, 0, 0, 36, 9, 27, 47, 6, 45, 19, 0, 10, 41, 43, 39, 5, 11, 0, 37, 0, 0, 0, 0, 0, 3, 0, 32, 0, 7, 0, 0, 4, 0, 20, 8, 0, 0, 14, 16, 0, 44, 38, 0, 18
|0, 0, 0, 4, 0, 0, 24, 29, 13, 15, 19, 0, 35, 30, 0, 42, 0, 0, 0, 32, 0, 0, 0, 17, 0, 28, 0, 20, 9, 0, 46, 25, 44, 0, 41, 14, 0, 16, 0, 22, 0, 49, 27, 0, 0, 45, 34, 31, 0
|0, 44, 9, 28, 0, 49, 13, 0, 43, 42, 0, 0, 0, 0, 45, 0, 0, 23, 3, 0, 26, 8, 7, 27, 0, 14, 0, 0, 19, 0, 37, 0, 0, 4, 21, 15, 0, 0, 31, 0, 0, 0, 0, 0, 0, 0, 11, 29, 25
|0, 41, 19, 0, 44, 0, 0, 0, 49, 33, 0, 28, 18, 4, 0, 0, 0, 8, 13, 5, 15, 48, 0, 1, 0, 47, 0, 0, 0, 0, 17, 22, 30, 3, 20, 0, 0, 0, 0, 26, 0, 0, 36, 25, 23, 27, 0, 0, 9
|0, 0, 0, 0, 11, 0, 48, 0, 0, 0, 31, 12, 0, 0, 34, 0, 0, 0, 0, 28, 0, 46, 15, 0, 4, 49, 0, 36, 0, 27, 0, 8, 0, 44, 0, 5, 9, 23, 16, 0, 0, 10, 0, 19, 0, 17, 6, 37, 45
|0, 0, 0, 0, 0, 5, 0, 15, 0, 30, 0, 0, 0, 0, 0, 0, 0, 0, 0, 0, 0, 20, 8, 41, 39, 0, 0, 3, 0, 24, 40, 19, 0, 48, 47, 0, 2, 0, 0, 0, 0, 45, 34, 38, 28, 0, 44, 0, 0
|9, 0, 22, 3, 24, 0, 0, 0, 47, 0, 45, 44, 19, 0, 42, 1, 0, 40, 0, 37, 0, 6, 17, 32, 0, 10, 23, 33, 0, 28, 0, 0, 0, 12, 0, 0, 0, 49, 0, 0, 34, 0, 43, 41, 30, 0, 2, 0, 0
|0, 12, 38, 27, 2, 0, 0, 21, 0, 16, 0, 0, 0, 0, 0, 24, 26, 45, 0, 0, 33, 0, 0, 0, 22, 13, 5, 0, 37, 0, 6, 0, 0, 0, 36, 0, 25, 28, 0, 0, 41, 0, 39, 20, 18, 10, 0, 49, 0
|28, 8, 0, 13, 0, 45, 6, 0, 39, 20, 0, 2, 0, 0, 0, 38, 44, 43, 23, 22, 17, 0, 37, 0, 27, 34, 0, 30, 0, 33, 0, 14, 49, 41, 4, 35, 0, 0, 0, 0, 19, 0, 0, 0, 3, 16, 26, 0, 0
|0, 0, 0, 17, 18, 0, 0, 8, 0, 34, 1, 0, 0, 14, 0, 32, 27, 36, 0, 0, 0, 0, 25, 0, 26, 9, 12, 0, 23, 0, 10, 0, 45, 15, 16, 29, 0, 0, 7, 37, 0, 0, 0, 0, 0, 0, 0, 0, 4|];