order = 7;
grid = [|0, 0, 0, 10, 47, 0, 21, 30, 0, 0, 25, 0, 0, 41, 22, 0, 4, 1, 27, 40, 0, 0, 0, 13, 0, 0, 0, 0, 42, 35, 0, 33, 17, 24, 0, 11, 0, 49, 0, 26, 0, 0, 38, 36, 8, 7, 28, 39, 12
|45, 18, 0, 0, 49, 48, 0, 0, 31, 14, 0, 0, 0, 0, 0, 0, 0, 0, 44, 0, 0, 0, 0, 15, 0, 0, 40, 33, 0, 41, 0, 0, 0, 29, 0, 10, 0, 0, 1, 0, 37, 0, 11, 0, 0, 0, 0, 35, 0
|39, 12, 24, 0, 0, 0, 0, 33, 0, 0, 0, 13, 5, 0, 17, 0, 47, 0, 11, 18, 0, 0, 49, 0, 14, 8, 31, 0, 0, 15, 0, 0, 10, 40, 19, 0, 0, 0, 0, 2, 0, 0, 0, 0, 34, 0, 23, 27, 37
|0, 0, 0, 36, 0, 0, 5, 0, 6, 10, 37, 18, 0, 0, 33, 0, 0, 31, 41, 0, 0, 0, 1, 21, 42, 35, 11, 0, 38, 0, 0, 0, 27, 12, 0, 0, 24, 43, 14, 0, 8, 40, 22, 0, 25, 46, 17, 0, 19
|27, 0, 0, 0, 0, 0, 0, 0, 1, 47, 0, 0, 2, 0, 5, 43, 0, 0, 0, 0, 32, 0, 0, 0, 0, 10, 0, 22, 0, 11, 25, 13, 31, 0, 0, 0, 0, 0, 7, 45, 0, 33, 42, 0, 0, 18, 0, 6, 44
|0, 0, 40, 0, 11, 0, 13, 0, 0, 34, 23, 27, 0, 9, 7, 0, 0, 0, 19, 2, 0, 0, 29, 44, 0, 0, 0, 0, 0, 20, 0, 21, 0, 0, 0, 0, 38, 25, 0, 22, 15, 0, 0, 0, 0, 0, 31, 32, 0
|0, 22, 0, 31, 0, 0, 41, 49, 20, 0, 0, 11, 21, 8, 35, 30, 0, 45, 38, 0, 6, 0, 0, 0, 0, 0, 0, 32, 0, 0, 0, 23, 43, 18, 0, 0, 0, 0, 29, 36, 39, 0, 0, 0, 0, 0, 0, 40, 0
|5, 0, 0, 20, 0, 0, 0, 15, 0, 0, 0, 43, 0, 37, 0, 0, 0, 41, 0, 10, 26, 0, 0, 27, 45, 29, 34, 0, 11, 0, 31, 0, 0, 22, 0, 17, 42, 0, 28, 0, 0, 49, 0, 32, 36, 0, 0, 24, 0
|0, 0, 35, 13, 28, 29, 0, 0, 44, 5, 0, 0, 0, 0, 19, 0, 3, 23, 0, 11, 0, 0, 0, 0, 39, 0, 20, 0, 0, 42, 0, 26, 0, 0, 46, 43, 41, 32, 0, 1, 0, 48, 14, 38, 0, 31, 21, 10, 0
|16, 8, 0, 0, 45, 40, 0, 0, 41, 0, 14, 48, 36, 0, 31, 0, 0, 0, 0, 0, 9, 0, 0, 11, 0, 25, 33, 37, 0, 28, 0, 0, 32, 39, 24, 0, 47, 0, 23, 5, 0, 0, 0, 0, 12, 3, 15, 34, 18
|0, 0, 0, 0, 2, 0, 0, 0, 0, 0, 28, 0, 13, 0, 44, 0, 0, 0, 0, 0, 42, 0, 32, 0, 35, 0, 0, 0, 0, 0, 0, 0, 0, 8, 33, 31, 3, 0, 0, 0, 12, 6, 0, 0, 0, 11, 16, 0, 0
|0, 11, 0, 0, 15, 0, 0, 0, 35, 0, 0, 45, 31, 26, 47, 0, 0, 32, 0, 29, 24, 0, 0, 4, 28, 5, 7, 0, 21, 49, 0, 0, 18, 13, 1, 20, 0, 0, 36, 27, 30, 0, 0, 0, 0, 0, 33, 17, 41
|0, 0, 31, 9, 44, 0, 39, 0, 32, 30, 3, 0, 34, 21, 28, 0, 25, 0, 0, 8, 0, 0, 0, 41, 2, 43, 6, 17, 0, 16, 35, 0, 5, 10, 0, 4, 0, 45, 0, 0, 29, 19, 0, 26, 27, 23, 47, 0, 0
|0, 0, 22, 6, 24, 12, 0, 0, 46, 0, 11, 0, 0, 0, 0, 15, 2, 0, 30, 0, 34, 0, 48, 31, 0, 0, 26, 0, 0, 0, 7, 0, 0, 47, 0, 40, 33, 0, 0, 0, 0, 0, 45, 4, 42, 0, 39, 0, 28
|11, 10, 0, 7, 5, 0, 24, 44, 29, 0, 8, 0, 0, 0, 23, 0, 0, 0, 35, 21, 41, 0, 0, 0, 0, 31, 0, 34, 0, 0, 26, 0, 0, 0, 14, 0, 36, 16, 6, 20, 0, 38, 39, 28, 47, 0, 0, 0, 32
|0, 2, 37, 16, 0, 0, 18, 0, 0, 15, 38, 41, 0, 32, 0, 0, 33, 0, 0, 12, 0, 45, 0, 0, 30, 17, 0, 49, 0, 24, 29, 0, 42, 5, 21, 22, 0, 46, 11, 31, 0, 27, 36, 0, 0, 0, 44, 0, 7
|46, 17, 20, 27, 1, 0, 0, 13, 0, 24, 30, 0, 47, 23, 42, 0, 5, 0, 36, 43, 0, 15, 11, 0, 0, 0, 28, 26, 12, 38, 0, 9, 35, 0, 44, 0, 0, 0, 0, 39, 14, 0, 34, 0, 0, 0, 49, 0, 0
|0, 15, 0, 0, 31, 32, 22, 0, 0, 0, 19, 0, 42, 43, 37, 27, 0, 0, 0, 0, 49, 0, 0, 0, 0, 0, 2, 20, 0, 18, 30, 0, 11, 0, 25, 0, 5, 0, 0, 0, 24, 0, 0, 0, 46, 0, 0, 0, 16
|4, 43, 44, 47, 30, 0, 40, 0, 27, 1, 0, 0, 0, 35, 26, 32, 0, 0, 48, 6, 39, 7, 36, 8, 0, 0, 5, 14, 0, 0, 20, 37, 0, 0, 13, 0, 0, 3, 18, 0, 0, 29, 0, 25, 17, 42, 45, 0, 0
|0, 6, 28, 0, 0, 49, 34, 0, 12, 0, 0, 10, 20, 0, 0, 0, 0, 0, 24, 44, 16, 48, 37, 29, 0, 0, 25, 13, 32, 0, 0, 0, 40, 27, 4, 0, 45, 0, 0, 0, 1, 0, 0, 3, 0, 2, 11, 33, 0
|21, 9, 0, 23, 0, 0, 8, 5, 0, 0, 18, 14, 0, 0, 29, 0, 1, 46, 15, 0, 38, 0, 33, 35, 24, 32, 0, 0, 0, 0, 34, 0, 16, 31, 7, 0, 10, 17, 0, 0, 47, 12, 19, 0, 0, 0, 0, 0, 0
|0, 0, 23, 39, 0, 24, 0, 32, 0, 21, 0, 1, 0, 14, 6, 0, 10, 0, 0, 0, 0, 0, 0, 0, 0, 0, 0, 29, 40, 7, 0, 20, 0, 0, 5, 0, 25, 0, 0, 0, 26, 11, 0, 49, 31, 33, 18, 0, 48
|0, 0, 0, 0, 0, 0, 25, 34, 23, 0, 13, 35, 33, 0, 43, 5, 0, 42, 26, 0, 27, 0, 0, 0, 0, 24, 49, 0, 48, 19, 0, 0, 36, 0, 32, 38, 40, 22, 20, 15, 0, 0, 3, 10, 1, 30, 0, 28, 0
|0, 0, 17, 0, 29, 30, 28, 37, 10, 0, 0, 0, 15, 20, 0, 33, 0, 0, 16, 19, 18, 31, 2, 0, 47, 0, 0, 40, 45, 0, 0, 11, 1, 21, 3, 0, 0, 23, 0, 0, 43, 9, 27, 14, 0, 0, 8, 0, 0
|26, 0, 36, 18, 0, 5, 0, 29, 0, 0, 43, 19, 0, 3, 0, 49, 38, 47, 0, 0, 44, 20, 0, 0, 34, 39, 14, 42, 0, 0, 0, 10, 33, 23, 0, 0, 0, 31, 0, 0, 2, 0, 0, 24, 0, 17, 6, 0, 0
|41, 0, 0, 0, 0, 4, 0, 22, 0, 0, 0, 31, 16, 0, 0, 0, 11, 12, 0, 0, 20, 38, 0, 0, 25, 0, 13, 0, 0, 47, 43, 17, 0, 0, 0, 0, 35, 7, 21, 0, 0, 37, 0, 0, 0, 34, 0, 45, 0
|0, 0, 0, 0, 0, 10, 0, 2, 0, 18, 0, 0, 26, 24, 0, 4, 0, 0, 34, 17, 45, 0, 5, 3, 0, 41, 23, 9, 0, 29, 0, 31, 0, 16, 0, 48, 0, 0, 44, 46, 32, 47, 0, 12, 39, 37, 0, 20, 25
|0, 46, 2, 0, 40, 0, 11, 17, 0, 41, 47, 0, 0, 44, 0, 13, 0, 0, 0, 0, 29, 0, 0, 36, 0, 0, 45, 0, 0, 0, 49, 35, 0, 0, 0, 3, 34, 0, 0, 0, 0, 0, 0, 0, 0, 21, 7, 0, 9
|0, 25, 34, 0, 41, 11, 3, 0, 0, 46, 6, 47, 40, 36, 16, 0, 0, 0, 0, 0, 2, 12, 0, 0, 20, 0, 48, 19, 7, 1, 0, 38, 30, 0, 10, 13, 31, 28, 45, 0, 0, 8, 43, 0, 0, 35, 0, 0, 0
|40, 33, 0, 0, 0, 0, 0, 41, 0, 0, 0, 23, 0, 0, 38, 42, 0, 0, 20, 47, 0, 35, 31, 22, 13, 0, 0, 0, 24, 25, 8, 0, 0, 3, 18, 0, 0, 0, 0, 0, 0, 5, 0, 19, 37, 32, 10, 7, 0
|0, 27, 16, 0, 46, 0, 36, 8, 7, 0, 29, 0, 30, 19, 0, 0, 35, 34, 0, 15, 0, 32, 0, 0, 33, 0, 44, 28, 13, 40, 48, 0, 9, 0, 0, 47, 12, 38, 0, 37, 0, 0, 0, 18, 0, 20, 0, 2, 39
|47, 14, 0, 0, 43, 0, 44, 31, 0, 9, 34, 20, 35, 5, 40, 0, 0, 0, 0, 0, 46, 0, 0, 0, 0, 0, 37, 38, 0, 0, 21, 27, 4, 0, 0, 18, 0, 0, 39, 0, 0, 0, 0, 48, 0, 0, 0, 15, 3
|37, 0, 5, 4, 0, 0, 10, 42, 15, 0, 16, 0, 44, 0, 0, 31, 0, 0, 0, 9, 22, 47, 0, 0, 0, 0, 3, 0, 0, 26, 0, 0, 39, 0, 23, 6, 0, 0, 40, 0, 0, 1, 0, 0, 11, 38, 0, 30, 33
|0, 24, 0, 19, 32, 0, 0, 3, 0, 33, 0, 38, 43, 48, 0, 0, 0, 0, 23, 30, 0, 6, 34, 2, 0, 36, 15, 5, 16, 31, 0, 0, 14, 35, 0, 0, 0, 0, 0, 0, 0, 26, 0, 0, 0, 49, 0, 44, 0
|0, 0, 0, 0, 0, 0, 0, 0, 14, 49, 17, 2, 0, 0, 0, 7, 0, 0, 0, 33, 48, 25, 45, 0, 43, 0, 8, 0, 5, 44, 47, 34, 41, 0, 28, 15, 0, 0, 22, 0, 0, 0, 0, 0, 0, 24, 0, 36, 23
|0, 7, 0, 0, 27, 15, 31, 26, 5, 20, 32, 40, 0, 33, 34, 0, 48, 0, 0, 0, 0, 13, 0, 0, 49, 1, 29, 43, 46, 6, 11, 0, 0, 0, 16, 0, 0, 42, 0, 0, 0, 36, 0, 22, 44, 12, 30, 23, 0
|1, 41, 39, 0, 0, 0, 0, 9, 0, 0, 7, 21, 0, 0, 0, 0, 0, 0, 8, 28, 0, 18, 0, 0, 0, 0, 0, 31, 4, 14, 24, 5, 0, 48, 0, 26, 29, 15, 0, 40, 0, 0, 2, 0, 19, 0, 3, 37, 43
|0, 48, 0, 0, 0, 35, 0, 43, 39, 31, 41, 0, 0, 0, 9, 46, 44, 33, 42, 0, 0, 19, 15, 0, 0, 27, 0, 25, 0, 0, 3, 30, 12, 0, 0, 8, 22, 0, 2, 4, 38, 0, 0, 7, 28, 0, 32, 21, 34
|0, 0, 29, 49, 38, 0, 0, 0, 8, 3, 0, 4, 19, 46, 45, 23, 0, 43, 5, 27, 0, 0, 0, 20, 7, 28, 32, 6, 17, 34, 22, 18, 47, 15, 0, 0, 0, 48, 13, 0, 21, 25, 0, 11, 16, 40, 0, 9, 26
|0, 40, 0, 12, 20, 0, 0, 0, 0, 0, 42, 34, 0, 0, 0, 0, 18, 0, 4, 49, 3, 0, 26, 45, 0, 0, 41, 0, 39, 21, 0, 28, 0, 32, 0, 1, 6, 11, 10, 0, 0, 0, 0, 27, 0, 0, 24, 38, 0
|33, 0, 11, 0, 9, 46, 0, 27, 0, 38, 49, 0, 17, 0, 0, 0, 7, 14, 0, 31, 0, 8, 16, 0, 3, 44, 4, 0, 35, 0, 37, 45, 26, 0, 42, 5, 23, 0, 24, 0, 0, 0, 18, 39, 15, 48, 0, 1, 0
|13, 21, 32, 0, 18, 0, 14, 25, 0, 0, 24, 0, 1, 6, 0, 0, 26, 17, 0, 22, 40, 39, 0, 0, 48, 2, 0, 11, 0, 0, 0, 0, 19, 38, 0, 28, 7, 0, 0, 0, 27, 0, 29, 0, 41, 0, 36, 0, 0
|0, 45, 1, 0, 13, 0, 33, 14, 43, 23, 0, 26, 10, 0, 3, 35, 6, 0, 46, 0, 5, 29, 9, 48, 40, 42, 36, 39, 8, 0, 0, 0, 34, 0, 0, 49, 0, 0, 0, 0, 31, 22, 41, 0, 0, 0, 0, 0, 21
|31, 0, 30, 2, 0, 0, 0, 39, 0, 0, 1, 8, 0, 34, 12, 21, 0, 0, 10, 0, 47, 11, 0, 43, 16, 33, 38, 0, 6, 0, 15, 0, 0, 0, 0, 42, 0, 36, 0, 0, 0, 46, 0, 45, 0, 28, 0, 48, 0
|0, 0, 0, 40, 0, 39, 0, 0, 9, 13, 31, 32, 22, 0, 0, 0, 17, 44, 0, 38, 14, 26, 7, 28, 0, 0, 0, 0, 47, 0, 0, 0, 0, 42, 11, 35, 0, 37, 33, 0, 0, 24, 20, 0, 0, 6, 0, 0, 0
|9, 28, 0, 26, 25, 43, 0, 0, 37, 0, 0, 5, 41, 0, 0, 0, 16, 11, 0, 0, 31, 17, 3, 0, 0, 4, 12, 0, 0, 32, 0, 14, 21, 0, 35, 0, 1, 40, 0, 0, 7, 20, 0, 0, 0, 39, 2, 18, 0
|0, 0, 46, 0, 0, 0, 49, 21, 0, 28, 15, 6, 0, 12, 36, 34, 45, 0, 33, 0, 43, 0, 0, 0, 0, 30, 18, 0, 19, 23, 0, 0, 48, 0, 0, 39, 44, 47, 27, 11, 13, 2, 32, 8, 7, 22, 9, 0, 31
|44, 29, 0, 34, 0, 0, 48, 0, 0, 0, 36, 0, 18, 7, 2, 0, 0, 0, 9, 42, 0, 49, 6, 0, 22, 20, 1, 0, 31, 0, 12, 0, 0, 0, 0, 0, 26, 0, 0, 0, 0, 0, 0, 0, 0, 0, 0, 0, 0
|0, 5, 21, 14, 36, 22, 0, 0, 0, 48, 35, 3, 25, 0, 24, 29, 0, 0, 0, 1, 7, 2, 0, 37, 31, 0, 0, 45, 0, 0, 0, 40, 0, 0, 43, 32, 15, 0, 0, 0, 28, 41, 10, 0, 0, 26, 0, 11, 0|];