order = 7;
grid = [|39, 2, 20, 27, 0, 33, 47, 22, 4, 13, 7, 0, 40, 44, 16, 0, 0, 0, 0, 31, 0, 0, 0, 36, 0, 12, 0, 14, 3, 45, 0, 0, 0, 0, 6, 41, 0, 0, 0, 23, 0, 0, 0, 0, 0, 0, 0, 49, 28
|45, 46, 0, 0, 43, 0, 0, 36, 0, 0, 34, 5, 15, 42, 0, 0, 41, 38, 0, 22, 0, 0, 0, 19, 24, 0, 0, 11, 12, 49, 44, 17, 0, 35, 31, 0, 0, 0, 14, 0, 27, 0, 0, 0, 0, 0, 0, 40, 0
|41, 30, 15, 0, 0, 9, 44, 3, 8, 17, 16, 0, 18, 29, 14, 39, 45, 0, 25, 0, 0, 0, 46, 0, 0, 0, 28, 31, 32, 0, 0, 0, 11, 0, 0, 0, 19, 0, 6, 13, 0, 40, 0, 0, 7, 0, 35, 0, 0
|24, 36, 0, 0, 0, 25, 0, 30, 0, 0, 0, 21, 46, 14, 43, 32, 0, 2, 0, 34, 18, 0, 0, 6, 0, 0, 0, 0, 0, 13, 23, 0, 0, 19, 0, 0, 17, 8, 37, 10, 0, 0, 0, 11, 20, 22, 0, 29, 0
|12, 19, 0, 42, 32, 11, 0, 0, 0, 20, 6, 0, 0, 0, 23, 0, 0, 0, 27, 0, 9, 0, 0, 44, 0, 0, 8, 18, 28, 46, 0, 0, 15, 0, 0, 26, 0, 0, 0, 34, 0, 47, 0, 1, 43, 0, 16, 0, 0
|38, 0, 0, 23, 0, 0, 0, 0, 0, 39, 33, 26, 0, 0, 44, 5, 13, 24, 12, 4, 21, 48, 0, 0, 30, 10, 0, 0, 8, 0, 0, 41, 0, 20, 0, 0, 11, 0, 0, 0, 43, 0, 0, 0, 42, 0, 0, 0, 9
|8, 13, 0, 37, 10, 17, 28, 41, 24, 32, 31, 0, 0, 45, 0, 0, 46, 15, 19, 0, 0, 7, 0, 39, 0, 0, 0, 0, 0, 25, 0, 48, 0, 47, 26, 0, 0, 0, 0, 0, 0, 0, 44, 27, 34, 12, 0, 14, 0
|16, 38, 0, 0, 0, 0, 0, 11, 0, 26, 0, 0, 22, 0, 15, 0, 31, 0, 30, 0, 42, 0, 25, 45, 0, 3, 19, 44, 35, 9, 0, 7, 28, 6, 0, 0, 24, 23, 0, 0, 0, 34, 40, 0, 10, 20, 14, 36, 41
|13, 0, 0, 15, 20, 32, 0, 5, 14, 0, 42, 27, 0, 7, 0, 0, 0, 0, 40, 11, 38, 0, 0, 0, 17, 0, 0, 6, 0, 0, 0, 0, 0, 0, 21, 0, 0, 0, 0, 0, 47, 0, 9, 46, 0, 2, 0, 0, 12
|0, 0, 0, 0, 11, 34, 0, 0, 0, 44, 40, 9, 0, 31, 37, 0, 23, 0, 49, 0, 36, 0, 24, 15, 35, 32, 0, 0, 0, 22, 25, 0, 0, 0, 17, 7, 0, 0, 21, 39, 26, 0, 0, 0, 3, 0, 29, 19, 6
|21, 10, 0, 0, 40, 0, 0, 45, 41, 0, 48, 0, 0, 0, 0, 2, 0, 0, 0, 0, 0, 16, 0, 0, 0, 0, 0, 0, 0, 26, 38, 0, 33, 0, 0, 35, 0, 31, 0, 0, 0, 0, 49, 0, 0, 0, 27, 13, 11
|0, 0, 44, 0, 0, 23, 0, 0, 0, 0, 0, 0, 0, 46, 0, 17, 0, 16, 9, 0, 0, 0, 10, 14, 49, 0, 0, 12, 0, 30, 0, 0, 0, 0, 0, 0, 0, 28, 42, 32, 0, 0, 0, 0, 45, 26, 0, 0, 24
|0, 37, 0, 0, 45, 2, 0, 49, 0, 0, 32, 0, 0, 0, 0, 0, 3, 7, 39, 0, 41, 46, 0, 11, 0, 0, 33, 0, 0, 29, 0, 0, 8, 0, 47, 0, 22, 0, 44, 0, 40, 17, 0, 43, 35, 15, 0, 16, 25
|0, 0, 0, 7, 22, 0, 0, 0, 15, 0, 0, 17, 0, 20, 1, 0, 35, 27, 29, 32, 10, 40, 31, 30, 0, 42, 39, 28, 0, 0, 0, 46, 13, 24, 41, 11, 48, 19, 33, 3, 0, 25, 5, 0, 8, 0, 23, 0, 21
|2, 0, 0, 0, 0, 38, 10, 28, 0, 48, 0, 19, 0, 30, 39, 0, 5, 0, 0, 12, 0, 0, 11, 0, 0, 0, 22, 27, 0, 0, 0, 35, 0, 26, 0, 47, 7, 25, 0, 0, 24, 33, 0, 3, 16, 0, 0, 46, 0
|0, 48, 13, 39, 0, 49, 22, 12, 0, 16, 0, 0, 0, 0, 36, 0, 0, 0, 7, 0, 0, 0, 0, 0, 6, 0, 0, 2, 34, 31, 0, 30, 0, 32, 27, 37, 8, 43, 17, 0, 3, 0, 0, 4, 0, 33, 26, 0, 0
|14, 0, 0, 31, 0, 20, 41, 15, 1, 0, 0, 46, 37, 0, 0, 27, 0, 35, 0, 38, 25, 0, 0, 4, 48, 0, 0, 0, 0, 28, 36, 8, 17, 0, 2, 0, 42, 16, 34, 49, 10, 5, 0, 13, 0, 0, 0, 0, 0
|0, 0, 0, 32, 0, 0, 5, 23, 39, 0, 24, 0, 27, 8, 0, 0, 15, 0, 4, 0, 0, 0, 0, 0, 1, 25, 0, 0, 0, 41, 16, 44, 46, 9, 0, 0, 0, 36, 31, 0, 0, 22, 34, 6, 0, 10, 0, 0, 0
|0, 44, 0, 25, 33, 0, 23, 0, 42, 41, 0, 0, 43, 4, 0, 34, 0, 37, 0, 0, 0, 0, 0, 0, 46, 0, 16, 13, 20, 0, 18, 49, 10, 0, 24, 29, 0, 0, 0, 0, 0, 0, 0, 19, 0, 0, 0, 2, 15
|35, 27, 0, 45, 0, 36, 43, 0, 0, 2, 10, 13, 0, 33, 47, 22, 24, 41, 0, 0, 0, 8, 0, 0, 7, 0, 29, 0, 42, 12, 0, 19, 14, 21, 11, 32, 0, 6, 0, 38, 0, 0, 0, 0, 0, 0, 49, 0, 0
|4, 0, 0, 16, 0, 0, 0, 35, 0, 47, 18, 0, 0, 0, 33, 10, 0, 6, 0, 0, 20, 0, 0, 49, 38, 0, 0, 39, 0, 0, 37, 13, 0, 5, 48, 19, 0, 0, 0, 0, 0, 0, 0, 0, 0, 8, 0, 17, 0
|0, 32, 11, 0, 0, 0, 37, 0, 0, 18, 0, 0, 24, 0, 0, 0, 0, 39, 0, 0, 0, 0, 0, 0, 0, 9, 5, 0, 41, 42, 34, 0, 0, 0, 15, 0, 0, 0, 0, 19, 0, 31, 3, 36, 0, 0, 0, 0, 0
|0, 9, 0, 10, 0, 16, 33, 26, 27, 0, 19, 0, 0, 0, 0, 0, 0, 0, 15, 0, 0, 0, 21, 0, 0, 0, 0, 0, 31, 0, 3, 1, 0, 0, 0, 0, 34, 0, 0, 48, 28, 0, 0, 14, 18, 0, 0, 20, 0
|0, 0, 38, 47, 28, 3, 0, 0, 43, 29, 8, 0, 0, 41, 46, 0, 0, 0, 0, 0, 0, 19, 18, 0, 0, 4, 10, 45, 22, 6, 0, 0, 0, 17, 0, 0, 30, 0, 0, 20, 33, 0, 0, 0, 0, 32, 9, 12, 27
|0, 0, 0, 0, 0, 19, 36, 37, 40, 0, 20, 1, 0, 0, 0, 0, 0, 0, 0, 0, 22, 0, 0, 0, 31, 26, 2, 0, 0, 11, 0, 28, 35, 7, 45, 24, 41, 29, 10, 0, 8, 42, 0, 0, 47, 0, 46, 0, 44
|0, 34, 30, 41, 0, 0, 0, 31, 0, 28, 0, 38, 0, 15, 6, 0, 11, 3, 18, 0, 27, 0, 0, 0, 36, 7, 0, 0, 9, 20, 12, 0, 0, 8, 46, 0, 1, 0, 0, 25, 0, 14, 45, 40, 24, 21, 0, 0, 0
|0, 4, 45, 24, 0, 0, 0, 17, 11, 9, 30, 0, 12, 10, 2, 41, 20, 0, 32, 0, 0, 23, 0, 25, 28, 0, 0, 0, 27, 43, 48, 14, 0, 33, 39, 40, 0, 0, 36, 47, 0, 0, 0, 22, 0, 0, 5, 0, 0
|0, 0, 31, 0, 0, 13, 21, 0, 0, 0, 0, 44, 14, 0, 0, 28, 10, 0, 47, 0, 26, 24, 0, 0, 0, 0, 15, 8, 16, 19, 40, 0, 0, 0, 32, 0, 38, 0, 9, 17, 46, 0, 7, 41, 0, 0, 48, 37, 33
|37, 0, 0, 19, 46, 29, 0, 4, 0, 35, 0, 0, 0, 0, 0, 3, 0, 1, 11, 0, 15, 22, 0, 8, 33, 0, 0, 0, 44, 0, 9, 0, 0, 0, 0, 0, 0, 0, 0, 0, 49, 0, 16, 0, 14, 0, 34, 32, 31
|32, 0, 0, 35, 23, 0, 0, 0, 2, 0, 0, 0, 0, 0, 9, 0, 22, 33, 0, 0, 37, 10, 0, 0, 0, 46, 4, 49, 1, 21, 6, 0, 0, 0, 34, 0, 14, 0, 0, 24, 29, 0, 41, 5, 15, 47, 0, 39, 0
|34, 0, 28, 17, 0, 45, 0, 29, 7, 38, 0, 39, 0, 37, 0, 20, 49, 0, 0, 0, 0, 0, 0, 16, 0, 43, 3, 0, 0, 0, 0, 0, 0, 0, 19, 42, 0, 46, 1, 0, 36, 0, 25, 0, 0, 0, 10, 0, 0
|0, 33, 47, 11, 6, 0, 9, 46, 20, 34, 0, 0, 0, 0, 29, 25, 18, 0, 45, 7, 0, 37, 38, 27, 23, 1, 0, 0, 14, 39, 0, 0, 0, 0, 13, 0, 35, 0, 19, 26, 0, 16, 0, 28, 0, 0, 0, 0, 49
|0, 12, 0, 0, 0, 0, 7, 0, 0, 0, 17, 0, 32, 1, 0, 0, 0, 14, 36, 35, 30, 44, 40, 0, 0, 28, 25, 0, 24, 8, 0, 0, 16, 0, 0, 0, 37, 34, 22, 31, 15, 0, 0, 0, 21, 27, 0, 0, 0
|0, 22, 48, 0, 0, 0, 39, 33, 0, 0, 15, 0, 0, 0, 19, 13, 27, 0, 2, 0, 16, 6, 5, 26, 14, 0, 0, 0, 43, 0, 49, 0, 0, 0, 35, 0, 47, 0, 0, 45, 0, 0, 36, 12, 0, 0, 11, 0, 0
|0, 0, 16, 13, 0, 0, 49, 40, 48, 0, 0, 28, 26, 11, 0, 0, 38, 47, 0, 46, 6, 0, 0, 0, 0, 0, 12, 15, 0, 17, 0, 0, 0, 36, 0, 0, 0, 0, 0, 33, 5, 21, 29, 0, 9, 0, 37, 0, 0
|25, 0, 0, 0, 42, 0, 32, 0, 16, 0, 0, 35, 0, 28, 38, 0, 47, 0, 0, 0, 5, 21, 29, 0, 0, 0, 0, 37, 23, 0, 17, 43, 27, 2, 0, 4, 0, 26, 46, 0, 20, 48, 0, 10, 0, 0, 0, 0, 34
|18, 45, 0, 0, 0, 8, 34, 2, 0, 4, 5, 12, 0, 38, 0, 0, 19, 0, 37, 23, 49, 0, 0, 47, 0, 0, 0, 46, 30, 3, 0, 0, 0, 16, 0, 0, 13, 0, 28, 0, 14, 0, 22, 0, 0, 0, 31, 0, 0
|28, 23, 0, 46, 0, 31, 0, 6, 0, 8, 37, 47, 0, 0, 0, 0, 21, 0, 0, 27, 0, 0, 36, 43, 0, 0, 0, 3, 26, 44, 19, 9, 22, 0, 0, 0, 0, 41, 0, 0, 16, 2, 0, 0, 0, 1, 12, 24, 0
|0, 21, 0, 2, 16, 0, 11, 0, 31, 0, 0, 0, 0, 25, 0, 24, 0, 28, 0, 48, 46, 0, 0, 33, 0, 38, 42, 9, 0, 32, 0, 18, 12, 34, 0, 0, 0, 0, 0, 8, 23, 19, 0, 26, 0, 7, 44, 27, 0
|30, 0, 0, 22, 47, 0, 20, 48, 0, 14, 0, 32, 33, 19, 13, 0, 0, 0, 0, 0, 17, 0, 0, 0, 18, 0, 31, 23, 0, 0, 4, 0, 6, 38, 25, 27, 0, 0, 3, 0, 7, 37, 0, 45, 0, 16, 0, 0, 0
|36, 7, 0, 6, 13, 27, 29, 0, 0, 0, 0, 3, 0, 0, 8, 0, 0, 0, 0, 20, 40, 26, 19, 17, 15, 0, 32, 4, 37, 0, 0, 0, 0, 0, 0, 0, 44, 0, 0, 0, 0, 0, 0, 0, 33, 5, 30, 43, 18
|0, 35, 19, 48, 0, 26, 17, 0, 0, 42, 43, 41, 44, 0, 4, 0, 0, 30, 0, 10, 0, 20, 6, 7, 25, 8, 11, 16, 39, 15, 33, 31, 0, 46, 40, 5, 49, 32, 29, 1, 34, 24, 0, 0, 38, 0, 28, 0, 0
|0, 6, 0, 0, 0, 0, 0, 13, 33, 36, 0, 0, 0, 0, 17, 47, 0, 10, 3, 24, 7, 0, 0, 0, 0, 16, 0, 25, 11, 27, 21, 0, 19, 0, 18, 34, 0, 44, 4, 0, 38, 0, 30, 0, 40, 0, 22, 41, 0
|0, 11, 23, 49, 37, 0, 0, 0, 46, 5, 28, 0, 1, 0, 0, 16, 26, 0, 0, 39, 0, 9, 0, 0, 0, 0, 35, 10, 0, 36, 8, 12, 0, 15, 30, 45, 0, 0, 24, 22, 0, 0, 0, 34, 6, 29, 0, 48, 0
|0, 20, 0, 0, 0, 4, 15, 8, 22, 6, 0, 37, 42, 0, 0, 49, 0, 12, 44, 0, 0, 31, 2, 28, 0, 21, 40, 5, 46, 34, 29, 0, 0, 0, 9, 36, 32, 48, 23, 0, 0, 30, 10, 0, 0, 0, 7, 3, 45
|47, 0, 21, 43, 30, 28, 24, 25, 0, 40, 4, 0, 0, 0, 11, 9, 0, 46, 0, 5, 0, 49, 33, 0, 0, 0, 48, 0, 45, 10, 42, 32, 44, 1, 0, 31, 0, 0, 8, 7, 6, 0, 27, 0, 0, 36, 0, 0, 0
|19, 0, 32, 34, 0, 48, 45, 0, 17, 30, 12, 31, 7, 0, 0, 4, 25, 0, 0, 0, 23, 0, 15, 0, 0, 0, 6, 43, 0, 0, 0, 0, 0, 40, 28, 3, 18, 27, 41, 46, 1, 10, 0, 0, 0, 49, 8, 0, 0
|0, 0, 25, 9, 0, 0, 8, 0, 0, 27, 11, 0, 41, 0, 0, 0, 0, 0, 0, 0, 0, 1, 0, 0, 0, 0, 0, 7, 0, 33, 22, 6, 48, 14, 0, 21, 40, 0, 49, 37, 0, 0, 0, 31, 19, 39, 0, 44, 32
|0, 0, 0, 0, 0, 0, 0, 38, 0, 0, 0, 34, 48, 0, 42, 30, 8, 19, 0, 0, 0, 27, 0, 18, 0, 44, 23, 0, 0, 7, 0, 20, 0, 0, 0, 0, 29, 15, 0, 0, 11, 26, 0, 9, 12, 0, 21, 4, 46|];