order = 7;
grid = [|0, 0, 0, 14, 0, 2, 15, 41, 0, 0, 0, 13, 0, 0, 0, 0, 11, 35, 44, 49, 18, 0, 37, 26, 0, 0, 23, 0, 4, 0, 34, 0, 0, 17, 22, 0, 45, 0, 24, 0, 29, 0, 33, 0, 20, 0, 36, 0, 27
|0, 0, 0, 39, 4, 0, 36, 0, 38, 0, 1, 0, 2, 49, 0, 31, 8, 33, 37, 0, 21, 0, 0, 0, 0, 0, 32, 0, 0, 0, 0, 0, 23, 16, 9, 0, 47, 14, 41, 46, 0, 26, 0, 5, 18, 10, 48, 30, 6
|21, 17, 18, 46, 40, 24, 10, 44, 4, 0, 35, 39, 0, 0, 0, 0, 0, 47, 0, 0, 42, 0, 0, 25, 45, 3, 0, 16, 26, 19, 0, 0, 32, 0, 0, 15, 0, 0, 49, 11, 7, 8, 23, 0, 13, 34, 0, 0, 22
|33, 35, 27, 8, 0, 0, 22, 0, 28, 17, 12, 0, 0, 0, 0, 0, 26, 0, 0, 0, 0, 0, 47, 2, 36, 0, 20, 34, 30, 3, 21, 0, 18, 0, 0, 0, 6, 0, 0, 0, 23, 0, 0, 11, 0, 16, 0, 0, 0
|0, 0, 0, 0, 0, 0, 0, 27, 23, 0, 0, 6, 0, 37, 0, 22, 0, 0, 0, 0, 34, 19, 0, 0, 0, 18, 46, 0, 0, 44, 0, 0, 0, 0, 11, 35, 0, 0, 39, 32, 20, 36, 14, 0, 7, 12, 17, 47, 0
|0, 0, 0, 0, 0, 0, 0, 0, 0, 26, 33, 11, 0, 10, 0, 0, 0, 0, 0, 9, 13, 0, 24, 17, 1, 0, 31, 0, 0, 47, 27, 40, 42, 0, 46, 21, 2, 0, 0, 43, 48, 0, 25, 29, 4, 0, 0, 0, 3
|30, 0, 47, 0, 0, 11, 0, 0, 0, 9, 0, 3, 0, 0, 39, 0, 6, 27, 0, 0, 7, 0, 41, 0, 33, 0, 0, 35, 0, 0, 29, 0, 2, 0, 0, 0, 17, 0, 0, 0, 34, 0, 0, 40, 0, 0, 45, 0, 31
|0, 18, 11, 2, 7, 0, 0, 1, 0, 0, 0, 9, 0, 0, 0, 0, 30, 36, 23, 0, 0, 17, 16, 0, 39, 48, 33, 0, 47, 0, 0, 19, 43, 0, 5, 41, 0, 15, 0, 0, 0, 27, 0, 0, 0, 14, 42, 0, 29
|12, 0, 1, 0, 20, 0, 0, 43, 0, 8, 34, 0, 0, 17, 0, 0, 0, 0, 11, 0, 19, 38, 0, 45, 14, 36, 27, 41, 46, 4, 0, 0, 0, 0, 48, 0, 0, 0, 0, 25, 0, 0, 7, 0, 49, 0, 0, 26, 21
|0, 0, 0, 41, 43, 34, 0, 28, 42, 29, 24, 37, 0, 0, 26, 0, 2, 0, 17, 0, 35, 0, 7, 0, 0, 0, 18, 44, 0, 38, 33, 0, 0, 0, 0, 47, 0, 32, 5, 3, 10, 0, 1, 20, 0, 30, 0, 0, 0
|0, 39, 0, 48, 30, 0, 0, 10, 0, 27, 0, 0, 32, 38, 0, 43, 9, 0, 0, 42, 0, 0, 0, 0, 34, 0, 1, 0, 0, 0, 36, 0, 0, 15, 44, 28, 0, 0, 4, 49, 18, 17, 40, 6, 16, 0, 46, 31, 41
|47, 0, 49, 22, 42, 0, 40, 0, 0, 0, 0, 48, 14, 46, 0, 33, 0, 0, 0, 0, 0, 2, 3, 0, 35, 0, 29, 0, 0, 1, 32, 0, 17, 45, 12, 0, 0, 7, 30, 13, 26, 24, 11, 43, 44, 38, 0, 0, 0
|36, 29, 0, 5, 19, 28, 17, 0, 45, 2, 0, 0, 44, 0, 14, 24, 0, 0, 0, 40, 0, 32, 8, 0, 0, 0, 30, 0, 0, 0, 31, 13, 0, 0, 7, 38, 16, 0, 43, 48, 37, 0, 0, 34, 10, 0, 23, 0, 9
|4, 0, 46, 32, 9, 0, 0, 40, 0, 19, 3, 5, 0, 39, 0, 44, 0, 41, 0, 0, 0, 0, 49, 0, 0, 0, 0, 20, 0, 0, 0, 0, 0, 0, 26, 0, 12, 0, 36, 0, 33, 0, 0, 0, 0, 0, 0, 0, 0
|24, 30, 12, 0, 37, 10, 0, 17, 2, 0, 0, 0, 33, 0, 28, 0, 0, 18, 0, 11, 45, 0, 0, 7, 16, 5, 0, 48, 36, 0, 0, 15, 0, 0, 8, 22, 26, 0, 46, 40, 13, 0, 0, 27, 41, 21, 4, 0, 35
|40, 0, 0, 0, 0, 46, 16, 21, 0, 35, 44, 49, 0, 0, 2, 0, 0, 32, 0, 17, 8, 0, 20, 27, 18, 0, 45, 38, 14, 0, 0, 4, 0, 0, 29, 31, 0, 5, 11, 12, 3, 0, 0, 0, 26, 0, 22, 0, 13
|0, 38, 34, 0, 17, 26, 0, 12, 9, 15, 45, 28, 39, 0, 0, 0, 0, 6, 0, 0, 31, 0, 0, 0, 0, 8, 21, 0, 0, 22, 0, 0, 24, 30, 1, 0, 19, 0, 0, 0, 44, 37, 0, 25, 0, 0, 49, 33, 0
|0, 0, 0, 3, 27, 0, 31, 0, 14, 0, 5, 41, 0, 22, 15, 0, 23, 0, 34, 19, 0, 0, 30, 0, 0, 0, 47, 0, 0, 17, 46, 33, 0, 0, 0, 0, 0, 0, 0, 0, 0, 0, 0, 32, 0, 0, 0, 18, 0
|0, 14, 0, 0, 39, 1, 21, 0, 25, 46, 0, 32, 0, 19, 0, 0, 0, 0, 24, 0, 9, 0, 33, 36, 42, 49, 0, 15, 5, 26, 0, 0, 0, 0, 0, 48, 0, 47, 2, 17, 0, 0, 0, 0, 0, 20, 40, 0, 30
|0, 4, 41, 0, 0, 33, 0, 0, 10, 38, 18, 40, 0, 0, 48, 5, 37, 39, 46, 0, 0, 11, 44, 12, 0, 17, 25, 13, 34, 21, 42, 31, 47, 2, 0, 0, 0, 0, 0, 0, 0, 0, 24, 36, 0, 9, 16, 45, 0
|49, 28, 8, 0, 0, 5, 0, 0, 0, 0, 0, 0, 0, 0, 44, 21, 38, 0, 0, 0, 0, 0, 6, 24, 0, 31, 0, 32, 0, 0, 0, 0, 0, 23, 41, 33, 0, 35, 10, 36, 0, 0, 0, 47, 0, 0, 19, 0, 0
|0, 0, 25, 0, 0, 39, 49, 0, 40, 0, 6, 0, 10, 2, 0, 42, 0, 0, 0, 0, 0, 0, 17, 0, 0, 4, 43, 0, 24, 11, 9, 48, 0, 38, 0, 14, 0, 8, 15, 0, 0, 31, 0, 1, 28, 23, 27, 0, 20
|10, 26, 32, 0, 11, 0, 46, 30, 0, 12, 0, 0, 41, 0, 34, 1, 0, 0, 0, 2, 0, 36, 9, 42, 25, 24, 28, 0, 3, 23, 0, 17, 33, 0, 0, 45, 0, 4, 0, 38, 6, 0, 0, 0, 39, 37, 0, 0, 0
|0, 6, 28, 0, 14, 35, 3, 39, 11, 24, 7, 15, 45, 0, 0, 8, 0, 0, 43, 0, 0, 0, 40, 37, 19, 0, 44, 49, 10, 0, 22, 2, 0, 41, 0, 17, 5, 0, 34, 0, 0, 0, 4, 38, 47, 36, 26, 0, 46
|0, 0, 0, 27, 0, 0, 0, 0, 0, 0, 32, 0, 4, 0, 46, 17, 0, 13, 0, 3, 0, 20, 18, 39, 48, 0, 38, 0, 0, 0, 1, 8, 34, 0, 31, 0, 36, 0, 22, 44, 0, 10, 30, 14, 19, 0, 11, 0, 12
|0, 22, 20, 40, 13, 36, 0, 0, 29, 0, 49, 1, 17, 0, 7, 14, 0, 44, 12, 0, 11, 0, 0, 0, 0, 0, 0, 0, 0, 0, 0, 0, 0, 0, 0, 18, 9, 0, 0, 27, 0, 0, 0, 24, 21, 0, 25, 41, 0
|0, 44, 0, 37, 0, 43, 1, 23, 36, 0, 46, 0, 34, 0, 24, 38, 0, 9, 4, 6, 32, 0, 0, 22, 0, 13, 41, 45, 0, 0, 49, 42, 0, 0, 20, 0, 48, 3, 0, 39, 47, 2, 0, 17, 0, 40, 31, 16, 0
|31, 24, 0, 0, 0, 0, 18, 0, 35, 0, 37, 0, 0, 3, 47, 26, 0, 0, 0, 0, 0, 0, 0, 0, 0, 0, 15, 0, 0, 0, 7, 0, 4, 36, 16, 46, 0, 0, 0, 0, 28, 41, 43, 0, 48, 13, 33, 0, 8
|0, 0, 6, 47, 25, 0, 0, 37, 43, 0, 0, 0, 0, 4, 11, 0, 40, 15, 26, 0, 39, 0, 0, 35, 0, 0, 0, 2, 29, 0, 5, 0, 48, 28, 27, 0, 0, 0, 3, 24, 9, 22, 0, 0, 38, 0, 12, 0, 0
|44, 5, 0, 29, 24, 0, 0, 0, 20, 0, 0, 0, 0, 0, 0, 34, 0, 8, 0, 0, 0, 0, 0, 0, 0, 33, 0, 17, 0, 46, 0, 0, 6, 0, 0, 0, 0, 13, 0, 0, 27, 19, 0, 0, 42, 11, 0, 0, 0
|0, 42, 48, 0, 36, 40, 38, 0, 12, 30, 14, 8, 0, 0, 0, 3, 0, 1, 0, 21, 20, 0, 29, 0, 37, 16, 0, 9, 0, 33, 0, 0, 31, 0, 24, 0, 10, 45, 35, 0, 46, 11, 39, 23, 22, 25, 18, 28, 4
|3, 8, 0, 0, 0, 0, 0, 0, 15, 5, 0, 0, 0, 32, 0, 0, 14, 24, 0, 28, 0, 0, 0, 10, 0, 0, 0, 6, 0, 0, 0, 34, 12, 25, 0, 0, 0, 0, 37, 0, 0, 0, 13, 31, 0, 0, 0, 44, 48
|0, 21, 2, 49, 31, 0, 0, 0, 39, 0, 0, 7, 47, 0, 27, 0, 48, 0, 42, 0, 6, 0, 0, 0, 28, 0, 0, 40, 0, 0, 0, 22, 16, 0, 23, 5, 29, 0, 0, 4, 0, 15, 0, 0, 0, 0, 14, 36, 43
|9, 37, 10, 16, 0, 0, 12, 19, 33, 23, 17, 36, 0, 40, 49, 45, 0, 2, 29, 0, 0, 0, 42, 44, 27, 0, 48, 0, 0, 8, 38, 26, 35, 4, 13, 0, 28, 0, 25, 20, 0, 6, 34, 15, 0, 41, 0, 5, 7
|28, 46, 26, 0, 22, 15, 14, 0, 21, 0, 0, 25, 0, 0, 0, 16, 33, 0, 0, 0, 0, 45, 38, 8, 32, 0, 24, 23, 42, 0, 0, 30, 0, 47, 3, 34, 18, 36, 48, 0, 17, 0, 27, 19, 0, 0, 0, 0, 0
|0, 19, 38, 0, 0, 0, 8, 3, 0, 10, 0, 43, 11, 30, 0, 13, 24, 34, 9, 29, 0, 33, 1, 0, 49, 45, 26, 31, 44, 0, 0, 0, 0, 0, 0, 36, 46, 0, 0, 22, 5, 0, 0, 0, 23, 0, 0, 0, 0
|1, 0, 0, 44, 3, 31, 20, 0, 48, 0, 0, 0, 29, 13, 0, 0, 39, 11, 6, 30, 0, 27, 23, 18, 38, 0, 0, 0, 0, 0, 16, 0, 0, 34, 0, 0, 24, 19, 17, 0, 0, 0, 42, 0, 25, 0, 0, 14, 0
|0, 40, 0, 0, 0, 0, 0, 0, 6, 37, 38, 2, 0, 0, 0, 18, 0, 0, 0, 0, 0, 9, 0, 0, 0, 46, 0, 36, 0, 0, 3, 21, 28, 0, 0, 25, 0, 1, 0, 10, 8, 0, 20, 22, 0, 4, 0, 13, 0
|0, 0, 0, 0, 6, 4, 34, 0, 0, 0, 28, 0, 7, 21, 35, 12, 25, 26, 0, 0, 41, 39, 0, 0, 20, 40, 5, 0, 0, 36, 48, 10, 15, 43, 0, 0, 0, 27, 0, 45, 0, 33, 8, 0, 1, 49, 0, 11, 0
|16, 0, 0, 15, 47, 25, 0, 22, 0, 40, 0, 27, 42, 0, 33, 2, 21, 0, 0, 0, 0, 37, 28, 0, 7, 0, 0, 0, 0, 41, 8, 6, 0, 32, 19, 13, 0, 0, 9, 0, 0, 49, 0, 18, 17, 0, 10, 0, 0
|35, 0, 24, 11, 28, 0, 37, 0, 0, 0, 0, 0, 0, 45, 0, 7, 0, 0, 27, 1, 17, 15, 22, 32, 8, 41, 0, 30, 0, 9, 0, 0, 13, 31, 0, 42, 0, 0, 26, 0, 0, 21, 36, 12, 0, 0, 6, 0, 0
|32, 0, 22, 0, 10, 42, 0, 49, 17, 1, 0, 26, 0, 41, 8, 0, 46, 0, 0, 0, 0, 0, 14, 0, 4, 44, 0, 25, 7, 27, 0, 18, 0, 0, 45, 0, 38, 16, 6, 0, 0, 0, 0, 0, 31, 5, 3, 19, 0
|0, 27, 36, 0, 16, 0, 0, 0, 13, 28, 0, 17, 0, 9, 45, 0, 18, 0, 0, 26, 24, 14, 34, 0, 11, 0, 0, 29, 0, 2, 0, 46, 41, 0, 38, 37, 42, 22, 0, 0, 39, 3, 0, 0, 43, 0, 0, 12, 0
|43, 20, 0, 7, 44, 0, 28, 0, 1, 49, 0, 0, 0, 0, 6, 39, 13, 0, 0, 27, 12, 42, 46, 0, 0, 2, 0, 0, 19, 30, 23, 0, 0, 0, 0, 0, 4, 25, 0, 0, 11, 34, 47, 48, 14, 3, 0, 10, 36
|14, 49, 0, 17, 38, 37, 6, 0, 0, 0, 0, 22, 46, 35, 0, 0, 15, 42, 30, 33, 0, 0, 0, 40, 0, 0, 9, 1, 20, 0, 44, 16, 0, 0, 0, 7, 0, 31, 0, 0, 0, 0, 0, 0, 0, 0, 0, 23, 45
|0, 47, 3, 24, 0, 0, 0, 0, 0, 0, 0, 10, 0, 7, 5, 35, 0, 14, 0, 34, 2, 25, 0, 19, 0, 0, 39, 0, 12, 48, 13, 0, 0, 27, 33, 23, 0, 0, 0, 15, 0, 0, 0, 0, 0, 0, 0, 46, 16
|0, 11, 0, 31, 46, 12, 0, 0, 0, 0, 0, 0, 0, 0, 19, 20, 0, 0, 0, 0, 0, 23, 36, 41, 0, 0, 6, 0, 0, 0, 0, 0, 0, 1, 0, 26, 0, 0, 0, 28, 49, 0, 9, 0, 27, 18, 0, 40, 0
|23, 0, 0, 33, 0, 0, 26, 0, 0, 0, 0, 0, 19, 12, 36, 0, 0, 7, 47, 0, 0, 49, 0, 38, 3, 32, 0, 0, 0, 0, 0, 28, 5, 39, 17, 6, 0, 0, 0, 0, 24, 45, 21, 30, 37, 0, 0, 42, 0
|0, 0, 0, 25, 35, 22, 0, 6, 0, 3, 2, 23, 0, 14, 0, 40, 0, 0, 38, 46, 43, 0, 21, 0, 13, 0, 0, 0, 32, 0, 10, 47, 8, 0, 42, 0, 0, 0, 0, 30, 12, 0, 0, 49, 33, 0, 28, 0, 0|];