order = 7;
grid = [|0, 0, 0, 0, 0, 29, 0, 0, 21, 0, 0, 0, 0, 38, 0, 0, 44, 12, 0, 0, 0, 0, 10, 49, 0, 0, 0, 0, 0, 22, 0, 32, 0, 0, 0, 0, 0, 17, 0, 42, 34, 18, 14, 4, 43, 23, 0, 7, 5
|0, 35, 0, 0, 0, 0, 0, 0, 42, 4, 48, 0, 16, 37, 0, 0, 21, 9, 0, 0, 0, 0, 0, 0, 0, 0, 0, 0, 2, 0, 18, 1, 45, 0, 0, 0, 5, 0, 15, 0, 0, 19, 0, 0, 0, 30, 0, 0, 0
|27, 6, 9, 0, 21, 0, 19, 0, 0, 46, 3, 8, 13, 0, 38, 40, 0, 30, 47, 1, 0, 4, 2, 0, 0, 0, 0, 0, 42, 7, 34, 0, 0, 43, 15, 0, 45, 31, 0, 0, 0, 0, 0, 0, 49, 37, 0, 48, 39
|0, 46, 0, 0, 10, 0, 18, 22, 14, 23, 0, 0, 0, 25, 37, 0, 0, 8, 36, 45, 0, 32, 5, 6, 7, 0, 0, 38, 9, 0, 0, 44, 39, 27, 11, 43, 4, 0, 0, 0, 0, 0, 19, 29, 0, 0, 0, 0, 0
|0, 45, 14, 1, 39, 28, 34, 20, 0, 0, 0, 2, 7, 0, 0, 0, 43, 0, 0, 32, 3, 9, 25, 47, 37, 42, 0, 0, 17, 0, 41, 0, 29, 5, 10, 11, 0, 44, 24, 48, 30, 0, 0, 21, 38, 15, 0, 12, 40
|22, 0, 26, 42, 0, 25, 0, 0, 5, 15, 0, 12, 0, 0, 4, 34, 0, 19, 0, 2, 0, 31, 30, 0, 0, 11, 33, 0, 0, 37, 0, 6, 0, 14, 0, 0, 0, 7, 46, 0, 0, 0, 0, 44, 0, 0, 8, 13, 35
|5, 3, 0, 15, 20, 36, 0, 0, 0, 0, 34, 41, 10, 19, 14, 0, 25, 0, 0, 42, 0, 23, 0, 0, 48, 43, 0, 0, 49, 0, 47, 0, 0, 46, 0, 8, 0, 33, 21, 29, 0, 0, 9, 45, 32, 0, 0, 17, 0
|39, 37, 0, 0, 29, 0, 0, 30, 9, 0, 49, 0, 0, 0, 25, 6, 36, 0, 0, 33, 0, 16, 41, 0, 0, 0, 0, 1, 12, 0, 20, 3, 4, 0, 19, 24, 38, 0, 27, 0, 0, 21, 44, 13, 0, 0, 31, 40, 17
|36, 0, 2, 38, 0, 0, 4, 10, 13, 0, 25, 0, 33, 0, 0, 0, 0, 0, 46, 35, 0, 0, 0, 20, 8, 24, 32, 18, 0, 44, 31, 0, 0, 21, 6, 0, 0, 37, 43, 0, 17, 49, 0, 48, 0, 1, 0, 0, 42
|0, 0, 0, 0, 0, 0, 0, 0, 0, 0, 35, 18, 0, 31, 0, 27, 10, 44, 0, 0, 43, 0, 0, 0, 17, 0, 0, 0, 13, 11, 0, 9, 0, 8, 0, 41, 7, 48, 0, 19, 0, 34, 0, 24, 0, 0, 29, 25, 49
|0, 0, 28, 0, 32, 0, 25, 0, 45, 0, 40, 14, 24, 3, 0, 0, 0, 0, 41, 0, 0, 44, 42, 0, 0, 0, 0, 0, 0, 0, 10, 0, 35, 0, 27, 5, 0, 0, 9, 0, 31, 26, 23, 0, 2, 0, 38, 0, 0
|23, 0, 10, 3, 41, 8, 26, 7, 0, 0, 4, 37, 36, 0, 28, 0, 38, 0, 11, 30, 0, 0, 0, 0, 0, 48, 25, 0, 0, 43, 29, 0, 0, 0, 49, 0, 12, 0, 0, 0, 42, 0, 0, 35, 34, 0, 0, 0, 0
|0, 43, 7, 27, 0, 0, 0, 0, 0, 0, 0, 0, 8, 0, 0, 47, 49, 20, 0, 48, 34, 0, 0, 40, 29, 0, 10, 21, 41, 24, 0, 0, 0, 26, 0, 0, 25, 0, 0, 0, 35, 1, 0, 18, 0, 22, 14, 0, 4
|17, 34, 35, 0, 0, 15, 0, 47, 0, 0, 27, 5, 0, 0, 24, 29, 42, 0, 0, 0, 31, 38, 45, 0, 12, 14, 49, 2, 28, 23, 0, 37, 16, 7, 0, 0, 6, 13, 0, 0, 0, 0, 46, 0, 9, 0, 0, 43, 20
|6, 26, 0, 0, 0, 43, 27, 31, 39, 47, 8, 28, 34, 2, 17, 37, 0, 25, 49, 0, 0, 41, 20, 15, 11, 0, 42, 0, 0, 0, 35, 0, 0, 0, 0, 0, 0, 0, 0, 5, 46, 0, 32, 40, 33, 0, 23, 21, 0
|0, 0, 31, 0, 16, 10, 17, 0, 19, 0, 45, 13, 25, 41, 0, 0, 0, 24, 0, 0, 0, 0, 0, 0, 0, 0, 0, 0, 1, 0, 0, 0, 0, 0, 0, 0, 0, 0, 0, 38, 7, 0, 47, 0, 0, 0, 18, 0, 0
|0, 0, 0, 18, 4, 21, 35, 5, 0, 48, 20, 27, 30, 0, 45, 22, 26, 10, 0, 0, 0, 2, 31, 0, 36, 0, 39, 28, 29, 32, 0, 0, 0, 47, 14, 0, 0, 24, 0, 3, 0, 43, 38, 0, 0, 0, 0, 49, 0
|45, 0, 0, 0, 25, 0, 28, 42, 10, 49, 23, 24, 0, 0, 0, 31, 0, 0, 0, 13, 0, 0, 40, 0, 47, 0, 0, 0, 20, 0, 0, 0, 0, 15, 0, 0, 0, 0, 0, 0, 0, 0, 3, 0, 0, 0, 0, 6, 0
|0, 42, 19, 0, 0, 0, 0, 46, 7, 0, 0, 0, 37, 0, 48, 0, 39, 0, 33, 0, 0, 1, 0, 13, 9, 49, 0, 4, 10, 0, 0, 0, 43, 0, 0, 0, 31, 27, 11, 20, 25, 0, 35, 0, 0, 24, 0, 0, 29
|7, 33, 0, 46, 0, 0, 0, 11, 3, 35, 44, 43, 38, 0, 16, 0, 29, 0, 0, 12, 42, 45, 37, 0, 0, 0, 26, 10, 0, 2, 0, 22, 36, 48, 9, 15, 0, 0, 14, 23, 21, 8, 1, 31, 5, 39, 0, 4, 19
|38, 0, 34, 48, 2, 23, 20, 9, 29, 12, 0, 36, 0, 0, 0, 0, 5, 11, 0, 0, 41, 0, 0, 0, 0, 0, 0, 3, 31, 0, 0, 0, 37, 0, 0, 19, 0, 0, 49, 17, 10, 35, 13, 0, 0, 16, 0, 0, 0
|32, 20, 18, 0, 13, 0, 0, 0, 38, 0, 0, 0, 40, 48, 7, 0, 16, 27, 37, 0, 0, 0, 0, 28, 0, 0, 46, 0, 0, 0, 0, 47, 10, 0, 0, 33, 0, 39, 0, 0, 0, 0, 0, 0, 19, 0, 17, 1, 21
|0, 0, 0, 44, 0, 0, 8, 39, 1, 7, 0, 0, 0, 0, 0, 0, 0, 0, 43, 0, 0, 0, 0, 29, 49, 9, 0, 0, 0, 0, 0, 0, 18, 34, 0, 30, 48, 0, 42, 37, 0, 36, 0, 0, 35, 0, 25, 0, 0
|21, 0, 3, 49, 46, 27, 0, 16, 0, 8, 18, 6, 19, 0, 0, 35, 45, 0, 25, 0, 0, 0, 0, 44, 15, 36, 0, 0, 0, 30, 14, 29, 0, 42, 28, 0, 0, 0, 26, 11, 0, 0, 0, 0, 23, 34, 48, 20, 0
|0, 4, 0, 0, 0, 0, 39, 37, 43, 0, 0, 0, 2, 0, 23, 12, 11, 5, 18, 0, 0, 0, 0, 26, 16, 33, 40, 0, 45, 41, 32, 7, 19, 0, 0, 1, 10, 0, 44, 0, 9, 3, 27, 36, 47, 0, 46, 29, 0
|0, 0, 16, 36, 28, 0, 0, 0, 0, 27, 9, 0, 29, 30, 19, 0, 0, 46, 24, 0, 49, 0, 35, 2, 5, 41, 8, 0, 0, 39, 38, 11, 15, 0, 0, 0, 20, 0, 7, 0, 0, 0, 0, 0, 0, 0, 3, 0, 0
|1, 38, 41, 45, 43, 19, 29, 3, 36, 0, 0, 0, 4, 5, 0, 8, 0, 48, 42, 44, 17, 6, 0, 0, 0, 39, 0, 20, 33, 9, 0, 0, 0, 0, 0, 0, 0, 46, 28, 32, 27, 0, 0, 16, 0, 18, 12, 11, 7
|26, 11, 0, 0, 0, 0, 7, 33, 23, 25, 47, 0, 41, 0, 34, 0, 3, 0, 0, 0, 0, 0, 32, 0, 4, 0, 0, 0, 0, 46, 0, 17, 0, 37, 0, 16, 0, 0, 38, 24, 12, 45, 0, 22, 28, 0, 39, 0, 0
|0, 28, 0, 41, 0, 24, 9, 25, 0, 0, 29, 0, 0, 17, 13, 0, 12, 0, 0, 0, 0, 0, 0, 42, 26, 4, 20, 7, 0, 0, 0, 8, 0, 35, 39, 0, 18, 0, 0, 46, 0, 0, 0, 30, 0, 44, 37, 0, 0
|0, 0, 0, 7, 38, 0, 0, 19, 0, 43, 13, 0, 0, 10, 0, 42, 0, 0, 39, 34, 16, 30, 6, 35, 14, 25, 28, 44, 24, 0, 23, 0, 27, 0, 29, 0, 26, 0, 1, 0, 0, 0, 8, 0, 40, 0, 0, 0, 0
|15, 32, 36, 19, 47, 33, 0, 48, 24, 45, 7, 0, 46, 14, 31, 30, 8, 3, 26, 0, 44, 49, 0, 23, 34, 0, 2, 16, 22, 0, 0, 43, 0, 0, 0, 0, 9, 0, 0, 39, 0, 5, 17, 6, 25, 0, 35, 0, 0
|43, 0, 0, 25, 3, 0, 0, 0, 0, 0, 0, 39, 44, 35, 20, 2, 0, 0, 10, 17, 0, 5, 0, 0, 0, 0, 0, 37, 0, 0, 0, 34, 26, 36, 32, 7, 0, 0, 0, 13, 0, 0, 0, 0, 0, 0, 0, 0, 45
|0, 0, 0, 31, 26, 14, 0, 36, 4, 0, 5, 0, 1, 9, 0, 48, 0, 6, 38, 0, 0, 40, 46, 0, 0, 0, 27, 47, 0, 0, 21, 28, 30, 17, 25, 0, 24, 0, 2, 34, 45, 44, 12, 0, 0, 0, 0, 15, 0
|0, 0, 0, 8, 17, 0, 0, 0, 37, 0, 41, 0, 12, 0, 21, 25, 0, 0, 5, 0, 0, 0, 48, 36, 0, 0, 0, 0, 14, 3, 0, 13, 0, 16, 42, 0, 33, 40, 0, 27, 0, 0, 34, 23, 39, 19, 7, 0, 43
|0, 0, 0, 39, 0, 1, 21, 38, 0, 20, 0, 26, 0, 8, 47, 0, 0, 40, 0, 0, 22, 33, 3, 0, 43, 13, 0, 0, 0, 0, 0, 18, 41, 0, 46, 6, 0, 16, 0, 49, 23, 0, 0, 2, 0, 0, 0, 42, 0
|0, 0, 27, 9, 1, 0, 15, 0, 0, 0, 24, 0, 0, 29, 0, 16, 0, 45, 0, 0, 0, 36, 26, 37, 0, 2, 0, 43, 21, 14, 0, 0, 0, 0, 0, 12, 44, 0, 0, 30, 0, 0, 0, 34, 46, 0, 19, 0, 0
|3, 0, 32, 34, 0, 44, 0, 35, 47, 11, 2, 7, 0, 0, 8, 0, 31, 42, 15, 4, 0, 21, 0, 0, 0, 0, 0, 30, 40, 0, 36, 20, 9, 45, 0, 23, 0, 5, 25, 0, 6, 27, 39, 17, 0, 38, 49, 33, 22
|8, 48, 47, 20, 30, 0, 5, 0, 0, 0, 0, 31, 0, 26, 40, 0, 0, 37, 0, 0, 32, 39, 49, 3, 42, 0, 17, 22, 34, 0, 4, 0, 0, 41, 0, 0, 13, 11, 0, 0, 0, 7, 0, 1, 16, 0, 21, 0, 44
|0, 36, 24, 0, 0, 17, 2, 0, 0, 9, 10, 15, 48, 0, 26, 0, 0, 34, 0, 0, 18, 25, 33, 0, 0, 0, 16, 0, 0, 0, 11, 5, 8, 0, 22, 0, 0, 0, 0, 0, 4, 14, 0, 41, 27, 0, 13, 0, 0
|0, 0, 38, 0, 0, 26, 0, 49, 41, 0, 19, 0, 14, 0, 5, 0, 0, 21, 0, 20, 0, 27, 44, 0, 0, 0, 15, 32, 0, 0, 12, 24, 47, 28, 0, 0, 0, 8, 45, 0, 43, 0, 2, 0, 4, 0, 40, 0, 0
|0, 21, 39, 0, 42, 37, 14, 0, 0, 0, 43, 1, 20, 0, 2, 0, 27, 13, 0, 0, 0, 8, 7, 4, 0, 0, 11, 5, 0, 29, 0, 0, 6, 44, 3, 0, 0, 0, 0, 47, 0, 48, 45, 0, 0, 0, 26, 0, 0
|0, 16, 46, 28, 0, 4, 0, 0, 0, 37, 0, 25, 0, 23, 10, 44, 0, 0, 0, 3, 11, 0, 0, 48, 24, 0, 0, 45, 26, 0, 0, 2, 7, 30, 18, 0, 0, 9, 0, 15, 1, 40, 6, 43, 14, 0, 5, 0, 12
|34, 0, 0, 0, 0, 0, 0, 43, 2, 36, 0, 29, 35, 0, 44, 38, 46, 0, 8, 21, 0, 20, 28, 32, 0, 0, 47, 0, 0, 0, 30, 0, 0, 10, 0, 0, 42, 0, 0, 0, 0, 24, 0, 9, 13, 0, 45, 19, 16
|10, 0, 25, 4, 27, 38, 36, 14, 0, 0, 37, 32, 0, 13, 9, 5, 0, 0, 20, 22, 2, 0, 29, 0, 33, 30, 0, 41, 0, 0, 0, 0, 11, 0, 45, 28, 19, 49, 0, 0, 16, 12, 31, 0, 15, 0, 0, 0, 0
|19, 2, 0, 13, 7, 39, 0, 8, 0, 0, 0, 0, 42, 18, 11, 49, 48, 35, 34, 0, 0, 0, 14, 24, 0, 0, 0, 0, 0, 0, 28, 31, 44, 0, 4, 38, 0, 0, 23, 0, 26, 0, 21, 0, 6, 29, 0, 47, 41
|0, 0, 15, 0, 0, 31, 22, 0, 17, 19, 0, 0, 28, 0, 30, 10, 0, 0, 4, 37, 0, 0, 39, 0, 0, 0, 0, 35, 5, 16, 49, 0, 0, 0, 0, 0, 0, 18, 0, 0, 11, 33, 0, 0, 0, 36, 34, 27, 25
|29, 5, 0, 0, 35, 0, 12, 27, 25, 34, 1, 40, 0, 7, 3, 15, 0, 0, 19, 0, 24, 0, 0, 18, 22, 0, 0, 0, 43, 0, 0, 33, 0, 0, 26, 45, 30, 32, 48, 0, 0, 46, 0, 11, 8, 49, 4, 14, 0
|44, 0, 43, 17, 0, 40, 46, 45, 0, 5, 0, 38, 3, 4, 42, 0, 0, 31, 0, 28, 29, 13, 0, 12, 23, 0, 0, 49, 15, 0, 0, 36, 0, 0, 47, 10, 21, 0, 35, 0, 8, 0, 22, 39, 0, 2, 0, 18, 32
|28, 30, 42, 0, 0, 0, 0, 24, 0, 0, 0, 0, 0, 0, 36, 45, 0, 14, 0, 0, 6, 11, 0, 0, 0, 0, 21, 0, 25, 0, 37, 0, 32, 3, 40, 0, 15, 0, 34, 0, 0, 39, 20, 46, 0, 17, 0, 5, 33|];