order = 7;
grid = [|0, 42, 0, 43, 5, 0, 38, 0, 0, 0, 36, 26, 44, 47, 12, 0, 0, 0, 10, 31, 0, 41, 40, 0, 8, 46, 0, 0, 27, 37, 22, 7, 28, 0, 33, 0, 0, 0, 2, 45, 20, 29, 15, 49, 25, 18, 0, 0, 0
|0, 13, 0, 41, 21, 36, 7, 0, 0, 0, 29, 11, 0, 15, 42, 0, 0, 0, 3, 17, 0, 12, 19, 30, 4, 24, 14, 22, 0, 0, 39, 0, 0, 0, 0, 0, 0, 0, 0, 0, 0, 0, 0, 0, 10, 0, 31, 38, 26
|0, 1, 0, 0, 24, 18, 0, 48, 37, 0, 6, 27, 28, 0, 0, 36, 0, 0, 0, 0, 30, 2, 13, 10, 0, 9, 0, 33, 5, 44, 41, 0, 0, 0, 47, 0, 0, 0, 0, 3, 0, 12, 0, 40, 0, 0, 0, 21, 7
|0, 35, 0, 0, 25, 30, 0, 33, 12, 0, 0, 0, 0, 20, 39, 0, 5, 0, 0, 19, 0, 44, 37, 0, 36, 15, 0, 0, 31, 0, 17, 0, 0, 0, 0, 9, 22, 24, 0, 40, 0, 34, 0, 1, 0, 0, 0, 14, 0
|29, 34, 39, 0, 37, 19, 11, 0, 31, 46, 0, 41, 42, 45, 44, 0, 0, 33, 0, 0, 0, 0, 18, 0, 0, 0, 5, 0, 21, 13, 25, 0, 35, 0, 8, 0, 10, 0, 6, 0, 0, 0, 0, 0, 36, 0, 9, 0, 32
|0, 0, 10, 15, 0, 0, 8, 14, 0, 0, 0, 23, 0, 4, 18, 0, 0, 45, 16, 11, 34, 0, 0, 21, 0, 26, 29, 0, 9, 38, 0, 36, 24, 0, 0, 49, 1, 19, 31, 43, 0, 0, 48, 33, 0, 0, 6, 37, 47
|0, 3, 0, 12, 0, 0, 14, 10, 0, 0, 43, 0, 2, 34, 1, 20, 8, 9, 0, 37, 21, 0, 47, 31, 6, 0, 0, 38, 0, 0, 0, 15, 0, 16, 0, 0, 36, 0, 0, 13, 41, 25, 0, 0, 35, 17, 27, 19, 42
|42, 0, 24, 30, 0, 43, 29, 40, 0, 1, 0, 0, 15, 6, 27, 0, 0, 41, 0, 39, 0, 0, 0, 0, 10, 0, 36, 48, 32, 0, 45, 0, 22, 0, 0, 0, 0, 0, 19, 28, 3, 0, 5, 31, 13, 37, 0, 0, 25
|21, 0, 0, 0, 0, 0, 12, 0, 0, 0, 20, 39, 0, 16, 9, 25, 31, 0, 18, 0, 0, 0, 35, 0, 0, 7, 0, 0, 0, 33, 11, 0, 6, 0, 43, 0, 5, 0, 0, 42, 24, 37, 14, 0, 1, 46, 34, 26, 49
|39, 49, 27, 8, 2, 0, 0, 24, 0, 35, 0, 0, 4, 9, 34, 48, 0, 0, 46, 20, 37, 25, 12, 1, 13, 47, 15, 0, 0, 0, 0, 0, 0, 0, 0, 0, 0, 0, 0, 0, 0, 7, 0, 0, 0, 0, 11, 0, 6
|35, 0, 0, 5, 20, 26, 0, 45, 0, 47, 0, 22, 0, 0, 0, 0, 16, 14, 21, 0, 6, 0, 11, 0, 0, 29, 4, 24, 49, 0, 40, 30, 23, 44, 0, 12, 9, 10, 0, 31, 34, 0, 39, 2, 38, 0, 0, 17, 3
|0, 0, 28, 0, 11, 3, 40, 38, 0, 26, 0, 46, 0, 0, 0, 0, 0, 47, 45, 0, 0, 0, 42, 37, 0, 14, 20, 0, 17, 1, 0, 0, 21, 0, 39, 48, 15, 35, 0, 0, 0, 43, 0, 0, 30, 36, 12, 7, 23
|33, 44, 1, 46, 9, 0, 34, 42, 0, 0, 14, 43, 0, 36, 38, 0, 49, 3, 5, 12, 0, 0, 0, 41, 0, 0, 0, 0, 0, 25, 2, 0, 48, 15, 26, 0, 0, 20, 22, 0, 0, 4, 0, 0, 0, 0, 0, 0, 18
|6, 0, 45, 0, 0, 31, 17, 13, 0, 34, 33, 5, 7, 0, 0, 44, 0, 22, 30, 0, 42, 0, 8, 0, 40, 0, 18, 2, 19, 0, 27, 47, 3, 37, 46, 1, 25, 0, 16, 29, 23, 39, 10, 4, 28, 0, 0, 0, 0
|0, 0, 2, 19, 0, 0, 27, 5, 0, 36, 0, 45, 0, 32, 40, 0, 9, 0, 11, 0, 48, 38, 26, 28, 42, 0, 25, 44, 7, 8, 49, 0, 0, 12, 10, 31, 0, 43, 0, 17, 0, 0, 46, 29, 0, 0, 0, 0, 15
|0, 20, 0, 0, 34, 12, 35, 0, 6, 24, 27, 0, 22, 0, 33, 19, 0, 0, 44, 0, 0, 16, 41, 46, 5, 11, 0, 40, 48, 15, 0, 0, 0, 0, 0, 0, 0, 38, 0, 4, 45, 0, 0, 0, 0, 49, 0, 32, 0
|0, 39, 0, 9, 0, 0, 41, 0, 46, 28, 13, 15, 14, 0, 0, 0, 0, 0, 0, 0, 0, 0, 0, 0, 0, 0, 27, 0, 0, 0, 0, 3, 0, 30, 25, 11, 0, 0, 47, 0, 0, 0, 38, 0, 0, 0, 0, 36, 0
|4, 26, 40, 0, 29, 0, 32, 0, 0, 10, 34, 0, 0, 0, 0, 0, 0, 0, 27, 21, 0, 0, 2, 0, 0, 23, 43, 0, 0, 0, 46, 0, 0, 45, 5, 0, 0, 0, 0, 6, 0, 0, 25, 35, 12, 0, 13, 0, 11
|18, 14, 8, 0, 7, 0, 0, 49, 17, 38, 0, 33, 0, 26, 10, 0, 0, 0, 25, 35, 28, 0, 24, 0, 0, 45, 0, 6, 4, 0, 0, 0, 0, 0, 0, 0, 46, 2, 20, 0, 0, 40, 21, 5, 0, 30, 0, 48, 43
|43, 38, 11, 0, 22, 49, 5, 0, 0, 44, 31, 0, 0, 0, 0, 46, 0, 0, 0, 42, 0, 0, 0, 29, 19, 0, 0, 0, 40, 0, 0, 28, 0, 0, 0, 41, 0, 0, 8, 0, 15, 3, 0, 0, 0, 0, 0, 0, 0
|10, 0, 3, 28, 6, 0, 46, 0, 21, 0, 42, 12, 43, 11, 0, 39, 17, 15, 0, 38, 8, 14, 0, 9, 33, 0, 30, 47, 24, 0, 0, 0, 36, 35, 0, 0, 0, 5, 7, 26, 1, 49, 4, 19, 0, 40, 20, 0, 16
|47, 0, 0, 10, 0, 25, 15, 20, 24, 9, 0, 0, 0, 13, 48, 29, 0, 0, 0, 14, 32, 0, 27, 40, 0, 0, 11, 0, 0, 0, 21, 0, 0, 0, 3, 5, 41, 45, 4, 0, 16, 0, 33, 43, 31, 0, 46, 0, 36
|0, 27, 0, 48, 44, 0, 0, 0, 38, 0, 0, 32, 0, 0, 0, 33, 41, 0, 0, 28, 39, 46, 0, 0, 0, 0, 0, 15, 0, 0, 37, 45, 0, 0, 4, 0, 0, 21, 0, 0, 0, 0, 0, 0, 5, 6, 0, 35, 0
|17, 0, 49, 0, 0, 0, 6, 41, 0, 19, 0, 7, 0, 37, 0, 8, 27, 0, 0, 0, 0, 0, 34, 48, 43, 25, 13, 30, 0, 36, 35, 29, 18, 42, 0, 0, 39, 0, 0, 0, 0, 0, 9, 44, 0, 0, 0, 3, 0
|0, 0, 0, 26, 40, 0, 18, 0, 0, 0, 0, 8, 0, 0, 17, 42, 0, 0, 12, 6, 0, 49, 0, 38, 0, 33, 24, 0, 0, 16, 10, 0, 0, 0, 0, 0, 0, 28, 0, 14, 0, 19, 1, 0, 41, 0, 21, 39, 22
|31, 2, 46, 0, 1, 0, 4, 22, 40, 0, 11, 34, 16, 0, 0, 43, 0, 10, 0, 0, 0, 0, 0, 26, 0, 0, 44, 0, 0, 6, 0, 49, 0, 0, 0, 0, 23, 9, 48, 0, 29, 27, 0, 38, 15, 0, 0, 0, 12
|41, 23, 42, 0, 8, 0, 0, 0, 0, 33, 0, 2, 21, 3, 0, 38, 15, 0, 13, 44, 0, 0, 14, 0, 0, 0, 0, 0, 11, 43, 0, 5, 0, 0, 22, 0, 40, 34, 0, 24, 10, 20, 32, 0, 0, 27, 0, 0, 0
|20, 0, 38, 0, 0, 0, 0, 0, 0, 15, 0, 28, 10, 14, 4, 0, 46, 0, 34, 25, 9, 39, 0, 0, 32, 21, 41, 0, 1, 0, 33, 23, 0, 24, 0, 17, 8, 0, 0, 36, 42, 6, 40, 26, 37, 45, 0, 0, 19
|0, 0, 23, 0, 13, 37, 49, 0, 0, 0, 0, 0, 0, 0, 0, 0, 0, 2, 9, 3, 20, 0, 0, 39, 22, 0, 0, 14, 33, 30, 12, 0, 0, 0, 28, 36, 0, 1, 0, 11, 0, 10, 0, 48, 0, 0, 35, 0, 0
|24, 19, 0, 38, 0, 42, 21, 6, 0, 27, 40, 20, 0, 0, 0, 30, 0, 37, 0, 0, 0, 0, 0, 11, 29, 16, 9, 0, 39, 0, 36, 0, 0, 0, 0, 14, 0, 0, 15, 0, 48, 31, 0, 0, 0, 41, 0, 0, 33
|8, 47, 18, 11, 0, 9, 48, 0, 22, 0, 23, 10, 3, 0, 0, 0, 42, 0, 0, 0, 36, 15, 33, 4, 0, 0, 0, 13, 0, 45, 0, 44, 0, 34, 40, 0, 29, 0, 39, 0, 43, 0, 0, 14, 49, 25, 17, 12, 38
|0, 0, 43, 25, 46, 40, 33, 0, 4, 13, 0, 36, 34, 0, 45, 0, 0, 0, 35, 48, 15, 0, 10, 17, 31, 0, 21, 0, 16, 19, 0, 8, 27, 0, 2, 7, 0, 23, 49, 0, 0, 0, 37, 0, 20, 0, 0, 0, 30
|0, 0, 35, 0, 30, 0, 45, 32, 9, 0, 5, 19, 0, 44, 0, 10, 0, 28, 0, 0, 17, 24, 0, 0, 0, 41, 37, 0, 46, 0, 0, 13, 0, 25, 0, 0, 0, 0, 0, 0, 21, 33, 7, 0, 18, 0, 0, 0, 31
|0, 0, 0, 39, 31, 34, 28, 0, 29, 0, 7, 18, 0, 42, 6, 0, 0, 8, 0, 33, 38, 43, 0, 0, 44, 0, 40, 0, 14, 0, 26, 37, 47, 0, 0, 0, 0, 4, 0, 9, 5, 17, 24, 0, 0, 0, 0, 10, 46
|1, 0, 36, 3, 0, 4, 16, 35, 39, 0, 0, 48, 0, 0, 46, 31, 19, 0, 40, 0, 0, 0, 23, 27, 0, 0, 0, 25, 38, 10, 0, 11, 9, 5, 21, 0, 37, 13, 28, 0, 6, 0, 44, 0, 8, 0, 0, 34, 0
|14, 28, 26, 6, 0, 46, 39, 0, 3, 0, 2, 16, 29, 27, 21, 34, 13, 35, 0, 0, 0, 0, 0, 0, 45, 37, 23, 41, 12, 0, 0, 19, 0, 1, 0, 0, 44, 47, 24, 22, 33, 11, 0, 0, 42, 0, 38, 0, 0
|0, 0, 0, 0, 38, 11, 0, 26, 7, 0, 0, 4, 0, 43, 19, 40, 0, 0, 0, 0, 33, 0, 0, 42, 21, 0, 0, 31, 0, 0, 0, 6, 0, 47, 0, 16, 18, 0, 25, 0, 0, 48, 0, 8, 0, 24, 0, 0, 0
|13, 45, 25, 4, 35, 16, 0, 0, 20, 0, 0, 40, 46, 48, 23, 0, 0, 29, 42, 0, 0, 0, 39, 32, 27, 0, 38, 26, 22, 0, 44, 0, 0, 14, 0, 19, 0, 37, 17, 5, 0, 0, 0, 41, 0, 9, 0, 0, 0
|0, 21, 0, 20, 36, 0, 0, 0, 14, 0, 37, 44, 0, 0, 5, 15, 22, 0, 32, 0, 27, 0, 0, 0, 25, 0, 0, 0, 28, 0, 16, 0, 46, 0, 24, 0, 42, 0, 41, 0, 0, 0, 47, 10, 48, 0, 2, 0, 0
|0, 10, 0, 27, 0, 2, 0, 31, 42, 6, 28, 9, 47, 22, 0, 7, 0, 11, 38, 8, 0, 0, 0, 0, 35, 0, 12, 16, 41, 5, 0, 0, 0, 29, 17, 34, 0, 0, 45, 0, 0, 0, 0, 18, 0, 0, 37, 23, 0
|48, 5, 0, 7, 0, 17, 37, 0, 34, 21, 0, 0, 13, 38, 20, 0, 24, 6, 0, 0, 0, 30, 44, 14, 3, 0, 47, 0, 42, 26, 8, 0, 0, 0, 0, 15, 2, 0, 0, 0, 9, 35, 0, 0, 0, 0, 0, 0, 27
|0, 15, 0, 0, 0, 0, 0, 23, 0, 41, 0, 30, 0, 35, 0, 0, 0, 0, 0, 0, 0, 0, 0, 0, 17, 8, 22, 0, 3, 9, 0, 38, 0, 0, 34, 0, 0, 0, 0, 39, 0, 46, 16, 0, 0, 0, 0, 20, 0
|0, 0, 21, 37, 4, 0, 23, 28, 36, 0, 39, 25, 30, 0, 0, 26, 48, 5, 0, 0, 0, 3, 43, 8, 0, 0, 42, 10, 0, 0, 38, 0, 29, 27, 0, 24, 0, 0, 0, 0, 0, 44, 20, 0, 0, 0, 0, 0, 0
|0, 11, 5, 0, 0, 41, 26, 0, 0, 0, 48, 0, 0, 0, 0, 0, 33, 43, 37, 23, 0, 19, 0, 0, 12, 1, 0, 21, 47, 24, 0, 0, 0, 7, 0, 0, 20, 49, 14, 0, 0, 0, 0, 0, 27, 0, 36, 0, 0
|0, 0, 9, 0, 3, 44, 10, 0, 0, 0, 22, 0, 0, 0, 0, 0, 0, 0, 0, 0, 25, 0, 20, 0, 24, 0, 0, 0, 0, 0, 14, 17, 8, 0, 42, 0, 0, 0, 0, 41, 0, 0, 49, 0, 26, 35, 48, 0, 4
|7, 25, 14, 0, 0, 0, 0, 0, 0, 20, 0, 42, 0, 0, 0, 27, 0, 17, 0, 0, 4, 35, 0, 34, 11, 44, 0, 29, 0, 0, 19, 0, 0, 48, 13, 0, 38, 0, 32, 0, 26, 0, 0, 0, 0, 0, 0, 0, 28
|38, 8, 0, 0, 48, 27, 30, 0, 0, 0, 46, 0, 0, 19, 29, 49, 1, 0, 0, 41, 16, 13, 4, 0, 0, 0, 26, 0, 37, 0, 5, 0, 0, 23, 44, 6, 0, 0, 0, 0, 25, 0, 0, 42, 0, 39, 7, 11, 21
|0, 33, 0, 0, 0, 0, 0, 44, 45, 4, 0, 17, 5, 29, 31, 35, 0, 0, 0, 32, 14, 37, 0, 0, 23, 22, 0, 0, 0, 40, 43, 26, 12, 20, 36, 0, 0, 0, 1, 34, 0, 15, 0, 3, 0, 38, 41, 46, 10
|36, 43, 29, 42, 0, 0, 20, 27, 47, 37, 26, 38, 33, 0, 0, 21, 0, 44, 0, 18, 12, 7, 9, 0, 41, 49, 48, 0, 0, 46, 0, 0, 0, 0, 11, 0, 19, 31, 5, 0, 4, 45, 34, 6, 0, 0, 40, 0, 2|];