order = 7;
grid = [|0, 0, 0, 10, 0, 0, 7, 1, 47, 0, 31, 0, 33, 0, 46, 12, 0, 29, 23, 0, 0, 0, 40, 17, 0, 0, 49, 41, 0, 20, 45, 25, 0, 0, 0, 39, 0, 0, 22, 27, 0, 0, 0, 0, 26, 0, 0, 0, 0
|39, 14, 20, 0, 29, 0, 32, 0, 0, 0, 0, 0, 8, 4, 0, 49, 0, 36, 0, 28, 0, 0, 0, 48, 23, 0, 42, 31, 0, 0, 0, 0, 0, 0, 0, 37, 15, 5, 0, 0, 0, 0, 0, 12, 33, 24, 13, 41, 47
|0, 0, 33, 24, 38, 35, 0, 0, 6, 20, 28, 0, 0, 0, 0, 0, 42, 0, 0, 1, 0, 0, 0, 0, 5, 0, 16, 27, 12, 43, 0, 0, 0, 0, 0, 46, 0, 36, 0, 0, 0, 44, 37, 0, 0, 0, 32, 15, 3
|0, 17, 0, 34, 3, 0, 18, 22, 0, 0, 0, 24, 36, 48, 45, 31, 6, 16, 0, 33, 0, 12, 0, 0, 0, 21, 0, 20, 46, 0, 0, 0, 37, 32, 0, 42, 1, 0, 0, 0, 29, 0, 28, 0, 7, 40, 0, 10, 5
|49, 0, 30, 0, 28, 0, 40, 0, 0, 32, 0, 0, 0, 0, 0, 8, 11, 0, 9, 17, 0, 0, 2, 47, 26, 0, 0, 6, 0, 0, 36, 0, 31, 15, 0, 0, 24, 0, 12, 0, 0, 0, 0, 39, 19, 22, 0, 29, 0
|0, 22, 5, 36, 0, 0, 19, 0, 0, 11, 15, 0, 0, 37, 0, 14, 0, 3, 43, 13, 30, 38, 0, 24, 0, 45, 35, 0, 0, 0, 39, 49, 0, 44, 0, 0, 0, 0, 28, 0, 8, 32, 0, 0, 0, 0, 9, 27, 0
|0, 0, 44, 0, 12, 42, 27, 0, 0, 0, 40, 7, 0, 0, 37, 15, 10, 18, 0, 0, 26, 32, 46, 0, 34, 3, 28, 0, 0, 0, 0, 0, 0, 29, 11, 4, 21, 38, 0, 13, 16, 25, 49, 0, 0, 0, 36, 8, 45
|10, 20, 28, 31, 0, 0, 23, 39, 11, 27, 14, 0, 0, 0, 0, 0, 0, 4, 41, 2, 0, 0, 43, 0, 16, 0, 0, 0, 18, 12, 0, 19, 33, 3, 7, 24, 49, 0, 0, 17, 0, 0, 38, 0, 0, 0, 0, 9, 0
|0, 19, 0, 0, 17, 0, 0, 13, 0, 30, 0, 26, 0, 0, 38, 48, 0, 0, 27, 34, 1, 0, 24, 44, 0, 0, 0, 0, 0, 0, 0, 0, 10, 20, 29, 0, 0, 0, 14, 43, 0, 0, 5, 0, 12, 0, 4, 0, 39
|2, 27, 0, 0, 1, 0, 43, 42, 33, 0, 0, 0, 45, 0, 22, 0, 0, 0, 31, 0, 0, 28, 0, 36, 0, 0, 12, 0, 6, 0, 0, 0, 17, 26, 4, 20, 0, 41, 0, 0, 44, 46, 0, 13, 0, 0, 0, 49, 30
|40, 8, 0, 9, 48, 0, 0, 0, 46, 21, 29, 37, 41, 0, 12, 0, 0, 7, 0, 0, 0, 0, 0, 0, 4, 17, 20, 13, 32, 0, 44, 34, 0, 5, 0, 0, 26, 0, 11, 16, 28, 10, 1, 24, 0, 47, 45, 35, 22
|0, 12, 0, 0, 34, 0, 0, 0, 0, 0, 19, 0, 0, 1, 10, 5, 0, 44, 13, 43, 29, 8, 48, 0, 0, 9, 39, 0, 0, 0, 21, 24, 16, 0, 0, 25, 32, 40, 38, 30, 3, 36, 0, 0, 18, 11, 0, 37, 15
|0, 45, 0, 0, 41, 0, 0, 0, 36, 40, 0, 32, 0, 9, 0, 16, 0, 0, 0, 14, 24, 7, 3, 0, 0, 29, 33, 0, 0, 35, 0, 31, 11, 30, 47, 27, 23, 0, 0, 0, 48, 0, 43, 0, 0, 0, 0, 0, 26
|29, 36, 3, 39, 15, 49, 0, 44, 0, 0, 0, 0, 0, 34, 0, 0, 35, 32, 47, 37, 0, 0, 11, 10, 25, 0, 30, 0, 23, 0, 1, 0, 0, 0, 0, 21, 0, 0, 4, 45, 0, 13, 0, 16, 0, 0, 0, 0, 28
|20, 0, 26, 23, 0, 28, 5, 43, 16, 0, 0, 0, 0, 30, 0, 25, 14, 0, 0, 6, 0, 39, 44, 40, 0, 0, 0, 34, 0, 0, 0, 0, 29, 0, 0, 1, 42, 0, 0, 35, 0, 21, 0, 38, 0, 32, 0, 0, 0
|14, 0, 0, 48, 25, 0, 24, 0, 45, 0, 0, 0, 0, 2, 0, 10, 0, 0, 5, 0, 12, 42, 0, 0, 0, 0, 0, 0, 1, 0, 0, 0, 0, 7, 17, 0, 0, 31, 0, 0, 0, 30, 9, 37, 13, 41, 0, 0, 0
|0, 0, 34, 0, 42, 0, 35, 0, 0, 24, 32, 13, 0, 0, 0, 27, 0, 0, 0, 0, 45, 0, 0, 23, 0, 2, 26, 0, 0, 41, 0, 43, 14, 37, 0, 16, 0, 10, 44, 0, 39, 4, 0, 0, 0, 0, 7, 6, 8
|0, 44, 0, 17, 0, 46, 0, 27, 21, 0, 0, 0, 0, 0, 30, 0, 0, 40, 15, 38, 28, 0, 0, 13, 43, 47, 0, 7, 49, 31, 0, 0, 24, 36, 0, 11, 0, 0, 3, 26, 2, 0, 0, 0, 0, 0, 0, 25, 0
|13, 0, 0, 0, 21, 0, 37, 0, 0, 0, 0, 0, 22, 0, 0, 0, 36, 20, 39, 0, 35, 31, 0, 29, 0, 18, 15, 0, 4, 2, 32, 27, 6, 34, 9, 49, 0, 48, 0, 0, 0, 0, 0, 47, 5, 0, 0, 0, 0
|0, 0, 0, 0, 10, 0, 0, 0, 0, 34, 0, 6, 26, 29, 0, 3, 16, 41, 21, 0, 0, 0, 37, 27, 0, 0, 0, 11, 40, 45, 0, 0, 0, 0, 38, 0, 46, 0, 0, 32, 0, 15, 31, 14, 0, 0, 42, 0, 0
|16, 6, 0, 0, 0, 36, 0, 9, 0, 0, 35, 0, 0, 0, 8, 42, 34, 2, 0, 0, 0, 0, 41, 22, 0, 0, 0, 0, 0, 0, 0, 0, 0, 13, 44, 0, 27, 0, 0, 0, 43, 0, 21, 1, 30, 4, 28, 0, 46
|0, 35, 39, 0, 0, 8, 46, 24, 32, 0, 0, 0, 29, 18, 0, 0, 23, 1, 0, 0, 47, 0, 36, 0, 11, 12, 40, 17, 0, 0, 0, 38, 22, 0, 0, 0, 19, 0, 0, 28, 0, 41, 25, 0, 0, 0, 16, 42, 10
|0, 0, 29, 0, 0, 7, 0, 0, 0, 17, 1, 0, 0, 43, 24, 0, 46, 49, 42, 0, 0, 0, 35, 0, 0, 0, 0, 14, 0, 0, 0, 0, 47, 0, 0, 31, 8, 0, 0, 0, 27, 20, 26, 22, 0, 0, 0, 0, 0
|0, 2, 23, 22, 0, 0, 0, 0, 19, 16, 0, 0, 3, 27, 0, 0, 48, 0, 45, 0, 0, 0, 0, 0, 0, 7, 0, 0, 0, 28, 35, 0, 0, 41, 0, 34, 0, 0, 0, 40, 0, 38, 0, 0, 36, 0, 0, 12, 0
|0, 0, 24, 3, 0, 48, 25, 45, 0, 0, 20, 0, 28, 0, 16, 11, 0, 0, 32, 27, 34, 0, 21, 0, 10, 0, 0, 0, 26, 13, 0, 0, 0, 0, 14, 35, 29, 30, 0, 0, 49, 0, 0, 23, 39, 5, 0, 0, 0
|42, 11, 0, 0, 0, 38, 44, 0, 10, 4, 0, 5, 0, 0, 0, 0, 0, 0, 2, 30, 0, 20, 26, 32, 0, 41, 25, 0, 16, 23, 19, 37, 46, 0, 40, 14, 0, 45, 0, 0, 22, 0, 8, 21, 28, 34, 47, 24, 0
|0, 40, 12, 26, 14, 5, 0, 37, 49, 8, 0, 0, 35, 0, 0, 0, 0, 25, 0, 10, 0, 0, 39, 0, 0, 27, 0, 0, 0, 29, 20, 6, 32, 0, 18, 48, 0, 0, 0, 23, 0, 0, 0, 17, 0, 3, 0, 0, 11
|36, 0, 15, 0, 0, 0, 28, 47, 0, 0, 0, 0, 21, 26, 0, 0, 19, 0, 6, 41, 18, 24, 1, 16, 0, 22, 48, 2, 0, 0, 0, 8, 25, 0, 0, 17, 39, 11, 13, 44, 0, 0, 35, 0, 0, 20, 37, 40, 0
|0, 9, 6, 13, 0, 20, 0, 0, 15, 0, 11, 0, 47, 17, 0, 0, 45, 0, 34, 19, 0, 26, 0, 43, 29, 0, 32, 21, 0, 0, 31, 0, 2, 49, 0, 41, 44, 4, 0, 33, 25, 16, 0, 48, 0, 46, 0, 0, 0
|0, 0, 0, 0, 0, 0, 36, 8, 9, 0, 0, 0, 0, 6, 0, 0, 13, 0, 20, 0, 0, 22, 47, 0, 28, 0, 24, 3, 35, 15, 27, 44, 0, 0, 16, 0, 48, 37, 0, 31, 0, 2, 0, 0, 10, 0, 0, 0, 1
|0, 24, 0, 15, 0, 0, 0, 21, 0, 44, 12, 0, 19, 46, 0, 0, 0, 10, 0, 0, 0, 48, 38, 31, 0, 20, 36, 4, 7, 0, 0, 0, 13, 0, 0, 0, 17, 0, 0, 18, 0, 0, 0, 0, 42, 39, 0, 0, 41
|11, 1, 31, 28, 0, 47, 33, 34, 0, 0, 0, 0, 32, 16, 0, 0, 38, 37, 0, 0, 0, 17, 0, 7, 46, 6, 0, 0, 25, 4, 0, 9, 5, 10, 0, 0, 0, 0, 0, 49, 0, 40, 0, 0, 0, 0, 2, 0, 0
|0, 48, 0, 8, 0, 0, 26, 28, 42, 0, 24, 10, 0, 0, 0, 0, 2, 33, 22, 31, 0, 40, 0, 11, 0, 44, 0, 1, 47, 32, 46, 0, 0, 0, 0, 0, 0, 20, 9, 0, 0, 39, 16, 6, 49, 0, 15, 7, 0
|35, 42, 0, 0, 7, 21, 2, 30, 38, 0, 5, 4, 0, 41, 6, 0, 0, 28, 44, 0, 0, 0, 0, 49, 0, 0, 10, 0, 0, 39, 48, 18, 0, 0, 0, 0, 11, 0, 0, 14, 13, 0, 0, 0, 0, 31, 33, 0, 25
|0, 0, 0, 38, 0, 29, 10, 0, 48, 0, 0, 33, 31, 0, 0, 0, 1, 0, 11, 0, 14, 2, 0, 41, 35, 0, 0, 45, 19, 0, 28, 0, 0, 21, 0, 0, 43, 47, 7, 0, 0, 0, 13, 27, 40, 18, 8, 32, 9
|24, 0, 0, 0, 0, 0, 0, 40, 14, 1, 41, 0, 23, 0, 0, 0, 0, 0, 30, 0, 0, 6, 0, 34, 0, 0, 0, 36, 0, 0, 0, 0, 0, 46, 5, 44, 0, 0, 49, 21, 0, 0, 0, 9, 0, 0, 0, 13, 0
|0, 0, 0, 44, 23, 41, 0, 0, 0, 0, 9, 28, 0, 0, 0, 0, 0, 19, 3, 0, 16, 49, 0, 12, 40, 0, 0, 0, 0, 6, 0, 35, 18, 8, 0, 38, 13, 15, 0, 42, 7, 0, 48, 34, 0, 27, 0, 0, 4
|7, 13, 0, 0, 39, 0, 0, 0, 26, 43, 33, 0, 0, 0, 0, 35, 27, 0, 0, 24, 15, 0, 31, 42, 22, 30, 0, 18, 38, 9, 0, 0, 0, 25, 32, 0, 0, 0, 2, 41, 0, 0, 0, 0, 47, 28, 0, 1, 0
|0, 0, 8, 14, 0, 17, 3, 18, 0, 0, 0, 44, 39, 45, 0, 40, 7, 38, 33, 0, 9, 11, 0, 0, 0, 15, 41, 0, 13, 1, 43, 0, 0, 0, 0, 0, 0, 27, 0, 20, 0, 48, 22, 0, 0, 0, 29, 46, 0
|15, 0, 35, 20, 36, 0, 0, 11, 0, 49, 30, 16, 0, 24, 23, 32, 28, 0, 0, 48, 0, 0, 0, 1, 0, 0, 0, 0, 0, 0, 29, 0, 7, 47, 2, 9, 0, 0, 0, 0, 0, 0, 42, 0, 0, 6, 0, 0, 12
|21, 0, 0, 0, 0, 0, 0, 0, 0, 22, 34, 27, 0, 15, 0, 0, 5, 0, 0, 0, 0, 13, 0, 38, 0, 35, 43, 0, 0, 0, 0, 36, 0, 33, 3, 0, 16, 0, 1, 0, 0, 0, 39, 0, 0, 0, 24, 26, 0
|0, 0, 32, 25, 0, 10, 0, 0, 0, 7, 0, 20, 0, 0, 1, 36, 0, 0, 14, 12, 0, 9, 8, 2, 47, 0, 46, 0, 0, 22, 49, 0, 0, 28, 0, 0, 40, 29, 37, 0, 24, 0, 19, 15, 0, 30, 17, 33, 0
|47, 0, 43, 0, 0, 0, 8, 0, 0, 42, 10, 0, 30, 0, 0, 1, 41, 27, 0, 16, 0, 35, 0, 0, 33, 0, 2, 32, 9, 21, 12, 0, 0, 48, 15, 0, 34, 0, 0, 0, 0, 11, 0, 0, 0, 25, 0, 23, 0
|0, 16, 22, 0, 37, 40, 14, 0, 0, 0, 0, 0, 44, 20, 2, 0, 26, 0, 29, 0, 0, 0, 25, 45, 49, 0, 0, 0, 0, 0, 5, 4, 38, 6, 0, 8, 36, 3, 0, 19, 0, 28, 0, 41, 0, 9, 0, 39, 13
|0, 0, 0, 0, 0, 0, 17, 0, 0, 0, 16, 0, 0, 0, 0, 0, 0, 0, 46, 0, 31, 4, 27, 0, 0, 26, 0, 0, 0, 0, 0, 0, 1, 0, 0, 2, 0, 0, 29, 25, 30, 9, 0, 0, 0, 43, 0, 21, 0
|0, 0, 36, 0, 0, 2, 48, 0, 0, 0, 0, 23, 0, 0, 0, 39, 43, 30, 0, 35, 0, 0, 16, 21, 7, 19, 0, 10, 0, 49, 42, 32, 0, 22, 0, 0, 41, 0, 20, 0, 0, 0, 12, 28, 0, 0, 0, 0, 0
|3, 0, 0, 0, 0, 0, 20, 32, 0, 6, 46, 0, 0, 0, 28, 0, 22, 0, 19, 11, 0, 29, 0, 0, 1, 0, 13, 37, 44, 30, 0, 0, 0, 43, 0, 0, 33, 0, 0, 0, 0, 0, 15, 18, 4, 0, 49, 47, 16
|34, 41, 13, 0, 0, 0, 15, 0, 29, 45, 21, 18, 43, 0, 20, 0, 40, 0, 0, 0, 17, 44, 0, 28, 38, 0, 23, 0, 0, 0, 0, 0, 36, 0, 0, 0, 0, 0, 0, 0, 1, 0, 0, 42, 0, 37, 0, 5, 0
|28, 0, 0, 27, 11, 0, 0, 0, 3, 13, 49, 0, 1, 40, 0, 23, 0, 0, 0, 0, 25, 0, 0, 9, 0, 0, 0, 12, 20, 0, 0, 0, 39, 0, 0, 43, 18, 44, 0, 22, 0, 47, 10, 45, 17, 19, 30, 0, 0|];