order = 7;
grid = [|39, 2, 0, 0, 1, 33, 0, 0, 0, 0, 0, 0, 0, 0, 16, 0, 29, 26, 0, 0, 0, 0, 9, 0, 0, 0, 17, 0, 3, 45, 0, 5, 0, 0, 6, 0, 25, 0, 32, 23, 21, 38, 0, 0, 0, 19, 15, 49, 0
|0, 0, 29, 0, 0, 0, 16, 36, 0, 0, 34, 5, 0, 0, 20, 6, 0, 0, 0, 22, 1, 0, 32, 19, 24, 0, 0, 0, 12, 0, 44, 0, 30, 35, 0, 28, 0, 0, 14, 4, 27, 0, 8, 39, 0, 0, 47, 40, 0
|0, 30, 0, 0, 0, 9, 44, 0, 0, 0, 0, 0, 0, 0, 0, 0, 45, 48, 0, 0, 47, 0, 46, 2, 20, 37, 0, 31, 32, 0, 0, 22, 11, 42, 0, 0, 19, 0, 0, 13, 0, 40, 0, 38, 0, 24, 35, 21, 10
|0, 36, 0, 3, 48, 0, 0, 0, 0, 0, 0, 21, 46, 14, 0, 0, 0, 0, 0, 0, 0, 0, 49, 6, 16, 0, 45, 0, 0, 13, 23, 33, 0, 0, 0, 0, 0, 8, 37, 10, 0, 44, 26, 0, 20, 0, 0, 0, 5
|12, 19, 22, 42, 0, 11, 0, 10, 0, 20, 0, 0, 35, 0, 0, 37, 7, 17, 0, 30, 0, 0, 0, 0, 0, 0, 0, 0, 28, 46, 24, 0, 0, 29, 0, 26, 0, 5, 48, 34, 0, 47, 0, 0, 0, 0, 0, 0, 0
|0, 0, 14, 23, 7, 0, 35, 19, 28, 0, 33, 0, 47, 2, 44, 0, 13, 0, 12, 0, 0, 48, 34, 0, 30, 0, 27, 0, 0, 0, 1, 41, 40, 20, 16, 0, 11, 22, 0, 0, 0, 36, 32, 0, 42, 31, 18, 0, 0
|0, 13, 0, 0, 10, 17, 28, 41, 24, 32, 0, 43, 11, 45, 49, 0, 0, 0, 0, 3, 0, 7, 23, 39, 4, 22, 38, 0, 0, 25, 2, 48, 9, 0, 26, 0, 0, 30, 0, 35, 42, 29, 44, 27, 0, 12, 0, 14, 36
|0, 0, 0, 5, 0, 43, 46, 11, 37, 26, 0, 0, 22, 0, 0, 33, 0, 0, 0, 0, 0, 0, 0, 0, 8, 3, 0, 44, 0, 9, 32, 0, 0, 6, 0, 0, 24, 23, 0, 0, 18, 34, 40, 48, 0, 20, 14, 36, 0
|13, 24, 35, 15, 0, 32, 0, 0, 0, 19, 42, 0, 29, 0, 0, 0, 0, 8, 0, 0, 0, 43, 0, 0, 0, 0, 0, 0, 0, 0, 31, 34, 0, 0, 0, 49, 36, 0, 0, 41, 0, 1, 9, 46, 30, 0, 0, 0, 0
|33, 1, 0, 0, 0, 34, 12, 16, 0, 0, 40, 0, 28, 31, 37, 46, 23, 20, 49, 0, 36, 41, 0, 0, 0, 0, 0, 0, 48, 22, 25, 2, 5, 0, 17, 7, 0, 14, 0, 39, 0, 43, 0, 47, 3, 0, 0, 19, 6
|21, 10, 0, 28, 0, 39, 0, 45, 0, 3, 48, 0, 0, 0, 0, 0, 0, 43, 0, 0, 19, 16, 0, 1, 0, 0, 0, 0, 0, 0, 38, 37, 33, 0, 44, 0, 46, 31, 0, 9, 0, 4, 0, 32, 0, 0, 27, 0, 0
|0, 31, 0, 0, 0, 23, 19, 0, 0, 33, 0, 0, 21, 46, 0, 0, 0, 16, 9, 0, 0, 2, 10, 14, 0, 0, 0, 12, 0, 30, 11, 4, 0, 43, 0, 0, 15, 28, 0, 0, 0, 0, 38, 0, 0, 0, 0, 22, 24
|0, 37, 9, 0, 0, 2, 4, 49, 0, 0, 0, 30, 0, 13, 0, 0, 3, 7, 0, 0, 41, 46, 0, 11, 0, 0, 0, 21, 19, 29, 14, 42, 8, 12, 0, 38, 22, 0, 44, 6, 40, 17, 31, 43, 35, 0, 0, 16, 25
|26, 18, 49, 0, 0, 47, 6, 0, 15, 12, 38, 0, 0, 20, 0, 14, 0, 0, 0, 0, 0, 0, 0, 0, 0, 42, 39, 0, 36, 0, 0, 0, 0, 0, 41, 0, 48, 19, 33, 3, 2, 25, 0, 37, 0, 44, 23, 34, 21
|2, 0, 34, 8, 15, 38, 0, 28, 0, 48, 0, 0, 0, 0, 39, 0, 0, 40, 0, 0, 0, 32, 11, 0, 0, 23, 22, 27, 6, 1, 0, 0, 0, 0, 0, 47, 0, 25, 0, 21, 24, 33, 0, 0, 0, 41, 36, 46, 14
|11, 48, 0, 39, 9, 0, 22, 12, 0, 16, 0, 14, 0, 40, 36, 21, 0, 18, 0, 19, 0, 28, 35, 10, 0, 0, 0, 2, 34, 31, 0, 30, 23, 0, 0, 37, 8, 0, 0, 0, 0, 46, 0, 0, 5, 0, 26, 47, 0
|0, 47, 6, 0, 18, 20, 0, 15, 1, 0, 26, 46, 0, 0, 45, 0, 0, 0, 0, 0, 25, 0, 44, 0, 0, 0, 0, 19, 0, 28, 36, 0, 17, 0, 0, 30, 0, 16, 0, 0, 10, 0, 24, 0, 23, 11, 0, 7, 39
|42, 0, 40, 0, 0, 12, 0, 0, 0, 0, 24, 29, 27, 8, 30, 11, 0, 0, 4, 0, 3, 45, 20, 0, 1, 0, 18, 0, 47, 41, 0, 0, 0, 0, 0, 48, 0, 36, 0, 0, 0, 22, 0, 0, 37, 0, 43, 0, 0
|7, 44, 0, 25, 33, 21, 23, 0, 0, 0, 0, 0, 43, 4, 31, 34, 0, 0, 48, 0, 8, 0, 0, 0, 46, 47, 0, 13, 20, 38, 0, 0, 0, 22, 24, 0, 0, 1, 11, 40, 35, 39, 0, 19, 27, 0, 45, 2, 0
|35, 0, 0, 0, 3, 36, 43, 0, 44, 2, 0, 0, 0, 0, 0, 22, 0, 41, 0, 0, 0, 8, 0, 0, 0, 15, 0, 0, 42, 12, 0, 19, 0, 0, 11, 0, 23, 6, 26, 38, 0, 18, 0, 25, 0, 0, 0, 0, 30
|4, 0, 0, 16, 24, 30, 0, 35, 36, 47, 0, 0, 31, 0, 33, 10, 9, 6, 23, 26, 0, 0, 0, 0, 38, 14, 43, 0, 0, 40, 37, 13, 0, 5, 48, 19, 0, 12, 15, 0, 0, 0, 0, 0, 0, 8, 32, 0, 22
|6, 0, 0, 0, 0, 40, 0, 21, 0, 0, 0, 0, 0, 0, 35, 7, 16, 0, 0, 0, 0, 29, 43, 20, 0, 9, 0, 0, 41, 42, 0, 25, 49, 0, 15, 22, 0, 13, 27, 19, 0, 0, 3, 0, 0, 0, 0, 1, 2
|0, 0, 0, 0, 0, 16, 0, 26, 0, 22, 0, 4, 13, 32, 24, 0, 40, 45, 0, 0, 43, 39, 0, 0, 47, 11, 0, 0, 31, 0, 0, 1, 29, 44, 36, 6, 34, 0, 12, 48, 0, 23, 17, 14, 0, 30, 25, 20, 0
|0, 0, 38, 47, 28, 3, 48, 0, 43, 29, 0, 0, 0, 41, 46, 36, 44, 23, 0, 0, 14, 0, 0, 0, 40, 0, 10, 45, 0, 6, 0, 0, 21, 17, 0, 0, 0, 0, 2, 0, 0, 0, 0, 0, 0, 0, 0, 0, 27
|0, 39, 17, 0, 0, 19, 36, 0, 40, 0, 0, 0, 25, 3, 0, 0, 0, 4, 21, 9, 22, 0, 0, 32, 31, 0, 0, 33, 0, 11, 13, 28, 0, 0, 45, 0, 41, 0, 10, 0, 0, 0, 0, 0, 0, 0, 46, 6, 0
|44, 0, 30, 41, 0, 22, 42, 31, 5, 28, 0, 0, 23, 15, 6, 19, 0, 0, 18, 0, 0, 0, 0, 35, 0, 0, 49, 48, 9, 20, 12, 0, 4, 8, 0, 0, 0, 0, 0, 25, 32, 14, 45, 0, 0, 21, 0, 10, 0
|0, 4, 0, 0, 29, 0, 18, 0, 11, 0, 0, 0, 0, 0, 2, 41, 20, 13, 0, 37, 0, 0, 3, 25, 28, 0, 0, 0, 0, 43, 48, 14, 0, 0, 0, 0, 0, 7, 36, 0, 0, 15, 19, 22, 0, 0, 0, 0, 26
|43, 0, 31, 20, 0, 13, 0, 0, 0, 45, 36, 44, 0, 6, 0, 0, 10, 0, 47, 42, 0, 0, 0, 22, 0, 27, 0, 8, 0, 0, 0, 23, 2, 0, 0, 18, 38, 0, 0, 17, 46, 0, 7, 0, 11, 34, 0, 37, 0
|37, 26, 0, 0, 46, 0, 0, 4, 0, 0, 21, 24, 45, 5, 48, 3, 42, 1, 11, 0, 15, 0, 0, 0, 0, 30, 7, 0, 44, 47, 9, 10, 25, 0, 0, 0, 20, 39, 0, 0, 49, 41, 0, 18, 14, 38, 34, 32, 31
|0, 0, 0, 35, 0, 44, 0, 0, 2, 0, 0, 42, 0, 0, 0, 12, 22, 33, 0, 0, 0, 0, 0, 48, 19, 0, 4, 0, 0, 21, 0, 0, 26, 11, 0, 0, 0, 18, 38, 24, 0, 0, 41, 5, 15, 47, 0, 0, 7
|34, 8, 28, 0, 0, 45, 27, 0, 7, 38, 44, 39, 9, 0, 0, 0, 49, 0, 31, 21, 24, 11, 0, 0, 0, 43, 0, 0, 0, 48, 0, 15, 0, 0, 0, 42, 0, 0, 0, 0, 36, 32, 25, 23, 0, 0, 10, 0, 40
|40, 0, 47, 0, 0, 0, 9, 46, 20, 0, 0, 0, 0, 0, 29, 25, 18, 0, 45, 0, 0, 0, 38, 27, 23, 1, 21, 0, 14, 39, 0, 3, 42, 31, 0, 2, 0, 0, 19, 26, 0, 0, 0, 28, 44, 17, 24, 0, 0
|10, 12, 18, 4, 5, 42, 0, 0, 19, 43, 0, 0, 32, 1, 26, 23, 0, 14, 0, 0, 30, 44, 40, 9, 0, 0, 0, 0, 0, 8, 46, 0, 16, 45, 0, 13, 0, 0, 0, 0, 0, 0, 0, 0, 0, 0, 3, 33, 0
|31, 22, 48, 0, 21, 0, 0, 0, 30, 25, 0, 10, 0, 18, 0, 0, 0, 44, 2, 8, 0, 6, 5, 26, 14, 20, 0, 0, 43, 0, 49, 29, 37, 0, 35, 0, 47, 0, 7, 0, 9, 0, 36, 0, 0, 0, 0, 0, 0
|0, 41, 0, 0, 25, 0, 0, 40, 48, 0, 14, 28, 0, 0, 10, 43, 0, 0, 0, 0, 6, 0, 0, 0, 0, 31, 0, 15, 0, 17, 7, 27, 32, 36, 0, 0, 4, 0, 30, 0, 5, 0, 0, 0, 9, 45, 37, 0, 19
|25, 3, 1, 0, 0, 0, 32, 7, 16, 11, 0, 35, 36, 28, 38, 0, 0, 9, 0, 41, 5, 0, 0, 0, 0, 0, 0, 37, 0, 24, 17, 0, 0, 0, 8, 4, 0, 26, 46, 0, 0, 48, 13, 10, 39, 0, 0, 0, 0
|0, 45, 43, 0, 0, 0, 34, 2, 0, 0, 0, 12, 20, 0, 0, 0, 0, 25, 37, 23, 49, 35, 48, 47, 27, 24, 1, 0, 0, 0, 0, 0, 0, 0, 10, 33, 0, 9, 0, 0, 14, 6, 0, 29, 32, 40, 31, 0, 17
|28, 23, 0, 46, 0, 0, 0, 0, 0, 8, 0, 0, 49, 0, 0, 0, 0, 0, 0, 0, 39, 30, 36, 0, 0, 5, 0, 3, 26, 0, 19, 9, 0, 13, 0, 0, 0, 41, 0, 0, 16, 0, 48, 42, 25, 0, 12, 0, 20
|0, 0, 0, 0, 0, 0, 11, 0, 0, 0, 0, 40, 0, 25, 3, 0, 0, 0, 0, 0, 0, 13, 0, 0, 41, 38, 42, 0, 5, 0, 20, 0, 12, 34, 29, 0, 0, 0, 0, 8, 23, 0, 0, 26, 0, 7, 0, 27, 4
|30, 0, 0, 22, 0, 0, 20, 0, 0, 0, 29, 32, 33, 0, 0, 1, 0, 0, 0, 0, 17, 34, 0, 40, 18, 39, 0, 0, 49, 35, 4, 11, 6, 38, 0, 0, 0, 0, 3, 0, 7, 37, 46, 0, 41, 0, 0, 0, 8
|36, 7, 41, 6, 0, 0, 0, 9, 0, 46, 0, 3, 39, 24, 0, 31, 12, 34, 16, 0, 0, 0, 19, 17, 0, 0, 32, 0, 0, 0, 28, 0, 1, 48, 0, 10, 0, 0, 25, 0, 0, 0, 0, 49, 0, 5, 30, 43, 0
|9, 0, 0, 0, 12, 0, 0, 18, 0, 42, 0, 41, 44, 0, 0, 45, 36, 30, 22, 0, 0, 20, 6, 0, 0, 8, 11, 16, 39, 15, 33, 0, 0, 0, 0, 5, 49, 32, 29, 1, 34, 0, 0, 0, 38, 37, 0, 0, 3
|29, 6, 12, 1, 31, 46, 0, 0, 33, 36, 49, 45, 2, 0, 17, 0, 48, 10, 3, 24, 7, 14, 0, 0, 32, 16, 20, 25, 11, 0, 0, 39, 0, 37, 18, 0, 0, 44, 0, 28, 38, 0, 0, 15, 40, 0, 22, 41, 0
|0, 0, 0, 0, 37, 0, 13, 0, 0, 0, 0, 18, 1, 0, 0, 0, 26, 0, 14, 0, 32, 9, 0, 0, 0, 19, 35, 10, 38, 36, 8, 12, 43, 0, 0, 45, 0, 42, 0, 0, 25, 20, 2, 0, 6, 0, 0, 48, 0
|17, 0, 0, 18, 38, 0, 15, 8, 22, 6, 47, 0, 42, 35, 0, 49, 0, 12, 0, 0, 0, 0, 2, 28, 0, 0, 40, 5, 0, 34, 0, 0, 0, 0, 9, 0, 32, 0, 23, 0, 19, 30, 10, 24, 1, 14, 0, 3, 45
|47, 14, 21, 43, 30, 28, 24, 25, 3, 0, 0, 15, 19, 0, 11, 0, 37, 0, 0, 0, 0, 0, 33, 0, 0, 17, 48, 22, 0, 10, 42, 32, 44, 1, 23, 0, 0, 0, 8, 0, 6, 12, 27, 0, 13, 36, 38, 18, 0
|19, 0, 0, 0, 0, 48, 0, 0, 17, 0, 0, 0, 0, 9, 0, 4, 25, 22, 0, 29, 0, 47, 0, 0, 0, 0, 6, 0, 0, 0, 35, 16, 24, 0, 0, 3, 18, 0, 0, 46, 1, 0, 11, 33, 0, 0, 8, 5, 0
|0, 16, 25, 9, 35, 0, 0, 24, 29, 0, 11, 0, 41, 43, 0, 38, 2, 0, 28, 0, 0, 0, 0, 0, 0, 0, 30, 7, 0, 0, 22, 0, 0, 14, 0, 0, 0, 47, 49, 0, 17, 13, 0, 31, 19, 0, 42, 44, 32
|0, 40, 0, 33, 0, 41, 0, 38, 0, 10, 39, 34, 48, 0, 0, 30, 8, 19, 0, 6, 45, 0, 37, 0, 13, 0, 0, 0, 0, 7, 0, 0, 31, 0, 0, 14, 0, 0, 35, 0, 0, 26, 0, 9, 12, 25, 21, 4, 0|];