order = 7;
grid = [|0, 0, 7, 48, 25, 0, 21, 0, 24, 0, 22, 0, 0, 0, 0, 0, 46, 0, 40, 0, 1, 19, 45, 4, 6, 30, 31, 0, 13, 0, 0, 0, 0, 0, 34, 0, 5, 0, 12, 2, 27, 0, 26, 0, 32, 0, 0, 14, 36
|0, 0, 0, 0, 37, 44, 9, 0, 40, 0, 0, 30, 11, 0, 0, 26, 32, 0, 7, 8, 0, 0, 0, 48, 0, 29, 39, 2, 0, 19, 0, 17, 1, 0, 0, 0, 0, 0, 14, 0, 10, 0, 31, 46, 6, 0, 25, 20, 41
|0, 0, 34, 12, 14, 3, 15, 0, 0, 48, 23, 0, 17, 0, 33, 19, 25, 31, 0, 41, 30, 32, 9, 22, 47, 0, 20, 42, 0, 0, 5, 26, 40, 11, 0, 0, 18, 0, 28, 0, 13, 0, 0, 0, 37, 0, 0, 44, 24
|0, 0, 42, 11, 0, 32, 47, 1, 0, 0, 39, 0, 0, 25, 0, 0, 15, 0, 34, 0, 0, 14, 10, 18, 0, 0, 3, 0, 8, 0, 0, 0, 7, 0, 0, 0, 26, 40, 0, 0, 0, 0, 35, 13, 27, 2, 23, 0, 0
|0, 0, 0, 0, 0, 0, 0, 0, 45, 6, 0, 0, 0, 0, 0, 0, 0, 0, 0, 0, 24, 0, 0, 49, 0, 38, 0, 21, 30, 48, 0, 0, 0, 32, 0, 25, 44, 15, 0, 7, 35, 0, 47, 0, 11, 0, 12, 0, 5
|19, 0, 0, 0, 17, 0, 49, 46, 0, 0, 5, 0, 14, 7, 36, 0, 0, 0, 0, 0, 0, 0, 41, 0, 0, 35, 44, 0, 25, 0, 4, 47, 0, 0, 10, 0, 0, 32, 0, 0, 0, 20, 0, 0, 45, 0, 18, 38, 33
|0, 2, 0, 0, 30, 0, 0, 32, 0, 47, 0, 0, 12, 9, 0, 5, 18, 35, 0, 0, 48, 0, 23, 0, 43, 0, 25, 0, 45, 42, 14, 41, 36, 0, 31, 1, 8, 0, 0, 21, 22, 0, 0, 39, 0, 0, 0, 34, 0
|0, 0, 3, 31, 0, 0, 20, 0, 28, 5, 0, 0, 21, 17, 0, 35, 40, 33, 12, 46, 44, 0, 13, 0, 14, 2, 0, 0, 0, 41, 23, 0, 34, 19, 18, 0, 0, 0, 39, 48, 0, 32, 0, 30, 0, 7, 36, 0, 0
|38, 0, 0, 41, 0, 0, 28, 44, 0, 3, 0, 35, 0, 0, 7, 25, 0, 15, 0, 0, 19, 0, 34, 0, 0, 33, 17, 18, 48, 0, 0, 0, 0, 0, 0, 45, 20, 5, 36, 0, 0, 40, 4, 14, 0, 8, 10, 0, 2
|0, 0, 0, 0, 39, 2, 22, 19, 41, 46, 0, 10, 0, 18, 0, 0, 0, 0, 36, 45, 0, 49, 0, 0, 7, 3, 6, 0, 0, 5, 0, 0, 0, 17, 38, 28, 42, 0, 0, 0, 0, 35, 0, 0, 0, 47, 0, 48, 27
|6, 0, 0, 5, 10, 9, 0, 0, 0, 0, 20, 0, 0, 0, 0, 0, 0, 0, 27, 26, 22, 0, 48, 36, 0, 24, 0, 0, 44, 0, 0, 0, 28, 42, 0, 0, 0, 25, 2, 0, 12, 29, 49, 0, 21, 0, 0, 1, 34
|0, 34, 8, 7, 15, 0, 0, 0, 33, 0, 38, 0, 22, 0, 0, 0, 0, 32, 0, 2, 0, 39, 42, 26, 0, 4, 41, 23, 0, 10, 0, 0, 0, 36, 0, 17, 24, 14, 0, 0, 31, 0, 44, 5, 0, 12, 20, 6, 0
|0, 47, 49, 44, 0, 48, 0, 0, 0, 36, 0, 0, 0, 12, 0, 0, 0, 0, 11, 42, 21, 0, 28, 46, 0, 0, 0, 0, 0, 0, 0, 0, 0, 45, 0, 0, 38, 22, 1, 0, 37, 0, 23, 0, 0, 0, 17, 25, 0
|33, 0, 0, 0, 0, 0, 45, 40, 0, 0, 7, 14, 0, 0, 10, 0, 24, 0, 0, 23, 0, 12, 44, 0, 0, 43, 30, 0, 31, 0, 0, 0, 4, 49, 0, 0, 11, 0, 27, 0, 0, 34, 0, 28, 0, 0, 0, 0, 0
|0, 35, 45, 0, 0, 8, 3, 0, 0, 0, 0, 7, 0, 0, 14, 12, 11, 1, 24, 29, 28, 0, 0, 10, 31, 0, 0, 41, 0, 0, 0, 42, 0, 2, 37, 44, 0, 0, 0, 34, 0, 25, 9, 15, 0, 0, 48, 33, 21
|0, 9, 0, 30, 0, 0, 0, 0, 0, 45, 44, 0, 27, 0, 18, 41, 5, 26, 0, 0, 0, 29, 0, 0, 19, 20, 0, 1, 6, 0, 0, 0, 0, 16, 14, 37, 15, 0, 0, 28, 0, 23, 0, 0, 0, 0, 8, 0, 49
|42, 46, 0, 25, 19, 23, 10, 5, 0, 0, 37, 49, 33, 15, 39, 36, 45, 30, 38, 40, 34, 4, 0, 44, 0, 0, 7, 8, 0, 0, 13, 0, 47, 0, 0, 48, 32, 29, 24, 0, 0, 0, 20, 12, 0, 35, 27, 2, 0
|37, 17, 0, 49, 0, 0, 33, 12, 0, 10, 46, 0, 0, 0, 22, 31, 0, 6, 0, 0, 0, 35, 0, 5, 0, 0, 0, 39, 0, 0, 0, 7, 0, 34, 8, 13, 1, 27, 0, 36, 0, 0, 28, 0, 0, 0, 45, 42, 14
|14, 18, 0, 26, 0, 0, 39, 20, 11, 22, 29, 8, 0, 23, 0, 13, 0, 49, 35, 15, 43, 2, 0, 9, 0, 48, 0, 28, 4, 0, 0, 30, 0, 24, 0, 21, 0, 0, 0, 41, 0, 0, 0, 7, 34, 6, 19, 40, 0
|2, 0, 0, 15, 27, 0, 0, 0, 21, 28, 0, 3, 0, 0, 0, 44, 0, 9, 33, 25, 0, 37, 0, 6, 0, 45, 0, 34, 0, 0, 0, 31, 10, 5, 32, 0, 7, 12, 49, 42, 0, 30, 18, 0, 0, 11, 0, 23, 13
|0, 0, 0, 0, 0, 28, 0, 0, 0, 0, 14, 19, 34, 6, 0, 0, 0, 27, 0, 17, 0, 0, 0, 0, 0, 32, 0, 49, 0, 23, 3, 48, 35, 0, 12, 18, 0, 0, 0, 10, 0, 8, 0, 0, 29, 38, 39, 0, 0
|0, 0, 5, 0, 6, 18, 0, 0, 0, 0, 0, 0, 0, 0, 30, 0, 7, 29, 32, 0, 0, 0, 31, 0, 40, 41, 0, 22, 17, 4, 0, 12, 24, 10, 11, 46, 27, 0, 15, 9, 0, 0, 0, 34, 14, 0, 0, 0, 0
|22, 13, 0, 0, 0, 0, 17, 0, 4, 0, 11, 0, 0, 31, 0, 0, 0, 34, 0, 16, 41, 0, 0, 28, 0, 0, 0, 27, 0, 37, 38, 0, 21, 35, 0, 12, 14, 0, 0, 0, 25, 33, 29, 36, 49, 0, 0, 0, 19
|0, 0, 0, 0, 42, 0, 0, 37, 34, 0, 0, 6, 0, 49, 21, 48, 12, 46, 45, 0, 11, 0, 3, 35, 0, 26, 33, 0, 2, 0, 15, 44, 0, 0, 0, 32, 47, 0, 40, 18, 1, 0, 0, 27, 8, 0, 13, 41, 10
|0, 27, 0, 19, 16, 0, 37, 0, 12, 17, 0, 0, 7, 0, 0, 39, 0, 0, 31, 33, 0, 0, 0, 0, 10, 0, 0, 14, 49, 47, 29, 0, 0, 0, 48, 0, 13, 41, 45, 35, 38, 0, 15, 11, 0, 0, 5, 0, 44
|41, 0, 48, 9, 28, 0, 35, 22, 0, 27, 0, 0, 0, 3, 5, 0, 42, 38, 0, 13, 36, 17, 0, 2, 0, 0, 0, 43, 0, 25, 30, 23, 0, 14, 7, 11, 21, 0, 34, 0, 24, 0, 40, 0, 39, 46, 47, 0, 12
|15, 3, 11, 34, 0, 0, 0, 35, 19, 0, 28, 0, 40, 44, 37, 0, 0, 25, 0, 24, 0, 0, 46, 0, 12, 39, 49, 0, 18, 0, 0, 0, 0, 20, 0, 10, 0, 0, 0, 5, 0, 0, 0, 0, 0, 0, 21, 32, 38
|0, 0, 30, 0, 1, 0, 0, 48, 5, 41, 0, 0, 29, 10, 43, 0, 14, 0, 0, 0, 27, 0, 4, 0, 32, 0, 0, 0, 0, 0, 19, 40, 31, 8, 0, 0, 0, 44, 0, 0, 0, 0, 24, 0, 0, 0, 33, 0, 20
|0, 48, 0, 45, 9, 22, 46, 0, 0, 21, 0, 0, 49, 0, 16, 40, 3, 0, 0, 0, 0, 0, 43, 14, 0, 17, 0, 0, 36, 0, 0, 24, 26, 29, 5, 42, 0, 0, 0, 0, 0, 12, 0, 0, 4, 0, 28, 8, 15
|0, 15, 0, 2, 8, 27, 7, 42, 9, 37, 0, 0, 44, 0, 0, 0, 0, 0, 0, 0, 0, 33, 29, 45, 0, 16, 22, 26, 0, 21, 0, 0, 0, 0, 19, 0, 0, 6, 0, 0, 43, 0, 0, 0, 36, 5, 32, 47, 0
|0, 0, 0, 0, 0, 0, 0, 0, 0, 0, 0, 17, 15, 22, 0, 0, 36, 4, 26, 0, 25, 0, 5, 0, 24, 40, 0, 47, 0, 0, 1, 18, 12, 0, 49, 0, 28, 0, 0, 11, 46, 7, 16, 0, 0, 0, 37, 43, 23
|30, 0, 41, 35, 0, 0, 36, 13, 0, 0, 0, 24, 0, 0, 0, 6, 17, 11, 0, 0, 14, 0, 2, 31, 0, 0, 0, 0, 0, 16, 0, 0, 0, 46, 0, 22, 0, 0, 44, 47, 39, 5, 0, 29, 0, 33, 0, 19, 0
|1, 0, 0, 0, 33, 20, 0, 0, 3, 0, 8, 26, 0, 0, 0, 0, 0, 42, 5, 0, 0, 0, 0, 0, 36, 19, 0, 0, 22, 0, 41, 0, 0, 40, 0, 2, 29, 0, 21, 49, 17, 4, 45, 0, 10, 39, 35, 0, 46
|12, 0, 0, 0, 0, 16, 23, 0, 0, 0, 0, 5, 20, 36, 0, 46, 31, 48, 0, 0, 29, 0, 0, 39, 0, 1, 4, 10, 38, 0, 7, 11, 0, 0, 28, 27, 19, 0, 0, 0, 15, 0, 13, 0, 44, 34, 0, 30, 26
|17, 0, 0, 42, 3, 43, 0, 7, 29, 0, 0, 39, 0, 32, 0, 0, 21, 0, 0, 0, 0, 15, 11, 30, 0, 0, 46, 0, 0, 2, 0, 10, 27, 0, 44, 40, 0, 0, 0, 14, 0, 0, 12, 1, 0, 0, 0, 24, 0
|18, 0, 15, 0, 48, 0, 14, 0, 0, 0, 0, 23, 0, 0, 35, 9, 0, 24, 0, 11, 0, 0, 36, 0, 41, 44, 32, 0, 10, 31, 0, 0, 8, 0, 45, 0, 0, 34, 6, 19, 0, 0, 42, 4, 0, 0, 43, 0, 0
|20, 6, 16, 10, 0, 0, 43, 0, 18, 44, 0, 0, 5, 0, 28, 27, 0, 0, 0, 0, 46, 23, 39, 0, 9, 0, 45, 0, 14, 15, 34, 49, 0, 0, 0, 0, 0, 0, 0, 0, 42, 0, 2, 0, 0, 0, 7, 26, 35
|11, 0, 0, 23, 35, 0, 27, 0, 0, 4, 0, 0, 0, 20, 13, 7, 33, 17, 0, 30, 0, 25, 19, 29, 0, 42, 0, 16, 47, 1, 43, 2, 48, 22, 24, 9, 0, 37, 0, 32, 44, 41, 5, 0, 12, 15, 49, 0, 6
|0, 0, 0, 40, 0, 42, 0, 0, 0, 0, 0, 22, 37, 0, 49, 15, 20, 44, 0, 18, 0, 1, 0, 33, 21, 0, 43, 4, 0, 12, 0, 36, 0, 0, 17, 39, 0, 0, 29, 38, 0, 27, 30, 0, 0, 0, 0, 10, 3
|31, 33, 0, 29, 22, 12, 0, 0, 0, 0, 27, 0, 0, 45, 19, 0, 10, 0, 43, 39, 0, 0, 0, 0, 30, 46, 0, 0, 0, 0, 0, 32, 0, 0, 0, 26, 4, 13, 0, 0, 0, 0, 14, 16, 0, 0, 38, 17, 18
|3, 0, 0, 0, 7, 21, 0, 0, 13, 0, 19, 0, 35, 0, 0, 0, 0, 0, 8, 0, 40, 0, 0, 0, 2, 0, 0, 0, 0, 11, 0, 25, 44, 39, 41, 0, 0, 16, 43, 0, 0, 0, 27, 0, 33, 45, 34, 0, 0
|47, 0, 0, 28, 32, 0, 13, 17, 43, 0, 0, 16, 0, 24, 0, 0, 34, 23, 0, 36, 26, 8, 0, 27, 0, 14, 0, 6, 19, 38, 0, 0, 18, 4, 0, 15, 35, 0, 0, 12, 0, 1, 46, 0, 0, 0, 0, 0, 25
|43, 41, 19, 16, 0, 0, 40, 0, 49, 0, 10, 28, 0, 0, 29, 0, 0, 8, 0, 5, 0, 48, 0, 1, 42, 0, 0, 45, 7, 34, 17, 22, 0, 3, 20, 38, 0, 0, 0, 0, 32, 6, 36, 0, 23, 27, 0, 35, 9
|29, 0, 14, 32, 11, 0, 0, 43, 22, 13, 31, 0, 25, 38, 34, 20, 0, 21, 30, 28, 0, 0, 0, 40, 0, 49, 0, 0, 0, 27, 2, 8, 0, 0, 0, 5, 9, 23, 0, 24, 18, 10, 33, 19, 42, 17, 0, 37, 45
|26, 49, 25, 33, 0, 5, 0, 15, 0, 0, 32, 0, 0, 35, 0, 4, 0, 0, 6, 12, 10, 0, 8, 0, 0, 18, 0, 0, 43, 0, 40, 19, 9, 48, 47, 36, 2, 17, 22, 27, 0, 45, 0, 0, 28, 13, 0, 0, 29
|9, 0, 22, 0, 24, 0, 4, 27, 0, 26, 45, 0, 19, 0, 0, 1, 35, 40, 0, 0, 18, 0, 17, 32, 16, 0, 23, 0, 0, 28, 0, 0, 38, 12, 25, 31, 0, 49, 8, 0, 34, 0, 43, 0, 30, 14, 0, 15, 7
|0, 0, 0, 0, 0, 15, 42, 0, 0, 16, 0, 0, 0, 29, 0, 0, 0, 45, 0, 48, 0, 44, 14, 43, 22, 13, 5, 11, 0, 35, 6, 46, 32, 31, 36, 0, 25, 0, 3, 0, 0, 47, 39, 20, 18, 0, 0, 49, 8
|28, 8, 10, 13, 0, 45, 6, 0, 0, 20, 36, 2, 24, 0, 0, 38, 44, 0, 23, 0, 0, 31, 37, 0, 27, 34, 29, 30, 42, 33, 18, 14, 49, 0, 4, 0, 0, 11, 48, 1, 0, 15, 21, 47, 3, 16, 26, 12, 0
|0, 0, 0, 0, 0, 30, 0, 8, 6, 0, 1, 41, 3, 0, 11, 0, 0, 0, 47, 49, 0, 0, 0, 19, 0, 0, 12, 0, 0, 13, 0, 0, 45, 15, 16, 29, 0, 0, 7, 0, 0, 0, 22, 0, 5, 0, 40, 0, 4|];