order = 7;
grid = [|34, 0, 0, 0, 14, 6, 31, 17, 15, 0, 0, 0, 4, 13, 0, 41, 0, 44, 0, 0, 12, 40, 21, 35, 45, 48, 2, 42, 0, 39, 7, 18, 0, 28, 0, 47, 24, 0, 1, 3, 0, 0, 0, 0, 9, 10, 49, 0, 25
|16, 1, 0, 19, 0, 20, 15, 0, 8, 39, 0, 0, 0, 0, 42, 0, 33, 10, 47, 35, 37, 24, 0, 25, 0, 41, 31, 38, 0, 0, 0, 11, 2, 27, 0, 0, 46, 0, 0, 0, 49, 0, 22, 0, 0, 43, 0, 0, 44
|0, 0, 0, 0, 40, 0, 0, 0, 5, 42, 0, 32, 11, 29, 8, 0, 0, 0, 0, 0, 15, 17, 0, 1, 14, 0, 0, 0, 0, 0, 0, 31, 24, 0, 26, 0, 0, 0, 7, 0, 0, 28, 0, 38, 0, 0, 0, 46, 48
|0, 0, 0, 32, 0, 0, 30, 2, 3, 0, 28, 0, 0, 21, 5, 20, 0, 16, 0, 0, 6, 8, 0, 39, 0, 0, 0, 33, 0, 0, 0, 45, 0, 44, 14, 4, 0, 0, 0, 0, 43, 0, 0, 17, 0, 24, 27, 0, 19
|0, 0, 0, 24, 9, 17, 0, 0, 0, 10, 46, 0, 0, 0, 49, 0, 0, 0, 0, 43, 0, 0, 0, 44, 11, 0, 5, 22, 0, 8, 1, 0, 0, 33, 0, 0, 0, 0, 27, 15, 0, 0, 0, 0, 21, 3, 0, 0, 14
|25, 0, 0, 0, 0, 43, 44, 14, 1, 0, 0, 27, 0, 16, 0, 40, 0, 38, 0, 24, 0, 0, 13, 0, 0, 0, 0, 0, 0, 0, 0, 0, 0, 4, 0, 26, 9, 0, 0, 0, 36, 0, 11, 0, 0, 0, 0, 0, 34
|41, 0, 38, 8, 2, 0, 0, 0, 25, 44, 24, 0, 0, 7, 22, 46, 0, 0, 0, 3, 0, 0, 29, 6, 0, 4, 49, 0, 0, 0, 0, 5, 43, 9, 17, 30, 10, 0, 39, 31, 0, 13, 42, 0, 0, 26, 1, 47, 20
|0, 10, 39, 30, 11, 32, 0, 12, 0, 35, 49, 48, 24, 17, 0, 44, 16, 0, 15, 0, 1, 25, 46, 0, 37, 0, 34, 0, 0, 0, 0, 0, 3, 0, 0, 18, 38, 0, 40, 0, 0, 7, 0, 0, 28, 5, 0, 6, 0
|0, 0, 0, 37, 13, 34, 2, 0, 0, 0, 0, 0, 0, 0, 0, 6, 28, 0, 39, 0, 0, 0, 23, 24, 5, 0, 33, 19, 0, 0, 0, 40, 35, 0, 4, 46, 0, 0, 9, 0, 0, 22, 0, 0, 0, 1, 0, 0, 38
|0, 0, 1, 0, 0, 14, 0, 39, 23, 0, 0, 0, 0, 34, 11, 38, 13, 22, 0, 0, 0, 30, 43, 0, 0, 49, 0, 35, 17, 6, 5, 20, 0, 41, 0, 19, 29, 25, 0, 0, 45, 0, 24, 2, 0, 18, 4, 0, 0
|45, 0, 7, 0, 0, 9, 0, 0, 0, 0, 0, 0, 0, 0, 33, 0, 35, 0, 48, 0, 40, 0, 0, 0, 15, 0, 27, 41, 34, 12, 32, 39, 0, 0, 0, 31, 0, 24, 5, 44, 0, 49, 23, 0, 0, 30, 0, 0, 0
|0, 0, 47, 0, 15, 36, 0, 0, 26, 5, 43, 38, 30, 10, 0, 0, 0, 9, 24, 0, 49, 0, 0, 11, 32, 8, 0, 0, 0, 0, 0, 0, 28, 0, 23, 33, 0, 0, 14, 0, 41, 4, 44, 12, 34, 0, 37, 0, 39
|0, 0, 8, 35, 5, 41, 0, 16, 0, 1, 32, 2, 0, 0, 14, 3, 4, 26, 12, 45, 0, 0, 38, 0, 42, 0, 0, 44, 0, 0, 43, 15, 46, 30, 0, 10, 36, 0, 0, 6, 34, 0, 0, 0, 22, 0, 0, 25, 33
|0, 3, 26, 0, 33, 0, 18, 0, 0, 0, 0, 36, 44, 0, 0, 25, 41, 0, 20, 5, 19, 0, 1, 0, 17, 0, 14, 0, 0, 2, 42, 0, 10, 24, 0, 0, 0, 0, 0, 0, 12, 16, 0, 43, 13, 40, 32, 0, 0
|0, 0, 10, 6, 12, 0, 14, 24, 0, 46, 0, 0, 0, 42, 3, 0, 0, 4, 0, 11, 0, 1, 0, 0, 0, 0, 37, 13, 48, 0, 0, 0, 22, 0, 0, 17, 33, 7, 30, 39, 0, 0, 0, 47, 26, 0, 40, 44, 27
|0, 0, 0, 0, 44, 0, 0, 21, 0, 0, 40, 49, 0, 0, 0, 0, 0, 31, 0, 14, 0, 0, 0, 0, 0, 0, 0, 0, 0, 38, 0, 32, 0, 11, 0, 0, 0, 15, 0, 25, 23, 0, 30, 0, 0, 9, 33, 5, 35
|0, 49, 0, 0, 27, 42, 23, 0, 0, 0, 0, 0, 3, 0, 45, 34, 48, 28, 0, 0, 46, 14, 0, 30, 35, 24, 0, 36, 47, 15, 40, 25, 5, 26, 33, 22, 21, 44, 2, 18, 38, 0, 0, 7, 0, 17, 0, 31, 37
|0, 0, 36, 0, 16, 35, 0, 0, 0, 11, 5, 0, 0, 32, 47, 0, 17, 0, 0, 0, 0, 0, 0, 2, 10, 0, 25, 49, 0, 0, 0, 34, 23, 0, 0, 0, 0, 31, 6, 0, 0, 14, 0, 22, 0, 0, 0, 0, 24
|0, 0, 20, 43, 0, 33, 0, 0, 0, 0, 44, 10, 38, 0, 23, 0, 39, 2, 0, 0, 42, 9, 18, 0, 0, 3, 21, 0, 0, 46, 36, 28, 0, 14, 0, 0, 0, 26, 48, 24, 0, 19, 8, 16, 49, 11, 0, 13, 15
|0, 0, 0, 0, 0, 0, 0, 0, 0, 31, 0, 35, 2, 43, 0, 22, 0, 25, 0, 0, 0, 0, 0, 0, 7, 0, 0, 23, 0, 3, 0, 42, 0, 0, 18, 49, 0, 0, 47, 0, 0, 0, 0, 0, 0, 0, 14, 19, 45
|31, 0, 0, 0, 7, 25, 0, 47, 14, 23, 0, 0, 0, 0, 0, 12, 0, 32, 49, 26, 38, 0, 5, 19, 43, 0, 6, 11, 30, 21, 37, 24, 29, 20, 45, 0, 16, 0, 0, 40, 1, 0, 46, 0, 0, 48, 42, 10, 36
|26, 7, 0, 0, 23, 0, 46, 38, 0, 25, 47, 37, 29, 33, 24, 10, 32, 0, 0, 30, 4, 31, 22, 14, 0, 0, 0, 0, 42, 0, 0, 49, 11, 5, 0, 3, 1, 0, 16, 41, 6, 0, 2, 0, 0, 0, 0, 28, 0
|9, 14, 0, 0, 34, 1, 27, 46, 0, 0, 48, 0, 31, 0, 0, 0, 38, 0, 0, 19, 28, 5, 40, 0, 6, 0, 8, 0, 0, 0, 2, 16, 0, 32, 0, 39, 20, 0, 44, 0, 33, 0, 49, 3, 4, 0, 22, 42, 0
|0, 0, 0, 0, 38, 39, 0, 0, 0, 0, 10, 24, 45, 26, 16, 14, 0, 12, 7, 49, 44, 35, 28, 47, 0, 0, 23, 34, 0, 0, 0, 33, 30, 29, 0, 15, 0, 0, 0, 5, 42, 2, 13, 37, 48, 0, 46, 0, 0
|0, 32, 0, 0, 42, 37, 35, 0, 16, 40, 1, 0, 14, 44, 6, 21, 47, 17, 0, 0, 3, 0, 0, 7, 36, 43, 11, 0, 0, 45, 41, 10, 9, 13, 48, 25, 19, 23, 38, 49, 0, 18, 33, 39, 0, 15, 0, 0, 0
|48, 22, 0, 36, 28, 0, 0, 0, 0, 3, 2, 0, 0, 12, 0, 0, 45, 35, 0, 9, 0, 0, 0, 0, 0, 46, 0, 1, 0, 26, 0, 0, 0, 15, 0, 40, 13, 0, 0, 0, 0, 0, 0, 10, 0, 25, 0, 38, 47
|20, 0, 0, 16, 47, 0, 49, 18, 22, 41, 0, 0, 13, 0, 0, 39, 0, 0, 11, 40, 25, 3, 0, 0, 0, 37, 0, 0, 0, 0, 6, 46, 1, 0, 0, 0, 0, 0, 0, 0, 29, 0, 5, 23, 0, 0, 0, 35, 32
|0, 0, 0, 0, 45, 0, 29, 0, 32, 0, 0, 42, 0, 0, 13, 0, 5, 0, 18, 41, 0, 0, 33, 38, 0, 26, 24, 0, 0, 34, 0, 7, 0, 0, 0, 8, 37, 0, 0, 35, 47, 46, 6, 40, 0, 0, 0, 0, 0
|0, 37, 13, 45, 0, 27, 47, 28, 0, 0, 0, 0, 0, 0, 38, 42, 0, 0, 6, 31, 0, 0, 41, 8, 29, 0, 4, 0, 35, 0, 39, 2, 0, 34, 0, 0, 0, 0, 17, 23, 0, 0, 0, 32, 18, 49, 3, 0, 0
|0, 2, 44, 0, 0, 0, 0, 43, 0, 47, 26, 0, 27, 0, 0, 0, 3, 46, 40, 0, 35, 11, 45, 0, 0, 0, 17, 0, 0, 0, 0, 0, 32, 0, 15, 6, 4, 0, 33, 0, 0, 0, 34, 41, 37, 0, 0, 48, 13
|0, 11, 41, 0, 0, 0, 40, 6, 0, 0, 0, 0, 39, 49, 0, 0, 0, 27, 45, 33, 22, 0, 0, 0, 31, 2, 42, 30, 0, 24, 12, 3, 0, 46, 13, 1, 15, 28, 0, 0, 35, 0, 0, 9, 38, 20, 0, 0, 4
|0, 0, 3, 0, 0, 12, 0, 0, 24, 0, 4, 0, 0, 38, 21, 0, 10, 41, 0, 0, 17, 0, 0, 0, 23, 0, 15, 27, 0, 0, 0, 0, 0, 0, 43, 36, 0, 0, 0, 46, 0, 0, 0, 11, 0, 0, 0, 26, 0
|0, 23, 43, 0, 0, 0, 0, 35, 0, 36, 14, 0, 0, 0, 28, 26, 0, 0, 37, 15, 47, 12, 0, 3, 44, 0, 0, 40, 0, 0, 9, 0, 0, 0, 7, 24, 0, 0, 0, 0, 0, 0, 1, 46, 0, 42, 0, 0, 0
|0, 31, 15, 39, 0, 0, 32, 3, 0, 2, 16, 41, 25, 0, 12, 4, 0, 0, 0, 44, 23, 0, 0, 49, 0, 47, 0, 18, 0, 0, 0, 48, 0, 0, 10, 27, 40, 0, 0, 7, 0, 0, 0, 24, 0, 0, 35, 8, 6
|21, 0, 0, 0, 48, 0, 28, 10, 40, 34, 42, 8, 0, 31, 0, 0, 11, 24, 5, 0, 0, 20, 0, 0, 0, 0, 43, 46, 37, 4, 0, 0, 0, 17, 36, 9, 0, 0, 0, 0, 0, 44, 0, 0, 15, 0, 25, 0, 0
|22, 21, 0, 23, 26, 0, 1, 0, 0, 4, 31, 5, 40, 0, 0, 29, 0, 0, 33, 20, 34, 0, 17, 0, 0, 0, 0, 0, 32, 0, 27, 12, 15, 0, 0, 48, 0, 0, 28, 37, 7, 41, 0, 0, 0, 47, 0, 2, 0
|13, 0, 12, 27, 0, 0, 37, 0, 0, 0, 0, 3, 36, 0, 17, 16, 25, 45, 0, 0, 43, 41, 0, 0, 0, 0, 38, 0, 0, 33, 0, 30, 0, 23, 42, 44, 0, 0, 0, 0, 0, 26, 0, 0, 0, 34, 0, 32, 0
|29, 0, 35, 44, 0, 4, 8, 13, 18, 43, 0, 0, 0, 0, 0, 0, 42, 0, 0, 0, 0, 34, 11, 0, 0, 0, 0, 48, 6, 0, 0, 0, 20, 0, 0, 0, 47, 39, 31, 32, 0, 0, 7, 0, 0, 37, 5, 3, 1
|46, 0, 0, 17, 18, 45, 5, 0, 0, 28, 0, 29, 0, 25, 0, 36, 6, 0, 9, 12, 0, 26, 44, 37, 4, 0, 0, 0, 1, 22, 0, 38, 13, 8, 34, 11, 0, 35, 0, 0, 0, 40, 48, 20, 0, 0, 43, 0, 41
|36, 33, 0, 0, 32, 49, 43, 0, 39, 30, 0, 9, 0, 0, 4, 11, 0, 0, 0, 28, 5, 0, 27, 0, 0, 0, 46, 24, 0, 0, 0, 47, 0, 0, 41, 0, 0, 0, 0, 0, 22, 21, 29, 44, 23, 0, 45, 0, 12
|2, 0, 0, 0, 24, 0, 39, 0, 0, 0, 0, 0, 42, 0, 0, 0, 37, 48, 0, 10, 0, 0, 0, 0, 12, 0, 0, 0, 43, 0, 18, 0, 21, 0, 3, 0, 0, 0, 13, 33, 0, 30, 0, 0, 35, 46, 0, 0, 26
|0, 42, 19, 47, 0, 0, 0, 0, 0, 45, 0, 20, 0, 27, 0, 7, 18, 23, 0, 13, 0, 0, 0, 0, 0, 0, 0, 0, 39, 29, 35, 0, 0, 0, 46, 43, 0, 0, 0, 12, 17, 1, 4, 0, 8, 0, 0, 0, 10
|30, 0, 0, 49, 6, 0, 4, 0, 31, 13, 0, 12, 0, 0, 0, 0, 0, 0, 35, 0, 0, 39, 0, 0, 0, 15, 0, 0, 14, 40, 0, 36, 0, 0, 0, 0, 0, 0, 46, 0, 0, 17, 47, 21, 0, 29, 20, 41, 0
|0, 0, 29, 48, 31, 0, 0, 1, 0, 49, 0, 0, 8, 47, 39, 13, 0, 6, 17, 0, 0, 22, 20, 0, 19, 0, 35, 25, 9, 0, 0, 0, 34, 0, 24, 0, 0, 0, 21, 14, 40, 0, 0, 42, 0, 4, 23, 18, 0
|0, 0, 22, 0, 17, 21, 0, 33, 41, 0, 19, 0, 37, 4, 27, 2, 0, 0, 0, 0, 0, 6, 0, 46, 0, 0, 0, 8, 20, 0, 0, 0, 7, 47, 32, 0, 0, 0, 15, 36, 3, 0, 14, 0, 0, 13, 0, 45, 0
|0, 0, 27, 0, 0, 16, 7, 5, 11, 26, 45, 0, 20, 0, 46, 28, 0, 0, 0, 38, 29, 10, 42, 0, 33, 0, 47, 0, 0, 0, 0, 13, 0, 0, 0, 34, 41, 0, 0, 0, 30, 0, 0, 48, 0, 0, 24, 39, 0
|15, 39, 0, 26, 0, 0, 10, 27, 0, 17, 0, 0, 0, 0, 40, 47, 20, 37, 4, 0, 0, 13, 0, 0, 0, 5, 12, 0, 0, 42, 45, 35, 0, 22, 0, 32, 0, 6, 0, 0, 9, 23, 3, 0, 25, 38, 0, 33, 0
|0, 0, 0, 0, 0, 13, 0, 0, 0, 0, 0, 6, 43, 0, 0, 30, 0, 42, 14, 0, 0, 2, 0, 41, 16, 40, 7, 0, 0, 48, 46, 17, 33, 39, 28, 5, 0, 0, 0, 19, 11, 0, 26, 1, 27, 0, 0, 0, 0
|0, 35, 0, 0, 0, 0, 19, 0, 0, 0, 0, 15, 34, 0, 44, 45, 22, 3, 0, 0, 33, 0, 4, 0, 0, 0, 0, 32, 2, 0, 10, 0, 0, 43, 0, 0, 0, 0, 20, 0, 0, 0, 0, 30, 0, 8, 0, 0, 9|];