order = 7;
grid = [|5, 30, 0, 0, 41, 7, 10, 0, 1, 49, 0, 25, 0, 6, 21, 4, 17, 28, 20, 27, 0, 0, 0, 24, 0, 11, 34, 0, 0, 35, 0, 0, 37, 15, 0, 0, 0, 29, 31, 0, 32, 12, 0, 36, 22, 39, 19, 13, 47
|44, 35, 0, 17, 0, 14, 0, 20, 3, 0, 0, 27, 42, 15, 0, 0, 18, 34, 46, 25, 12, 0, 0, 5, 0, 0, 45, 0, 0, 0, 0, 33, 0, 36, 11, 0, 1, 0, 0, 0, 13, 7, 0, 0, 0, 9, 37, 0, 8
|29, 0, 0, 38, 32, 0, 1, 24, 35, 0, 0, 0, 43, 0, 6, 0, 0, 47, 3, 0, 0, 12, 7, 0, 20, 16, 0, 17, 0, 13, 0, 0, 22, 44, 40, 0, 27, 34, 0, 19, 0, 25, 15, 0, 18, 0, 14, 0, 0
|43, 23, 40, 0, 33, 8, 0, 0, 0, 9, 5, 0, 0, 11, 2, 0, 10, 0, 0, 32, 1, 6, 0, 0, 0, 0, 44, 0, 0, 25, 0, 34, 0, 4, 0, 0, 49, 0, 48, 0, 0, 0, 0, 16, 0, 12, 0, 0, 0
|0, 22, 0, 25, 0, 34, 27, 23, 0, 0, 46, 18, 0, 0, 48, 0, 0, 33, 45, 0, 0, 0, 29, 19, 0, 28, 0, 0, 10, 32, 1, 49, 24, 20, 0, 0, 42, 3, 43, 2, 16, 0, 17, 0, 0, 41, 0, 21, 30
|49, 11, 0, 36, 18, 0, 28, 0, 14, 0, 0, 16, 22, 0, 24, 31, 0, 8, 35, 30, 0, 0, 4, 0, 0, 0, 0, 0, 43, 0, 12, 0, 0, 29, 27, 0, 0, 0, 0, 0, 0, 21, 0, 0, 1, 3, 0, 0, 0
|15, 0, 46, 0, 0, 0, 20, 0, 0, 13, 0, 28, 17, 41, 39, 23, 26, 19, 0, 0, 16, 3, 27, 0, 10, 1, 0, 9, 0, 0, 0, 18, 2, 48, 0, 22, 38, 0, 0, 0, 44, 4, 25, 49, 43, 5, 32, 31, 29
|0, 24, 0, 0, 40, 18, 0, 27, 0, 34, 1, 6, 15, 16, 4, 2, 0, 0, 48, 0, 0, 0, 0, 11, 0, 0, 29, 30, 0, 5, 13, 22, 19, 47, 25, 0, 37, 0, 49, 0, 0, 26, 46, 0, 20, 10, 0, 38, 0
|0, 0, 0, 0, 0, 0, 0, 31, 0, 0, 0, 23, 0, 0, 41, 0, 0, 0, 0, 45, 0, 0, 49, 36, 0, 0, 26, 4, 0, 30, 0, 16, 20, 37, 0, 0, 0, 19, 0, 10, 0, 8, 29, 0, 42, 0, 0, 25, 0
|35, 17, 38, 47, 0, 6, 16, 37, 0, 8, 0, 0, 0, 0, 0, 0, 0, 0, 0, 0, 0, 0, 0, 22, 41, 34, 27, 0, 0, 33, 42, 11, 0, 0, 45, 9, 44, 0, 2, 0, 0, 0, 0, 12, 31, 0, 40, 0, 0
|0, 0, 0, 23, 4, 19, 49, 41, 9, 2, 25, 0, 29, 42, 17, 0, 0, 26, 0, 16, 40, 0, 0, 20, 0, 46, 43, 0, 14, 6, 10, 0, 0, 31, 0, 0, 0, 45, 39, 33, 30, 24, 0, 37, 0, 7, 15, 44, 35
|20, 0, 7, 5, 1, 48, 46, 0, 38, 26, 44, 49, 18, 0, 22, 12, 0, 0, 36, 0, 0, 10, 0, 0, 35, 8, 19, 0, 3, 0, 9, 41, 21, 0, 0, 0, 0, 16, 34, 25, 6, 0, 0, 33, 30, 0, 23, 11, 28
|28, 0, 45, 15, 44, 0, 21, 39, 4, 17, 0, 0, 11, 0, 0, 0, 7, 0, 0, 3, 10, 0, 25, 0, 2, 0, 32, 0, 0, 0, 24, 0, 12, 46, 36, 0, 35, 0, 29, 43, 0, 14, 19, 0, 0, 49, 0, 8, 18
|2, 0, 0, 0, 0, 0, 42, 3, 0, 0, 0, 30, 0, 0, 0, 47, 0, 0, 37, 20, 32, 0, 0, 0, 0, 0, 0, 0, 49, 0, 0, 26, 28, 27, 39, 31, 0, 0, 4, 7, 0, 11, 0, 0, 0, 16, 0, 41, 0
|42, 40, 33, 41, 0, 4, 11, 8, 0, 0, 43, 22, 24, 0, 20, 0, 6, 37, 0, 48, 19, 0, 5, 34, 49, 0, 0, 0, 36, 0, 0, 21, 0, 0, 0, 2, 0, 0, 0, 13, 1, 0, 10, 39, 0, 0, 7, 26, 0
|0, 20, 0, 0, 12, 0, 0, 0, 13, 0, 0, 0, 48, 0, 0, 33, 40, 0, 0, 0, 0, 0, 0, 28, 0, 10, 0, 8, 41, 0, 32, 47, 0, 0, 0, 0, 0, 0, 44, 0, 19, 46, 0, 18, 0, 22, 31, 0, 9
|0, 0, 0, 19, 0, 0, 30, 0, 37, 0, 28, 0, 0, 39, 0, 3, 0, 21, 8, 4, 0, 13, 38, 0, 0, 0, 6, 11, 42, 49, 31, 20, 0, 0, 33, 0, 26, 17, 0, 0, 0, 0, 0, 0, 2, 46, 5, 0, 0
|46, 28, 49, 0, 0, 0, 0, 0, 0, 0, 45, 0, 0, 18, 0, 42, 0, 12, 41, 0, 0, 0, 0, 0, 19, 37, 0, 1, 39, 16, 0, 35, 10, 0, 48, 8, 11, 38, 0, 15, 36, 32, 14, 43, 0, 0, 0, 6, 13
|8, 0, 26, 0, 0, 0, 29, 44, 30, 0, 19, 0, 10, 0, 0, 35, 9, 0, 0, 0, 0, 0, 39, 0, 0, 31, 21, 0, 0, 27, 0, 6, 25, 0, 0, 40, 48, 49, 45, 0, 22, 0, 34, 0, 16, 0, 41, 17, 0
|0, 1, 25, 0, 36, 17, 37, 40, 34, 0, 49, 0, 0, 27, 0, 39, 23, 0, 0, 13, 0, 41, 0, 29, 18, 14, 0, 0, 5, 0, 0, 15, 0, 0, 0, 28, 0, 0, 6, 24, 0, 0, 0, 19, 0, 0, 0, 45, 20
|48, 15, 24, 39, 0, 0, 23, 1, 32, 0, 14, 0, 41, 0, 0, 49, 16, 0, 31, 0, 0, 45, 0, 27, 40, 0, 9, 0, 13, 22, 29, 3, 0, 19, 34, 33, 0, 4, 12, 0, 42, 0, 0, 30, 38, 35, 0, 36, 0
|0, 36, 32, 2, 0, 0, 15, 0, 0, 20, 0, 45, 23, 0, 1, 17, 22, 0, 6, 37, 0, 42, 47, 38, 0, 0, 0, 0, 9, 0, 39, 4, 0, 25, 0, 0, 0, 27, 28, 0, 8, 0, 13, 41, 0, 0, 0, 0, 0
|12, 31, 8, 48, 0, 0, 0, 0, 24, 1, 0, 0, 38, 0, 0, 46, 0, 49, 39, 0, 30, 27, 0, 37, 0, 20, 0, 0, 44, 0, 0, 0, 26, 5, 35, 0, 0, 0, 14, 11, 0, 0, 0, 0, 25, 43, 0, 0, 0
|10, 0, 0, 26, 20, 46, 18, 43, 0, 0, 6, 0, 0, 21, 0, 0, 29, 3, 0, 0, 27, 9, 34, 45, 25, 0, 4, 19, 0, 41, 0, 28, 0, 0, 0, 0, 23, 0, 42, 12, 39, 1, 0, 0, 0, 37, 0, 48, 0
|13, 38, 0, 0, 0, 0, 6, 0, 42, 0, 27, 0, 0, 0, 36, 16, 41, 4, 0, 0, 31, 0, 1, 49, 0, 3, 0, 0, 0, 10, 0, 0, 48, 8, 21, 37, 47, 0, 0, 0, 33, 0, 45, 0, 17, 15, 0, 2, 23
|41, 16, 27, 24, 19, 0, 0, 14, 8, 0, 0, 36, 3, 0, 45, 20, 0, 25, 0, 0, 48, 21, 15, 0, 46, 0, 0, 0, 0, 23, 0, 43, 1, 0, 31, 35, 29, 18, 26, 9, 0, 0, 7, 32, 0, 0, 12, 0, 49
|0, 0, 37, 4, 42, 0, 25, 0, 2, 0, 0, 17, 30, 0, 40, 0, 0, 11, 0, 0, 0, 0, 0, 0, 44, 0, 0, 33, 47, 0, 7, 0, 0, 12, 0, 0, 0, 36, 0, 0, 0, 43, 0, 0, 0, 20, 0, 0, 26
|40, 0, 0, 22, 21, 44, 0, 0, 26, 0, 0, 48, 0, 0, 0, 0, 33, 9, 14, 5, 0, 0, 0, 0, 0, 0, 0, 0, 17, 11, 0, 0, 0, 34, 0, 0, 0, 25, 0, 0, 3, 2, 0, 0, 0, 1, 4, 0, 46
|14, 0, 31, 0, 0, 0, 22, 30, 0, 0, 0, 0, 0, 28, 35, 0, 0, 0, 0, 23, 0, 5, 19, 0, 36, 0, 0, 27, 0, 37, 0, 0, 34, 0, 0, 0, 0, 24, 0, 48, 0, 3, 0, 21, 41, 0, 49, 0, 15
|38, 0, 15, 46, 23, 0, 7, 0, 19, 0, 16, 10, 25, 17, 11, 45, 0, 0, 0, 0, 0, 0, 0, 13, 22, 40, 39, 0, 31, 29, 49, 42, 0, 9, 0, 0, 0, 32, 8, 0, 0, 0, 1, 44, 0, 26, 3, 0, 12
|30, 12, 0, 0, 0, 0, 35, 0, 0, 41, 0, 0, 45, 48, 0, 0, 0, 18, 33, 0, 0, 43, 0, 3, 47, 0, 17, 32, 23, 20, 21, 10, 0, 26, 7, 11, 15, 1, 0, 0, 14, 0, 0, 0, 0, 2, 42, 0, 38
|24, 8, 16, 29, 10, 11, 0, 46, 22, 37, 40, 0, 0, 0, 3, 0, 0, 31, 0, 0, 0, 0, 23, 0, 1, 0, 0, 21, 18, 0, 0, 0, 43, 0, 28, 0, 0, 0, 0, 26, 0, 45, 5, 27, 32, 33, 25, 35, 0
|0, 0, 0, 32, 0, 43, 36, 42, 0, 38, 0, 24, 0, 0, 0, 0, 0, 1, 26, 0, 0, 34, 0, 0, 0, 0, 15, 0, 0, 48, 22, 25, 6, 0, 8, 23, 0, 28, 0, 18, 2, 0, 47, 40, 14, 45, 0, 29, 7
|0, 19, 1, 18, 0, 33, 47, 0, 0, 39, 3, 0, 32, 0, 14, 7, 0, 16, 0, 28, 22, 0, 0, 0, 29, 0, 38, 24, 4, 15, 0, 2, 0, 11, 46, 42, 13, 9, 0, 0, 21, 5, 0, 0, 0, 0, 0, 30, 17
|0, 48, 4, 34, 0, 0, 5, 0, 0, 0, 0, 35, 26, 0, 0, 25, 32, 0, 30, 41, 0, 0, 0, 0, 33, 0, 16, 0, 1, 38, 36, 0, 0, 24, 3, 0, 12, 46, 40, 47, 0, 0, 11, 0, 0, 6, 0, 0, 19
|0, 9, 0, 33, 0, 26, 0, 25, 6, 0, 0, 0, 0, 5, 0, 0, 28, 0, 0, 0, 0, 0, 45, 0, 27, 0, 0, 0, 11, 46, 0, 14, 13, 17, 44, 34, 20, 21, 7, 0, 29, 35, 0, 47, 8, 0, 0, 0, 0
|0, 45, 0, 0, 46, 3, 0, 0, 0, 28, 0, 0, 0, 0, 33, 21, 13, 0, 0, 8, 38, 37, 6, 18, 7, 5, 35, 0, 25, 0, 26, 40, 0, 0, 19, 0, 0, 0, 16, 0, 24, 36, 0, 23, 15, 31, 9, 12, 1
|31, 0, 35, 7, 30, 20, 39, 0, 0, 0, 0, 3, 21, 0, 42, 0, 46, 40, 0, 0, 29, 0, 0, 0, 34, 0, 0, 43, 0, 0, 38, 0, 0, 0, 16, 19, 8, 22, 0, 0, 45, 48, 4, 25, 0, 18, 0, 0, 11
|0, 5, 14, 1, 0, 0, 19, 0, 0, 0, 0, 31, 7, 38, 25, 0, 43, 2, 0, 39, 0, 0, 26, 0, 0, 32, 47, 0, 20, 36, 0, 37, 35, 0, 4, 13, 0, 12, 15, 6, 11, 0, 0, 0, 0, 0, 0, 0, 0
|0, 29, 0, 27, 11, 36, 0, 0, 0, 43, 0, 0, 0, 0, 26, 0, 34, 0, 24, 0, 0, 14, 0, 46, 0, 13, 0, 12, 2, 28, 48, 0, 0, 0, 9, 44, 0, 0, 0, 31, 17, 0, 38, 0, 49, 19, 20, 0, 0
|34, 21, 6, 0, 0, 12, 24, 9, 0, 10, 17, 19, 14, 40, 16, 0, 0, 45, 0, 0, 0, 0, 0, 39, 0, 25, 0, 41, 15, 31, 0, 0, 47, 30, 18, 0, 2, 26, 0, 32, 0, 0, 0, 7, 0, 0, 0, 0, 0
|37, 44, 0, 8, 0, 0, 0, 0, 12, 0, 35, 13, 0, 45, 0, 0, 19, 27, 5, 0, 0, 16, 17, 0, 11, 29, 0, 0, 0, 42, 0, 7, 41, 49, 0, 0, 0, 0, 0, 14, 0, 18, 0, 26, 39, 0, 0, 32, 10
|26, 32, 0, 14, 35, 0, 0, 38, 0, 48, 0, 40, 1, 0, 9, 28, 0, 42, 10, 47, 0, 19, 13, 0, 0, 27, 0, 34, 12, 2, 5, 31, 11, 39, 22, 30, 0, 0, 0, 0, 18, 0, 0, 46, 4, 0, 24, 0, 0
|19, 7, 0, 20, 0, 29, 45, 47, 31, 18, 37, 34, 0, 32, 0, 0, 0, 0, 11, 6, 46, 0, 0, 9, 0, 0, 0, 44, 0, 21, 15, 38, 0, 0, 0, 0, 28, 0, 0, 49, 0, 0, 8, 0, 0, 0, 33, 40, 0
|0, 0, 0, 0, 31, 41, 8, 0, 0, 29, 0, 26, 0, 0, 0, 14, 4, 24, 19, 0, 0, 0, 0, 0, 17, 33, 3, 0, 0, 0, 25, 0, 44, 42, 10, 0, 0, 0, 5, 0, 48, 0, 0, 0, 9, 32, 0, 7, 45
|9, 49, 17, 0, 5, 40, 0, 0, 0, 0, 24, 41, 6, 0, 0, 0, 8, 39, 0, 0, 25, 29, 0, 0, 0, 23, 0, 0, 0, 26, 18, 36, 33, 0, 13, 12, 19, 0, 22, 21, 4, 38, 30, 42, 0, 11, 2, 47, 27
|0, 0, 30, 37, 25, 0, 0, 22, 0, 42, 9, 0, 49, 10, 12, 26, 31, 0, 7, 40, 35, 0, 2, 0, 0, 0, 18, 0, 0, 24, 0, 0, 0, 41, 0, 0, 0, 15, 11, 0, 0, 34, 20, 29, 19, 44, 13, 5, 0
|0, 34, 43, 10, 0, 0, 0, 21, 44, 0, 23, 12, 0, 0, 13, 0, 30, 22, 0, 0, 33, 0, 16, 48, 8, 38, 11, 25, 0, 0, 40, 32, 0, 35, 20, 7, 46, 14, 9, 42, 27, 17, 0, 0, 26, 0, 18, 3, 0
|0, 47, 42, 0, 15, 27, 0, 0, 0, 33, 8, 14, 2, 30, 0, 0, 0, 41, 0, 0, 45, 0, 32, 0, 28, 0, 0, 0, 29, 9, 0, 0, 0, 0, 0, 24, 25, 35, 0, 0, 31, 44, 0, 0, 0, 48, 21, 49, 6|];