order = 7;
grid = [|39, 35, 47, 0, 48, 0, 34, 36, 4, 18, 0, 0, 12, 32, 0, 44, 0, 0, 16, 0, 0, 0, 14, 6, 0, 0, 33, 0, 28, 0, 22, 31, 29, 0, 10, 0, 37, 2, 24, 20, 0, 0, 0, 0, 0, 46, 0, 8, 0
|0, 0, 0, 49, 38, 7, 41, 0, 0, 0, 0, 0, 35, 5, 20, 0, 36, 46, 0, 48, 18, 0, 0, 42, 27, 47, 0, 0, 21, 0, 0, 0, 0, 26, 9, 0, 33, 39, 43, 28, 0, 34, 29, 0, 22, 0, 6, 1, 12
|0, 0, 0, 32, 42, 0, 0, 31, 10, 26, 0, 43, 0, 41, 0, 0, 28, 0, 0, 0, 15, 0, 0, 48, 0, 1, 25, 0, 0, 5, 0, 40, 0, 33, 47, 8, 18, 0, 38, 21, 7, 49, 0, 0, 35, 0, 9, 0, 13
|0, 0, 33, 45, 0, 29, 44, 14, 0, 1, 8, 0, 24, 47, 0, 0, 0, 0, 0, 0, 0, 35, 0, 0, 0, 5, 46, 13, 6, 38, 0, 7, 32, 34, 37, 15, 4, 31, 0, 0, 40, 19, 0, 36, 0, 48, 17, 0, 0
|0, 16, 0, 0, 0, 0, 0, 0, 0, 0, 0, 2, 0, 0, 0, 0, 0, 0, 0, 31, 25, 0, 0, 0, 28, 34, 41, 0, 0, 20, 0, 0, 30, 18, 48, 44, 0, 46, 0, 0, 36, 0, 0, 0, 0, 39, 32, 0, 0
|22, 0, 27, 36, 15, 0, 13, 0, 0, 34, 0, 0, 0, 0, 0, 38, 7, 23, 33, 0, 3, 0, 0, 0, 32, 21, 0, 2, 0, 14, 45, 4, 0, 35, 39, 26, 0, 47, 0, 0, 0, 1, 41, 24, 31, 40, 0, 0, 18
|37, 21, 4, 20, 28, 18, 0, 0, 0, 0, 16, 0, 0, 0, 0, 9, 0, 0, 8, 0, 0, 0, 31, 0, 0, 7, 0, 26, 36, 1, 0, 46, 0, 0, 0, 0, 5, 29, 0, 0, 0, 0, 23, 0, 47, 0, 0, 0, 10
|0, 0, 0, 28, 0, 22, 48, 15, 0, 37, 36, 21, 0, 39, 8, 0, 17, 7, 0, 27, 0, 2, 0, 34, 0, 0, 0, 10, 1, 49, 30, 19, 0, 23, 44, 0, 24, 5, 0, 12, 0, 41, 0, 0, 0, 0, 31, 0, 0
|42, 0, 29, 0, 0, 0, 47, 40, 0, 38, 25, 3, 0, 1, 0, 0, 18, 0, 0, 0, 0, 33, 5, 21, 37, 0, 9, 14, 27, 0, 0, 35, 39, 0, 0, 0, 11, 0, 0, 16, 0, 17, 48, 26, 20, 7, 0, 0, 23
|0, 45, 0, 21, 1, 0, 0, 30, 19, 0, 27, 0, 0, 34, 0, 35, 0, 0, 0, 0, 0, 0, 28, 0, 42, 0, 49, 0, 13, 0, 0, 16, 0, 9, 11, 37, 7, 26, 29, 18, 6, 46, 0, 0, 41, 10, 2, 0, 25
|0, 2, 19, 0, 0, 37, 7, 16, 22, 0, 43, 0, 0, 42, 10, 0, 0, 0, 11, 0, 0, 0, 0, 0, 1, 31, 0, 0, 20, 0, 0, 18, 0, 4, 0, 0, 30, 0, 0, 39, 0, 44, 0, 0, 0, 49, 33, 45, 29
|23, 0, 0, 31, 27, 0, 14, 44, 8, 47, 0, 0, 0, 0, 13, 0, 0, 6, 46, 0, 36, 22, 0, 32, 45, 0, 0, 0, 2, 0, 0, 33, 0, 0, 15, 0, 0, 0, 49, 48, 0, 40, 0, 30, 0, 0, 34, 12, 0
|6, 0, 0, 34, 26, 44, 0, 12, 35, 45, 48, 28, 7, 0, 0, 0, 2, 0, 31, 0, 0, 0, 3, 0, 25, 0, 0, 0, 43, 40, 0, 21, 24, 0, 0, 4, 22, 0, 23, 1, 0, 0, 16, 27, 5, 0, 18, 37, 8
|0, 0, 11, 8, 0, 0, 16, 41, 0, 46, 0, 0, 2, 13, 0, 0, 0, 0, 0, 0, 39, 0, 40, 0, 7, 23, 0, 0, 0, 0, 0, 6, 5, 0, 0, 10, 0, 0, 47, 0, 0, 0, 0, 0, 0, 19, 0, 0, 17
|49, 6, 3, 29, 47, 0, 42, 0, 0, 0, 46, 16, 27, 0, 0, 0, 0, 0, 30, 9, 31, 15, 4, 0, 0, 0, 20, 0, 7, 43, 0, 0, 0, 2, 0, 34, 0, 0, 0, 40, 21, 0, 0, 44, 38, 22, 0, 23, 32
|41, 22, 13, 0, 8, 25, 45, 39, 0, 11, 0, 0, 42, 15, 0, 49, 0, 0, 0, 29, 28, 26, 27, 5, 0, 6, 35, 48, 44, 34, 40, 10, 17, 0, 0, 0, 0, 18, 33, 0, 0, 0, 12, 0, 0, 0, 0, 4, 20
|35, 23, 0, 0, 11, 0, 33, 0, 0, 40, 0, 47, 49, 0, 0, 25, 0, 15, 4, 26, 5, 0, 0, 0, 0, 32, 14, 43, 0, 16, 20, 9, 6, 0, 0, 0, 27, 0, 22, 13, 31, 45, 34, 0, 0, 0, 0, 28, 0
|0, 24, 0, 14, 44, 0, 0, 0, 0, 0, 0, 0, 0, 0, 48, 0, 10, 41, 0, 1, 0, 42, 33, 16, 29, 0, 0, 0, 35, 15, 0, 0, 45, 0, 0, 0, 3, 6, 17, 0, 0, 9, 0, 0, 49, 25, 8, 18, 40
|0, 0, 0, 0, 0, 19, 1, 0, 43, 0, 12, 44, 23, 28, 45, 0, 0, 34, 0, 0, 17, 31, 0, 0, 0, 40, 0, 38, 22, 41, 11, 3, 26, 0, 0, 5, 0, 0, 2, 0, 0, 0, 0, 42, 0, 0, 0, 21, 33
|48, 17, 0, 0, 0, 0, 0, 0, 7, 0, 0, 0, 45, 0, 0, 0, 0, 0, 0, 20, 11, 0, 25, 47, 8, 0, 0, 1, 0, 27, 29, 0, 28, 13, 0, 46, 26, 49, 0, 0, 42, 24, 0, 0, 3, 14, 0, 0, 0
|5, 0, 0, 0, 0, 0, 15, 0, 38, 17, 32, 0, 0, 48, 43, 47, 0, 0, 0, 7, 27, 3, 24, 0, 0, 0, 0, 0, 0, 37, 0, 0, 0, 0, 0, 28, 20, 0, 25, 0, 0, 8, 45, 1, 0, 0, 0, 0, 30
|12, 0, 0, 0, 0, 48, 0, 10, 0, 44, 0, 0, 3, 45, 0, 0, 13, 27, 0, 0, 38, 0, 0, 0, 47, 0, 0, 0, 31, 0, 0, 0, 49, 0, 5, 0, 0, 0, 34, 0, 0, 0, 0, 0, 2, 4, 0, 29, 0
|2, 8, 0, 22, 0, 0, 4, 42, 0, 0, 0, 0, 0, 9, 5, 34, 0, 36, 0, 37, 21, 0, 32, 0, 17, 0, 11, 0, 15, 0, 3, 0, 33, 0, 0, 23, 38, 0, 6, 43, 46, 30, 27, 0, 18, 47, 0, 0, 48
|0, 0, 9, 11, 0, 28, 39, 0, 23, 0, 0, 0, 6, 25, 1, 0, 0, 12, 20, 0, 14, 0, 18, 0, 0, 0, 0, 0, 0, 0, 0, 17, 0, 0, 27, 33, 0, 0, 0, 0, 0, 0, 0, 0, 32, 0, 0, 0, 0
|13, 47, 44, 0, 0, 0, 30, 7, 0, 0, 0, 18, 43, 0, 0, 23, 31, 22, 0, 24, 0, 0, 21, 38, 40, 9, 28, 0, 0, 35, 4, 0, 0, 46, 45, 48, 0, 27, 15, 10, 14, 0, 0, 25, 0, 34, 42, 36, 5
|21, 32, 14, 0, 41, 0, 0, 22, 0, 0, 1, 4, 0, 0, 0, 0, 3, 11, 0, 33, 45, 0, 19, 35, 0, 2, 0, 0, 0, 0, 10, 0, 16, 38, 0, 0, 0, 0, 0, 0, 24, 0, 0, 0, 0, 0, 0, 0, 0
|1, 0, 0, 25, 0, 34, 0, 0, 0, 39, 0, 0, 21, 36, 0, 15, 41, 28, 35, 6, 16, 0, 45, 0, 26, 0, 43, 5, 0, 0, 0, 0, 12, 0, 0, 0, 0, 17, 0, 19, 3, 4, 0, 9, 0, 0, 7, 30, 0
|0, 0, 0, 23, 0, 16, 38, 0, 0, 5, 19, 26, 17, 0, 0, 0, 48, 0, 44, 30, 4, 0, 34, 0, 12, 3, 0, 0, 0, 9, 32, 20, 1, 0, 8, 11, 45, 0, 37, 0, 49, 25, 21, 13, 0, 0, 0, 0, 0
|0, 26, 0, 48, 16, 31, 18, 1, 0, 0, 37, 8, 38, 23, 0, 33, 0, 0, 21, 11, 0, 0, 43, 0, 41, 24, 10, 39, 0, 7, 9, 0, 42, 32, 22, 40, 0, 19, 0, 0, 27, 0, 0, 0, 28, 36, 29, 0, 35
|4, 38, 0, 6, 37, 0, 46, 0, 0, 2, 0, 49, 0, 24, 18, 10, 44, 43, 0, 0, 0, 21, 0, 0, 48, 16, 0, 7, 0, 0, 35, 0, 20, 17, 1, 42, 0, 13, 0, 0, 23, 26, 14, 0, 45, 12, 0, 39, 0
|24, 0, 45, 0, 0, 39, 0, 0, 0, 0, 3, 0, 46, 40, 0, 0, 0, 0, 47, 19, 0, 30, 26, 0, 34, 0, 0, 11, 0, 31, 0, 0, 0, 28, 0, 16, 29, 0, 44, 6, 0, 10, 0, 0, 25, 5, 38, 41, 22
|0, 12, 49, 0, 22, 23, 0, 47, 0, 42, 0, 0, 9, 0, 0, 31, 4, 0, 0, 3, 0, 0, 0, 25, 5, 44, 2, 0, 0, 30, 0, 0, 40, 15, 38, 0, 43, 28, 0, 0, 1, 7, 0, 46, 0, 13, 0, 0, 11
|44, 0, 0, 0, 19, 0, 29, 0, 33, 0, 7, 20, 5, 0, 35, 13, 0, 1, 0, 0, 23, 40, 8, 0, 3, 0, 32, 22, 14, 0, 39, 12, 27, 47, 2, 21, 0, 4, 45, 0, 0, 31, 24, 16, 26, 0, 48, 49, 15
|0, 0, 0, 15, 0, 36, 11, 18, 39, 4, 17, 0, 0, 0, 0, 0, 0, 5, 0, 0, 24, 0, 0, 0, 0, 0, 0, 49, 33, 0, 0, 0, 0, 43, 0, 22, 34, 48, 0, 3, 0, 0, 32, 2, 0, 9, 0, 7, 47
|7, 13, 0, 0, 0, 32, 0, 28, 45, 0, 22, 0, 48, 44, 16, 27, 8, 0, 0, 46, 40, 0, 15, 12, 0, 33, 0, 0, 5, 0, 0, 11, 0, 0, 26, 25, 0, 0, 0, 0, 37, 0, 0, 0, 0, 0, 0, 0, 1
|29, 0, 0, 46, 25, 41, 0, 45, 2, 33, 39, 0, 0, 0, 0, 0, 0, 4, 13, 0, 0, 0, 0, 0, 0, 27, 5, 0, 9, 47, 0, 43, 7, 0, 28, 0, 32, 0, 35, 17, 30, 16, 0, 23, 0, 11, 26, 0, 0
|43, 40, 6, 9, 0, 0, 8, 23, 15, 0, 13, 1, 0, 0, 31, 0, 0, 32, 0, 0, 42, 0, 41, 0, 0, 48, 44, 3, 0, 0, 16, 0, 18, 0, 17, 0, 25, 0, 19, 26, 0, 22, 0, 0, 0, 0, 0, 10, 45
|0, 0, 48, 42, 0, 0, 0, 20, 44, 0, 0, 0, 8, 3, 0, 0, 0, 0, 0, 0, 0, 17, 0, 0, 0, 0, 0, 0, 10, 0, 0, 0, 31, 0, 12, 47, 0, 0, 27, 0, 0, 0, 5, 0, 14, 30, 0, 0, 6
|14, 10, 0, 0, 0, 0, 26, 38, 24, 28, 6, 0, 32, 43, 11, 0, 22, 25, 41, 16, 0, 0, 0, 31, 9, 12, 0, 42, 30, 4, 27, 2, 34, 0, 0, 0, 44, 15, 1, 0, 18, 0, 40, 47, 0, 0, 0, 0, 0
|19, 0, 12, 16, 0, 0, 2, 0, 47, 31, 0, 0, 0, 22, 0, 21, 0, 10, 0, 0, 0, 37, 13, 26, 35, 4, 0, 0, 29, 0, 14, 0, 0, 0, 0, 0, 8, 0, 0, 0, 0, 0, 0, 18, 0, 0, 0, 9, 7
|3, 15, 0, 44, 24, 0, 22, 0, 0, 12, 18, 41, 40, 0, 0, 0, 30, 0, 5, 0, 29, 0, 0, 0, 0, 0, 0, 32, 0, 0, 6, 23, 21, 0, 0, 36, 2, 37, 7, 9, 0, 14, 0, 48, 0, 1, 4, 0, 0
|30, 0, 36, 0, 34, 1, 0, 0, 0, 0, 21, 19, 0, 0, 27, 3, 23, 0, 0, 39, 0, 46, 49, 0, 0, 45, 47, 0, 0, 33, 0, 0, 0, 37, 0, 24, 10, 20, 40, 42, 0, 0, 0, 0, 44, 0, 0, 0, 16
|0, 44, 42, 0, 29, 0, 36, 0, 13, 0, 10, 11, 0, 0, 0, 12, 26, 16, 0, 0, 20, 0, 2, 0, 14, 0, 0, 0, 0, 32, 43, 30, 0, 8, 0, 7, 1, 0, 0, 34, 0, 0, 0, 49, 0, 18, 5, 0, 21
|0, 0, 1, 26, 0, 20, 25, 0, 42, 7, 23, 27, 33, 8, 0, 0, 29, 19, 6, 0, 0, 10, 12, 0, 0, 0, 39, 18, 38, 0, 0, 0, 36, 44, 21, 30, 31, 16, 0, 47, 0, 43, 0, 3, 24, 45, 0, 14, 28
|0, 48, 30, 7, 13, 0, 28, 0, 0, 0, 0, 0, 0, 0, 0, 5, 0, 0, 45, 42, 0, 0, 0, 0, 6, 0, 0, 0, 0, 17, 24, 0, 3, 16, 0, 20, 0, 0, 4, 0, 0, 18, 46, 0, 0, 0, 0, 11, 0
|34, 0, 38, 0, 46, 0, 0, 48, 0, 22, 44, 0, 1, 0, 0, 0, 21, 0, 39, 18, 0, 0, 35, 0, 0, 0, 0, 0, 37, 11, 31, 0, 0, 0, 7, 49, 40, 12, 42, 27, 0, 29, 0, 0, 0, 17, 13, 25, 4
|18, 0, 0, 27, 0, 0, 0, 46, 41, 21, 45, 17, 0, 29, 4, 11, 0, 48, 0, 0, 10, 0, 30, 0, 16, 0, 1, 34, 12, 0, 2, 42, 9, 5, 20, 0, 23, 32, 28, 0, 44, 6, 0, 8, 36, 0, 47, 38, 0
|0, 33, 0, 19, 39, 14, 21, 5, 0, 0, 34, 38, 16, 49, 23, 0, 0, 31, 0, 13, 44, 32, 7, 8, 0, 41, 42, 0, 0, 0, 18, 1, 0, 6, 0, 0, 9, 0, 0, 24, 0, 0, 20, 0, 30, 0, 40, 22, 0
|0, 0, 16, 0, 32, 2, 6, 0, 0, 3, 20, 40, 0, 0, 0, 0, 47, 0, 9, 0, 49, 25, 0, 13, 24, 43, 48, 0, 39, 45, 0, 0, 19, 0, 23, 38, 21, 0, 36, 0, 0, 15, 0, 10, 0, 35, 0, 0, 34|];