order = 7;
grid = [|20, 16, 0, 4, 41, 0, 0, 0, 0, 0, 0, 0, 0, 0, 0, 11, 0, 0, 32, 29, 26, 0, 0, 43, 0, 49, 23, 0, 0, 0, 39, 8, 12, 46, 31, 13, 0, 0, 38, 48, 0, 15, 36, 40, 0, 0, 3, 33, 45
|0, 0, 0, 27, 0, 10, 0, 48, 8, 32, 0, 0, 12, 0, 0, 19, 31, 15, 16, 0, 40, 41, 37, 13, 36, 0, 0, 17, 0, 0, 4, 0, 44, 0, 0, 7, 0, 3, 25, 11, 0, 0, 5, 30, 0, 0, 42, 6, 14
|13, 32, 6, 0, 14, 0, 42, 0, 29, 10, 22, 2, 31, 0, 0, 47, 49, 0, 30, 24, 0, 39, 0, 0, 35, 0, 3, 0, 15, 0, 0, 27, 0, 19, 40, 44, 0, 41, 0, 12, 18, 1, 0, 0, 25, 9, 0, 43, 0
|22, 0, 0, 11, 0, 0, 0, 0, 0, 47, 0, 43, 28, 0, 44, 37, 25, 0, 0, 33, 1, 15, 10, 0, 0, 0, 0, 0, 0, 16, 13, 0, 0, 0, 7, 40, 0, 46, 0, 21, 0, 4, 0, 0, 24, 39, 0, 48, 0
|3, 17, 40, 47, 48, 0, 0, 34, 49, 46, 45, 26, 15, 0, 0, 41, 0, 0, 0, 14, 27, 33, 0, 28, 0, 11, 24, 0, 0, 0, 42, 36, 0, 10, 0, 6, 0, 35, 16, 0, 19, 20, 0, 0, 4, 2, 13, 0, 22
|0, 0, 33, 0, 29, 0, 23, 6, 14, 0, 11, 3, 16, 25, 13, 7, 0, 43, 22, 0, 45, 0, 0, 0, 0, 0, 0, 0, 0, 0, 0, 47, 0, 0, 0, 0, 0, 0, 49, 0, 0, 30, 20, 18, 44, 0, 0, 0, 0
|0, 0, 0, 21, 7, 0, 0, 0, 0, 24, 40, 1, 0, 42, 0, 0, 0, 0, 2, 28, 0, 0, 0, 32, 0, 20, 0, 8, 0, 0, 6, 30, 49, 34, 0, 0, 0, 27, 10, 45, 0, 0, 0, 0, 0, 41, 37, 0, 0
|0, 0, 0, 36, 0, 0, 30, 0, 0, 0, 34, 13, 0, 0, 46, 0, 44, 0, 17, 9, 49, 0, 0, 0, 12, 31, 22, 24, 0, 0, 37, 3, 0, 0, 0, 39, 0, 0, 0, 25, 14, 0, 10, 32, 0, 0, 19, 0, 29
|10, 0, 26, 0, 0, 0, 0, 0, 0, 6, 0, 0, 1, 0, 21, 0, 34, 2, 0, 0, 0, 0, 0, 0, 25, 4, 49, 0, 46, 0, 44, 5, 0, 16, 0, 17, 0, 0, 35, 0, 20, 3, 39, 28, 48, 0, 36, 8, 0
|0, 0, 0, 0, 24, 31, 0, 0, 0, 0, 28, 49, 0, 0, 0, 38, 42, 0, 0, 15, 0, 0, 8, 0, 0, 7, 0, 0, 39, 0, 19, 17, 0, 45, 0, 12, 22, 0, 0, 0, 10, 0, 0, 6, 3, 0, 44, 0, 33
|0, 18, 0, 16, 0, 48, 8, 0, 10, 0, 3, 0, 29, 41, 0, 0, 0, 0, 4, 5, 36, 0, 0, 26, 0, 0, 0, 34, 0, 0, 40, 32, 24, 0, 0, 0, 0, 0, 28, 0, 0, 19, 0, 0, 0, 15, 17, 12, 1
|0, 34, 0, 28, 0, 0, 15, 0, 0, 12, 31, 0, 36, 35, 0, 0, 0, 24, 0, 0, 0, 0, 17, 0, 0, 0, 44, 39, 27, 0, 11, 0, 14, 13, 10, 0, 4, 8, 43, 37, 0, 45, 0, 0, 7, 49, 0, 2, 5
|0, 29, 0, 0, 33, 0, 6, 24, 0, 37, 39, 17, 48, 44, 32, 0, 3, 0, 0, 0, 28, 0, 11, 1, 9, 2, 0, 0, 0, 26, 49, 0, 43, 0, 30, 0, 7, 47, 0, 18, 34, 0, 0, 0, 46, 0, 0, 35, 0
|0, 0, 0, 0, 47, 35, 0, 18, 26, 14, 0, 16, 19, 0, 0, 13, 0, 8, 40, 39, 31, 3, 0, 10, 0, 6, 0, 0, 12, 38, 22, 0, 33, 28, 9, 2, 49, 30, 42, 0, 36, 29, 11, 0, 0, 0, 0, 0, 37
|0, 0, 27, 0, 3, 18, 0, 45, 35, 48, 13, 41, 23, 16, 0, 36, 4, 0, 0, 42, 0, 34, 22, 15, 8, 0, 0, 26, 28, 44, 25, 0, 0, 14, 0, 24, 12, 39, 6, 0, 1, 0, 46, 0, 33, 7, 49, 0, 0
|33, 0, 0, 5, 0, 0, 0, 0, 44, 0, 38, 20, 0, 3, 31, 45, 0, 0, 0, 0, 15, 0, 35, 0, 32, 0, 0, 43, 0, 46, 12, 49, 39, 24, 47, 0, 0, 4, 0, 0, 0, 34, 42, 0, 0, 0, 0, 22, 0
|45, 44, 0, 25, 23, 30, 47, 33, 24, 15, 29, 5, 0, 0, 3, 0, 10, 41, 46, 35, 0, 0, 39, 0, 0, 0, 12, 0, 34, 0, 20, 40, 6, 0, 0, 22, 0, 0, 14, 0, 0, 0, 48, 11, 17, 37, 0, 16, 0
|0, 0, 21, 32, 0, 0, 0, 49, 25, 7, 0, 14, 46, 43, 19, 26, 0, 0, 0, 34, 29, 38, 0, 31, 0, 23, 0, 0, 33, 4, 15, 11, 0, 0, 1, 0, 35, 28, 0, 0, 5, 40, 0, 0, 8, 44, 0, 0, 0
|7, 0, 0, 0, 0, 0, 43, 0, 19, 0, 42, 40, 0, 34, 24, 49, 48, 0, 0, 44, 21, 37, 3, 0, 28, 0, 0, 33, 13, 27, 0, 0, 8, 26, 38, 0, 36, 29, 2, 0, 0, 11, 45, 0, 0, 35, 0, 14, 0
|26, 0, 22, 0, 39, 0, 0, 4, 12, 0, 27, 0, 6, 0, 0, 0, 0, 30, 25, 0, 14, 0, 0, 5, 0, 24, 0, 10, 36, 41, 17, 45, 0, 37, 0, 46, 0, 18, 21, 23, 0, 33, 0, 3, 1, 43, 0, 0, 15
|0, 0, 24, 0, 20, 16, 0, 10, 17, 0, 36, 11, 0, 0, 0, 0, 0, 12, 0, 0, 0, 0, 46, 9, 21, 14, 45, 0, 3, 42, 43, 7, 0, 22, 0, 0, 44, 0, 15, 0, 0, 38, 0, 0, 6, 0, 0, 0, 34
|36, 0, 43, 0, 0, 0, 20, 22, 0, 31, 21, 29, 35, 49, 0, 0, 0, 14, 0, 0, 0, 11, 0, 0, 0, 0, 8, 4, 0, 0, 0, 0, 10, 32, 44, 0, 25, 19, 17, 47, 0, 24, 15, 0, 0, 0, 7, 46, 0
|2, 0, 7, 3, 0, 9, 33, 0, 39, 8, 43, 0, 5, 0, 0, 48, 0, 0, 0, 31, 0, 0, 0, 0, 0, 0, 19, 0, 0, 0, 0, 0, 0, 0, 12, 0, 0, 15, 34, 35, 0, 6, 0, 1, 10, 0, 0, 0, 44
|44, 0, 0, 14, 8, 0, 13, 0, 18, 40, 0, 0, 0, 38, 16, 0, 0, 0, 20, 0, 0, 31, 0, 23, 27, 0, 35, 0, 1, 0, 0, 0, 17, 0, 42, 49, 48, 33, 7, 43, 0, 0, 0, 0, 19, 36, 0, 24, 0
|46, 39, 0, 0, 0, 0, 0, 44, 0, 25, 0, 0, 27, 0, 0, 0, 0, 10, 49, 0, 23, 1, 36, 0, 43, 0, 41, 28, 5, 0, 0, 0, 45, 6, 14, 11, 31, 38, 29, 0, 37, 42, 17, 0, 0, 4, 20, 13, 0
|0, 0, 11, 0, 1, 24, 0, 0, 0, 3, 46, 0, 7, 0, 45, 17, 21, 5, 0, 25, 44, 0, 38, 20, 0, 48, 0, 0, 9, 0, 0, 0, 0, 49, 4, 0, 0, 0, 26, 0, 12, 0, 0, 42, 40, 0, 0, 27, 0
|28, 49, 16, 0, 0, 47, 27, 0, 0, 0, 1, 0, 0, 0, 11, 0, 13, 9, 0, 0, 0, 0, 0, 7, 18, 0, 0, 21, 19, 0, 0, 0, 48, 0, 39, 0, 0, 0, 0, 4, 40, 0, 29, 0, 23, 0, 0, 3, 0
|25, 0, 0, 0, 31, 0, 35, 13, 37, 34, 15, 4, 0, 0, 12, 0, 29, 22, 7, 0, 38, 10, 30, 39, 0, 0, 17, 49, 43, 47, 28, 0, 16, 0, 0, 27, 9, 0, 5, 0, 8, 0, 0, 0, 0, 0, 45, 0, 0
|47, 31, 13, 0, 36, 0, 46, 0, 28, 0, 37, 0, 42, 0, 0, 12, 23, 49, 21, 48, 5, 0, 1, 0, 19, 30, 15, 0, 0, 40, 8, 0, 26, 44, 0, 29, 34, 0, 0, 3, 4, 0, 0, 0, 0, 33, 0, 9, 0
|0, 20, 15, 48, 0, 25, 49, 0, 5, 0, 6, 0, 0, 0, 0, 28, 35, 0, 0, 0, 24, 16, 26, 3, 0, 0, 0, 0, 10, 0, 14, 34, 47, 0, 0, 0, 0, 0, 44, 8, 0, 0, 0, 0, 41, 29, 31, 23, 0
|41, 24, 0, 33, 32, 42, 0, 0, 46, 0, 12, 34, 0, 0, 43, 10, 0, 0, 31, 0, 9, 4, 45, 47, 23, 0, 0, 29, 6, 0, 0, 0, 11, 0, 0, 26, 0, 0, 22, 40, 39, 17, 3, 0, 0, 19, 5, 0, 27
|30, 21, 0, 19, 0, 22, 0, 31, 20, 0, 0, 0, 0, 40, 0, 25, 11, 32, 0, 0, 0, 0, 0, 27, 5, 0, 18, 42, 48, 39, 16, 29, 0, 4, 36, 23, 0, 0, 9, 0, 35, 0, 0, 0, 0, 12, 0, 7, 26
|0, 0, 14, 0, 38, 0, 0, 9, 4, 0, 41, 0, 3, 29, 40, 34, 15, 39, 8, 0, 0, 0, 0, 0, 33, 0, 0, 46, 20, 17, 0, 25, 13, 0, 5, 30, 2, 0, 47, 0, 31, 32, 0, 0, 22, 0, 0, 0, 49
|0, 6, 0, 39, 26, 17, 28, 0, 0, 0, 0, 0, 32, 0, 0, 44, 41, 27, 0, 0, 0, 49, 2, 22, 0, 0, 40, 9, 0, 0, 24, 19, 23, 21, 46, 36, 45, 0, 0, 0, 13, 0, 0, 0, 38, 0, 0, 11, 0
|1, 3, 8, 40, 43, 12, 0, 19, 0, 13, 0, 27, 0, 0, 14, 0, 26, 0, 0, 0, 42, 0, 34, 0, 10, 0, 20, 0, 32, 0, 0, 31, 0, 0, 0, 15, 11, 5, 33, 41, 6, 0, 0, 17, 0, 30, 0, 47, 0
|6, 0, 45, 0, 0, 19, 36, 32, 21, 0, 0, 8, 2, 0, 0, 0, 39, 0, 0, 40, 12, 43, 0, 41, 0, 0, 0, 16, 49, 5, 0, 0, 0, 0, 24, 0, 0, 23, 0, 28, 0, 48, 47, 0, 0, 0, 0, 0, 0
|29, 13, 0, 0, 0, 14, 48, 0, 3, 4, 0, 38, 47, 12, 0, 0, 24, 36, 0, 0, 7, 0, 33, 11, 17, 10, 9, 0, 0, 28, 35, 44, 22, 20, 45, 0, 0, 0, 18, 0, 0, 0, 0, 0, 2, 1, 16, 0, 43
|37, 0, 0, 0, 44, 0, 0, 39, 41, 36, 0, 24, 0, 0, 25, 42, 16, 0, 0, 0, 0, 20, 48, 0, 30, 38, 0, 3, 40, 19, 0, 9, 2, 1, 0, 47, 0, 26, 8, 0, 0, 35, 0, 0, 0, 0, 0, 0, 7
|0, 9, 32, 1, 40, 41, 39, 29, 0, 45, 44, 25, 0, 0, 49, 0, 37, 46, 0, 0, 0, 12, 0, 0, 2, 28, 47, 19, 4, 0, 0, 0, 0, 0, 0, 3, 0, 0, 30, 0, 38, 0, 0, 0, 35, 0, 24, 0, 13
|0, 11, 0, 0, 21, 7, 16, 15, 9, 42, 14, 0, 26, 0, 0, 0, 0, 0, 0, 38, 0, 22, 32, 0, 0, 0, 0, 0, 37, 34, 0, 0, 0, 41, 0, 0, 20, 0, 0, 5, 33, 12, 4, 23, 0, 0, 10, 36, 46
|0, 0, 20, 0, 0, 0, 0, 0, 40, 33, 0, 0, 0, 48, 0, 0, 0, 47, 15, 0, 35, 0, 0, 21, 0, 0, 0, 1, 0, 8, 0, 39, 0, 0, 0, 0, 10, 9, 0, 0, 24, 0, 41, 44, 0, 27, 0, 0, 0
|24, 22, 0, 0, 0, 23, 38, 0, 0, 20, 30, 19, 0, 1, 9, 5, 0, 0, 13, 21, 0, 0, 49, 40, 0, 36, 0, 44, 14, 32, 10, 12, 0, 0, 0, 16, 0, 11, 0, 0, 17, 0, 25, 33, 0, 3, 48, 39, 8
|39, 40, 0, 43, 0, 0, 1, 21, 34, 18, 8, 0, 25, 0, 7, 32, 0, 29, 0, 0, 0, 17, 0, 44, 0, 0, 5, 35, 0, 3, 47, 48, 0, 0, 37, 38, 0, 10, 4, 0, 0, 0, 33, 14, 26, 20, 28, 15, 0
|14, 47, 0, 38, 16, 26, 0, 0, 30, 0, 48, 0, 0, 0, 8, 0, 0, 0, 41, 36, 46, 2, 0, 0, 3, 1, 33, 0, 35, 10, 0, 24, 0, 5, 15, 0, 18, 0, 40, 29, 9, 0, 43, 39, 31, 11, 0, 0, 42
|19, 46, 36, 41, 0, 0, 22, 0, 1, 27, 0, 7, 10, 0, 0, 39, 0, 0, 34, 0, 0, 0, 0, 42, 0, 0, 0, 38, 0, 20, 18, 0, 40, 23, 0, 5, 26, 12, 13, 33, 43, 0, 0, 48, 21, 47, 0, 25, 0
|0, 0, 30, 0, 0, 0, 0, 40, 43, 0, 4, 0, 33, 0, 26, 24, 5, 0, 0, 49, 25, 0, 0, 0, 41, 32, 11, 6, 0, 0, 0, 28, 46, 39, 16, 0, 19, 0, 27, 0, 0, 47, 0, 0, 12, 0, 0, 34, 10
|18, 0, 0, 29, 37, 0, 31, 14, 0, 0, 0, 0, 0, 13, 0, 0, 9, 0, 0, 0, 43, 0, 16, 4, 48, 0, 10, 0, 0, 0, 0, 0, 25, 11, 19, 0, 0, 36, 0, 0, 21, 0, 49, 0, 0, 0, 8, 0, 0
|48, 0, 34, 24, 0, 0, 5, 3, 31, 0, 0, 39, 0, 0, 0, 0, 0, 35, 0, 22, 0, 36, 0, 14, 0, 43, 0, 0, 30, 0, 33, 0, 4, 0, 0, 0, 15, 0, 20, 44, 45, 0, 0, 0, 0, 16, 0, 1, 41
|0, 0, 0, 44, 35, 28, 0, 36, 0, 5, 0, 22, 9, 24, 20, 0, 0, 0, 14, 0, 0, 23, 31, 0, 0, 8, 39, 0, 0, 13, 7, 26, 21, 0, 49, 34, 0, 16, 11, 1, 42, 0, 0, 46, 0, 0, 4, 0, 17|];