order = 7;
grid = [|0, 18, 14, 46, 0, 48, 39, 0, 0, 0, 0, 28, 0, 0, 0, 0, 25, 0, 5, 36, 11, 1, 38, 0, 30, 0, 15, 0, 43, 24, 0, 3, 2, 0, 31, 0, 34, 0, 0, 0, 10, 40, 0, 0, 42, 0, 49, 26, 16
|6, 0, 35, 0, 0, 0, 0, 2, 18, 0, 0, 42, 0, 0, 28, 40, 13, 49, 27, 0, 0, 0, 0, 21, 12, 0, 10, 0, 0, 8, 0, 0, 37, 23, 0, 0, 45, 0, 38, 0, 36, 0, 41, 43, 3, 22, 0, 19, 7
|0, 0, 19, 0, 44, 3, 45, 48, 43, 0, 0, 0, 36, 0, 22, 0, 26, 41, 0, 0, 30, 23, 0, 0, 9, 39, 0, 0, 0, 0, 25, 0, 38, 6, 35, 0, 18, 11, 0, 0, 2, 17, 0, 0, 0, 20, 21, 0, 14
|0, 47, 43, 4, 32, 0, 0, 1, 11, 7, 0, 24, 0, 0, 16, 0, 0, 0, 31, 6, 19, 0, 42, 36, 34, 0, 8, 0, 22, 0, 0, 0, 26, 17, 0, 14, 0, 20, 39, 33, 0, 41, 38, 0, 9, 0, 0, 25, 0
|0, 37, 0, 22, 0, 7, 0, 15, 34, 38, 6, 0, 26, 0, 0, 0, 0, 29, 23, 1, 3, 0, 49, 2, 40, 0, 0, 0, 0, 0, 0, 0, 0, 0, 0, 24, 0, 19, 0, 0, 0, 0, 17, 0, 0, 18, 33, 32, 0
|0, 0, 0, 1, 0, 0, 41, 30, 0, 0, 47, 0, 0, 0, 0, 7, 0, 20, 0, 0, 0, 19, 48, 18, 0, 14, 0, 22, 11, 0, 0, 0, 0, 13, 16, 0, 8, 0, 0, 0, 49, 12, 0, 10, 0, 44, 0, 0, 0
|15, 49, 9, 0, 0, 0, 38, 0, 31, 14, 22, 35, 8, 0, 0, 21, 43, 37, 0, 0, 4, 41, 0, 27, 0, 0, 0, 0, 33, 39, 18, 0, 0, 1, 12, 26, 0, 13, 0, 0, 0, 0, 0, 0, 30, 11, 0, 0, 0
|20, 9, 18, 3, 0, 32, 0, 0, 10, 0, 0, 45, 0, 42, 0, 23, 1, 0, 0, 47, 12, 11, 44, 13, 15, 0, 0, 29, 0, 49, 0, 0, 0, 33, 26, 0, 22, 0, 37, 6, 31, 35, 0, 21, 38, 0, 16, 46, 41
|0, 0, 0, 31, 0, 0, 28, 32, 16, 0, 0, 46, 44, 17, 49, 20, 4, 0, 33, 5, 0, 0, 0, 0, 8, 24, 0, 0, 0, 34, 37, 45, 0, 0, 41, 19, 2, 7, 29, 0, 0, 0, 0, 0, 23, 0, 0, 0, 25
|40, 0, 7, 34, 16, 41, 22, 0, 0, 8, 0, 14, 27, 0, 0, 0, 39, 0, 21, 37, 24, 0, 0, 0, 38, 0, 31, 0, 6, 0, 36, 0, 19, 5, 0, 46, 25, 23, 0, 42, 33, 47, 0, 45, 11, 4, 48, 15, 3
|25, 0, 2, 0, 0, 47, 0, 33, 0, 0, 37, 0, 0, 36, 0, 0, 0, 19, 22, 0, 28, 0, 0, 0, 16, 0, 42, 0, 0, 0, 0, 0, 1, 40, 46, 0, 17, 44, 0, 0, 0, 14, 0, 32, 10, 12, 31, 0, 49
|0, 24, 0, 5, 0, 0, 0, 0, 0, 43, 0, 38, 0, 0, 0, 16, 0, 14, 0, 29, 0, 27, 0, 0, 0, 0, 0, 1, 17, 22, 0, 0, 21, 32, 0, 30, 0, 10, 11, 0, 4, 0, 0, 0, 44, 2, 26, 39, 0
|21, 14, 1, 44, 0, 0, 0, 0, 41, 47, 0, 0, 18, 11, 13, 0, 40, 36, 35, 0, 25, 46, 0, 33, 22, 0, 0, 10, 0, 0, 0, 0, 23, 31, 0, 0, 0, 0, 0, 12, 0, 32, 0, 0, 0, 0, 0, 0, 28
|37, 4, 0, 33, 29, 0, 43, 0, 23, 0, 0, 3, 20, 40, 46, 0, 42, 44, 15, 0, 0, 0, 21, 0, 36, 32, 47, 34, 0, 0, 48, 0, 12, 0, 0, 0, 27, 0, 0, 0, 1, 5, 0, 0, 17, 14, 8, 0, 0
|18, 12, 16, 0, 11, 30, 42, 0, 47, 33, 5, 0, 0, 0, 0, 45, 0, 0, 46, 9, 27, 0, 0, 8, 0, 38, 0, 0, 28, 19, 0, 26, 22, 0, 23, 0, 0, 0, 17, 0, 0, 0, 10, 49, 36, 0, 44, 2, 0
|0, 1, 0, 6, 3, 0, 25, 46, 0, 0, 18, 0, 28, 0, 0, 0, 0, 0, 0, 20, 0, 21, 0, 22, 0, 0, 0, 15, 0, 0, 0, 32, 40, 2, 0, 35, 14, 0, 0, 10, 12, 0, 0, 8, 34, 42, 9, 23, 24
|0, 0, 44, 10, 45, 36, 0, 19, 3, 0, 15, 4, 0, 0, 11, 12, 2, 0, 0, 0, 31, 32, 26, 14, 0, 0, 0, 24, 1, 0, 0, 0, 0, 0, 0, 0, 0, 42, 5, 0, 0, 38, 35, 0, 0, 17, 0, 0, 39
|4, 0, 20, 49, 35, 0, 37, 0, 17, 0, 0, 0, 32, 44, 25, 0, 22, 10, 28, 7, 21, 33, 0, 42, 31, 0, 23, 48, 38, 6, 15, 12, 13, 0, 0, 0, 46, 0, 0, 19, 16, 26, 14, 0, 0, 0, 45, 0, 0
|0, 0, 0, 0, 0, 28, 0, 0, 48, 0, 35, 27, 39, 14, 8, 13, 17, 30, 0, 26, 0, 29, 0, 0, 0, 43, 4, 0, 0, 0, 16, 33, 36, 41, 0, 0, 11, 31, 0, 9, 37, 0, 0, 0, 0, 0, 46, 1, 18
|0, 32, 0, 0, 0, 0, 33, 20, 38, 42, 0, 0, 0, 0, 36, 0, 0, 0, 0, 43, 0, 40, 47, 1, 0, 0, 0, 25, 0, 0, 0, 0, 0, 3, 18, 0, 24, 0, 0, 45, 0, 28, 48, 19, 16, 27, 0, 11, 4
|43, 0, 0, 19, 17, 0, 0, 37, 40, 2, 0, 23, 0, 0, 0, 4, 0, 1, 18, 15, 0, 49, 0, 44, 28, 0, 0, 0, 46, 0, 0, 0, 20, 8, 0, 0, 33, 25, 0, 34, 0, 6, 0, 0, 0, 30, 0, 0, 13
|0, 0, 0, 42, 48, 22, 14, 11, 0, 0, 0, 1, 7, 0, 0, 0, 0, 43, 0, 40, 0, 38, 0, 15, 0, 49, 35, 0, 0, 12, 21, 18, 0, 44, 2, 4, 13, 0, 25, 0, 47, 0, 23, 0, 5, 32, 0, 33, 0
|0, 35, 23, 0, 5, 0, 0, 44, 8, 46, 36, 0, 40, 37, 0, 31, 0, 0, 39, 27, 0, 10, 0, 47, 0, 22, 0, 0, 19, 30, 34, 0, 45, 14, 0, 33, 0, 3, 12, 28, 0, 11, 0, 42, 15, 38, 43, 0, 0
|33, 2, 0, 0, 0, 43, 44, 0, 0, 0, 20, 0, 24, 0, 0, 28, 0, 0, 13, 35, 49, 7, 0, 6, 21, 0, 27, 46, 0, 23, 38, 42, 11, 0, 0, 0, 0, 37, 0, 36, 0, 0, 4, 0, 29, 47, 14, 0, 0
|31, 7, 0, 30, 0, 0, 16, 27, 19, 0, 38, 22, 0, 4, 0, 6, 24, 11, 0, 32, 14, 13, 0, 0, 0, 23, 0, 0, 37, 0, 28, 17, 47, 39, 0, 42, 0, 26, 10, 48, 0, 0, 0, 9, 0, 8, 0, 0, 0
|49, 0, 0, 0, 39, 11, 24, 0, 0, 17, 0, 33, 0, 5, 42, 0, 0, 0, 0, 0, 45, 0, 30, 0, 48, 12, 20, 28, 0, 3, 0, 8, 0, 22, 0, 21, 1, 0, 0, 14, 15, 0, 34, 0, 0, 0, 0, 37, 44
|9, 40, 12, 0, 10, 0, 27, 0, 0, 35, 28, 15, 0, 2, 0, 5, 0, 0, 26, 30, 23, 8, 11, 0, 33, 34, 37, 14, 0, 0, 32, 0, 0, 49, 0, 45, 20, 0, 7, 46, 38, 0, 39, 0, 0, 0, 0, 13, 48
|3, 0, 0, 0, 0, 19, 17, 21, 0, 10, 0, 34, 9, 0, 38, 0, 33, 0, 0, 8, 41, 0, 1, 0, 0, 18, 25, 42, 0, 0, 0, 35, 15, 0, 0, 49, 6, 2, 43, 0, 23, 0, 30, 20, 26, 7, 22, 0, 0
|0, 30, 5, 7, 0, 0, 0, 14, 20, 0, 39, 36, 2, 21, 19, 10, 44, 33, 24, 16, 46, 0, 12, 34, 18, 0, 0, 41, 0, 0, 8, 13, 43, 45, 0, 0, 23, 48, 42, 0, 27, 1, 0, 22, 0, 0, 6, 0, 29
|28, 0, 0, 35, 0, 0, 3, 0, 32, 40, 12, 18, 47, 15, 1, 0, 0, 45, 0, 0, 7, 17, 0, 0, 0, 0, 19, 0, 0, 2, 0, 16, 0, 36, 0, 0, 0, 0, 14, 31, 34, 13, 0, 0, 0, 10, 37, 48, 46
|0, 22, 0, 37, 0, 14, 34, 0, 0, 41, 4, 0, 0, 0, 0, 0, 21, 47, 0, 0, 36, 0, 0, 0, 0, 20, 46, 0, 42, 0, 44, 5, 0, 27, 17, 12, 49, 0, 0, 0, 0, 39, 0, 23, 0, 45, 40, 0, 0
|0, 36, 41, 16, 9, 0, 0, 8, 37, 0, 0, 0, 0, 0, 43, 0, 27, 0, 49, 0, 0, 48, 23, 0, 0, 47, 32, 39, 29, 0, 0, 46, 0, 0, 40, 0, 0, 0, 26, 0, 6, 0, 21, 1, 12, 0, 0, 44, 17
|0, 27, 0, 0, 33, 42, 1, 0, 0, 16, 17, 13, 0, 0, 35, 30, 0, 26, 0, 0, 48, 36, 0, 0, 0, 0, 7, 0, 20, 0, 6, 37, 0, 0, 0, 0, 44, 0, 0, 15, 0, 0, 28, 0, 19, 0, 0, 4, 43
|0, 0, 0, 0, 0, 15, 13, 22, 27, 23, 0, 0, 46, 0, 37, 42, 41, 8, 38, 0, 0, 16, 0, 25, 26, 28, 0, 0, 49, 0, 39, 0, 0, 0, 0, 17, 0, 47, 0, 7, 43, 9, 36, 0, 0, 34, 0, 0, 32
|19, 0, 46, 21, 43, 0, 6, 0, 26, 29, 0, 44, 48, 0, 0, 0, 15, 0, 0, 31, 20, 0, 0, 0, 42, 13, 1, 45, 14, 18, 0, 0, 0, 0, 0, 10, 36, 28, 0, 3, 0, 37, 27, 35, 0, 49, 0, 16, 47
|0, 6, 39, 0, 0, 0, 0, 36, 5, 0, 9, 8, 30, 0, 0, 22, 0, 0, 29, 0, 43, 0, 0, 0, 0, 0, 44, 3, 0, 32, 40, 31, 0, 25, 15, 0, 37, 0, 0, 0, 20, 0, 0, 0, 0, 0, 0, 0, 1
|0, 16, 0, 9, 0, 8, 10, 0, 45, 31, 1, 0, 19, 0, 34, 0, 0, 0, 2, 42, 0, 0, 0, 49, 0, 0, 36, 33, 0, 0, 26, 0, 6, 24, 0, 15, 48, 46, 0, 0, 5, 4, 7, 0, 0, 0, 11, 0, 12
|0, 11, 0, 18, 0, 37, 0, 7, 0, 0, 3, 0, 21, 0, 0, 35, 0, 0, 1, 0, 44, 15, 27, 28, 0, 0, 2, 40, 48, 41, 0, 0, 0, 0, 45, 36, 0, 0, 19, 0, 0, 29, 0, 0, 0, 0, 0, 5, 30
|17, 0, 30, 43, 0, 0, 31, 4, 0, 15, 10, 2, 16, 32, 0, 0, 0, 0, 0, 0, 0, 0, 41, 38, 0, 0, 0, 12, 47, 46, 27, 0, 18, 0, 11, 40, 0, 22, 35, 1, 42, 0, 44, 0, 0, 0, 34, 0, 36
|22, 3, 32, 15, 49, 44, 0, 0, 35, 25, 43, 17, 0, 0, 40, 19, 0, 5, 0, 0, 0, 0, 8, 7, 46, 1, 0, 37, 30, 0, 0, 0, 0, 34, 0, 0, 10, 0, 24, 26, 0, 27, 47, 4, 0, 0, 0, 31, 0
|29, 45, 28, 36, 0, 0, 4, 47, 46, 0, 0, 0, 0, 23, 41, 24, 49, 0, 0, 0, 16, 0, 34, 0, 0, 31, 0, 35, 0, 0, 1, 14, 0, 42, 0, 0, 0, 0, 0, 44, 3, 30, 0, 33, 48, 40, 20, 22, 8
|0, 0, 13, 0, 0, 0, 35, 40, 44, 0, 42, 0, 0, 24, 0, 0, 0, 46, 0, 0, 0, 0, 0, 10, 5, 0, 22, 0, 0, 0, 0, 0, 7, 0, 8, 47, 0, 0, 49, 0, 25, 23, 0, 0, 0, 15, 17, 14, 38
|39, 0, 17, 11, 24, 33, 0, 10, 0, 37, 0, 47, 0, 0, 23, 0, 0, 0, 20, 45, 0, 0, 46, 32, 27, 0, 0, 30, 31, 14, 0, 41, 8, 0, 0, 28, 0, 34, 1, 13, 0, 21, 12, 15, 0, 0, 25, 3, 0
|0, 0, 0, 0, 0, 27, 0, 0, 0, 21, 0, 39, 0, 31, 32, 0, 0, 0, 40, 19, 29, 47, 0, 16, 23, 36, 0, 0, 12, 38, 0, 6, 0, 15, 0, 0, 0, 49, 0, 11, 0, 0, 0, 37, 0, 0, 0, 0, 20
|44, 0, 45, 20, 0, 2, 0, 0, 0, 1, 34, 48, 0, 46, 33, 11, 0, 24, 0, 3, 47, 0, 0, 17, 7, 5, 39, 8, 26, 0, 23, 25, 35, 21, 32, 0, 19, 0, 31, 37, 40, 10, 0, 16, 0, 0, 41, 0, 27
|35, 0, 37, 41, 26, 34, 0, 0, 28, 0, 0, 19, 14, 0, 31, 1, 12, 0, 0, 0, 15, 42, 24, 0, 49, 21, 13, 0, 0, 5, 11, 36, 0, 0, 0, 0, 0, 17, 0, 23, 0, 0, 33, 0, 0, 0, 29, 0, 0
|36, 21, 47, 0, 46, 6, 18, 16, 49, 0, 8, 0, 35, 33, 30, 0, 0, 42, 0, 39, 37, 0, 0, 0, 0, 0, 38, 0, 0, 0, 0, 1, 34, 28, 0, 32, 4, 0, 3, 25, 0, 0, 0, 0, 14, 43, 23, 0, 19
|0, 0, 0, 8, 4, 10, 49, 23, 0, 0, 0, 0, 17, 0, 0, 0, 28, 0, 16, 48, 0, 3, 33, 0, 41, 6, 0, 31, 45, 0, 0, 0, 44, 43, 0, 0, 7, 0, 0, 0, 39, 0, 0, 0, 0, 26, 36, 0, 0
|0, 0, 0, 0, 40, 12, 0, 5, 2, 26, 11, 0, 0, 27, 14, 0, 35, 21, 0, 0, 22, 0, 20, 0, 1, 0, 28, 19, 24, 0, 33, 0, 39, 0, 47, 0, 38, 36, 0, 30, 45, 42, 32, 44, 18, 13, 7, 6, 34|];