order = 7;
grid = [|7, 0, 31, 28, 0, 36, 15, 18, 6, 0, 0, 3, 0, 23, 0, 0, 27, 26, 0, 0, 0, 0, 35, 0, 0, 19, 0, 30, 8, 0, 0, 0, 1, 4, 34, 0, 0, 29, 0, 40, 0, 0, 0, 45, 11, 13, 0, 41, 0
|0, 0, 0, 0, 0, 37, 49, 4, 0, 21, 0, 0, 0, 19, 0, 44, 34, 0, 45, 7, 24, 22, 8, 0, 0, 0, 26, 0, 48, 20, 0, 18, 0, 0, 0, 0, 0, 36, 1, 0, 47, 0, 5, 16, 31, 0, 28, 2, 12
|40, 0, 5, 0, 0, 14, 26, 49, 12, 17, 0, 24, 0, 0, 0, 0, 0, 0, 32, 0, 15, 0, 44, 0, 0, 11, 0, 6, 0, 37, 16, 41, 0, 0, 0, 0, 0, 45, 0, 9, 34, 38, 7, 0, 0, 48, 3, 23, 0
|0, 41, 0, 11, 25, 0, 18, 35, 7, 5, 37, 16, 0, 34, 38, 17, 0, 0, 31, 0, 3, 24, 0, 36, 2, 0, 10, 13, 0, 0, 22, 45, 0, 0, 0, 0, 6, 0, 23, 0, 46, 39, 0, 0, 27, 0, 20, 47, 44
|34, 0, 0, 24, 46, 45, 22, 0, 48, 14, 0, 0, 32, 36, 25, 9, 13, 6, 8, 0, 2, 0, 0, 20, 0, 0, 12, 5, 0, 47, 0, 0, 0, 39, 0, 17, 7, 0, 11, 28, 44, 19, 49, 0, 37, 0, 0, 42, 0
|29, 0, 0, 0, 0, 0, 0, 28, 45, 0, 0, 0, 1, 0, 40, 0, 39, 0, 0, 49, 0, 48, 0, 0, 34, 16, 32, 0, 31, 0, 7, 6, 0, 9, 10, 12, 43, 0, 42, 41, 5, 24, 0, 0, 4, 14, 26, 0, 0
|0, 1, 0, 42, 0, 48, 19, 27, 20, 10, 46, 9, 39, 11, 0, 16, 0, 5, 29, 0, 28, 0, 18, 49, 7, 0, 45, 3, 0, 36, 0, 0, 30, 13, 0, 0, 22, 14, 0, 0, 2, 26, 0, 40, 33, 0, 0, 0, 6
|0, 0, 0, 9, 0, 0, 33, 40, 0, 34, 28, 0, 3, 0, 0, 14, 0, 0, 49, 0, 0, 2, 0, 0, 0, 0, 0, 1, 0, 0, 0, 21, 10, 12, 0, 0, 0, 32, 38, 0, 0, 0, 0, 0, 22, 8, 0, 0, 45
|25, 0, 0, 3, 26, 32, 30, 0, 0, 22, 7, 1, 0, 0, 0, 0, 0, 45, 0, 0, 0, 36, 0, 0, 17, 0, 34, 0, 0, 15, 0, 48, 39, 46, 19, 24, 20, 41, 31, 2, 0, 4, 0, 44, 43, 0, 47, 14, 5
|0, 0, 0, 23, 20, 0, 0, 21, 0, 30, 0, 0, 13, 0, 35, 0, 3, 39, 0, 0, 33, 0, 32, 0, 0, 38, 0, 47, 42, 0, 0, 0, 37, 0, 7, 0, 16, 49, 0, 0, 1, 45, 0, 0, 48, 0, 0, 9, 0
|0, 10, 0, 0, 15, 0, 47, 41, 26, 0, 27, 0, 46, 4, 8, 0, 24, 0, 0, 1, 19, 0, 16, 0, 25, 0, 0, 44, 0, 3, 0, 22, 36, 0, 2, 23, 40, 0, 17, 18, 9, 0, 13, 34, 0, 0, 33, 30, 11
|0, 34, 0, 0, 0, 24, 36, 45, 0, 12, 33, 0, 0, 0, 44, 0, 0, 31, 0, 43, 0, 40, 19, 18, 9, 3, 22, 15, 41, 0, 38, 5, 32, 0, 47, 0, 46, 21, 8, 0, 13, 37, 0, 27, 0, 0, 0, 0, 49
|0, 0, 44, 0, 0, 0, 2, 47, 16, 36, 0, 31, 23, 0, 17, 48, 0, 0, 27, 0, 0, 49, 0, 37, 0, 0, 0, 0, 0, 0, 0, 9, 35, 0, 0, 0, 19, 0, 39, 0, 15, 0, 0, 0, 41, 3, 0, 0, 1
|39, 40, 19, 45, 0, 17, 1, 0, 0, 0, 43, 15, 49, 37, 0, 11, 36, 9, 41, 0, 22, 0, 0, 0, 0, 6, 0, 0, 0, 0, 0, 0, 0, 0, 25, 0, 0, 0, 0, 0, 26, 3, 35, 0, 18, 38, 0, 21, 0
|22, 16, 0, 0, 24, 4, 21, 0, 5, 0, 41, 0, 17, 49, 20, 35, 0, 30, 0, 0, 0, 23, 13, 44, 39, 0, 0, 37, 14, 29, 25, 26, 33, 0, 0, 0, 0, 42, 28, 0, 0, 6, 45, 10, 0, 0, 0, 12, 0
|45, 0, 43, 0, 23, 0, 0, 0, 0, 25, 0, 0, 10, 0, 0, 0, 0, 4, 0, 0, 0, 41, 0, 0, 0, 20, 27, 33, 0, 38, 12, 0, 5, 32, 11, 22, 48, 13, 0, 19, 7, 0, 29, 0, 35, 0, 2, 34, 36
|0, 0, 0, 31, 49, 10, 0, 13, 0, 0, 0, 0, 30, 0, 36, 47, 0, 42, 18, 0, 46, 0, 45, 0, 35, 0, 25, 32, 0, 4, 0, 0, 0, 7, 0, 33, 0, 40, 43, 39, 3, 8, 16, 5, 19, 17, 23, 6, 0
|35, 0, 0, 0, 0, 39, 9, 14, 36, 29, 45, 28, 20, 0, 22, 26, 48, 15, 0, 0, 25, 0, 0, 19, 47, 0, 0, 4, 0, 41, 0, 16, 3, 0, 0, 0, 0, 0, 46, 0, 37, 0, 33, 24, 32, 40, 11, 0, 13
|8, 11, 38, 7, 47, 46, 5, 0, 22, 0, 0, 0, 43, 24, 0, 0, 29, 0, 19, 0, 0, 18, 28, 42, 15, 26, 48, 40, 0, 6, 9, 0, 2, 0, 0, 41, 45, 0, 0, 0, 4, 0, 0, 0, 0, 0, 44, 0, 0
|0, 0, 37, 0, 0, 13, 0, 31, 3, 19, 0, 33, 0, 6, 0, 21, 0, 0, 44, 27, 0, 10, 46, 11, 0, 0, 0, 0, 0, 0, 0, 36, 8, 45, 0, 14, 29, 0, 49, 0, 24, 0, 0, 0, 0, 4, 18, 15, 39
|6, 19, 15, 0, 0, 25, 17, 42, 4, 0, 38, 0, 0, 21, 39, 0, 12, 11, 16, 0, 0, 43, 1, 29, 8, 0, 0, 0, 18, 0, 0, 28, 48, 0, 49, 0, 0, 26, 30, 0, 32, 5, 0, 37, 3, 0, 0, 0, 22
|0, 0, 0, 27, 0, 0, 6, 0, 0, 0, 0, 0, 21, 0, 0, 0, 43, 0, 10, 22, 0, 44, 47, 0, 0, 9, 35, 31, 1, 0, 41, 42, 16, 0, 37, 0, 0, 15, 14, 46, 0, 0, 0, 0, 0, 33, 0, 0, 0
|0, 0, 35, 37, 19, 0, 0, 0, 46, 0, 0, 0, 36, 0, 0, 29, 0, 41, 0, 0, 0, 0, 25, 0, 16, 45, 40, 17, 0, 0, 0, 0, 0, 22, 0, 0, 26, 11, 24, 27, 33, 0, 0, 14, 12, 0, 5, 0, 28
|0, 0, 0, 47, 0, 23, 0, 37, 0, 0, 0, 0, 0, 41, 2, 0, 0, 35, 0, 0, 31, 0, 0, 10, 0, 0, 0, 0, 0, 0, 0, 29, 7, 0, 0, 0, 0, 28, 0, 12, 39, 34, 0, 11, 0, 49, 0, 22, 16
|0, 0, 39, 41, 2, 0, 0, 33, 9, 0, 0, 0, 26, 32, 0, 0, 37, 0, 46, 11, 0, 0, 49, 27, 18, 0, 28, 43, 44, 0, 36, 0, 0, 0, 0, 0, 47, 0, 0, 0, 0, 42, 6, 15, 0, 0, 0, 0, 0
|28, 0, 48, 0, 0, 0, 31, 3, 39, 0, 19, 45, 0, 43, 32, 0, 0, 18, 24, 15, 0, 6, 14, 4, 0, 37, 0, 0, 12, 13, 0, 27, 0, 0, 38, 10, 0, 0, 0, 16, 8, 0, 42, 2, 0, 29, 0, 0, 0
|0, 7, 45, 49, 0, 9, 0, 0, 0, 0, 34, 0, 0, 27, 0, 0, 0, 16, 0, 40, 42, 0, 23, 48, 0, 15, 33, 22, 30, 0, 0, 0, 31, 25, 0, 0, 0, 6, 0, 0, 18, 43, 36, 19, 0, 0, 0, 32, 0
|0, 30, 20, 10, 32, 1, 24, 0, 18, 42, 0, 7, 14, 0, 0, 28, 26, 47, 0, 0, 0, 11, 0, 41, 0, 0, 0, 2, 0, 0, 0, 0, 45, 23, 0, 0, 5, 31, 19, 0, 17, 21, 38, 13, 0, 0, 0, 48, 0
|0, 29, 0, 0, 42, 0, 40, 0, 14, 33, 3, 44, 34, 2, 31, 5, 28, 0, 0, 37, 27, 0, 24, 30, 0, 0, 6, 38, 7, 0, 0, 0, 9, 49, 0, 0, 0, 0, 0, 1, 22, 0, 10, 18, 13, 0, 0, 36, 0
|0, 9, 0, 6, 41, 5, 7, 0, 0, 27, 0, 0, 22, 0, 1, 43, 20, 24, 12, 0, 39, 34, 0, 16, 23, 36, 15, 48, 19, 8, 0, 0, 0, 0, 21, 32, 14, 35, 0, 3, 40, 0, 28, 0, 25, 0, 42, 38, 0
|1, 26, 23, 14, 0, 28, 0, 0, 21, 0, 0, 0, 5, 0, 0, 0, 0, 0, 47, 0, 17, 0, 0, 0, 0, 0, 0, 41, 0, 30, 29, 0, 13, 0, 0, 36, 0, 9, 45, 0, 31, 25, 0, 3, 0, 27, 0, 0, 34
|0, 32, 0, 17, 37, 21, 0, 0, 15, 6, 0, 36, 19, 16, 0, 22, 40, 0, 0, 0, 14, 0, 0, 0, 0, 0, 47, 39, 0, 35, 0, 0, 0, 0, 0, 0, 18, 0, 0, 49, 0, 28, 0, 23, 0, 11, 24, 0, 0
|0, 0, 0, 0, 12, 16, 43, 26, 28, 0, 8, 0, 25, 0, 29, 0, 45, 21, 0, 2, 0, 19, 9, 0, 49, 0, 37, 0, 0, 22, 48, 0, 0, 0, 0, 30, 4, 34, 0, 15, 0, 0, 31, 0, 0, 35, 0, 33, 0
|24, 15, 36, 39, 3, 47, 0, 0, 31, 23, 29, 0, 35, 0, 18, 0, 0, 0, 0, 10, 30, 25, 0, 40, 28, 0, 0, 26, 20, 0, 32, 44, 0, 1, 0, 2, 33, 0, 0, 43, 0, 16, 17, 0, 0, 22, 0, 0, 0
|0, 0, 33, 34, 13, 2, 20, 0, 41, 0, 0, 0, 42, 40, 0, 0, 0, 0, 0, 6, 26, 14, 22, 0, 27, 0, 7, 29, 0, 18, 28, 0, 0, 0, 12, 0, 0, 38, 0, 0, 0, 11, 0, 48, 0, 16, 0, 43, 0
|14, 0, 0, 0, 0, 0, 23, 8, 0, 0, 0, 0, 0, 47, 28, 6, 0, 22, 39, 21, 0, 0, 0, 0, 42, 35, 46, 16, 0, 0, 0, 4, 11, 0, 0, 0, 37, 24, 2, 0, 0, 1, 0, 31, 44, 0, 0, 0, 0
|0, 0, 30, 29, 0, 49, 0, 0, 0, 0, 0, 0, 37, 0, 0, 0, 0, 0, 0, 42, 0, 4, 48, 0, 0, 1, 8, 0, 0, 21, 6, 19, 0, 0, 44, 35, 25, 0, 26, 0, 16, 41, 23, 32, 10, 24, 0, 0, 0
|5, 0, 1, 8, 0, 0, 0, 39, 0, 7, 0, 0, 0, 13, 46, 10, 47, 0, 0, 31, 0, 0, 41, 43, 0, 25, 49, 0, 9, 0, 0, 30, 20, 0, 48, 19, 0, 0, 40, 45, 23, 0, 0, 0, 0, 28, 15, 29, 0
|0, 36, 24, 2, 38, 0, 0, 0, 11, 0, 0, 0, 12, 0, 0, 0, 0, 0, 37, 0, 0, 39, 34, 0, 0, 0, 18, 0, 29, 0, 13, 0, 0, 15, 0, 0, 9, 0, 0, 21, 0, 46, 0, 0, 0, 5, 0, 0, 8
|0, 0, 0, 0, 0, 15, 0, 6, 32, 9, 1, 0, 0, 28, 0, 0, 19, 0, 0, 0, 35, 37, 0, 0, 0, 23, 29, 0, 3, 46, 0, 0, 0, 0, 0, 49, 0, 44, 47, 0, 0, 0, 0, 21, 0, 30, 7, 0, 48
|0, 0, 9, 0, 16, 0, 41, 0, 30, 46, 0, 34, 0, 26, 0, 0, 0, 0, 11, 18, 48, 0, 0, 0, 0, 0, 3, 0, 0, 49, 0, 1, 0, 0, 35, 5, 0, 0, 29, 0, 0, 0, 25, 17, 38, 37, 0, 0, 0
|0, 0, 0, 0, 4, 34, 37, 22, 0, 0, 0, 19, 0, 5, 30, 0, 1, 29, 3, 0, 49, 31, 40, 12, 13, 2, 0, 14, 45, 0, 0, 0, 0, 0, 23, 48, 0, 10, 32, 0, 0, 0, 0, 36, 16, 0, 0, 35, 43
|0, 23, 21, 0, 0, 0, 0, 10, 0, 11, 12, 46, 0, 0, 0, 49, 35, 0, 1, 24, 0, 0, 0, 45, 0, 30, 4, 0, 0, 28, 0, 0, 0, 3, 36, 0, 0, 18, 0, 0, 48, 0, 8, 0, 0, 0, 0, 0, 14
|0, 49, 0, 0, 0, 6, 0, 0, 0, 3, 0, 5, 0, 0, 45, 18, 46, 0, 43, 17, 0, 29, 2, 28, 31, 0, 44, 11, 0, 9, 0, 0, 24, 30, 0, 0, 0, 25, 0, 37, 0, 40, 48, 47, 15, 12, 27, 0, 19
|16, 0, 0, 0, 36, 0, 4, 0, 34, 37, 21, 48, 8, 25, 26, 0, 0, 0, 38, 0, 0, 46, 42, 0, 3, 0, 23, 0, 0, 7, 0, 14, 41, 0, 0, 1, 0, 0, 0, 0, 20, 29, 0, 28, 24, 0, 31, 0, 0
|9, 0, 2, 0, 0, 33, 42, 43, 0, 0, 0, 18, 0, 0, 0, 0, 0, 28, 30, 29, 0, 0, 10, 15, 20, 0, 1, 0, 0, 0, 0, 0, 46, 0, 0, 0, 0, 0, 0, 0, 0, 0, 32, 0, 45, 44, 4, 0, 0
|37, 20, 0, 0, 0, 0, 0, 36, 0, 0, 0, 47, 4, 0, 15, 42, 0, 14, 0, 19, 32, 0, 0, 0, 0, 18, 24, 8, 34, 2, 0, 33, 12, 16, 0, 9, 0, 43, 3, 26, 10, 0, 0, 41, 0, 7, 22, 11, 23
|47, 43, 14, 0, 17, 0, 11, 20, 0, 24, 0, 0, 0, 0, 34, 0, 25, 0, 0, 0, 4, 16, 0, 0, 0, 7, 0, 0, 49, 0, 0, 0, 0, 0, 29, 0, 28, 19, 12, 8, 45, 0, 0, 0, 42, 0, 0, 0, 0
|0, 0, 0, 0, 31, 0, 13, 9, 1, 0, 0, 23, 7, 29, 0, 0, 6, 0, 48, 0, 12, 32, 0, 22, 0, 0, 14, 0, 0, 0, 5, 10, 0, 42, 0, 47, 0, 0, 0, 0, 0, 33, 0, 0, 21, 0, 35, 0, 17|];