order = 7;
grid = [|11, 34, 0, 0, 2, 0, 19, 0, 0, 49, 0, 0, 47, 5, 0, 0, 28, 15, 0, 40, 0, 0, 12, 0, 0, 0, 6, 38, 0, 22, 45, 0, 46, 0, 1, 31, 0, 0, 0, 0, 0, 0, 27, 0, 0, 32, 0, 0, 0
|42, 0, 7, 0, 0, 4, 1, 25, 0, 26, 0, 46, 0, 13, 14, 38, 0, 47, 5, 21, 0, 0, 0, 36, 0, 30, 0, 0, 0, 0, 12, 0, 39, 23, 16, 9, 33, 20, 0, 43, 0, 0, 3, 28, 48, 22, 2, 0, 31
|6, 16, 0, 0, 49, 26, 0, 29, 4, 14, 27, 0, 3, 0, 36, 39, 0, 7, 0, 22, 31, 0, 0, 0, 0, 0, 0, 0, 0, 24, 0, 42, 0, 0, 11, 0, 0, 0, 0, 17, 0, 0, 0, 0, 0, 0, 21, 19, 0
|0, 45, 0, 0, 0, 0, 39, 8, 33, 37, 0, 44, 42, 36, 0, 0, 35, 6, 0, 10, 11, 1, 0, 0, 0, 0, 20, 28, 0, 5, 13, 0, 0, 0, 2, 40, 0, 0, 32, 0, 0, 0, 17, 0, 30, 46, 25, 41, 0
|0, 0, 0, 33, 37, 0, 38, 15, 0, 0, 0, 17, 0, 0, 0, 0, 0, 42, 24, 45, 32, 25, 3, 22, 34, 10, 40, 19, 4, 0, 27, 0, 20, 0, 44, 0, 49, 39, 0, 21, 30, 35, 47, 0, 0, 6, 12, 0, 16
|48, 18, 32, 0, 0, 0, 0, 0, 0, 9, 22, 0, 12, 45, 0, 0, 27, 23, 0, 0, 0, 0, 0, 39, 2, 43, 15, 17, 37, 0, 40, 0, 35, 0, 33, 4, 24, 7, 0, 0, 13, 0, 36, 8, 0, 0, 20, 42, 26
|0, 0, 0, 15, 20, 5, 10, 39, 24, 30, 0, 0, 0, 0, 0, 9, 0, 0, 0, 0, 0, 0, 48, 0, 0, 44, 46, 0, 21, 3, 7, 32, 0, 41, 0, 6, 2, 0, 1, 0, 0, 11, 14, 29, 34, 37, 40, 35, 45
|41, 42, 26, 0, 0, 0, 27, 13, 0, 47, 0, 15, 16, 0, 43, 0, 33, 18, 0, 0, 39, 46, 34, 2, 0, 0, 0, 0, 0, 0, 10, 0, 0, 32, 0, 0, 0, 49, 0, 0, 0, 7, 0, 20, 6, 0, 0, 48, 0
|0, 0, 19, 0, 16, 22, 0, 0, 0, 28, 26, 0, 0, 39, 20, 0, 0, 0, 0, 0, 17, 24, 0, 0, 0, 0, 0, 0, 0, 0, 30, 18, 27, 4, 5, 0, 0, 0, 10, 3, 2, 32, 0, 0, 38, 0, 13, 0, 25
|36, 25, 0, 0, 0, 31, 0, 0, 27, 0, 21, 0, 20, 19, 13, 29, 5, 0, 0, 3, 0, 23, 47, 14, 0, 38, 32, 0, 0, 8, 0, 16, 41, 0, 34, 46, 0, 0, 0, 0, 0, 0, 0, 0, 0, 0, 42, 39, 0
|0, 35, 23, 20, 0, 13, 0, 0, 0, 2, 3, 0, 32, 0, 0, 0, 31, 0, 0, 0, 0, 27, 42, 12, 0, 39, 33, 0, 24, 48, 49, 45, 0, 0, 46, 0, 19, 15, 47, 0, 18, 0, 34, 0, 0, 41, 36, 0, 7
|0, 6, 34, 0, 0, 3, 32, 0, 0, 0, 0, 33, 23, 0, 22, 0, 10, 0, 0, 0, 47, 0, 28, 0, 40, 0, 41, 26, 7, 0, 0, 0, 44, 0, 12, 17, 0, 0, 0, 0, 0, 0, 0, 0, 0, 21, 0, 0, 0
|10, 0, 0, 0, 0, 39, 0, 0, 0, 0, 0, 1, 0, 43, 0, 23, 0, 0, 0, 30, 42, 13, 18, 37, 3, 0, 0, 16, 35, 0, 0, 19, 2, 22, 0, 38, 0, 0, 44, 6, 20, 0, 0, 0, 31, 4, 0, 0, 0
|0, 2, 30, 14, 29, 0, 18, 36, 49, 0, 37, 0, 0, 0, 32, 0, 0, 0, 0, 15, 0, 0, 19, 0, 20, 0, 0, 0, 28, 38, 0, 0, 0, 0, 0, 42, 13, 22, 40, 23, 0, 33, 16, 27, 44, 0, 0, 0, 10
|43, 0, 0, 0, 0, 0, 29, 0, 0, 0, 0, 34, 0, 0, 0, 4, 0, 0, 47, 0, 0, 0, 35, 0, 39, 3, 12, 0, 0, 0, 0, 21, 0, 14, 25, 27, 6, 48, 0, 0, 9, 0, 0, 36, 0, 16, 0, 0, 0
|21, 0, 12, 0, 0, 27, 0, 0, 17, 0, 0, 0, 18, 0, 0, 0, 0, 0, 0, 0, 0, 34, 4, 0, 46, 0, 0, 40, 16, 0, 0, 22, 0, 0, 0, 14, 0, 0, 49, 0, 0, 0, 0, 6, 0, 0, 44, 5, 20
|2, 26, 1, 0, 6, 0, 0, 30, 13, 0, 35, 39, 21, 15, 0, 0, 0, 32, 0, 25, 9, 0, 23, 0, 0, 18, 0, 8, 0, 12, 28, 0, 38, 34, 19, 0, 31, 0, 0, 11, 47, 0, 0, 0, 0, 14, 0, 17, 48
|23, 0, 17, 0, 0, 35, 5, 47, 0, 6, 0, 0, 0, 0, 37, 2, 1, 0, 0, 27, 41, 32, 0, 0, 0, 0, 0, 43, 0, 36, 4, 0, 0, 0, 29, 19, 0, 0, 0, 0, 12, 42, 0, 0, 28, 8, 0, 24, 34
|0, 8, 33, 0, 0, 47, 48, 0, 0, 19, 41, 0, 0, 0, 49, 44, 7, 0, 14, 23, 35, 0, 25, 0, 6, 2, 0, 0, 0, 18, 0, 0, 31, 30, 40, 10, 0, 0, 0, 0, 0, 45, 11, 4, 0, 39, 9, 22, 46
|15, 3, 9, 19, 14, 0, 25, 4, 12, 0, 48, 0, 0, 20, 0, 0, 30, 0, 0, 42, 0, 21, 0, 0, 36, 1, 17, 0, 0, 47, 0, 0, 0, 0, 0, 0, 0, 44, 43, 18, 37, 0, 0, 0, 0, 2, 0, 32, 40
|22, 0, 0, 18, 0, 11, 13, 0, 0, 0, 49, 2, 14, 42, 40, 15, 20, 28, 0, 17, 16, 31, 5, 0, 0, 0, 0, 0, 33, 0, 0, 10, 0, 0, 39, 25, 35, 36, 24, 0, 34, 41, 0, 47, 0, 43, 26, 0, 21
|31, 0, 0, 10, 0, 43, 0, 9, 0, 0, 12, 0, 7, 0, 0, 6, 32, 27, 40, 49, 46, 0, 1, 13, 28, 0, 39, 20, 0, 0, 0, 8, 19, 17, 0, 29, 3, 24, 11, 25, 36, 0, 0, 0, 0, 0, 45, 0, 0
|0, 0, 0, 38, 0, 33, 0, 2, 45, 8, 1, 0, 0, 47, 18, 0, 0, 19, 0, 20, 23, 49, 30, 24, 0, 0, 0, 12, 40, 35, 44, 0, 0, 0, 0, 0, 0, 4, 21, 0, 0, 22, 28, 41, 0, 0, 0, 0, 0
|0, 0, 0, 0, 0, 0, 0, 34, 0, 13, 0, 0, 37, 41, 3, 0, 0, 0, 30, 33, 0, 0, 0, 40, 48, 0, 0, 0, 49, 27, 20, 0, 14, 0, 0, 0, 0, 0, 42, 47, 0, 0, 10, 0, 0, 18, 0, 0, 22
|0, 0, 49, 0, 47, 40, 0, 0, 0, 46, 28, 0, 24, 0, 0, 21, 0, 0, 43, 36, 0, 0, 41, 0, 0, 0, 38, 33, 48, 0, 16, 11, 0, 12, 0, 0, 14, 17, 0, 13, 0, 0, 8, 25, 0, 0, 30, 1, 4
|8, 0, 6, 0, 0, 0, 0, 0, 39, 3, 0, 0, 19, 0, 25, 28, 26, 38, 0, 0, 0, 0, 43, 0, 0, 0, 34, 15, 0, 0, 0, 0, 0, 46, 0, 33, 0, 0, 0, 0, 0, 0, 49, 0, 47, 0, 14, 0, 0
|0, 0, 0, 0, 24, 20, 14, 27, 0, 4, 0, 38, 33, 23, 45, 41, 11, 34, 39, 48, 0, 0, 7, 29, 21, 0, 0, 3, 47, 26, 32, 0, 0, 0, 18, 0, 0, 31, 37, 0, 0, 0, 35, 0, 9, 0, 43, 40, 5
|5, 0, 0, 37, 0, 1, 22, 0, 0, 0, 0, 0, 0, 49, 44, 47, 17, 14, 10, 4, 7, 0, 0, 8, 27, 0, 31, 6, 0, 0, 33, 2, 9, 24, 41, 0, 28, 0, 45, 0, 48, 0, 0, 0, 46, 42, 29, 11, 3
|29, 0, 41, 0, 0, 0, 49, 14, 0, 0, 33, 13, 0, 21, 28, 3, 0, 0, 0, 18, 20, 12, 0, 4, 30, 24, 43, 22, 0, 23, 1, 0, 0, 0, 32, 16, 11, 38, 0, 39, 0, 0, 0, 0, 0, 0, 0, 36, 0
|47, 0, 0, 0, 19, 0, 0, 0, 0, 0, 38, 0, 48, 0, 0, 0, 8, 9, 0, 34, 0, 16, 26, 0, 0, 0, 42, 7, 15, 0, 0, 0, 18, 3, 0, 12, 0, 29, 0, 33, 1, 31, 2, 30, 0, 13, 0, 0, 23
|13, 0, 5, 48, 0, 0, 0, 17, 0, 0, 0, 35, 27, 0, 21, 46, 19, 33, 0, 0, 14, 10, 0, 9, 47, 23, 0, 1, 0, 39, 0, 34, 7, 0, 0, 0, 41, 40, 25, 0, 45, 8, 0, 3, 0, 31, 0, 0, 0
|28, 0, 2, 4, 0, 25, 0, 44, 0, 0, 24, 10, 31, 0, 39, 0, 16, 0, 0, 43, 30, 18, 0, 15, 29, 0, 0, 0, 46, 0, 35, 9, 17, 37, 0, 0, 47, 42, 0, 0, 0, 49, 40, 12, 0, 38, 0, 0, 0
|0, 38, 39, 1, 0, 0, 0, 12, 0, 0, 2, 20, 30, 0, 47, 35, 29, 0, 22, 24, 15, 3, 40, 0, 31, 25, 19, 0, 10, 14, 0, 0, 33, 0, 0, 0, 0, 6, 17, 0, 21, 23, 0, 18, 0, 0, 32, 0, 49
|12, 31, 0, 45, 40, 15, 3, 22, 0, 34, 0, 0, 8, 0, 0, 0, 4, 0, 0, 0, 0, 44, 0, 0, 0, 0, 0, 13, 2, 0, 0, 0, 0, 0, 30, 0, 0, 32, 18, 36, 28, 0, 0, 0, 0, 0, 0, 0, 42
|32, 23, 0, 0, 9, 0, 16, 3, 0, 0, 15, 7, 0, 0, 0, 31, 0, 0, 0, 13, 49, 0, 0, 33, 0, 20, 11, 39, 0, 42, 0, 12, 0, 29, 0, 0, 26, 0, 0, 0, 0, 0, 0, 46, 0, 0, 0, 10, 14
|0, 19, 4, 3, 0, 30, 45, 0, 0, 21, 7, 0, 0, 17, 12, 40, 0, 37, 46, 0, 0, 0, 39, 25, 0, 8, 0, 9, 0, 43, 0, 28, 29, 0, 0, 0, 34, 0, 0, 0, 0, 0, 0, 0, 41, 24, 0, 47, 35
|0, 0, 0, 43, 0, 41, 36, 0, 0, 42, 0, 0, 0, 22, 23, 0, 0, 0, 0, 6, 13, 7, 0, 48, 0, 12, 21, 29, 0, 33, 18, 47, 0, 0, 0, 45, 0, 0, 27, 0, 0, 26, 0, 0, 0, 0, 11, 0, 0
|0, 0, 0, 7, 13, 0, 6, 0, 40, 15, 5, 24, 34, 0, 0, 0, 38, 21, 35, 0, 10, 0, 0, 0, 33, 4, 26, 0, 0, 0, 0, 0, 1, 31, 0, 49, 42, 19, 0, 48, 3, 47, 46, 39, 0, 0, 0, 0, 0
|0, 1, 16, 34, 8, 0, 0, 0, 0, 0, 25, 0, 29, 48, 0, 11, 36, 4, 0, 0, 45, 0, 10, 3, 0, 13, 0, 14, 5, 46, 0, 44, 22, 0, 0, 0, 7, 2, 39, 41, 40, 0, 0, 26, 21, 20, 49, 0, 0
|0, 0, 0, 42, 15, 0, 21, 33, 30, 0, 0, 27, 43, 28, 5, 19, 0, 0, 25, 0, 0, 2, 0, 32, 0, 0, 0, 37, 12, 13, 0, 0, 0, 0, 0, 18, 17, 46, 20, 10, 0, 29, 4, 0, 8, 0, 0, 0, 1
|24, 10, 25, 0, 33, 28, 0, 49, 0, 0, 18, 0, 0, 0, 7, 34, 0, 20, 8, 0, 48, 15, 44, 0, 0, 19, 27, 47, 41, 0, 39, 35, 36, 2, 17, 1, 0, 0, 0, 9, 23, 0, 0, 22, 40, 5, 3, 38, 0
|0, 0, 37, 0, 0, 0, 0, 19, 46, 0, 6, 0, 0, 0, 41, 42, 0, 0, 0, 9, 24, 0, 0, 0, 0, 0, 22, 36, 0, 0, 0, 38, 0, 0, 21, 5, 43, 0, 8, 32, 4, 25, 12, 23, 0, 30, 0, 0, 0
|38, 0, 0, 0, 3, 24, 0, 28, 5, 0, 0, 40, 11, 9, 8, 45, 48, 36, 13, 14, 0, 39, 32, 41, 0, 0, 18, 0, 22, 16, 0, 1, 10, 7, 0, 21, 30, 27, 19, 0, 0, 0, 6, 37, 35, 0, 34, 15, 33
|33, 27, 0, 0, 0, 0, 20, 46, 0, 43, 31, 41, 0, 32, 1, 0, 6, 0, 3, 35, 0, 0, 14, 26, 0, 11, 8, 0, 25, 0, 0, 0, 21, 0, 47, 0, 0, 0, 38, 42, 0, 0, 0, 48, 0, 0, 0, 0, 9
|0, 0, 0, 22, 36, 19, 8, 21, 0, 0, 0, 30, 0, 34, 9, 10, 12, 0, 0, 0, 33, 17, 0, 0, 43, 0, 23, 24, 0, 0, 0, 0, 0, 35, 0, 0, 18, 41, 0, 0, 29, 28, 0, 0, 0, 0, 5, 0, 0
|0, 0, 47, 0, 45, 0, 40, 0, 0, 29, 13, 0, 0, 0, 46, 49, 34, 31, 18, 0, 0, 0, 0, 1, 0, 0, 0, 0, 0, 0, 14, 33, 42, 20, 26, 23, 12, 25, 48, 0, 39, 17, 0, 10, 0, 0, 0, 8, 0
|0, 0, 0, 0, 0, 2, 46, 16, 0, 0, 47, 0, 0, 0, 0, 25, 23, 39, 28, 26, 21, 40, 0, 10, 37, 6, 3, 48, 31, 17, 38, 0, 15, 5, 0, 0, 45, 0, 33, 24, 7, 43, 18, 14, 0, 0, 0, 20, 0
|0, 43, 0, 0, 0, 0, 7, 24, 0, 0, 45, 25, 0, 0, 19, 0, 22, 0, 0, 38, 5, 0, 29, 34, 9, 0, 4, 42, 13, 30, 0, 41, 12, 0, 0, 0, 1, 26, 14, 46, 0, 0, 23, 21, 0, 40, 31, 2, 0
|25, 37, 0, 0, 0, 0, 0, 26, 0, 1, 0, 0, 0, 33, 0, 24, 44, 0, 0, 47, 0, 0, 0, 20, 0, 31, 28, 0, 29, 11, 2, 0, 0, 9, 0, 15, 16, 0, 0, 0, 6, 0, 0, 19, 43, 49, 0, 0, 32|];