order = 7;
grid = [|33, 0, 0, 20, 39, 28, 30, 6, 0, 0, 0, 45, 0, 15, 0, 0, 18, 37, 0, 27, 0, 0, 0, 0, 0, 0, 0, 8, 0, 0, 0, 25, 0, 49, 21, 26, 46, 41, 0, 5, 0, 47, 19, 0, 35, 43, 0, 0, 0
|44, 0, 36, 43, 15, 0, 0, 27, 0, 0, 0, 7, 0, 0, 0, 42, 21, 46, 25, 23, 0, 0, 35, 0, 47, 11, 0, 24, 9, 38, 0, 1, 0, 8, 18, 10, 0, 40, 4, 32, 20, 0, 0, 0, 0, 30, 49, 0, 34
|0, 5, 0, 0, 0, 24, 0, 0, 48, 0, 0, 22, 37, 0, 36, 20, 44, 29, 2, 26, 17, 40, 32, 34, 0, 0, 0, 0, 39, 0, 11, 0, 0, 0, 19, 0, 3, 0, 0, 27, 25, 0, 0, 0, 0, 0, 0, 0, 33
|0, 21, 0, 12, 22, 0, 0, 0, 0, 46, 0, 39, 38, 0, 0, 40, 0, 0, 0, 0, 6, 0, 33, 0, 36, 0, 9, 15, 47, 35, 0, 5, 27, 17, 0, 8, 11, 0, 0, 0, 0, 0, 45, 48, 0, 0, 18, 0, 23
|0, 45, 0, 0, 29, 0, 0, 8, 23, 35, 13, 32, 0, 10, 11, 0, 47, 22, 30, 0, 1, 0, 0, 44, 0, 0, 3, 0, 0, 28, 0, 7, 0, 36, 4, 0, 12, 17, 0, 0, 24, 42, 15, 6, 26, 16, 0, 0, 14
|0, 17, 41, 0, 0, 0, 7, 30, 21, 0, 0, 47, 33, 0, 0, 0, 0, 0, 0, 0, 48, 4, 0, 42, 25, 0, 0, 29, 0, 0, 0, 26, 16, 44, 0, 0, 0, 36, 0, 0, 0, 38, 24, 22, 46, 40, 0, 32, 0
|4, 0, 26, 0, 0, 6, 0, 18, 0, 9, 0, 0, 17, 25, 0, 0, 14, 8, 0, 24, 0, 48, 45, 1, 0, 46, 28, 0, 31, 13, 30, 0, 0, 32, 10, 0, 15, 43, 0, 0, 0, 2, 0, 42, 0, 21, 36, 0, 29
|0, 0, 4, 29, 24, 26, 0, 0, 33, 48, 0, 0, 12, 0, 13, 43, 0, 0, 0, 25, 3, 0, 0, 0, 38, 0, 34, 27, 10, 0, 0, 49, 36, 23, 46, 21, 7, 0, 0, 0, 0, 0, 28, 15, 8, 0, 0, 14, 16
|0, 42, 0, 0, 0, 17, 0, 23, 0, 8, 0, 3, 41, 0, 4, 0, 0, 0, 5, 33, 24, 30, 48, 31, 43, 40, 0, 0, 0, 0, 32, 0, 0, 0, 34, 20, 6, 0, 0, 0, 0, 36, 0, 0, 0, 9, 0, 0, 0
|0, 8, 0, 0, 25, 0, 2, 11, 0, 0, 4, 0, 42, 0, 31, 0, 0, 0, 34, 48, 14, 21, 49, 0, 0, 0, 0, 0, 6, 17, 16, 9, 12, 40, 0, 33, 0, 0, 0, 0, 0, 0, 36, 32, 47, 18, 43, 0, 45
|36, 15, 21, 37, 23, 45, 48, 0, 0, 0, 0, 34, 0, 5, 0, 11, 0, 18, 29, 16, 0, 10, 0, 0, 0, 32, 8, 0, 19, 0, 0, 0, 0, 41, 0, 46, 38, 0, 0, 0, 0, 0, 42, 0, 22, 0, 0, 35, 0
|0, 12, 0, 0, 32, 0, 31, 25, 37, 24, 0, 20, 0, 7, 49, 0, 35, 41, 0, 0, 10, 0, 28, 29, 0, 0, 0, 0, 5, 0, 4, 0, 0, 21, 0, 40, 45, 23, 39, 0, 9, 0, 38, 0, 0, 27, 0, 0, 19
|38, 0, 46, 0, 0, 0, 0, 17, 30, 49, 0, 21, 47, 0, 40, 23, 22, 44, 0, 6, 39, 0, 0, 0, 0, 7, 0, 0, 0, 0, 18, 8, 14, 0, 13, 42, 37, 0, 0, 0, 0, 12, 0, 25, 0, 41, 24, 0, 48
|19, 9, 40, 0, 14, 43, 0, 0, 0, 0, 0, 0, 0, 0, 21, 32, 0, 0, 0, 8, 0, 17, 0, 0, 0, 0, 41, 12, 25, 22, 24, 27, 7, 0, 0, 0, 0, 4, 47, 0, 49, 0, 0, 0, 10, 6, 26, 0, 0
|0, 0, 0, 0, 0, 32, 0, 20, 0, 0, 33, 0, 0, 0, 0, 0, 29, 21, 44, 15, 8, 0, 31, 0, 0, 24, 13, 42, 0, 0, 0, 0, 30, 3, 0, 0, 0, 12, 25, 4, 0, 0, 49, 0, 18, 10, 0, 7, 11
|45, 0, 0, 0, 0, 0, 0, 0, 0, 0, 0, 38, 40, 35, 0, 0, 0, 0, 6, 0, 0, 0, 4, 0, 20, 0, 0, 32, 0, 0, 0, 0, 0, 5, 31, 13, 0, 0, 0, 41, 16, 0, 0, 0, 0, 44, 14, 15, 0
|0, 14, 33, 26, 0, 0, 43, 39, 28, 0, 0, 41, 36, 0, 0, 37, 0, 24, 0, 0, 0, 44, 0, 0, 0, 35, 40, 0, 0, 0, 46, 20, 38, 18, 0, 0, 49, 48, 23, 31, 0, 1, 0, 0, 9, 25, 0, 45, 4
|0, 0, 31, 0, 12, 0, 37, 1, 34, 25, 0, 0, 23, 0, 0, 0, 17, 4, 0, 0, 41, 11, 5, 21, 0, 0, 0, 18, 44, 0, 0, 24, 42, 13, 0, 0, 0, 3, 0, 0, 2, 0, 0, 43, 36, 0, 35, 0, 22
|0, 23, 17, 0, 44, 0, 0, 0, 11, 7, 22, 0, 0, 8, 47, 0, 0, 0, 20, 35, 0, 25, 12, 49, 1, 0, 0, 0, 27, 0, 0, 16, 0, 0, 0, 0, 32, 0, 0, 24, 0, 0, 41, 19, 0, 2, 0, 33, 40
|8, 35, 1, 0, 0, 0, 0, 0, 13, 0, 18, 0, 32, 0, 22, 0, 3, 38, 9, 7, 0, 0, 36, 30, 0, 0, 0, 0, 12, 40, 0, 0, 2, 33, 45, 0, 0, 42, 0, 0, 0, 14, 26, 0, 0, 0, 48, 0, 0
|34, 18, 39, 0, 30, 0, 24, 0, 2, 44, 12, 5, 29, 0, 0, 0, 0, 0, 0, 0, 0, 33, 38, 0, 0, 0, 0, 26, 11, 0, 15, 0, 21, 35, 36, 0, 22, 0, 19, 37, 0, 0, 0, 0, 13, 0, 0, 0, 27
|43, 0, 0, 39, 0, 0, 0, 0, 42, 28, 0, 0, 0, 33, 27, 35, 0, 0, 4, 29, 0, 0, 40, 3, 41, 0, 19, 0, 23, 16, 38, 45, 0, 10, 0, 0, 0, 8, 46, 49, 0, 11, 0, 24, 30, 0, 0, 0, 6
|0, 38, 0, 5, 0, 14, 0, 0, 0, 0, 0, 0, 0, 0, 0, 0, 0, 47, 42, 0, 22, 36, 26, 0, 0, 0, 0, 0, 7, 0, 48, 15, 0, 12, 0, 0, 0, 39, 20, 2, 0, 0, 0, 3, 0, 23, 0, 0, 0
|12, 0, 47, 0, 0, 23, 29, 24, 31, 0, 0, 0, 11, 0, 0, 0, 38, 14, 28, 0, 2, 0, 15, 0, 37, 27, 43, 0, 0, 32, 39, 0, 0, 34, 33, 0, 26, 0, 36, 0, 0, 0, 0, 4, 1, 20, 0, 0, 46
|26, 36, 0, 17, 7, 4, 0, 43, 0, 6, 0, 0, 0, 0, 37, 44, 32, 23, 0, 41, 0, 42, 0, 0, 13, 0, 0, 33, 1, 0, 27, 11, 0, 0, 0, 0, 0, 22, 38, 29, 0, 25, 0, 40, 0, 15, 0, 19, 0
|18, 37, 0, 0, 34, 2, 0, 0, 15, 0, 0, 0, 0, 36, 48, 1, 0, 33, 8, 43, 20, 29, 0, 0, 32, 0, 0, 31, 0, 0, 0, 0, 4, 0, 0, 0, 42, 28, 21, 23, 0, 7, 0, 0, 11, 26, 0, 49, 38
|0, 48, 42, 30, 0, 49, 9, 0, 0, 41, 37, 19, 39, 47, 10, 0, 0, 6, 0, 12, 11, 0, 0, 0, 0, 5, 0, 23, 2, 0, 36, 0, 0, 20, 44, 0, 0, 24, 43, 1, 15, 32, 29, 34, 14, 0, 7, 18, 35
|0, 28, 0, 0, 0, 20, 0, 44, 1, 0, 40, 0, 0, 0, 0, 18, 0, 39, 0, 0, 19, 0, 0, 48, 0, 21, 0, 2, 24, 0, 0, 0, 0, 42, 0, 12, 0, 31, 6, 0, 0, 9, 0, 13, 16, 36, 0, 10, 43
|2, 0, 7, 0, 0, 0, 17, 0, 8, 0, 0, 0, 30, 9, 0, 0, 0, 0, 31, 0, 27, 0, 21, 4, 0, 0, 32, 0, 34, 5, 0, 0, 0, 48, 15, 38, 0, 0, 24, 6, 41, 0, 0, 0, 0, 22, 19, 25, 18
|23, 1, 0, 28, 10, 9, 0, 14, 6, 37, 21, 0, 16, 0, 0, 5, 48, 0, 18, 0, 0, 19, 24, 11, 34, 0, 0, 0, 0, 33, 0, 13, 25, 0, 7, 4, 0, 0, 0, 26, 35, 0, 0, 0, 0, 17, 0, 0, 0
|49, 0, 0, 0, 0, 0, 0, 0, 12, 20, 0, 0, 0, 0, 0, 28, 0, 13, 0, 0, 0, 31, 41, 9, 0, 0, 25, 0, 0, 0, 37, 0, 17, 0, 0, 0, 29, 18, 0, 0, 40, 19, 0, 30, 0, 34, 0, 0, 10
|30, 6, 37, 0, 0, 25, 32, 47, 38, 0, 0, 36, 34, 0, 14, 0, 9, 0, 16, 20, 0, 26, 0, 0, 0, 0, 5, 46, 0, 12, 1, 2, 0, 27, 29, 31, 0, 13, 7, 0, 0, 0, 0, 0, 0, 24, 0, 0, 3
|0, 0, 0, 0, 0, 0, 4, 0, 29, 0, 0, 0, 0, 0, 8, 19, 37, 0, 0, 36, 0, 12, 17, 0, 18, 10, 23, 0, 38, 0, 0, 22, 0, 14, 0, 3, 0, 49, 0, 0, 0, 0, 0, 27, 7, 1, 0, 9, 0
|0, 0, 8, 41, 0, 0, 44, 0, 0, 0, 2, 15, 18, 40, 29, 0, 6, 17, 0, 46, 0, 0, 43, 14, 7, 0, 20, 39, 30, 10, 0, 0, 26, 0, 9, 0, 0, 27, 0, 34, 42, 0, 0, 16, 32, 0, 31, 38, 0
|0, 0, 12, 22, 0, 48, 42, 33, 24, 0, 46, 0, 0, 41, 0, 25, 15, 0, 0, 0, 34, 27, 0, 37, 0, 38, 2, 0, 32, 18, 35, 4, 20, 19, 6, 0, 0, 0, 28, 0, 14, 0, 0, 36, 0, 0, 0, 8, 26
|0, 0, 0, 0, 2, 0, 0, 36, 0, 1, 0, 37, 8, 0, 0, 0, 0, 25, 7, 17, 0, 34, 44, 33, 21, 0, 29, 0, 0, 20, 0, 42, 0, 39, 12, 47, 35, 38, 0, 0, 22, 4, 13, 0, 0, 0, 0, 23, 30
|13, 0, 0, 36, 0, 0, 33, 0, 0, 0, 11, 0, 0, 0, 34, 39, 0, 0, 46, 0, 40, 24, 14, 17, 48, 0, 0, 0, 0, 19, 0, 0, 0, 30, 0, 0, 0, 44, 29, 0, 0, 0, 25, 0, 4, 0, 0, 0, 47
|0, 39, 14, 0, 0, 44, 23, 29, 0, 0, 0, 13, 21, 48, 0, 10, 0, 3, 49, 0, 0, 0, 0, 12, 0, 2, 16, 1, 0, 0, 28, 0, 11, 22, 0, 0, 41, 45, 0, 0, 7, 0, 0, 35, 0, 19, 33, 34, 0
|0, 0, 24, 4, 0, 35, 0, 0, 7, 0, 0, 12, 45, 0, 28, 13, 41, 31, 33, 0, 0, 39, 23, 25, 40, 0, 0, 9, 17, 8, 0, 14, 0, 37, 26, 0, 21, 0, 27, 0, 0, 43, 0, 0, 0, 11, 0, 0, 36
|17, 0, 6, 11, 0, 0, 12, 0, 47, 0, 30, 14, 19, 0, 20, 0, 0, 0, 0, 0, 29, 0, 0, 27, 0, 43, 42, 35, 4, 41, 23, 3, 32, 7, 0, 39, 0, 25, 0, 0, 0, 13, 31, 49, 0, 0, 0, 0, 1
|0, 0, 0, 31, 42, 0, 1, 15, 0, 16, 23, 18, 44, 0, 32, 0, 36, 0, 47, 2, 12, 3, 37, 7, 0, 13, 10, 28, 0, 0, 0, 38, 35, 6, 0, 11, 14, 0, 17, 19, 0, 0, 0, 26, 43, 39, 0, 24, 21
|41, 0, 5, 0, 0, 0, 18, 0, 0, 39, 49, 42, 0, 0, 44, 0, 45, 26, 0, 0, 0, 0, 0, 47, 0, 0, 36, 0, 0, 0, 0, 0, 1, 29, 27, 0, 10, 9, 16, 30, 0, 46, 8, 0, 0, 0, 32, 0, 15
|25, 0, 0, 0, 0, 22, 0, 0, 32, 0, 10, 0, 15, 0, 26, 7, 23, 0, 0, 40, 0, 0, 0, 8, 0, 18, 39, 0, 0, 27, 0, 0, 34, 0, 0, 0, 0, 0, 0, 0, 0, 0, 0, 45, 0, 47, 11, 0, 0
|0, 31, 0, 1, 47, 39, 15, 48, 5, 0, 44, 8, 43, 45, 18, 0, 0, 12, 11, 34, 0, 6, 46, 32, 0, 16, 0, 0, 22, 14, 0, 0, 19, 0, 49, 41, 0, 35, 0, 0, 0, 0, 7, 0, 0, 0, 27, 0, 0
|0, 0, 38, 0, 21, 0, 10, 19, 46, 27, 0, 16, 13, 0, 0, 2, 0, 43, 41, 0, 33, 0, 47, 40, 0, 4, 0, 34, 15, 7, 0, 0, 6, 0, 0, 32, 44, 0, 1, 36, 8, 0, 0, 9, 49, 0, 30, 0, 28
|37, 4, 0, 0, 0, 0, 36, 0, 49, 0, 0, 33, 1, 0, 6, 8, 39, 30, 22, 38, 32, 5, 20, 15, 12, 0, 0, 0, 41, 9, 2, 29, 0, 0, 35, 25, 47, 7, 0, 40, 0, 0, 17, 0, 0, 13, 16, 0, 42
|0, 0, 0, 8, 0, 0, 0, 0, 9, 3, 0, 11, 0, 0, 5, 48, 0, 28, 0, 42, 45, 0, 0, 0, 27, 0, 35, 0, 0, 36, 26, 0, 0, 0, 37, 22, 43, 0, 0, 12, 0, 15, 0, 18, 29, 0, 0, 0, 2
|14, 13, 9, 48, 0, 0, 6, 40, 26, 18, 35, 17, 0, 0, 0, 47, 0, 0, 0, 0, 16, 0, 11, 0, 0, 0, 0, 43, 33, 0, 45, 32, 0, 1, 0, 2, 19, 0, 0, 38, 0, 0, 20, 8, 0, 0, 0, 36, 0
|24, 0, 0, 0, 26, 0, 20, 0, 39, 0, 38, 0, 7, 0, 0, 0, 0, 0, 0, 0, 35, 2, 29, 23, 0, 0, 0, 19, 40, 0, 0, 48, 0, 0, 47, 0, 34, 0, 5, 0, 28, 37, 0, 0, 0, 32, 15, 0, 0|];