order = 7;
grid = [|49, 22, 0, 2, 4, 0, 36, 37, 0, 0, 39, 14, 23, 7, 45, 11, 9, 0, 16, 0, 0, 0, 0, 33, 47, 10, 20, 8, 0, 44, 3, 34, 17, 35, 13, 0, 0, 0, 29, 26, 0, 46, 0, 0, 42, 0, 0, 0, 0
|0, 45, 30, 11, 0, 0, 38, 0, 12, 0, 4, 0, 48, 0, 0, 1, 43, 0, 0, 0, 0, 0, 21, 42, 0, 0, 39, 37, 29, 0, 40, 0, 0, 0, 24, 0, 17, 0, 23, 0, 25, 0, 18, 34, 33, 0, 20, 22, 0
|0, 0, 10, 5, 0, 14, 35, 15, 25, 0, 0, 0, 0, 24, 0, 26, 46, 30, 0, 0, 0, 28, 0, 0, 0, 48, 3, 0, 21, 47, 8, 0, 11, 49, 43, 0, 0, 4, 42, 0, 0, 22, 0, 2, 1, 44, 37, 39, 0
|0, 0, 0, 7, 0, 0, 0, 0, 0, 35, 0, 0, 44, 10, 39, 0, 37, 0, 22, 42, 23, 0, 0, 17, 0, 0, 34, 29, 0, 0, 0, 31, 0, 48, 4, 8, 11, 0, 0, 0, 0, 38, 0, 24, 43, 13, 0, 36, 47
|0, 0, 0, 0, 25, 0, 46, 0, 27, 42, 0, 0, 17, 0, 13, 0, 48, 34, 0, 0, 47, 2, 0, 45, 0, 0, 1, 38, 20, 0, 37, 32, 33, 19, 0, 31, 0, 0, 49, 0, 18, 0, 0, 0, 9, 0, 21, 0, 5
|0, 42, 43, 0, 0, 44, 39, 0, 47, 30, 0, 0, 0, 41, 25, 0, 0, 24, 29, 6, 0, 0, 18, 36, 0, 0, 0, 35, 0, 12, 0, 7, 2, 0, 0, 37, 0, 19, 0, 32, 0, 0, 0, 10, 0, 49, 0, 0, 0
|8, 6, 0, 26, 0, 37, 34, 40, 0, 29, 33, 0, 2, 0, 41, 18, 0, 49, 0, 0, 5, 0, 19, 0, 0, 25, 22, 0, 42, 23, 36, 10, 46, 45, 0, 39, 15, 9, 0, 20, 47, 0, 0, 0, 31, 0, 0, 28, 12
|0, 1, 5, 25, 33, 0, 21, 0, 0, 23, 38, 0, 35, 27, 37, 0, 40, 31, 0, 0, 0, 0, 46, 29, 0, 0, 7, 0, 12, 0, 0, 0, 0, 0, 22, 0, 0, 42, 8, 3, 16, 0, 39, 0, 0, 34, 49, 47, 43
|15, 0, 0, 27, 0, 0, 0, 42, 0, 17, 0, 7, 0, 0, 0, 0, 0, 0, 23, 29, 0, 0, 10, 40, 0, 47, 41, 0, 5, 46, 0, 36, 0, 28, 19, 0, 0, 0, 0, 11, 31, 0, 0, 38, 0, 0, 12, 0, 16
|7, 0, 0, 0, 0, 0, 6, 0, 0, 0, 0, 0, 9, 0, 0, 41, 24, 12, 0, 43, 0, 3, 27, 15, 0, 38, 35, 48, 13, 0, 11, 0, 8, 0, 34, 0, 0, 39, 4, 1, 45, 30, 0, 0, 17, 0, 0, 44, 46
|0, 43, 40, 28, 0, 17, 0, 39, 0, 0, 3, 4, 0, 0, 0, 0, 0, 0, 1, 15, 0, 26, 0, 49, 5, 42, 24, 23, 41, 27, 0, 0, 0, 7, 0, 19, 0, 6, 38, 10, 29, 37, 0, 0, 30, 45, 0, 0, 0
|0, 13, 38, 0, 23, 12, 0, 24, 20, 41, 5, 34, 18, 0, 0, 47, 0, 0, 46, 0, 0, 0, 44, 37, 22, 0, 28, 16, 39, 49, 0, 0, 0, 1, 32, 0, 21, 7, 0, 0, 0, 0, 0, 48, 0, 0, 19, 27, 0
|0, 20, 41, 0, 46, 0, 0, 0, 0, 8, 36, 47, 30, 0, 7, 27, 28, 0, 0, 0, 13, 25, 0, 21, 1, 43, 0, 31, 0, 38, 0, 0, 29, 0, 37, 40, 12, 49, 2, 0, 5, 15, 14, 42, 0, 22, 0, 0, 0
|2, 29, 0, 49, 42, 39, 10, 33, 0, 21, 16, 0, 0, 0, 48, 0, 0, 0, 8, 0, 0, 0, 0, 11, 9, 12, 0, 19, 23, 0, 0, 0, 44, 0, 0, 27, 0, 20, 47, 25, 41, 0, 13, 0, 36, 35, 0, 7, 0
|42, 0, 0, 17, 0, 45, 0, 0, 29, 2, 27, 0, 0, 0, 0, 0, 39, 41, 0, 0, 0, 1, 0, 22, 30, 0, 19, 25, 36, 18, 32, 0, 13, 0, 38, 0, 14, 33, 3, 15, 26, 0, 40, 16, 46, 6, 0, 0, 35
|0, 4, 27, 0, 29, 49, 0, 0, 0, 7, 0, 0, 12, 14, 0, 0, 33, 38, 0, 0, 0, 48, 3, 23, 0, 0, 10, 0, 9, 15, 0, 0, 0, 6, 0, 0, 34, 0, 18, 42, 0, 0, 0, 0, 0, 43, 47, 13, 19
|36, 21, 0, 0, 5, 19, 41, 0, 0, 0, 0, 0, 4, 0, 3, 32, 49, 0, 0, 0, 46, 0, 0, 0, 7, 45, 0, 6, 0, 48, 0, 28, 0, 0, 0, 0, 0, 0, 43, 37, 12, 1, 0, 0, 11, 0, 42, 0, 0
|0, 32, 0, 39, 0, 0, 0, 36, 0, 0, 0, 0, 0, 0, 0, 20, 12, 0, 0, 0, 11, 0, 14, 0, 34, 0, 2, 15, 0, 0, 0, 29, 24, 0, 0, 0, 22, 8, 0, 31, 23, 0, 28, 0, 38, 33, 0, 49, 27
|6, 0, 0, 33, 30, 0, 12, 0, 24, 44, 26, 25, 0, 0, 43, 23, 45, 10, 0, 35, 22, 0, 29, 0, 0, 18, 0, 42, 14, 0, 39, 21, 0, 0, 16, 0, 0, 0, 0, 19, 0, 48, 2, 0, 0, 0, 8, 0, 0
|0, 14, 0, 46, 0, 2, 0, 5, 0, 6, 0, 0, 11, 13, 0, 29, 0, 25, 0, 16, 26, 0, 0, 32, 8, 17, 0, 0, 0, 0, 12, 49, 7, 0, 10, 0, 0, 27, 0, 0, 28, 0, 0, 22, 0, 23, 3, 1, 0
|10, 0, 0, 0, 40, 0, 0, 0, 43, 19, 1, 0, 38, 20, 0, 44, 0, 0, 14, 0, 24, 33, 0, 0, 0, 0, 49, 26, 0, 0, 0, 0, 23, 41, 0, 0, 0, 35, 0, 0, 0, 0, 0, 30, 37, 0, 29, 0, 45
|39, 30, 42, 24, 16, 48, 0, 0, 0, 0, 0, 35, 33, 0, 38, 0, 29, 37, 18, 0, 40, 5, 20, 8, 49, 28, 32, 0, 0, 3, 0, 0, 0, 25, 0, 0, 44, 41, 36, 22, 15, 26, 0, 0, 12, 31, 27, 21, 0
|17, 0, 12, 0, 34, 0, 0, 0, 0, 4, 0, 41, 45, 46, 0, 8, 13, 0, 43, 47, 30, 0, 0, 6, 23, 2, 31, 22, 10, 0, 29, 0, 0, 16, 18, 0, 24, 0, 5, 48, 7, 27, 0, 49, 32, 28, 11, 0, 25
|32, 8, 0, 0, 0, 0, 0, 0, 0, 0, 9, 0, 0, 0, 27, 0, 0, 15, 10, 0, 41, 0, 0, 19, 0, 0, 0, 36, 0, 0, 0, 20, 0, 0, 0, 11, 0, 0, 6, 47, 42, 14, 34, 0, 0, 0, 0, 40, 0
|0, 0, 0, 10, 19, 25, 27, 0, 0, 48, 0, 0, 0, 0, 0, 0, 0, 0, 3, 0, 0, 0, 0, 34, 0, 0, 0, 13, 30, 0, 28, 0, 32, 0, 44, 0, 0, 23, 21, 0, 39, 0, 9, 26, 0, 0, 0, 35, 1
|9, 0, 46, 0, 0, 41, 0, 0, 0, 34, 0, 30, 10, 39, 0, 0, 2, 0, 0, 48, 42, 11, 33, 26, 0, 0, 0, 14, 35, 0, 0, 43, 0, 38, 5, 0, 29, 32, 25, 28, 0, 0, 8, 0, 0, 0, 0, 15, 0
|0, 18, 0, 0, 0, 31, 49, 0, 0, 0, 25, 0, 24, 0, 28, 9, 0, 26, 0, 0, 16, 0, 41, 0, 21, 39, 46, 0, 11, 1, 0, 0, 0, 36, 0, 0, 43, 0, 0, 0, 35, 0, 45, 33, 48, 0, 22, 0, 38
|43, 0, 22, 38, 14, 23, 0, 0, 0, 28, 0, 12, 0, 32, 6, 33, 0, 11, 0, 19, 39, 45, 48, 0, 15, 0, 0, 3, 4, 13, 0, 42, 27, 0, 49, 0, 10, 37, 1, 17, 9, 0, 47, 0, 2, 0, 16, 0, 30
|47, 37, 0, 0, 0, 0, 33, 22, 34, 12, 15, 0, 16, 21, 46, 4, 0, 7, 28, 0, 20, 0, 0, 5, 17, 0, 0, 0, 0, 39, 0, 44, 6, 30, 0, 0, 36, 0, 32, 0, 0, 0, 1, 19, 0, 0, 0, 0, 0
|0, 10, 24, 0, 17, 0, 0, 0, 13, 39, 0, 3, 0, 0, 0, 43, 44, 0, 33, 5, 0, 0, 0, 27, 48, 20, 0, 0, 0, 11, 0, 0, 0, 0, 1, 0, 37, 0, 0, 14, 2, 12, 0, 0, 0, 0, 23, 0, 34
|25, 0, 35, 1, 0, 40, 0, 0, 49, 0, 0, 0, 47, 48, 12, 0, 0, 13, 0, 23, 0, 36, 7, 0, 0, 14, 16, 28, 34, 0, 46, 0, 0, 0, 0, 42, 0, 0, 0, 0, 19, 4, 30, 18, 0, 21, 0, 37, 32
|0, 5, 0, 0, 0, 46, 0, 27, 1, 0, 0, 11, 32, 44, 0, 0, 0, 0, 40, 36, 0, 0, 8, 0, 0, 0, 42, 41, 37, 25, 33, 0, 0, 29, 0, 0, 49, 28, 15, 0, 0, 0, 0, 4, 0, 47, 0, 26, 0
|0, 0, 45, 29, 6, 0, 0, 0, 33, 37, 10, 26, 0, 9, 21, 0, 0, 35, 24, 0, 27, 0, 30, 0, 0, 44, 15, 0, 28, 0, 0, 22, 0, 0, 20, 0, 0, 1, 0, 0, 38, 0, 0, 0, 0, 48, 0, 0, 42
|28, 12, 0, 0, 0, 4, 11, 0, 23, 25, 40, 0, 0, 30, 8, 42, 38, 39, 0, 37, 1, 21, 0, 0, 19, 0, 0, 34, 27, 7, 0, 24, 0, 14, 0, 0, 47, 18, 20, 0, 44, 16, 36, 0, 29, 0, 0, 0, 13
|0, 0, 0, 0, 2, 0, 0, 0, 31, 0, 7, 0, 0, 42, 0, 0, 0, 0, 34, 9, 32, 12, 37, 0, 0, 0, 0, 10, 0, 35, 0, 45, 0, 0, 0, 26, 33, 0, 41, 0, 6, 5, 17, 0, 39, 0, 0, 46, 0
|0, 27, 1, 30, 32, 38, 0, 35, 28, 0, 0, 39, 0, 0, 42, 48, 0, 0, 37, 18, 0, 0, 4, 0, 0, 41, 43, 0, 22, 5, 24, 0, 0, 0, 0, 0, 0, 14, 0, 0, 46, 0, 6, 0, 49, 26, 0, 0, 0
|0, 0, 33, 0, 20, 0, 0, 45, 3, 18, 0, 17, 0, 40, 0, 16, 0, 0, 0, 13, 31, 0, 0, 0, 0, 49, 27, 0, 0, 0, 19, 25, 0, 0, 15, 0, 28, 26, 24, 29, 0, 0, 0, 12, 0, 5, 30, 23, 0
|5, 0, 0, 0, 24, 0, 0, 43, 0, 1, 0, 0, 0, 0, 34, 6, 0, 8, 30, 46, 0, 0, 0, 20, 28, 22, 0, 11, 33, 29, 44, 48, 0, 32, 0, 0, 0, 0, 10, 35, 0, 0, 0, 47, 15, 4, 41, 2, 31
|0, 2, 0, 37, 0, 0, 0, 0, 6, 0, 0, 0, 29, 15, 26, 12, 14, 23, 0, 0, 4, 34, 1, 0, 0, 0, 0, 30, 0, 28, 38, 0, 31, 0, 0, 41, 42, 0, 0, 0, 22, 0, 44, 40, 18, 9, 39, 32, 0
|23, 0, 0, 3, 49, 15, 0, 0, 14, 0, 48, 2, 0, 0, 44, 0, 0, 0, 0, 0, 0, 0, 42, 0, 0, 0, 5, 32, 0, 0, 0, 0, 0, 11, 0, 0, 18, 0, 34, 8, 0, 0, 0, 35, 16, 1, 0, 0, 0
|0, 0, 34, 14, 0, 0, 0, 41, 38, 0, 32, 0, 25, 16, 1, 35, 15, 28, 39, 11, 0, 29, 36, 48, 10, 0, 23, 33, 0, 4, 18, 0, 0, 17, 0, 0, 40, 0, 0, 6, 3, 49, 7, 43, 19, 0, 0, 42, 0
|0, 44, 0, 0, 0, 0, 7, 34, 0, 22, 0, 21, 5, 0, 0, 24, 20, 43, 0, 38, 49, 0, 26, 39, 14, 0, 0, 0, 3, 0, 0, 1, 0, 40, 35, 15, 0, 12, 0, 4, 48, 45, 29, 0, 0, 46, 0, 25, 36
|16, 11, 37, 18, 0, 0, 0, 21, 17, 15, 41, 0, 0, 45, 0, 0, 1, 48, 42, 32, 0, 0, 28, 0, 0, 0, 47, 20, 0, 0, 4, 23, 0, 0, 40, 44, 0, 0, 35, 0, 0, 25, 46, 29, 13, 30, 2, 43, 6
|4, 38, 0, 0, 35, 5, 0, 30, 0, 36, 0, 29, 0, 0, 23, 0, 0, 2, 15, 0, 17, 0, 0, 18, 46, 0, 0, 27, 0, 0, 14, 11, 0, 0, 0, 0, 16, 0, 39, 40, 33, 0, 24, 3, 25, 12, 0, 34, 0
|0, 0, 0, 0, 0, 0, 0, 47, 2, 43, 46, 16, 20, 8, 0, 10, 0, 0, 35, 0, 0, 31, 15, 0, 0, 33, 0, 1, 24, 17, 0, 0, 49, 37, 0, 0, 4, 22, 0, 0, 13, 32, 0, 23, 44, 41, 5, 11, 0
|0, 0, 0, 0, 3, 0, 0, 14, 0, 0, 24, 0, 39, 34, 29, 0, 0, 40, 0, 0, 43, 10, 0, 25, 44, 0, 17, 0, 1, 42, 16, 5, 12, 0, 28, 2, 0, 0, 30, 38, 8, 0, 4, 0, 0, 37, 0, 48, 15
|0, 24, 0, 41, 26, 0, 0, 0, 0, 0, 0, 23, 0, 18, 47, 0, 11, 4, 49, 28, 0, 39, 13, 2, 0, 0, 21, 0, 0, 0, 0, 3, 0, 44, 0, 0, 0, 0, 12, 0, 37, 0, 0, 0, 8, 0, 0, 19, 14
|0, 39, 0, 15, 0, 30, 0, 0, 42, 26, 12, 27, 13, 0, 33, 37, 0, 0, 0, 24, 0, 0, 49, 16, 36, 23, 0, 5, 0, 0, 6, 41, 0, 21, 0, 0, 19, 11, 0, 18, 0, 9, 0, 0, 0, 0, 32, 20, 22
|44, 49, 0, 0, 0, 6, 0, 0, 4, 0, 11, 37, 28, 0, 0, 46, 16, 0, 0, 0, 34, 0, 0, 0, 29, 8, 26, 7, 18, 0, 27, 13, 15, 0, 0, 0, 0, 0, 48, 23, 0, 0, 42, 0, 0, 36, 0, 31, 0|];