order = 7;
grid = [|0, 0, 0, 28, 4, 0, 0, 1, 31, 20, 0, 0, 0, 0, 36, 47, 0, 0, 2, 0, 21, 0, 0, 0, 23, 0, 0, 0, 13, 0, 0, 18, 6, 45, 0, 33, 41, 10, 0, 24, 0, 49, 25, 0, 44, 40, 0, 43, 0
|0, 0, 2, 25, 0, 49, 1, 0, 23, 0, 0, 0, 0, 48, 0, 0, 0, 38, 4, 22, 0, 0, 0, 21, 0, 26, 13, 0, 16, 27, 0, 0, 19, 42, 8, 5, 0, 20, 30, 9, 15, 0, 0, 0, 0, 0, 0, 0, 0
|0, 0, 17, 23, 19, 36, 0, 39, 0, 2, 42, 0, 0, 43, 0, 29, 0, 48, 33, 7, 5, 49, 0, 0, 0, 10, 1, 20, 15, 0, 0, 37, 0, 11, 0, 0, 0, 47, 0, 4, 0, 38, 13, 0, 28, 0, 0, 45, 0
|24, 26, 0, 46, 38, 0, 31, 0, 22, 0, 0, 0, 44, 0, 14, 0, 42, 0, 20, 0, 0, 0, 25, 7, 0, 0, 12, 4, 9, 23, 28, 29, 0, 0, 0, 0, 0, 0, 0, 13, 0, 0, 21, 36, 48, 0, 0, 0, 0
|18, 32, 0, 0, 5, 0, 33, 13, 0, 0, 0, 0, 0, 0, 0, 0, 44, 19, 27, 0, 0, 0, 0, 29, 28, 0, 0, 0, 0, 0, 43, 0, 0, 0, 36, 26, 23, 2, 17, 0, 34, 0, 0, 0, 0, 14, 42, 11, 24
|0, 0, 6, 43, 0, 0, 27, 37, 4, 47, 19, 0, 25, 0, 0, 0, 31, 0, 0, 26, 13, 0, 9, 0, 40, 39, 0, 30, 0, 12, 48, 10, 20, 34, 32, 0, 14, 0, 11, 8, 0, 36, 38, 0, 49, 0, 5, 1, 0
|44, 0, 0, 0, 0, 0, 0, 10, 0, 0, 38, 17, 6, 28, 9, 0, 0, 23, 0, 0, 32, 0, 36, 0, 18, 0, 0, 0, 4, 0, 0, 2, 33, 26, 0, 48, 0, 1, 12, 25, 31, 21, 0, 0, 0, 0, 22, 0, 0
|0, 30, 9, 48, 20, 0, 0, 18, 19, 44, 6, 0, 0, 29, 23, 0, 0, 21, 42, 35, 0, 0, 22, 36, 24, 0, 0, 0, 0, 0, 0, 0, 0, 0, 45, 0, 38, 0, 0, 0, 0, 0, 0, 0, 0, 0, 43, 33, 32
|0, 44, 0, 26, 0, 0, 29, 8, 0, 12, 37, 22, 0, 20, 0, 0, 0, 31, 0, 0, 3, 0, 0, 0, 41, 0, 34, 0, 18, 7, 0, 0, 0, 0, 0, 11, 10, 25, 16, 0, 0, 15, 19, 13, 0, 28, 0, 24, 0
|0, 0, 0, 15, 0, 4, 19, 17, 46, 13, 49, 0, 11, 0, 0, 0, 10, 0, 0, 0, 0, 30, 21, 0, 0, 43, 0, 5, 0, 0, 0, 48, 9, 31, 28, 0, 0, 0, 7, 33, 0, 0, 26, 0, 20, 36, 16, 38, 0
|10, 0, 0, 11, 0, 0, 0, 0, 0, 42, 0, 23, 0, 0, 0, 4, 33, 0, 0, 0, 0, 0, 1, 19, 0, 0, 32, 0, 0, 0, 0, 3, 0, 0, 0, 41, 34, 35, 48, 0, 2, 0, 30, 46, 25, 18, 12, 0, 0
|0, 5, 0, 0, 0, 0, 28, 40, 3, 10, 0, 43, 35, 0, 41, 14, 36, 0, 30, 19, 0, 12, 0, 17, 16, 0, 38, 0, 26, 33, 25, 4, 0, 20, 0, 44, 42, 0, 1, 6, 0, 22, 37, 0, 21, 0, 0, 34, 48
|21, 0, 0, 37, 23, 1, 0, 33, 32, 0, 34, 5, 47, 25, 29, 11, 0, 43, 48, 12, 0, 0, 10, 0, 0, 0, 0, 0, 0, 2, 19, 0, 0, 0, 0, 46, 0, 9, 20, 0, 24, 0, 6, 0, 0, 0, 0, 22, 15
|36, 0, 0, 0, 0, 24, 3, 15, 41, 39, 0, 0, 14, 0, 28, 0, 13, 6, 44, 0, 0, 7, 0, 37, 0, 0, 0, 0, 10, 0, 0, 0, 0, 0, 43, 27, 0, 0, 0, 30, 0, 4, 0, 1, 0, 0, 0, 0, 17
|29, 0, 0, 33, 11, 2, 43, 45, 0, 0, 0, 0, 0, 8, 0, 10, 0, 13, 47, 0, 0, 31, 40, 16, 0, 7, 0, 0, 36, 0, 5, 0, 22, 23, 0, 0, 0, 14, 0, 37, 32, 20, 0, 0, 1, 0, 41, 42, 0
|3, 12, 19, 0, 0, 44, 0, 2, 0, 32, 0, 37, 9, 5, 0, 15, 39, 16, 35, 20, 0, 47, 43, 0, 0, 0, 0, 0, 27, 0, 34, 46, 0, 0, 0, 0, 0, 33, 0, 0, 0, 7, 36, 0, 0, 48, 0, 0, 49
|0, 0, 0, 4, 0, 5, 0, 0, 18, 17, 0, 0, 0, 12, 0, 36, 0, 7, 0, 0, 19, 38, 41, 0, 1, 33, 45, 27, 6, 10, 0, 0, 0, 0, 0, 0, 0, 0, 0, 44, 0, 16, 0, 2, 0, 0, 11, 26, 0
|0, 36, 0, 31, 7, 6, 26, 0, 0, 0, 0, 0, 48, 34, 0, 12, 2, 0, 41, 44, 17, 37, 5, 0, 29, 0, 3, 15, 0, 11, 47, 0, 35, 0, 0, 1, 13, 30, 0, 0, 0, 18, 0, 39, 0, 25, 33, 0, 0
|45, 34, 32, 0, 30, 0, 25, 0, 36, 0, 0, 4, 0, 33, 1, 0, 0, 0, 0, 0, 0, 0, 0, 0, 0, 0, 0, 0, 43, 49, 0, 12, 2, 0, 0, 0, 0, 39, 8, 0, 0, 9, 20, 18, 3, 16, 0, 15, 38
|0, 0, 18, 21, 1, 20, 0, 27, 0, 0, 47, 0, 13, 0, 3, 48, 24, 0, 0, 9, 0, 0, 44, 0, 0, 49, 19, 2, 33, 15, 4, 0, 0, 0, 26, 12, 0, 0, 0, 36, 5, 0, 7, 0, 23, 17, 0, 14, 0
|17, 0, 0, 0, 41, 0, 0, 0, 0, 0, 0, 21, 42, 0, 33, 0, 0, 0, 29, 27, 0, 0, 0, 0, 8, 12, 0, 36, 0, 0, 18, 7, 3, 0, 20, 4, 0, 0, 25, 31, 10, 0, 0, 0, 13, 0, 45, 0, 5
|0, 10, 27, 0, 25, 0, 0, 20, 43, 14, 7, 0, 17, 0, 0, 0, 0, 26, 9, 13, 6, 40, 0, 0, 0, 30, 15, 0, 0, 0, 0, 22, 0, 0, 0, 36, 47, 0, 0, 41, 0, 0, 28, 5, 32, 0, 21, 39, 0
|20, 23, 0, 0, 0, 0, 5, 22, 0, 0, 0, 0, 0, 0, 0, 0, 0, 0, 0, 0, 36, 17, 16, 0, 0, 4, 8, 32, 0, 0, 45, 0, 26, 0, 27, 21, 0, 0, 35, 0, 0, 30, 44, 43, 29, 0, 0, 18, 47
|0, 0, 40, 45, 39, 0, 46, 0, 0, 0, 25, 0, 0, 44, 0, 0, 3, 29, 23, 10, 16, 13, 0, 9, 35, 24, 41, 0, 0, 30, 15, 47, 0, 28, 0, 0, 48, 5, 0, 0, 0, 0, 0, 27, 0, 7, 31, 0, 22
|0, 7, 0, 0, 0, 0, 0, 0, 33, 0, 0, 24, 0, 0, 0, 8, 0, 0, 25, 0, 22, 0, 46, 0, 27, 1, 23, 0, 0, 4, 17, 9, 48, 0, 0, 0, 0, 11, 0, 0, 0, 13, 14, 37, 35, 10, 38, 40, 34
|31, 0, 0, 44, 37, 0, 34, 16, 28, 23, 0, 6, 10, 47, 4, 0, 0, 27, 18, 0, 35, 48, 0, 33, 7, 0, 29, 49, 5, 0, 0, 20, 0, 2, 41, 15, 19, 0, 0, 32, 0, 0, 45, 0, 0, 0, 36, 30, 26
|0, 35, 0, 0, 0, 14, 21, 0, 0, 0, 0, 19, 40, 0, 0, 0, 0, 30, 0, 0, 28, 0, 20, 0, 22, 0, 47, 45, 49, 18, 13, 0, 0, 7, 11, 0, 0, 0, 0, 0, 6, 0, 0, 48, 0, 0, 0, 0, 0
|0, 47, 29, 1, 26, 0, 0, 49, 0, 35, 39, 27, 18, 0, 0, 34, 41, 0, 0, 0, 14, 0, 0, 0, 0, 21, 0, 44, 19, 40, 36, 0, 12, 16, 10, 0, 0, 0, 0, 0, 0, 24, 4, 3, 0, 15, 8, 20, 13
|46, 0, 49, 30, 10, 18, 0, 0, 0, 48, 0, 0, 0, 17, 12, 0, 26, 0, 0, 0, 0, 32, 0, 0, 25, 0, 0, 0, 34, 6, 0, 0, 4, 0, 0, 0, 0, 16, 5, 0, 0, 0, 24, 45, 42, 0, 13, 7, 0
|0, 20, 26, 17, 0, 8, 35, 11, 0, 0, 0, 0, 0, 42, 32, 0, 0, 0, 24, 6, 0, 0, 0, 0, 0, 0, 0, 0, 0, 0, 1, 0, 0, 33, 0, 13, 15, 7, 0, 0, 4, 47, 0, 0, 31, 0, 39, 0, 0
|6, 0, 1, 0, 0, 28, 0, 24, 0, 8, 15, 40, 23, 0, 19, 27, 0, 10, 0, 0, 0, 0, 0, 0, 33, 0, 9, 17, 0, 0, 0, 0, 0, 5, 0, 45, 18, 0, 0, 0, 0, 0, 48, 21, 0, 43, 0, 12, 0
|25, 0, 0, 0, 24, 0, 44, 35, 0, 46, 0, 0, 0, 22, 49, 0, 9, 0, 0, 0, 41, 0, 0, 47, 0, 16, 0, 12, 0, 0, 20, 0, 0, 0, 18, 28, 32, 31, 37, 0, 39, 0, 34, 0, 0, 0, 26, 17, 14
|41, 9, 34, 0, 48, 31, 0, 0, 0, 0, 18, 0, 0, 0, 16, 7, 35, 0, 40, 30, 0, 11, 6, 46, 39, 37, 20, 0, 24, 36, 44, 26, 45, 22, 0, 17, 0, 49, 29, 10, 0, 43, 15, 19, 8, 0, 47, 32, 4
|0, 38, 11, 0, 0, 33, 0, 0, 0, 0, 0, 0, 0, 39, 31, 44, 20, 45, 0, 17, 34, 0, 13, 0, 15, 48, 0, 0, 0, 0, 0, 43, 47, 27, 0, 0, 30, 0, 19, 0, 42, 46, 0, 25, 0, 0, 0, 0, 0
|0, 0, 16, 13, 0, 0, 0, 0, 0, 25, 2, 33, 26, 0, 42, 0, 22, 0, 0, 0, 46, 0, 0, 0, 31, 0, 28, 0, 0, 0, 0, 19, 15, 0, 0, 0, 0, 0, 0, 48, 27, 41, 49, 20, 11, 0, 0, 0, 0
|0, 29, 0, 42, 16, 17, 0, 0, 8, 18, 0, 0, 0, 0, 0, 0, 0, 0, 46, 21, 0, 5, 19, 15, 0, 25, 0, 38, 3, 0, 0, 27, 0, 41, 0, 0, 0, 43, 0, 0, 11, 35, 0, 44, 30, 0, 0, 0, 2
|0, 0, 0, 24, 2, 12, 0, 0, 0, 30, 0, 11, 0, 0, 0, 0, 48, 35, 10, 43, 45, 20, 0, 18, 0, 8, 40, 0, 0, 0, 33, 0, 42, 0, 0, 25, 0, 0, 0, 0, 19, 0, 0, 29, 5, 0, 17, 13, 0
|19, 0, 23, 7, 44, 35, 0, 0, 0, 0, 41, 42, 0, 0, 34, 0, 0, 0, 36, 5, 0, 0, 0, 49, 0, 0, 0, 39, 0, 0, 40, 0, 0, 0, 6, 0, 26, 0, 4, 0, 0, 0, 0, 11, 0, 22, 25, 8, 20
|15, 6, 0, 3, 33, 21, 0, 0, 0, 0, 17, 36, 0, 0, 0, 0, 11, 0, 0, 18, 0, 4, 0, 32, 13, 46, 42, 1, 22, 45, 35, 0, 8, 19, 0, 30, 39, 0, 0, 0, 7, 14, 0, 0, 38, 0, 0, 23, 43
|11, 48, 20, 49, 40, 25, 0, 19, 5, 0, 0, 3, 22, 35, 0, 9, 12, 41, 38, 0, 44, 21, 23, 31, 0, 27, 30, 0, 47, 43, 0, 0, 28, 0, 29, 0, 17, 0, 0, 0, 37, 2, 0, 6, 0, 0, 0, 0, 18
|0, 39, 0, 0, 0, 0, 0, 23, 0, 1, 0, 0, 45, 46, 17, 6, 29, 42, 19, 0, 30, 0, 0, 0, 0, 0, 22, 0, 2, 0, 11, 0, 25, 0, 0, 0, 40, 48, 47, 0, 0, 0, 41, 0, 0, 24, 0, 0, 0
|22, 46, 0, 0, 0, 37, 10, 0, 0, 6, 0, 34, 33, 0, 0, 2, 23, 4, 15, 0, 49, 0, 47, 0, 0, 0, 17, 35, 0, 0, 0, 0, 0, 0, 0, 0, 8, 0, 42, 0, 0, 1, 0, 28, 0, 0, 0, 48, 0
|40, 0, 0, 0, 0, 30, 37, 43, 38, 0, 3, 44, 1, 0, 10, 0, 0, 0, 0, 2, 25, 0, 0, 13, 0, 0, 26, 0, 0, 0, 22, 0, 5, 32, 33, 7, 12, 0, 6, 0, 48, 8, 0, 4, 34, 0, 24, 0, 0
|2, 0, 0, 0, 0, 38, 18, 0, 27, 0, 33, 0, 46, 14, 5, 41, 47, 1, 0, 0, 24, 15, 0, 0, 4, 20, 0, 0, 23, 13, 0, 0, 37, 3, 42, 0, 35, 40, 9, 34, 30, 0, 10, 0, 0, 44, 0, 29, 25
|48, 4, 0, 0, 0, 0, 0, 0, 26, 24, 10, 0, 16, 0, 0, 46, 27, 0, 22, 0, 0, 0, 0, 0, 0, 35, 31, 0, 17, 0, 8, 11, 36, 0, 0, 23, 44, 0, 14, 38, 0, 0, 2, 0, 0, 0, 0, 0, 1
|39, 25, 31, 0, 9, 0, 17, 42, 45, 15, 28, 0, 34, 0, 21, 35, 0, 11, 12, 29, 0, 0, 2, 38, 0, 44, 36, 0, 48, 0, 30, 6, 14, 43, 19, 24, 0, 22, 0, 1, 0, 0, 0, 0, 0, 0, 0, 27, 0
|28, 0, 21, 35, 0, 13, 6, 9, 0, 0, 40, 0, 0, 11, 0, 0, 0, 18, 0, 0, 0, 0, 12, 0, 5, 17, 16, 0, 1, 46, 0, 44, 27, 4, 24, 19, 20, 42, 2, 0, 41, 25, 22, 0, 0, 0, 0, 3, 0
|0, 16, 0, 32, 14, 0, 0, 0, 0, 0, 0, 48, 0, 0, 0, 33, 0, 0, 3, 36, 0, 45, 24, 0, 21, 22, 27, 47, 0, 38, 2, 34, 49, 0, 0, 18, 28, 17, 0, 29, 43, 10, 0, 30, 15, 42, 0, 31, 0
|1, 3, 10, 8, 46, 0, 0, 0, 17, 0, 20, 0, 0, 2, 0, 42, 38, 44, 49, 0, 43, 0, 0, 25, 6, 32, 0, 37, 0, 29, 0, 35, 0, 47, 12, 16, 5, 0, 0, 11, 0, 0, 0, 14, 36, 33, 28, 0, 0|];