order = 7;
grid = [|25, 0, 0, 0, 49, 6, 0, 23, 0, 26, 15, 0, 45, 0, 0, 5, 0, 0, 0, 0, 20, 0, 0, 0, 16, 10, 40, 0, 34, 44, 0, 4, 0, 37, 0, 0, 0, 14, 24, 11, 0, 29, 0, 0, 0, 32, 21, 35, 36
|0, 0, 0, 0, 0, 32, 0, 21, 0, 35, 0, 40, 0, 18, 46, 29, 0, 0, 0, 15, 0, 0, 0, 6, 0, 0, 0, 39, 0, 31, 7, 0, 0, 0, 0, 0, 0, 8, 0, 10, 0, 0, 5, 0, 0, 17, 0, 0, 2
|0, 0, 45, 36, 0, 16, 0, 6, 0, 0, 44, 33, 0, 0, 0, 23, 0, 0, 0, 0, 38, 0, 0, 0, 37, 0, 0, 0, 17, 13, 0, 0, 46, 26, 0, 0, 39, 0, 0, 49, 5, 0, 11, 0, 0, 20, 43, 42, 0
|15, 35, 17, 0, 0, 42, 33, 0, 0, 0, 31, 0, 37, 0, 0, 21, 0, 1, 0, 8, 14, 0, 18, 3, 46, 7, 0, 0, 45, 0, 10, 9, 0, 40, 16, 25, 32, 41, 0, 0, 0, 38, 0, 0, 0, 0, 26, 0, 22
|0, 0, 44, 0, 38, 4, 0, 48, 0, 7, 0, 29, 10, 0, 0, 0, 47, 37, 0, 42, 0, 0, 0, 0, 0, 0, 0, 32, 0, 27, 11, 0, 0, 0, 1, 0, 0, 17, 0, 21, 0, 0, 0, 0, 12, 15, 16, 39, 0
|30, 0, 1, 31, 20, 24, 0, 0, 32, 0, 46, 16, 36, 0, 10, 0, 3, 0, 2, 44, 0, 0, 0, 42, 48, 0, 14, 0, 0, 0, 25, 49, 8, 21, 35, 23, 0, 15, 0, 0, 43, 0, 0, 37, 0, 0, 9, 0, 4
|0, 47, 0, 7, 34, 0, 0, 0, 3, 22, 0, 0, 0, 0, 6, 0, 32, 41, 4, 0, 0, 30, 0, 0, 0, 0, 15, 2, 12, 19, 0, 0, 0, 38, 42, 26, 1, 0, 35, 37, 16, 0, 14, 0, 40, 31, 0, 0, 18
|11, 0, 0, 0, 41, 19, 0, 15, 0, 0, 0, 0, 40, 7, 34, 31, 0, 0, 0, 24, 13, 0, 47, 0, 0, 23, 5, 0, 0, 0, 0, 42, 0, 0, 21, 0, 0, 9, 14, 6, 0, 20, 0, 35, 22, 0, 0, 0, 38
|38, 0, 0, 0, 21, 29, 0, 32, 0, 10, 0, 3, 33, 34, 0, 0, 0, 0, 0, 0, 44, 0, 0, 0, 0, 0, 30, 28, 0, 0, 0, 0, 9, 31, 46, 22, 0, 7, 16, 35, 11, 41, 42, 0, 0, 0, 0, 26, 19
|1, 0, 42, 0, 12, 0, 0, 35, 47, 0, 0, 0, 31, 30, 48, 32, 0, 0, 0, 0, 0, 0, 0, 44, 0, 39, 0, 0, 15, 49, 0, 0, 0, 0, 23, 45, 0, 0, 3, 0, 28, 0, 0, 0, 0, 0, 25, 16, 0
|0, 0, 0, 0, 48, 0, 0, 0, 0, 17, 0, 0, 0, 45, 40, 0, 43, 18, 19, 37, 0, 21, 41, 35, 34, 9, 0, 6, 47, 0, 24, 20, 3, 0, 0, 0, 0, 1, 36, 42, 44, 0, 0, 15, 0, 0, 7, 30, 11
|0, 6, 0, 0, 0, 0, 27, 0, 5, 0, 0, 0, 0, 0, 42, 0, 0, 0, 33, 14, 0, 32, 16, 0, 38, 1, 0, 29, 0, 0, 22, 7, 0, 0, 34, 0, 0, 26, 0, 0, 23, 10, 0, 0, 48, 0, 46, 0, 45
|0, 0, 0, 35, 13, 0, 16, 0, 0, 49, 4, 48, 0, 0, 0, 0, 0, 0, 28, 46, 22, 0, 36, 15, 7, 0, 42, 0, 43, 0, 0, 0, 6, 0, 29, 0, 2, 37, 38, 30, 0, 47, 0, 40, 21, 5, 0, 20, 12
|0, 44, 37, 39, 24, 0, 0, 0, 19, 42, 20, 0, 0, 28, 45, 16, 38, 0, 0, 0, 0, 0, 33, 40, 17, 0, 4, 0, 48, 18, 0, 0, 0, 12, 11, 0, 0, 0, 27, 0, 0, 43, 0, 49, 32, 0, 0, 47, 0
|47, 0, 27, 0, 7, 0, 6, 0, 9, 0, 0, 31, 21, 0, 0, 28, 0, 15, 49, 34, 0, 0, 0, 0, 42, 13, 23, 0, 0, 39, 2, 0, 29, 0, 24, 17, 0, 16, 0, 0, 38, 0, 0, 36, 1, 0, 0, 0, 0
|0, 25, 35, 17, 0, 11, 0, 0, 0, 0, 10, 5, 0, 0, 47, 0, 4, 0, 43, 26, 41, 0, 6, 0, 39, 0, 7, 0, 0, 0, 0, 32, 0, 0, 0, 0, 0, 23, 22, 0, 0, 49, 0, 38, 2, 13, 34, 15, 0
|41, 24, 0, 0, 0, 0, 10, 25, 0, 18, 0, 0, 0, 0, 0, 0, 0, 6, 7, 0, 16, 29, 38, 0, 0, 3, 0, 0, 4, 23, 0, 11, 1, 0, 47, 33, 0, 0, 26, 48, 0, 45, 30, 5, 46, 21, 0, 9, 14
|19, 18, 21, 45, 33, 0, 0, 17, 35, 11, 0, 0, 34, 29, 8, 0, 1, 38, 25, 0, 24, 15, 31, 9, 4, 0, 2, 0, 46, 0, 0, 3, 0, 44, 30, 0, 10, 0, 28, 7, 41, 0, 0, 0, 0, 0, 0, 0, 0
|39, 0, 4, 0, 26, 0, 5, 0, 0, 0, 0, 23, 15, 46, 0, 12, 0, 0, 14, 0, 0, 43, 28, 33, 0, 24, 1, 0, 0, 0, 38, 16, 0, 0, 0, 47, 29, 18, 42, 0, 27, 0, 0, 0, 17, 0, 0, 0, 0
|8, 15, 38, 42, 0, 0, 0, 0, 0, 0, 2, 43, 22, 26, 0, 0, 0, 44, 36, 32, 9, 37, 14, 11, 0, 0, 47, 0, 0, 0, 48, 0, 0, 33, 0, 1, 12, 0, 0, 0, 13, 0, 31, 19, 0, 0, 0, 0, 24
|3, 0, 0, 30, 0, 0, 49, 0, 0, 0, 0, 47, 0, 38, 19, 46, 0, 27, 31, 0, 0, 0, 0, 0, 0, 16, 0, 0, 0, 0, 18, 41, 42, 0, 40, 5, 24, 11, 15, 0, 0, 0, 23, 0, 0, 39, 0, 0, 0
|0, 11, 0, 10, 0, 38, 0, 0, 22, 0, 0, 18, 0, 0, 0, 0, 6, 0, 47, 17, 0, 8, 12, 21, 20, 0, 0, 0, 35, 1, 16, 0, 33, 28, 27, 7, 19, 0, 0, 31, 0, 0, 0, 34, 0, 49, 4, 0, 0
|49, 0, 18, 26, 4, 0, 46, 0, 14, 38, 0, 17, 19, 0, 0, 27, 0, 0, 0, 0, 37, 9, 45, 0, 0, 6, 13, 0, 32, 0, 0, 39, 0, 42, 15, 0, 0, 0, 5, 0, 0, 0, 36, 0, 30, 0, 24, 33, 25
|0, 0, 0, 0, 0, 0, 0, 0, 21, 0, 0, 0, 35, 0, 38, 0, 42, 0, 10, 0, 0, 0, 39, 0, 33, 4, 18, 0, 9, 24, 14, 31, 0, 17, 0, 41, 0, 0, 0, 0, 25, 8, 46, 2, 27, 6, 0, 12, 0
|0, 0, 0, 0, 22, 0, 0, 0, 0, 0, 28, 0, 26, 32, 2, 44, 18, 16, 3, 0, 0, 0, 0, 34, 0, 41, 38, 31, 0, 43, 29, 0, 21, 10, 25, 0, 23, 46, 0, 0, 39, 13, 0, 0, 0, 0, 35, 0, 0
|31, 0, 0, 0, 39, 0, 0, 24, 0, 0, 45, 0, 0, 0, 0, 0, 5, 0, 13, 0, 0, 0, 0, 0, 35, 14, 0, 25, 37, 0, 19, 18, 7, 0, 6, 32, 16, 0, 0, 0, 15, 0, 0, 22, 43, 29, 0, 0, 44
|0, 20, 0, 0, 0, 1, 34, 41, 27, 5, 0, 0, 48, 0, 0, 15, 40, 0, 0, 0, 8, 22, 0, 23, 0, 0, 0, 24, 0, 0, 45, 47, 44, 0, 0, 0, 0, 0, 4, 33, 0, 2, 0, 0, 42, 38, 37, 28, 31
|0, 0, 0, 0, 0, 0, 17, 31, 11, 0, 0, 2, 0, 0, 0, 0, 0, 0, 0, 0, 33, 0, 0, 0, 30, 0, 43, 0, 0, 26, 0, 40, 38, 0, 8, 0, 47, 0, 0, 0, 42, 0, 0, 23, 0, 0, 0, 18, 21
|18, 9, 0, 0, 0, 35, 0, 30, 34, 46, 0, 0, 17, 43, 0, 0, 23, 22, 44, 20, 42, 0, 2, 0, 31, 27, 0, 0, 40, 8, 0, 12, 19, 41, 0, 0, 0, 0, 0, 0, 29, 0, 3, 25, 24, 4, 49, 0, 26
|20, 0, 2, 21, 1, 13, 47, 10, 0, 24, 23, 0, 28, 22, 0, 11, 30, 0, 0, 0, 0, 0, 0, 4, 0, 44, 0, 0, 31, 32, 34, 25, 0, 27, 26, 0, 0, 0, 18, 36, 14, 7, 0, 33, 0, 0, 29, 0, 0
|0, 39, 30, 23, 44, 0, 11, 12, 0, 0, 42, 26, 0, 0, 0, 43, 7, 0, 0, 0, 0, 20, 0, 0, 22, 0, 19, 0, 0, 0, 0, 0, 13, 0, 0, 0, 8, 0, 0, 46, 0, 0, 45, 9, 35, 0, 0, 1, 0
|0, 8, 19, 0, 16, 0, 0, 0, 44, 9, 6, 41, 0, 0, 32, 0, 0, 0, 0, 49, 18, 28, 0, 24, 12, 36, 0, 7, 39, 0, 0, 0, 0, 0, 0, 0, 0, 0, 43, 0, 0, 0, 0, 0, 11, 42, 40, 21, 0
|22, 41, 46, 24, 45, 12, 38, 20, 0, 3, 0, 4, 0, 15, 14, 0, 0, 39, 0, 0, 25, 0, 30, 0, 1, 43, 26, 0, 44, 42, 35, 0, 0, 0, 0, 0, 0, 0, 9, 28, 17, 0, 0, 0, 10, 0, 47, 23, 0
|29, 0, 28, 3, 6, 0, 4, 0, 25, 0, 47, 0, 32, 0, 13, 0, 45, 0, 0, 0, 1, 18, 0, 0, 0, 0, 11, 0, 22, 21, 15, 0, 0, 20, 36, 0, 30, 0, 0, 34, 0, 33, 0, 12, 0, 0, 0, 0, 0
|0, 0, 0, 14, 0, 0, 7, 0, 0, 1, 0, 0, 0, 19, 0, 3, 0, 47, 21, 10, 0, 39, 0, 0, 15, 0, 0, 0, 0, 46, 33, 30, 2, 24, 9, 0, 0, 4, 23, 12, 0, 0, 22, 0, 0, 0, 36, 48, 0
|0, 13, 0, 0, 9, 0, 0, 18, 0, 33, 0, 25, 0, 0, 0, 0, 24, 31, 0, 0, 0, 0, 0, 22, 0, 0, 21, 0, 30, 7, 0, 0, 0, 14, 4, 6, 0, 47, 40, 0, 0, 0, 0, 28, 0, 0, 0, 29, 0
|24, 0, 0, 41, 2, 3, 0, 0, 12, 29, 8, 36, 0, 9, 30, 45, 0, 17, 0, 0, 0, 0, 40, 0, 0, 15, 48, 0, 42, 35, 6, 19, 0, 25, 20, 0, 26, 22, 0, 0, 0, 0, 33, 44, 0, 47, 0, 37, 5
|21, 0, 22, 0, 0, 15, 25, 0, 0, 16, 3, 0, 7, 1, 0, 20, 0, 0, 0, 0, 47, 4, 0, 14, 44, 18, 0, 38, 27, 0, 0, 0, 0, 0, 45, 19, 9, 31, 17, 5, 37, 48, 41, 0, 23, 8, 39, 24, 0
|0, 0, 0, 6, 0, 28, 32, 14, 0, 43, 0, 0, 11, 23, 29, 0, 0, 33, 0, 18, 3, 36, 19, 5, 9, 0, 0, 42, 0, 0, 0, 0, 0, 39, 49, 0, 38, 10, 46, 44, 0, 34, 2, 0, 15, 25, 0, 7, 30
|46, 7, 0, 16, 18, 39, 0, 34, 0, 0, 5, 0, 6, 0, 41, 0, 0, 32, 38, 25, 4, 24, 0, 12, 29, 0, 0, 30, 8, 0, 0, 22, 0, 0, 43, 15, 42, 0, 0, 1, 0, 0, 0, 14, 9, 0, 0, 0, 0
|0, 30, 29, 0, 0, 48, 8, 0, 0, 0, 0, 0, 0, 0, 44, 14, 46, 0, 34, 9, 7, 11, 43, 0, 6, 33, 0, 0, 0, 0, 0, 23, 0, 0, 38, 0, 0, 0, 13, 0, 2, 0, 21, 3, 0, 26, 42, 0, 49
|0, 0, 14, 34, 19, 0, 12, 49, 0, 45, 48, 32, 0, 0, 0, 1, 28, 5, 0, 0, 23, 25, 3, 31, 0, 26, 0, 20, 0, 0, 9, 0, 40, 47, 0, 8, 0, 0, 0, 41, 0, 21, 6, 4, 0, 27, 0, 11, 16
|13, 0, 0, 0, 25, 23, 43, 45, 0, 21, 0, 0, 29, 8, 0, 40, 0, 46, 32, 0, 15, 5, 37, 16, 0, 0, 0, 18, 41, 0, 0, 28, 0, 34, 19, 0, 0, 33, 0, 38, 0, 0, 0, 0, 26, 12, 0, 0, 0
|42, 38, 0, 15, 30, 33, 19, 0, 39, 25, 0, 10, 0, 40, 3, 0, 37, 2, 9, 0, 0, 0, 4, 0, 36, 0, 35, 0, 0, 16, 47, 0, 23, 7, 44, 46, 0, 29, 6, 45, 48, 32, 0, 11, 28, 22, 0, 5, 27
|6, 0, 41, 0, 0, 0, 0, 47, 18, 0, 0, 44, 3, 35, 1, 0, 39, 24, 0, 0, 0, 0, 0, 0, 23, 0, 0, 0, 0, 0, 49, 0, 0, 9, 0, 14, 0, 30, 2, 0, 0, 5, 0, 7, 8, 0, 13, 0, 42
|0, 3, 0, 49, 0, 26, 0, 5, 24, 48, 0, 42, 46, 0, 0, 0, 0, 0, 0, 47, 0, 1, 13, 0, 45, 11, 41, 44, 18, 0, 30, 0, 31, 4, 0, 0, 0, 25, 12, 0, 0, 0, 0, 21, 38, 14, 0, 2, 34
|2, 0, 0, 32, 17, 0, 0, 27, 30, 0, 22, 11, 49, 0, 26, 38, 0, 0, 5, 13, 35, 14, 0, 0, 47, 0, 33, 0, 0, 3, 0, 0, 0, 0, 0, 28, 34, 39, 0, 23, 40, 0, 0, 16, 0, 0, 41, 0, 0
|0, 0, 0, 0, 14, 0, 0, 33, 0, 23, 0, 34, 0, 13, 7, 25, 0, 8, 41, 45, 0, 6, 24, 0, 3, 38, 0, 15, 0, 17, 0, 46, 0, 0, 0, 42, 20, 0, 21, 0, 22, 0, 4, 0, 0, 37, 1, 0, 47
|28, 0, 11, 0, 37, 0, 0, 38, 31, 0, 0, 15, 0, 0, 16, 0, 0, 34, 17, 6, 10, 0, 0, 0, 25, 40, 0, 22, 33, 14, 0, 0, 45, 0, 5, 9, 13, 0, 19, 0, 0, 26, 0, 48, 0, 0, 0, 0, 29|];