order = 7;
grid = [|11, 17, 16, 0, 0, 42, 27, 20, 0, 0, 0, 0, 0, 33, 2, 0, 0, 0, 0, 41, 0, 7, 0, 25, 0, 1, 0, 0, 34, 43, 0, 44, 35, 36, 0, 0, 4, 22, 40, 0, 0, 39, 3, 0, 37, 48, 31, 0, 6
|0, 18, 0, 4, 38, 0, 0, 19, 35, 45, 0, 25, 5, 0, 0, 36, 0, 40, 37, 0, 0, 0, 0, 24, 6, 26, 0, 28, 15, 0, 0, 47, 0, 3, 7, 0, 0, 0, 0, 8, 27, 0, 2, 23, 34, 0, 21, 42, 39
|26, 0, 0, 48, 5, 0, 0, 9, 18, 42, 37, 0, 0, 1, 0, 0, 0, 12, 0, 39, 8, 0, 36, 0, 0, 41, 0, 43, 0, 0, 27, 0, 32, 0, 0, 20, 29, 0, 10, 0, 0, 0, 0, 25, 19, 11, 15, 33, 38
|33, 0, 39, 0, 0, 0, 49, 29, 0, 0, 0, 6, 43, 17, 13, 0, 47, 35, 18, 0, 0, 3, 34, 44, 0, 9, 10, 4, 0, 0, 20, 0, 1, 0, 37, 19, 14, 45, 32, 0, 42, 48, 0, 41, 40, 0, 0, 26, 16
|0, 0, 0, 0, 0, 40, 0, 39, 44, 0, 0, 0, 4, 0, 26, 0, 0, 34, 16, 43, 0, 0, 37, 0, 0, 18, 0, 23, 41, 0, 0, 48, 0, 13, 0, 25, 49, 1, 0, 0, 0, 0, 0, 0, 9, 0, 27, 0, 0
|0, 0, 0, 19, 43, 0, 0, 0, 0, 26, 0, 0, 0, 0, 22, 27, 0, 0, 0, 0, 23, 2, 0, 0, 45, 0, 0, 0, 5, 0, 0, 8, 0, 9, 0, 0, 12, 18, 21, 0, 0, 36, 35, 0, 0, 13, 0, 49, 0
|13, 15, 35, 9, 0, 0, 0, 36, 28, 0, 48, 10, 49, 0, 24, 0, 42, 33, 0, 0, 25, 0, 17, 21, 0, 0, 31, 27, 26, 0, 40, 0, 0, 19, 0, 37, 0, 5, 11, 44, 0, 41, 30, 47, 0, 0, 0, 0, 0
|29, 0, 0, 0, 0, 39, 0, 13, 0, 0, 0, 18, 17, 0, 0, 10, 16, 0, 1, 37, 24, 31, 12, 40, 43, 47, 14, 0, 19, 0, 0, 0, 28, 0, 5, 0, 21, 48, 27, 0, 0, 3, 0, 26, 4, 33, 23, 0, 0
|36, 0, 0, 41, 0, 0, 0, 0, 0, 0, 46, 0, 30, 47, 19, 0, 33, 22, 44, 17, 2, 0, 32, 0, 1, 10, 0, 5, 35, 20, 23, 4, 26, 0, 0, 29, 0, 24, 0, 0, 0, 13, 18, 0, 21, 27, 7, 0, 34
|46, 21, 15, 10, 0, 0, 26, 0, 11, 0, 19, 39, 22, 5, 23, 0, 0, 0, 7, 0, 36, 0, 20, 0, 48, 27, 0, 35, 0, 0, 0, 3, 0, 0, 0, 18, 42, 0, 12, 38, 0, 33, 0, 0, 0, 31, 0, 25, 0
|22, 35, 47, 0, 33, 0, 0, 31, 0, 4, 49, 29, 0, 0, 42, 48, 25, 39, 0, 0, 0, 23, 0, 0, 0, 3, 9, 0, 0, 0, 0, 0, 0, 0, 10, 2, 7, 6, 1, 32, 16, 0, 14, 12, 44, 46, 5, 24, 0
|0, 5, 0, 0, 0, 0, 23, 0, 0, 21, 0, 24, 0, 37, 0, 26, 0, 0, 27, 0, 13, 29, 11, 0, 30, 42, 7, 0, 39, 34, 15, 12, 33, 47, 14, 0, 43, 8, 20, 46, 44, 40, 48, 49, 3, 45, 2, 0, 0
|48, 0, 0, 0, 0, 1, 0, 44, 26, 12, 27, 32, 23, 0, 0, 14, 0, 30, 0, 45, 0, 0, 33, 0, 18, 49, 0, 17, 21, 0, 0, 0, 24, 31, 40, 0, 0, 0, 0, 5, 25, 34, 0, 0, 35, 43, 0, 22, 0
|18, 0, 19, 34, 31, 38, 24, 0, 7, 33, 0, 14, 45, 43, 40, 8, 0, 5, 47, 12, 0, 25, 0, 0, 0, 39, 41, 0, 0, 16, 36, 0, 48, 0, 0, 30, 0, 0, 26, 0, 0, 0, 32, 0, 29, 0, 13, 0, 0
|24, 12, 34, 37, 0, 0, 0, 0, 0, 6, 21, 0, 0, 41, 0, 19, 0, 44, 0, 4, 3, 0, 2, 0, 0, 0, 8, 18, 46, 0, 0, 32, 0, 45, 25, 36, 0, 0, 0, 0, 39, 0, 9, 0, 0, 42, 35, 23, 17
|43, 0, 32, 0, 39, 20, 29, 0, 42, 0, 0, 0, 2, 0, 0, 16, 6, 0, 31, 13, 28, 0, 25, 26, 27, 40, 0, 7, 37, 21, 47, 14, 5, 0, 0, 46, 0, 33, 8, 0, 0, 0, 0, 0, 0, 0, 44, 0, 0
|28, 0, 0, 7, 4, 0, 16, 30, 0, 46, 0, 26, 0, 0, 8, 42, 0, 29, 25, 36, 32, 0, 1, 47, 23, 0, 0, 38, 27, 22, 0, 41, 43, 20, 0, 49, 0, 0, 0, 10, 6, 0, 15, 0, 0, 2, 19, 40, 24
|41, 0, 0, 8, 0, 0, 0, 40, 10, 0, 47, 0, 19, 0, 0, 0, 27, 15, 26, 0, 0, 0, 0, 35, 0, 0, 0, 0, 28, 0, 49, 0, 2, 0, 0, 0, 44, 12, 45, 20, 1, 38, 39, 0, 0, 0, 36, 0, 37
|2, 0, 0, 26, 0, 0, 0, 8, 0, 0, 25, 0, 0, 0, 0, 40, 24, 14, 0, 0, 45, 39, 0, 0, 44, 29, 46, 0, 16, 15, 0, 0, 0, 18, 0, 47, 0, 21, 22, 7, 0, 0, 0, 0, 33, 30, 32, 0, 0
|0, 10, 5, 0, 6, 0, 25, 32, 33, 18, 0, 0, 0, 39, 0, 0, 0, 0, 20, 0, 0, 0, 0, 11, 14, 34, 49, 0, 23, 3, 9, 0, 19, 1, 36, 24, 0, 0, 43, 0, 0, 0, 0, 0, 8, 21, 46, 47, 0
|0, 38, 30, 0, 0, 0, 35, 0, 0, 0, 34, 0, 0, 0, 0, 47, 39, 0, 23, 0, 1, 0, 10, 9, 37, 0, 0, 0, 33, 0, 29, 24, 6, 0, 12, 31, 41, 42, 25, 0, 4, 18, 20, 0, 0, 26, 0, 0, 0
|0, 24, 28, 0, 0, 12, 34, 0, 0, 0, 1, 7, 0, 0, 0, 18, 0, 0, 32, 0, 0, 0, 0, 0, 0, 0, 0, 0, 0, 23, 0, 0, 40, 0, 20, 5, 27, 35, 42, 0, 0, 0, 36, 15, 2, 0, 0, 0, 0
|0, 0, 0, 15, 0, 18, 47, 0, 0, 0, 17, 0, 9, 0, 30, 23, 0, 10, 0, 0, 0, 0, 0, 0, 0, 0, 0, 0, 2, 0, 0, 0, 0, 5, 16, 41, 1, 29, 0, 3, 8, 0, 31, 39, 46, 0, 43, 0, 0
|9, 0, 0, 0, 30, 33, 0, 45, 23, 0, 0, 0, 37, 24, 47, 13, 0, 0, 0, 0, 16, 0, 0, 39, 0, 0, 34, 2, 32, 31, 0, 19, 12, 22, 41, 48, 0, 0, 0, 0, 0, 25, 8, 0, 0, 0, 1, 27, 26
|0, 0, 0, 5, 17, 0, 22, 12, 27, 28, 44, 33, 0, 0, 0, 2, 0, 42, 0, 0, 0, 18, 43, 0, 0, 8, 15, 10, 0, 14, 35, 0, 0, 0, 26, 11, 0, 46, 24, 0, 49, 20, 37, 21, 0, 0, 6, 9, 13
|8, 0, 0, 0, 2, 37, 13, 21, 0, 32, 22, 49, 0, 0, 0, 15, 0, 0, 28, 0, 29, 0, 0, 17, 0, 0, 26, 0, 48, 0, 0, 33, 46, 42, 0, 0, 0, 39, 0, 0, 45, 47, 0, 0, 11, 24, 30, 0, 14
|20, 46, 0, 0, 16, 10, 0, 0, 0, 8, 0, 47, 34, 48, 0, 39, 40, 17, 24, 25, 0, 0, 27, 19, 36, 0, 3, 9, 0, 0, 13, 0, 15, 21, 1, 0, 6, 0, 0, 31, 0, 0, 0, 0, 0, 28, 42, 35, 0
|0, 31, 26, 27, 32, 0, 0, 6, 0, 0, 0, 0, 42, 0, 14, 33, 37, 0, 0, 22, 0, 0, 47, 20, 29, 21, 12, 0, 36, 18, 8, 0, 38, 0, 30, 0, 16, 0, 28, 13, 34, 0, 7, 0, 0, 41, 4, 0, 0
|0, 26, 0, 35, 48, 0, 0, 0, 14, 41, 5, 23, 0, 0, 28, 45, 0, 0, 0, 38, 49, 0, 0, 18, 11, 19, 0, 34, 25, 12, 1, 0, 0, 46, 9, 44, 2, 0, 0, 16, 0, 0, 43, 4, 24, 29, 0, 0, 8
|14, 2, 37, 0, 0, 15, 0, 0, 0, 36, 0, 13, 3, 0, 0, 0, 0, 0, 0, 23, 12, 10, 16, 0, 0, 7, 0, 0, 0, 0, 43, 0, 0, 4, 0, 35, 0, 0, 48, 42, 0, 0, 21, 46, 38, 0, 0, 45, 40
|12, 43, 46, 0, 1, 8, 40, 18, 0, 25, 0, 16, 29, 0, 0, 0, 14, 7, 13, 0, 42, 20, 44, 23, 28, 0, 2, 24, 0, 32, 0, 0, 34, 17, 0, 21, 0, 0, 41, 0, 0, 49, 0, 0, 36, 0, 33, 6, 0
|32, 0, 17, 38, 10, 7, 0, 0, 0, 37, 28, 0, 0, 0, 35, 0, 2, 1, 36, 18, 0, 47, 0, 27, 0, 0, 5, 0, 0, 45, 0, 40, 0, 0, 0, 0, 0, 34, 0, 0, 29, 0, 25, 19, 0, 20, 0, 0, 0
|31, 6, 0, 25, 0, 4, 28, 27, 0, 0, 7, 0, 0, 40, 17, 0, 46, 21, 30, 47, 0, 0, 0, 0, 9, 0, 42, 39, 0, 33, 0, 0, 13, 14, 15, 0, 0, 0, 3, 36, 10, 26, 0, 35, 0, 34, 0, 0, 0
|45, 0, 29, 0, 0, 0, 0, 1, 0, 0, 0, 0, 0, 0, 0, 3, 5, 0, 6, 26, 0, 12, 0, 43, 0, 0, 0, 32, 24, 0, 38, 35, 21, 0, 44, 0, 0, 0, 39, 14, 0, 22, 47, 0, 0, 49, 0, 0, 0
|0, 39, 22, 0, 0, 0, 0, 35, 0, 0, 43, 45, 8, 0, 0, 0, 0, 0, 11, 16, 0, 21, 0, 0, 3, 0, 6, 25, 18, 30, 0, 0, 7, 26, 2, 0, 0, 0, 0, 27, 0, 46, 28, 0, 0, 23, 17, 0, 0
|4, 49, 33, 39, 20, 0, 0, 43, 8, 0, 16, 41, 21, 10, 36, 30, 12, 0, 0, 6, 0, 0, 28, 0, 35, 0, 0, 26, 0, 38, 0, 0, 47, 0, 22, 34, 0, 0, 0, 0, 5, 42, 45, 14, 27, 0, 25, 0, 11
|0, 29, 0, 0, 44, 0, 42, 0, 47, 17, 35, 0, 0, 6, 33, 22, 0, 38, 0, 3, 0, 0, 9, 16, 0, 30, 4, 20, 0, 0, 0, 28, 0, 25, 32, 23, 24, 0, 0, 41, 0, 0, 0, 36, 0, 0, 0, 0, 21
|25, 0, 38, 0, 41, 0, 0, 4, 12, 0, 0, 0, 20, 3, 0, 11, 26, 0, 34, 2, 7, 0, 0, 0, 0, 0, 19, 14, 0, 0, 21, 0, 0, 0, 0, 45, 0, 36, 0, 0, 0, 1, 17, 13, 0, 0, 0, 0, 9
|0, 13, 8, 0, 19, 0, 0, 24, 32, 0, 0, 40, 14, 36, 0, 20, 0, 37, 0, 29, 0, 11, 7, 15, 0, 45, 0, 0, 0, 49, 0, 1, 0, 34, 0, 26, 25, 3, 35, 43, 22, 0, 23, 33, 0, 0, 0, 0, 0
|21, 0, 0, 0, 12, 0, 0, 37, 0, 39, 0, 11, 0, 0, 0, 0, 13, 0, 0, 0, 0, 0, 3, 34, 25, 0, 18, 0, 0, 29, 0, 16, 41, 0, 43, 7, 46, 0, 47, 0, 0, 0, 0, 28, 0, 0, 26, 0, 44
|0, 0, 0, 0, 0, 22, 0, 7, 0, 0, 26, 0, 0, 46, 0, 25, 44, 0, 21, 0, 18, 5, 0, 0, 38, 2, 32, 0, 20, 0, 11, 36, 0, 40, 0, 27, 17, 13, 0, 0, 9, 0, 29, 0, 0, 0, 0, 43, 0
|35, 0, 0, 1, 34, 36, 32, 28, 13, 5, 0, 9, 38, 25, 0, 41, 4, 0, 8, 0, 14, 0, 0, 0, 39, 12, 17, 0, 44, 48, 0, 26, 42, 15, 19, 0, 11, 0, 29, 0, 0, 21, 0, 37, 0, 47, 0, 0, 0
|0, 11, 0, 0, 0, 0, 0, 0, 0, 0, 0, 20, 27, 0, 45, 0, 19, 13, 0, 5, 46, 37, 30, 3, 0, 14, 23, 0, 0, 0, 0, 42, 0, 12, 0, 0, 0, 0, 4, 0, 24, 31, 0, 44, 32, 35, 8, 36, 48
|0, 45, 48, 0, 27, 0, 14, 0, 0, 7, 15, 0, 24, 11, 0, 0, 23, 0, 0, 0, 9, 17, 0, 12, 32, 44, 39, 33, 40, 8, 30, 0, 0, 0, 0, 0, 0, 0, 49, 1, 0, 2, 0, 6, 0, 37, 0, 21, 43
|0, 0, 25, 0, 0, 0, 0, 17, 0, 0, 0, 0, 46, 21, 0, 0, 0, 0, 4, 0, 0, 0, 0, 7, 47, 0, 43, 0, 0, 0, 10, 9, 0, 48, 0, 0, 0, 11, 0, 35, 19, 45, 27, 2, 0, 0, 0, 18, 49
|19, 0, 1, 0, 0, 30, 39, 22, 43, 23, 0, 2, 35, 45, 0, 31, 0, 0, 42, 14, 41, 28, 18, 10, 0, 25, 0, 0, 38, 0, 0, 15, 0, 0, 13, 8, 0, 47, 5, 48, 21, 12, 33, 40, 20, 9, 34, 16, 0
|15, 0, 31, 0, 0, 43, 7, 48, 0, 0, 32, 0, 0, 18, 11, 12, 22, 16, 0, 40, 27, 0, 45, 0, 24, 38, 0, 36, 0, 19, 0, 0, 23, 28, 0, 42, 0, 0, 46, 17, 0, 44, 0, 0, 0, 0, 0, 0, 47
|0, 0, 20, 0, 8, 0, 0, 41, 0, 0, 0, 0, 26, 0, 44, 28, 18, 0, 0, 0, 0, 9, 4, 1, 0, 48, 0, 0, 31, 5, 0, 0, 0, 39, 24, 0, 0, 40, 0, 0, 0, 0, 0, 17, 14, 0, 0, 12, 19
|0, 0, 0, 0, 47, 0, 0, 14, 19, 31, 10, 42, 0, 44, 29, 0, 0, 0, 0, 0, 0, 26, 22, 6, 0, 0, 20, 41, 4, 11, 0, 0, 49, 0, 34, 43, 9, 0, 7, 0, 0, 0, 0, 5, 0, 0, 0, 38, 23|];