order = 7;
grid = [|0, 0, 15, 0, 0, 38, 2, 35, 21, 0, 22, 0, 0, 0, 0, 47, 0, 0, 43, 0, 0, 0, 0, 0, 0, 0, 27, 0, 0, 11, 31, 0, 12, 0, 6, 0, 30, 0, 0, 0, 0, 23, 0, 3, 0, 44, 0, 26, 33
|0, 0, 32, 39, 0, 0, 44, 0, 46, 0, 30, 29, 18, 0, 31, 0, 0, 16, 0, 0, 27, 23, 48, 11, 22, 38, 10, 0, 0, 0, 0, 0, 0, 0, 0, 45, 33, 0, 0, 21, 0, 0, 0, 0, 9, 15, 8, 2, 12
|45, 0, 46, 6, 0, 0, 0, 43, 15, 17, 0, 4, 0, 26, 0, 0, 0, 44, 42, 0, 0, 32, 18, 0, 29, 0, 0, 16, 0, 2, 10, 0, 0, 22, 8, 0, 34, 0, 0, 0, 0, 0, 0, 21, 0, 0, 1, 0, 0
|9, 18, 27, 0, 48, 0, 0, 0, 0, 0, 0, 0, 0, 0, 0, 0, 0, 0, 0, 46, 15, 0, 0, 0, 30, 5, 0, 0, 0, 33, 38, 0, 29, 0, 43, 0, 8, 0, 0, 0, 41, 39, 0, 22, 0, 0, 20, 6, 0
|0, 4, 26, 0, 24, 29, 0, 0, 0, 38, 0, 19, 8, 0, 0, 0, 0, 22, 0, 0, 0, 0, 13, 0, 40, 28, 6, 9, 44, 45, 0, 46, 0, 0, 0, 0, 31, 12, 27, 0, 37, 42, 0, 5, 30, 16, 10, 43, 14
|0, 0, 0, 0, 0, 0, 31, 0, 0, 9, 0, 34, 0, 23, 0, 0, 6, 48, 0, 7, 38, 35, 0, 12, 47, 1, 0, 41, 27, 4, 13, 17, 0, 18, 0, 15, 0, 0, 26, 0, 0, 3, 28, 0, 0, 29, 42, 39, 25
|0, 0, 0, 25, 8, 12, 28, 3, 0, 0, 7, 0, 0, 6, 21, 32, 0, 0, 0, 0, 0, 26, 31, 33, 0, 0, 14, 0, 35, 47, 15, 30, 9, 0, 24, 17, 0, 20, 11, 16, 0, 44, 48, 23, 40, 0, 18, 41, 46
|8, 0, 38, 12, 0, 33, 46, 0, 13, 0, 0, 0, 0, 0, 0, 36, 0, 0, 25, 0, 0, 28, 0, 23, 2, 0, 39, 0, 9, 44, 26, 40, 4, 48, 0, 0, 0, 0, 0, 0, 49, 20, 34, 0, 0, 0, 27, 0, 5
|13, 24, 29, 0, 0, 14, 40, 0, 0, 0, 0, 30, 0, 12, 0, 44, 0, 0, 0, 48, 28, 19, 3, 0, 0, 37, 0, 5, 15, 27, 0, 0, 0, 20, 49, 6, 18, 46, 0, 0, 0, 0, 0, 47, 38, 0, 41, 4, 42
|0, 49, 0, 30, 0, 0, 0, 0, 25, 0, 41, 20, 0, 0, 15, 0, 0, 0, 0, 0, 4, 16, 12, 0, 26, 0, 38, 0, 0, 18, 0, 0, 43, 0, 2, 0, 13, 0, 0, 28, 0, 0, 40, 48, 32, 0, 0, 24, 45
|11, 0, 0, 0, 45, 42, 0, 0, 0, 7, 0, 0, 46, 48, 47, 0, 0, 0, 49, 21, 30, 36, 0, 0, 20, 25, 18, 0, 0, 38, 14, 22, 24, 0, 37, 0, 23, 0, 0, 39, 9, 19, 0, 43, 0, 0, 44, 16, 28
|7, 0, 0, 28, 21, 37, 16, 0, 0, 4, 0, 0, 0, 0, 0, 45, 0, 0, 0, 0, 31, 0, 0, 8, 49, 0, 0, 6, 0, 0, 0, 0, 42, 30, 3, 0, 2, 0, 34, 0, 0, 0, 36, 46, 13, 0, 22, 23, 20
|0, 0, 39, 47, 18, 44, 0, 0, 0, 0, 0, 0, 0, 0, 0, 0, 0, 20, 34, 40, 16, 0, 0, 0, 0, 0, 0, 0, 0, 0, 0, 0, 0, 46, 0, 0, 12, 0, 17, 5, 30, 48, 0, 0, 0, 49, 0, 19, 7
|4, 23, 20, 0, 0, 0, 9, 17, 22, 0, 38, 49, 0, 0, 0, 7, 0, 46, 5, 32, 0, 0, 29, 0, 13, 47, 1, 42, 0, 12, 33, 0, 19, 34, 16, 0, 24, 0, 43, 0, 11, 15, 21, 0, 25, 0, 0, 10, 31
|42, 46, 0, 0, 16, 10, 0, 20, 33, 37, 0, 7, 35, 5, 0, 0, 0, 0, 0, 0, 0, 14, 19, 25, 18, 0, 0, 0, 13, 40, 0, 27, 31, 0, 15, 0, 28, 34, 0, 0, 0, 21, 8, 11, 0, 0, 0, 17, 0
|14, 29, 0, 20, 22, 0, 48, 0, 23, 2, 0, 0, 34, 40, 42, 0, 47, 0, 0, 16, 3, 38, 8, 30, 28, 31, 0, 0, 0, 0, 4, 0, 0, 6, 10, 44, 0, 0, 0, 17, 0, 37, 0, 0, 0, 0, 0, 0, 0
|32, 28, 0, 0, 35, 0, 0, 26, 0, 49, 0, 0, 0, 0, 5, 0, 0, 0, 0, 13, 17, 0, 0, 0, 44, 0, 11, 7, 3, 0, 34, 14, 0, 0, 39, 16, 27, 0, 47, 12, 0, 0, 43, 36, 0, 0, 33, 29, 23
|0, 37, 11, 34, 13, 0, 0, 0, 0, 0, 0, 0, 0, 8, 40, 0, 28, 49, 10, 0, 0, 5, 0, 47, 0, 0, 0, 45, 20, 23, 0, 48, 0, 36, 32, 0, 0, 38, 22, 0, 42, 0, 9, 0, 0, 30, 0, 0, 21
|0, 0, 0, 43, 15, 24, 33, 27, 0, 16, 0, 25, 30, 32, 48, 21, 0, 0, 0, 0, 0, 13, 0, 0, 6, 0, 34, 23, 45, 22, 0, 0, 0, 0, 47, 0, 0, 31, 0, 0, 19, 0, 0, 20, 0, 0, 37, 0, 0
|0, 45, 0, 0, 38, 30, 0, 0, 11, 41, 0, 0, 0, 0, 14, 23, 0, 35, 0, 0, 0, 0, 0, 29, 0, 16, 40, 48, 12, 0, 0, 18, 0, 42, 28, 0, 20, 0, 5, 9, 0, 13, 0, 10, 0, 31, 34, 49, 0
|18, 0, 0, 41, 44, 0, 8, 47, 36, 0, 0, 10, 17, 0, 19, 34, 12, 31, 2, 43, 0, 0, 0, 0, 1, 39, 42, 32, 0, 5, 37, 0, 0, 0, 0, 0, 0, 0, 24, 11, 45, 0, 0, 7, 0, 14, 0, 25, 35
|0, 0, 0, 3, 29, 28, 0, 38, 0, 0, 0, 18, 0, 4, 25, 0, 0, 0, 17, 0, 0, 0, 0, 1, 0, 30, 45, 0, 0, 0, 44, 0, 33, 0, 0, 0, 0, 19, 0, 42, 34, 0, 0, 16, 47, 0, 0, 31, 0
|0, 0, 0, 5, 36, 0, 24, 0, 0, 0, 0, 0, 0, 28, 0, 15, 0, 47, 44, 26, 0, 0, 11, 0, 25, 14, 0, 38, 0, 0, 0, 0, 17, 9, 0, 0, 0, 0, 0, 0, 27, 30, 23, 45, 0, 0, 35, 0, 0
|0, 15, 0, 27, 30, 13, 0, 0, 0, 0, 0, 0, 12, 0, 0, 38, 0, 0, 45, 0, 7, 0, 5, 28, 0, 18, 19, 44, 0, 42, 0, 26, 14, 11, 0, 36, 10, 24, 0, 33, 0, 0, 0, 6, 43, 34, 40, 9, 1
|0, 0, 14, 11, 0, 0, 0, 0, 0, 0, 45, 0, 0, 0, 0, 31, 4, 0, 1, 39, 0, 0, 23, 9, 27, 8, 26, 0, 0, 0, 0, 35, 30, 10, 48, 43, 0, 0, 0, 38, 12, 18, 0, 32, 0, 0, 0, 20, 0
|31, 6, 25, 0, 0, 21, 0, 0, 0, 10, 0, 41, 0, 0, 0, 0, 0, 0, 22, 49, 0, 3, 0, 0, 0, 0, 13, 0, 0, 39, 5, 0, 0, 0, 1, 40, 0, 28, 0, 0, 44, 2, 26, 0, 0, 0, 0, 33, 27
|0, 0, 0, 0, 47, 45, 0, 0, 0, 14, 36, 0, 0, 0, 0, 0, 30, 0, 0, 0, 0, 41, 6, 4, 48, 0, 0, 29, 31, 49, 27, 38, 0, 43, 40, 0, 46, 0, 0, 8, 0, 0, 0, 42, 11, 18, 2, 0, 0
|0, 1, 0, 46, 42, 0, 0, 5, 49, 0, 19, 0, 0, 30, 35, 16, 27, 24, 48, 34, 0, 33, 0, 37, 0, 40, 0, 10, 22, 36, 20, 0, 6, 0, 25, 4, 11, 0, 3, 0, 26, 0, 38, 0, 14, 21, 0, 15, 17
|35, 0, 19, 8, 39, 20, 3, 11, 14, 30, 47, 0, 7, 17, 18, 0, 0, 0, 9, 0, 22, 49, 15, 0, 0, 44, 0, 0, 46, 0, 43, 2, 38, 27, 0, 32, 0, 0, 0, 0, 0, 0, 0, 4, 0, 0, 0, 0, 36
|0, 0, 18, 26, 41, 0, 0, 0, 0, 0, 0, 0, 37, 29, 0, 6, 0, 13, 0, 8, 0, 48, 47, 35, 0, 0, 2, 1, 4, 0, 0, 28, 0, 0, 5, 25, 0, 0, 0, 30, 20, 14, 0, 40, 0, 33, 23, 32, 15
|29, 0, 13, 16, 25, 0, 4, 0, 9, 0, 0, 0, 15, 0, 0, 5, 0, 30, 0, 0, 40, 0, 22, 0, 7, 6, 17, 0, 0, 14, 32, 49, 39, 37, 0, 21, 0, 0, 0, 41, 3, 0, 10, 19, 20, 0, 28, 35, 0
|0, 0, 0, 0, 0, 27, 0, 6, 41, 22, 40, 31, 28, 42, 0, 37, 0, 0, 32, 3, 21, 8, 30, 0, 5, 23, 0, 0, 26, 0, 35, 0, 34, 16, 9, 19, 36, 2, 1, 15, 0, 4, 0, 0, 49, 7, 43, 47, 29
|28, 0, 2, 7, 0, 9, 0, 0, 0, 26, 10, 0, 3, 39, 46, 0, 16, 0, 47, 0, 34, 21, 0, 0, 33, 0, 32, 0, 0, 0, 0, 0, 0, 19, 31, 0, 42, 0, 0, 43, 0, 0, 0, 0, 0, 0, 0, 38, 6
|43, 0, 0, 0, 0, 5, 6, 21, 32, 0, 25, 45, 0, 0, 36, 17, 15, 0, 12, 28, 0, 10, 0, 19, 0, 0, 46, 4, 1, 0, 0, 0, 40, 44, 18, 0, 0, 8, 48, 0, 39, 11, 30, 0, 0, 24, 0, 0, 0
|0, 30, 24, 32, 40, 0, 0, 0, 38, 23, 8, 0, 0, 0, 0, 48, 26, 29, 0, 19, 0, 0, 0, 16, 0, 42, 25, 0, 0, 17, 0, 0, 11, 0, 0, 31, 0, 22, 28, 0, 7, 27, 1, 14, 18, 0, 12, 3, 2
|24, 27, 0, 0, 17, 11, 42, 34, 0, 36, 0, 0, 0, 1, 0, 10, 0, 38, 21, 23, 45, 0, 0, 40, 0, 0, 9, 0, 18, 0, 0, 3, 47, 0, 0, 28, 0, 5, 41, 29, 8, 0, 33, 31, 19, 0, 0, 14, 0
|0, 7, 6, 29, 4, 15, 47, 0, 0, 20, 0, 27, 43, 0, 16, 8, 0, 41, 0, 0, 35, 12, 0, 21, 45, 10, 23, 33, 0, 0, 36, 0, 0, 14, 0, 0, 0, 0, 0, 3, 38, 0, 0, 0, 34, 5, 17, 1, 0
|26, 0, 0, 14, 0, 22, 38, 7, 3, 0, 0, 0, 41, 21, 0, 29, 34, 0, 0, 0, 0, 42, 4, 0, 0, 0, 44, 19, 33, 15, 25, 8, 0, 17, 0, 0, 47, 43, 0, 0, 0, 1, 0, 0, 0, 36, 16, 0, 40
|37, 0, 41, 33, 0, 40, 0, 0, 0, 0, 0, 0, 32, 15, 0, 19, 48, 28, 0, 22, 0, 29, 0, 36, 0, 0, 0, 0, 49, 0, 0, 4, 35, 2, 34, 46, 21, 0, 0, 0, 0, 0, 0, 0, 23, 10, 45, 30, 26
|23, 0, 48, 0, 2, 32, 20, 19, 0, 0, 17, 40, 9, 31, 0, 49, 1, 7, 0, 36, 0, 0, 0, 0, 34, 11, 30, 0, 43, 16, 39, 0, 0, 38, 0, 0, 44, 18, 0, 4, 0, 24, 0, 41, 0, 35, 0, 0, 47
|36, 0, 34, 0, 0, 8, 13, 0, 28, 0, 0, 14, 2, 35, 0, 46, 17, 27, 0, 0, 43, 0, 0, 5, 41, 0, 47, 0, 40, 0, 11, 21, 0, 0, 29, 33, 0, 6, 0, 48, 0, 12, 39, 9, 0, 0, 0, 0, 4
|25, 0, 16, 0, 9, 0, 18, 0, 0, 0, 0, 12, 22, 10, 0, 0, 42, 0, 0, 6, 47, 0, 38, 0, 0, 49, 37, 0, 0, 0, 0, 0, 0, 0, 23, 0, 39, 0, 45, 0, 13, 0, 20, 0, 27, 0, 24, 28, 8
|15, 0, 0, 0, 0, 0, 22, 0, 0, 0, 39, 0, 0, 38, 17, 13, 0, 0, 0, 31, 0, 0, 1, 0, 0, 0, 0, 27, 30, 0, 0, 0, 0, 45, 0, 37, 0, 0, 7, 19, 0, 0, 5, 29, 46, 42, 26, 0, 11
|0, 0, 0, 0, 20, 25, 39, 0, 0, 44, 0, 5, 0, 0, 9, 42, 43, 0, 0, 0, 0, 18, 0, 0, 0, 0, 0, 0, 7, 31, 0, 6, 0, 1, 0, 34, 41, 0, 40, 26, 0, 35, 32, 0, 0, 23, 0, 0, 0
|30, 0, 17, 13, 43, 0, 0, 15, 40, 12, 31, 9, 33, 36, 0, 25, 0, 10, 0, 11, 44, 0, 0, 2, 42, 41, 7, 0, 0, 0, 8, 0, 3, 0, 14, 0, 0, 0, 0, 1, 0, 0, 24, 0, 0, 0, 0, 0, 18
|0, 0, 9, 2, 0, 0, 27, 0, 29, 0, 0, 0, 0, 14, 7, 22, 21, 0, 0, 0, 37, 0, 25, 43, 10, 32, 5, 0, 42, 0, 19, 0, 18, 4, 0, 0, 45, 0, 0, 23, 0, 31, 0, 17, 0, 0, 0, 0, 0
|0, 0, 28, 24, 5, 7, 0, 32, 18, 43, 21, 0, 4, 16, 1, 0, 0, 0, 0, 0, 49, 30, 44, 3, 23, 0, 48, 39, 17, 0, 0, 0, 0, 0, 46, 0, 14, 0, 0, 27, 47, 0, 22, 33, 6, 20, 31, 0, 0
|44, 36, 40, 18, 0, 0, 29, 45, 0, 1, 34, 23, 0, 7, 0, 0, 46, 8, 0, 30, 0, 22, 37, 0, 19, 0, 0, 0, 0, 35, 24, 32, 0, 0, 11, 39, 3, 17, 38, 0, 43, 5, 0, 0, 0, 0, 14, 21, 0
|19, 47, 42, 31, 0, 1, 0, 28, 17, 25, 37, 22, 0, 27, 0, 39, 3, 0, 6, 0, 0, 34, 0, 20, 38, 9, 12, 0, 0, 10, 2, 44, 0, 0, 36, 18, 0, 0, 0, 0, 24, 0, 0, 0, 35, 0, 0, 40, 43|];