order = 7;
grid = [|3, 12, 19, 0, 0, 0, 24, 30, 31, 0, 20, 0, 0, 0, 0, 0, 13, 0, 26, 49, 0, 0, 22, 0, 0, 39, 1, 0, 0, 0, 43, 29, 0, 0, 48, 14, 28, 8, 34, 0, 0, 18, 16, 15, 23, 36, 45, 40, 27
|18, 35, 0, 0, 0, 0, 15, 0, 0, 10, 19, 0, 0, 0, 40, 21, 0, 29, 24, 27, 14, 13, 0, 0, 48, 6, 36, 5, 12, 0, 0, 20, 0, 17, 33, 0, 0, 32, 0, 0, 0, 23, 28, 39, 8, 0, 1, 9, 0
|0, 40, 0, 8, 0, 0, 0, 0, 47, 46, 12, 0, 5, 11, 0, 0, 48, 22, 37, 0, 7, 0, 34, 0, 21, 18, 0, 0, 42, 0, 9, 0, 0, 28, 30, 36, 44, 0, 39, 29, 0, 19, 0, 13, 20, 0, 0, 0, 0
|28, 11, 16, 34, 27, 0, 44, 48, 1, 0, 0, 0, 24, 39, 0, 46, 9, 31, 15, 0, 5, 33, 0, 0, 35, 0, 0, 0, 0, 36, 0, 0, 0, 0, 0, 0, 2, 0, 10, 0, 0, 0, 49, 0, 42, 0, 0, 30, 0
|26, 31, 20, 45, 0, 17, 49, 0, 23, 27, 36, 37, 0, 40, 1, 47, 0, 39, 18, 44, 42, 0, 0, 8, 0, 3, 30, 0, 0, 0, 22, 0, 0, 15, 4, 0, 0, 35, 7, 0, 43, 0, 10, 0, 0, 29, 11, 5, 12
|47, 41, 39, 0, 0, 0, 0, 0, 0, 7, 0, 18, 15, 22, 34, 20, 43, 0, 23, 0, 0, 0, 46, 40, 0, 0, 0, 0, 0, 0, 0, 0, 0, 14, 0, 0, 0, 30, 13, 5, 27, 0, 0, 24, 0, 0, 0, 21, 32
|0, 0, 43, 33, 0, 5, 0, 29, 34, 0, 0, 0, 0, 0, 0, 0, 12, 30, 4, 11, 32, 0, 10, 0, 23, 0, 26, 0, 0, 0, 0, 0, 39, 0, 27, 0, 0, 0, 0, 0, 0, 0, 0, 3, 0, 44, 0, 0, 18
|0, 0, 0, 11, 0, 21, 36, 0, 0, 23, 13, 33, 0, 0, 46, 16, 0, 34, 45, 22, 37, 0, 0, 0, 0, 0, 8, 0, 0, 0, 20, 17, 0, 48, 0, 0, 0, 40, 18, 0, 28, 30, 32, 0, 9, 12, 0, 0, 19
|0, 0, 35, 0, 0, 6, 45, 0, 0, 0, 15, 7, 0, 0, 12, 40, 0, 0, 0, 0, 0, 0, 49, 3, 0, 0, 47, 9, 0, 0, 14, 37, 0, 21, 0, 32, 0, 38, 0, 8, 0, 33, 0, 0, 0, 0, 0, 31, 48
|0, 0, 0, 32, 0, 0, 0, 0, 20, 0, 2, 0, 3, 12, 41, 0, 49, 27, 43, 8, 35, 15, 0, 48, 0, 0, 0, 31, 0, 0, 30, 0, 0, 0, 9, 0, 0, 0, 0, 0, 0, 0, 44, 16, 4, 21, 0, 36, 7
|0, 5, 13, 0, 40, 48, 33, 39, 37, 26, 0, 0, 1, 0, 0, 38, 0, 36, 0, 15, 18, 17, 0, 4, 7, 45, 43, 27, 0, 8, 0, 0, 0, 0, 0, 31, 14, 0, 21, 35, 22, 0, 23, 29, 6, 0, 34, 0, 41
|15, 24, 1, 12, 0, 2, 37, 31, 19, 0, 25, 0, 27, 0, 0, 0, 28, 0, 0, 0, 13, 39, 0, 0, 26, 0, 0, 20, 35, 4, 45, 44, 6, 0, 38, 0, 0, 0, 0, 0, 47, 0, 0, 10, 0, 11, 0, 43, 8
|0, 30, 0, 0, 0, 0, 39, 0, 36, 0, 8, 21, 0, 48, 9, 3, 0, 32, 0, 33, 26, 0, 12, 0, 1, 38, 14, 10, 31, 0, 42, 7, 0, 0, 41, 0, 4, 24, 37, 20, 19, 34, 27, 28, 35, 0, 18, 0, 0
|0, 0, 0, 9, 16, 0, 8, 35, 0, 0, 47, 0, 0, 38, 31, 0, 1, 25, 0, 0, 4, 0, 28, 0, 41, 13, 0, 0, 18, 3, 0, 0, 29, 12, 19, 48, 36, 0, 44, 0, 39, 0, 24, 0, 37, 0, 30, 0, 0
|0, 48, 15, 0, 11, 0, 14, 0, 40, 33, 0, 0, 0, 0, 26, 0, 0, 45, 0, 0, 0, 7, 0, 44, 0, 10, 0, 0, 0, 9, 5, 0, 42, 16, 0, 43, 0, 0, 0, 2, 0, 0, 0, 46, 0, 0, 0, 19, 0
|17, 0, 30, 0, 32, 0, 3, 0, 7, 0, 18, 31, 28, 20, 0, 0, 0, 0, 0, 42, 24, 0, 0, 15, 0, 0, 0, 22, 0, 48, 27, 0, 40, 0, 6, 0, 26, 0, 12, 39, 0, 0, 0, 0, 0, 38, 9, 16, 0
|0, 0, 23, 0, 19, 35, 0, 0, 44, 3, 49, 25, 12, 2, 33, 0, 7, 0, 34, 6, 16, 5, 31, 0, 0, 17, 29, 46, 0, 0, 8, 22, 41, 0, 0, 0, 0, 0, 32, 0, 0, 0, 42, 1, 0, 48, 37, 10, 40
|20, 0, 5, 0, 43, 0, 13, 0, 0, 21, 0, 0, 0, 15, 0, 14, 0, 9, 40, 0, 0, 0, 26, 1, 0, 0, 3, 25, 0, 38, 35, 0, 0, 44, 11, 16, 0, 0, 0, 0, 0, 8, 0, 2, 34, 0, 0, 32, 0
|0, 0, 24, 0, 25, 0, 0, 0, 0, 0, 43, 0, 17, 1, 0, 0, 35, 3, 0, 0, 0, 19, 0, 9, 34, 20, 0, 6, 0, 0, 32, 4, 0, 0, 7, 0, 46, 0, 5, 0, 0, 22, 0, 0, 0, 0, 39, 0, 0
|44, 0, 0, 6, 47, 0, 29, 9, 0, 0, 0, 10, 0, 13, 0, 23, 30, 37, 1, 0, 15, 40, 32, 0, 16, 0, 41, 0, 24, 0, 34, 36, 2, 46, 20, 38, 0, 0, 0, 31, 3, 17, 0, 0, 26, 18, 0, 12, 0
|4, 0, 0, 46, 41, 42, 0, 0, 26, 0, 0, 45, 0, 0, 0, 0, 20, 0, 0, 0, 19, 0, 0, 11, 13, 0, 0, 0, 0, 0, 12, 0, 0, 0, 0, 44, 0, 0, 49, 37, 0, 14, 8, 0, 0, 0, 0, 33, 0
|38, 0, 0, 0, 0, 1, 12, 18, 0, 0, 0, 0, 0, 21, 29, 2, 19, 0, 7, 32, 0, 25, 33, 0, 0, 0, 0, 13, 36, 0, 44, 41, 26, 0, 45, 23, 30, 34, 15, 4, 49, 40, 0, 0, 0, 0, 27, 0, 35
|2, 10, 44, 0, 36, 45, 6, 32, 0, 40, 23, 22, 25, 0, 0, 1, 0, 0, 0, 13, 0, 0, 38, 19, 27, 34, 0, 0, 16, 37, 48, 0, 0, 31, 0, 26, 0, 20, 9, 24, 0, 0, 41, 0, 46, 0, 21, 0, 39
|0, 32, 14, 47, 24, 11, 27, 8, 0, 0, 0, 0, 16, 41, 0, 15, 45, 0, 25, 34, 0, 30, 0, 17, 29, 49, 28, 21, 0, 7, 0, 0, 20, 0, 0, 42, 0, 0, 0, 0, 0, 44, 26, 0, 12, 37, 13, 22, 0
|35, 15, 33, 0, 49, 16, 46, 19, 0, 2, 0, 0, 0, 0, 28, 5, 24, 20, 11, 39, 41, 0, 0, 45, 36, 9, 0, 18, 0, 40, 0, 0, 14, 43, 0, 13, 0, 0, 29, 22, 17, 37, 38, 0, 0, 0, 8, 6, 44
|23, 29, 37, 5, 0, 0, 19, 0, 35, 9, 0, 38, 0, 17, 44, 0, 0, 0, 33, 47, 0, 22, 39, 41, 31, 0, 0, 40, 0, 10, 49, 0, 12, 32, 0, 0, 0, 46, 0, 0, 25, 43, 0, 0, 36, 2, 24, 0, 0
|43, 0, 0, 0, 13, 0, 0, 0, 24, 0, 0, 30, 0, 47, 0, 35, 8, 0, 22, 31, 0, 0, 6, 0, 0, 46, 2, 15, 0, 0, 0, 0, 0, 18, 0, 0, 0, 36, 38, 0, 0, 0, 33, 40, 3, 0, 0, 25, 1
|9, 0, 0, 18, 0, 0, 41, 15, 0, 4, 3, 0, 43, 37, 42, 17, 0, 0, 36, 0, 6, 0, 0, 12, 0, 0, 35, 0, 30, 24, 46, 0, 38, 0, 28, 0, 27, 14, 0, 21, 31, 1, 19, 11, 0, 0, 49, 29, 0
|31, 49, 0, 40, 0, 0, 0, 34, 0, 0, 0, 19, 47, 0, 5, 45, 0, 8, 0, 0, 0, 0, 0, 43, 33, 22, 0, 0, 0, 6, 26, 0, 0, 0, 0, 3, 0, 0, 0, 42, 32, 16, 0, 0, 0, 0, 0, 0, 0
|32, 38, 0, 0, 37, 20, 0, 3, 0, 25, 0, 1, 14, 43, 4, 0, 18, 7, 0, 0, 0, 0, 0, 34, 8, 29, 6, 0, 46, 0, 0, 10, 0, 42, 0, 33, 22, 0, 2, 0, 0, 11, 0, 30, 24, 9, 0, 0, 0
|7, 17, 25, 0, 39, 0, 18, 22, 0, 0, 27, 2, 0, 26, 14, 0, 41, 42, 0, 0, 0, 0, 0, 0, 0, 0, 16, 0, 0, 0, 24, 0, 19, 0, 0, 20, 31, 0, 40, 36, 0, 21, 0, 33, 0, 0, 4, 0, 46
|46, 0, 0, 0, 3, 22, 5, 0, 18, 48, 0, 41, 0, 0, 17, 24, 29, 33, 0, 26, 0, 0, 0, 0, 0, 0, 19, 12, 0, 20, 25, 0, 0, 9, 1, 0, 34, 0, 0, 0, 0, 0, 36, 8, 0, 27, 23, 0, 11
|0, 0, 0, 0, 33, 12, 11, 45, 0, 29, 0, 0, 0, 7, 36, 0, 0, 0, 0, 20, 0, 0, 0, 0, 0, 0, 31, 0, 44, 0, 0, 0, 0, 2, 0, 17, 0, 0, 30, 10, 0, 0, 34, 5, 22, 19, 0, 28, 0
|21, 16, 0, 0, 1, 15, 26, 0, 6, 42, 0, 0, 0, 0, 0, 31, 47, 13, 0, 0, 0, 18, 20, 0, 0, 0, 0, 0, 33, 0, 0, 0, 0, 0, 0, 0, 0, 25, 0, 0, 0, 0, 0, 0, 10, 43, 0, 0, 0
|48, 4, 36, 13, 0, 0, 0, 33, 32, 0, 24, 20, 0, 23, 21, 9, 11, 44, 0, 0, 40, 47, 7, 0, 14, 0, 10, 1, 15, 30, 0, 0, 0, 0, 0, 8, 0, 18, 46, 0, 26, 0, 39, 0, 0, 3, 6, 0, 29
|0, 13, 32, 4, 0, 0, 0, 0, 0, 37, 0, 12, 0, 0, 0, 0, 27, 43, 20, 0, 25, 31, 0, 26, 24, 0, 0, 0, 0, 14, 0, 2, 0, 0, 36, 5, 0, 0, 0, 16, 35, 0, 40, 0, 0, 0, 3, 0, 42
|45, 0, 18, 20, 35, 40, 0, 2, 0, 0, 0, 27, 0, 34, 0, 30, 37, 14, 0, 7, 0, 21, 0, 0, 39, 0, 13, 48, 0, 22, 1, 3, 16, 0, 0, 10, 0, 0, 33, 0, 0, 28, 0, 26, 41, 0, 0, 4, 0
|0, 0, 0, 0, 29, 0, 0, 21, 8, 0, 0, 0, 0, 0, 49, 26, 17, 0, 3, 16, 12, 0, 4, 38, 32, 0, 45, 0, 5, 0, 0, 0, 24, 6, 35, 18, 15, 0, 48, 41, 0, 42, 0, 27, 0, 25, 0, 13, 0
|0, 0, 0, 3, 0, 0, 0, 7, 25, 0, 33, 0, 39, 28, 0, 19, 31, 15, 42, 2, 0, 49, 0, 0, 17, 0, 37, 14, 0, 0, 0, 26, 44, 0, 43, 0, 0, 0, 0, 0, 29, 4, 0, 36, 47, 0, 35, 0, 0
|0, 39, 17, 0, 26, 0, 0, 41, 43, 0, 35, 0, 0, 19, 0, 18, 0, 0, 0, 1, 44, 29, 47, 33, 0, 0, 0, 2, 27, 0, 0, 42, 0, 0, 31, 0, 0, 0, 0, 14, 0, 32, 0, 6, 45, 0, 12, 0, 0
|0, 23, 0, 2, 42, 36, 48, 0, 0, 16, 0, 15, 0, 24, 0, 0, 22, 41, 39, 40, 0, 1, 0, 0, 0, 12, 11, 8, 0, 0, 33, 47, 0, 19, 21, 0, 17, 0, 3, 0, 0, 26, 18, 0, 32, 0, 0, 0, 28
|0, 0, 0, 0, 0, 0, 0, 0, 22, 47, 26, 0, 20, 31, 13, 10, 0, 0, 0, 0, 21, 42, 0, 6, 0, 0, 0, 16, 0, 0, 28, 0, 7, 34, 0, 0, 39, 27, 36, 0, 38, 0, 0, 0, 0, 0, 14, 11, 0
|0, 26, 0, 22, 0, 3, 32, 12, 0, 0, 37, 11, 0, 0, 0, 0, 0, 0, 21, 0, 33, 0, 45, 0, 38, 0, 44, 23, 0, 0, 0, 0, 0, 0, 29, 0, 0, 0, 35, 17, 0, 10, 5, 4, 13, 6, 7, 0, 0
|30, 36, 0, 25, 2, 49, 31, 13, 0, 0, 9, 35, 44, 0, 0, 0, 34, 0, 27, 0, 0, 48, 29, 42, 0, 0, 39, 0, 0, 0, 0, 0, 8, 11, 0, 21, 23, 22, 0, 32, 0, 0, 37, 0, 33, 14, 0, 1, 0
|0, 33, 7, 15, 17, 29, 0, 0, 0, 0, 21, 26, 40, 30, 0, 0, 23, 0, 32, 41, 0, 3, 1, 28, 2, 0, 49, 34, 25, 35, 0, 16, 10, 0, 44, 0, 24, 45, 14, 0, 0, 0, 0, 9, 0, 8, 43, 0, 22
|6, 43, 0, 38, 45, 0, 42, 0, 0, 31, 0, 46, 0, 0, 15, 0, 0, 0, 0, 37, 0, 10, 0, 0, 22, 30, 0, 0, 14, 18, 0, 9, 0, 5, 13, 0, 0, 0, 1, 0, 0, 47, 0, 0, 0, 32, 25, 0, 0
|0, 0, 0, 35, 0, 24, 23, 0, 0, 0, 39, 43, 29, 14, 0, 25, 0, 46, 0, 10, 22, 0, 0, 0, 19, 21, 0, 7, 0, 33, 38, 0, 4, 0, 0, 0, 42, 11, 41, 0, 20, 0, 0, 12, 0, 30, 15, 0, 36
|34, 0, 0, 0, 5, 14, 4, 20, 10, 24, 7, 16, 0, 0, 35, 49, 38, 0, 30, 0, 29, 12, 0, 0, 0, 0, 0, 43, 17, 2, 0, 48, 0, 27, 22, 0, 0, 3, 0, 0, 33, 0, 0, 0, 0, 40, 44, 26, 0
|11, 0, 46, 16, 12, 0, 21, 47, 28, 22, 1, 48, 34, 3, 0, 4, 44, 19, 9, 17, 0, 0, 0, 0, 0, 14, 0, 33, 26, 41, 0, 0, 32, 0, 0, 0, 0, 0, 0, 0, 6, 0, 29, 23, 0, 0, 0, 0, 0|];