order = 7;
grid = [|0, 11, 13, 0, 26, 0, 0, 0, 0, 22, 0, 0, 0, 0, 39, 0, 0, 0, 35, 0, 0, 0, 0, 8, 0, 29, 47, 0, 0, 0, 0, 9, 0, 0, 0, 0, 40, 0, 44, 28, 0, 1, 0, 0, 0, 0, 20, 19, 0
|30, 29, 21, 0, 0, 0, 38, 0, 0, 27, 0, 11, 0, 0, 0, 10, 7, 9, 0, 28, 0, 0, 0, 43, 46, 32, 0, 4, 47, 0, 24, 0, 1, 49, 14, 0, 0, 0, 18, 3, 0, 0, 0, 31, 26, 0, 0, 0, 34
|0, 0, 36, 32, 35, 19, 0, 24, 48, 0, 0, 14, 0, 0, 45, 0, 11, 0, 0, 0, 43, 39, 0, 0, 2, 0, 33, 0, 12, 6, 28, 15, 0, 4, 0, 27, 0, 46, 20, 17, 0, 0, 0, 0, 0, 0, 0, 0, 0
|28, 0, 0, 37, 3, 2, 39, 1, 0, 47, 29, 0, 0, 45, 0, 0, 48, 0, 0, 41, 0, 18, 35, 0, 0, 0, 7, 23, 19, 20, 40, 36, 8, 0, 0, 0, 0, 0, 0, 32, 0, 0, 21, 0, 10, 0, 11, 46, 0
|0, 46, 0, 0, 15, 23, 22, 0, 0, 0, 0, 6, 0, 3, 13, 0, 0, 0, 0, 36, 0, 17, 21, 0, 1, 0, 0, 0, 0, 32, 0, 0, 27, 0, 42, 14, 0, 0, 0, 0, 29, 0, 0, 0, 0, 0, 0, 28, 0
|20, 0, 9, 0, 0, 27, 0, 0, 21, 0, 23, 38, 34, 46, 25, 0, 0, 0, 0, 32, 0, 15, 19, 0, 0, 0, 28, 0, 0, 0, 35, 0, 29, 39, 26, 37, 45, 43, 0, 0, 0, 7, 0, 0, 48, 6, 0, 0, 0
|6, 0, 40, 0, 0, 0, 0, 0, 26, 28, 19, 25, 18, 0, 0, 24, 20, 0, 0, 47, 0, 16, 0, 0, 0, 5, 0, 0, 46, 13, 0, 0, 0, 22, 44, 0, 0, 42, 4, 0, 21, 9, 15, 0, 0, 0, 17, 1, 0
|0, 2, 34, 49, 0, 0, 0, 38, 23, 0, 1, 0, 0, 4, 0, 40, 10, 46, 5, 33, 28, 0, 0, 42, 0, 16, 41, 3, 24, 44, 31, 0, 19, 29, 0, 25, 21, 0, 17, 30, 0, 0, 48, 0, 0, 0, 32, 0, 9
|4, 3, 0, 1, 0, 0, 0, 32, 0, 42, 41, 48, 35, 21, 22, 47, 0, 0, 45, 14, 0, 0, 0, 27, 0, 0, 38, 0, 0, 12, 17, 40, 0, 0, 39, 13, 46, 0, 0, 23, 0, 0, 25, 5, 0, 19, 6, 0, 0
|0, 0, 35, 20, 30, 0, 0, 45, 0, 19, 0, 49, 0, 0, 0, 1, 0, 0, 0, 0, 9, 0, 0, 0, 0, 0, 12, 39, 28, 0, 4, 0, 0, 0, 0, 8, 14, 34, 29, 0, 0, 0, 0, 40, 0, 27, 0, 10, 26
|45, 15, 7, 28, 32, 44, 27, 26, 0, 0, 5, 0, 0, 0, 31, 4, 41, 18, 19, 17, 39, 0, 0, 21, 0, 40, 0, 20, 0, 25, 38, 35, 0, 10, 11, 3, 0, 37, 48, 36, 0, 24, 0, 0, 0, 0, 0, 47, 0
|0, 0, 0, 0, 18, 0, 48, 10, 20, 0, 9, 16, 0, 30, 12, 44, 8, 32, 0, 0, 0, 22, 15, 31, 0, 0, 0, 0, 0, 0, 2, 41, 3, 21, 23, 45, 0, 4, 0, 7, 35, 0, 33, 0, 0, 0, 0, 14, 0
|16, 0, 0, 8, 17, 0, 0, 0, 27, 0, 39, 13, 47, 25, 23, 30, 29, 0, 6, 0, 0, 45, 0, 0, 0, 37, 11, 46, 0, 0, 22, 43, 32, 1, 48, 42, 0, 38, 0, 12, 0, 49, 3, 7, 4, 0, 0, 0, 0
|0, 0, 22, 0, 23, 0, 0, 0, 11, 0, 15, 0, 14, 0, 0, 0, 49, 48, 7, 0, 16, 4, 32, 33, 0, 26, 1, 19, 0, 34, 0, 6, 0, 0, 20, 43, 0, 0, 0, 0, 10, 18, 44, 30, 0, 8, 46, 17, 36
|46, 43, 30, 26, 0, 0, 0, 48, 24, 45, 0, 44, 0, 0, 19, 0, 0, 33, 28, 20, 22, 0, 0, 2, 41, 0, 34, 6, 0, 7, 0, 0, 0, 42, 13, 16, 0, 15, 32, 0, 27, 0, 0, 0, 0, 0, 0, 9, 38
|0, 0, 48, 0, 1, 5, 24, 0, 0, 13, 32, 0, 27, 0, 0, 29, 4, 0, 0, 10, 30, 0, 20, 0, 0, 33, 18, 12, 41, 21, 49, 0, 0, 43, 0, 17, 0, 0, 0, 0, 2, 0, 0, 0, 0, 40, 0, 0, 22
|22, 49, 0, 42, 34, 0, 0, 0, 0, 0, 0, 41, 43, 10, 8, 0, 0, 0, 25, 37, 0, 13, 11, 0, 23, 19, 36, 24, 9, 18, 20, 30, 4, 47, 0, 0, 0, 12, 26, 0, 45, 0, 0, 27, 0, 0, 0, 0, 0
|27, 0, 15, 39, 11, 0, 0, 6, 0, 14, 22, 18, 42, 0, 48, 2, 13, 3, 43, 9, 34, 0, 46, 0, 44, 0, 16, 0, 0, 23, 0, 0, 5, 0, 0, 7, 0, 20, 24, 38, 33, 0, 29, 0, 30, 0, 35, 12, 0
|2, 0, 0, 0, 20, 3, 0, 0, 12, 0, 37, 0, 0, 11, 26, 0, 16, 27, 0, 0, 0, 43, 0, 0, 0, 0, 21, 29, 0, 24, 0, 0, 6, 15, 0, 28, 0, 0, 36, 25, 13, 10, 1, 0, 0, 0, 0, 0, 32
|0, 25, 0, 0, 47, 0, 0, 0, 0, 0, 0, 0, 0, 0, 0, 15, 17, 12, 24, 49, 18, 8, 37, 0, 0, 0, 31, 27, 0, 0, 33, 22, 26, 45, 34, 29, 0, 0, 30, 46, 42, 0, 41, 0, 16, 0, 0, 0, 0
|8, 0, 0, 0, 0, 28, 0, 5, 36, 0, 0, 20, 30, 15, 0, 45, 35, 0, 0, 44, 0, 42, 47, 0, 17, 38, 0, 26, 0, 29, 0, 16, 0, 0, 0, 0, 0, 18, 0, 9, 0, 0, 2, 0, 0, 0, 25, 23, 13
|1, 0, 38, 3, 4, 0, 5, 31, 0, 34, 13, 0, 6, 14, 0, 23, 21, 0, 39, 45, 2, 0, 12, 47, 0, 0, 0, 0, 0, 0, 41, 17, 0, 46, 0, 0, 25, 28, 16, 0, 8, 36, 0, 33, 0, 11, 0, 0, 0
|10, 0, 25, 0, 39, 47, 0, 0, 9, 44, 0, 0, 7, 42, 28, 48, 34, 5, 15, 0, 33, 37, 31, 0, 0, 13, 24, 0, 6, 0, 0, 11, 0, 0, 30, 20, 3, 0, 1, 45, 0, 0, 0, 0, 14, 46, 0, 0, 18
|19, 32, 11, 24, 8, 0, 0, 0, 0, 0, 33, 22, 40, 0, 0, 0, 0, 7, 44, 25, 35, 0, 0, 18, 0, 28, 30, 0, 1, 0, 0, 48, 0, 37, 9, 46, 0, 0, 13, 5, 26, 42, 0, 16, 39, 0, 31, 0, 0
|13, 48, 43, 31, 0, 45, 0, 36, 39, 0, 26, 17, 32, 35, 11, 0, 0, 14, 9, 0, 8, 0, 0, 0, 25, 0, 3, 0, 29, 0, 0, 27, 0, 0, 16, 0, 18, 0, 0, 0, 37, 0, 0, 0, 42, 0, 15, 0, 0
|44, 0, 18, 0, 27, 29, 9, 49, 1, 0, 48, 0, 0, 24, 47, 0, 31, 0, 0, 4, 26, 11, 16, 45, 0, 6, 0, 21, 5, 0, 3, 13, 0, 0, 15, 2, 0, 41, 14, 0, 30, 34, 7, 0, 0, 0, 10, 0, 0
|0, 0, 28, 0, 0, 15, 0, 0, 0, 25, 30, 5, 11, 0, 16, 0, 0, 41, 29, 0, 0, 0, 0, 0, 33, 42, 23, 0, 0, 0, 26, 39, 0, 24, 10, 38, 7, 0, 49, 43, 0, 0, 35, 0, 0, 0, 0, 45, 48
|0, 34, 0, 0, 49, 0, 12, 0, 0, 0, 28, 0, 46, 27, 42, 13, 0, 0, 30, 19, 0, 0, 0, 1, 29, 0, 8, 0, 20, 0, 0, 25, 0, 0, 45, 0, 35, 0, 0, 39, 11, 48, 0, 23, 0, 3, 0, 24, 0
|0, 9, 0, 43, 25, 33, 13, 0, 42, 20, 49, 0, 0, 0, 0, 0, 14, 44, 0, 0, 0, 0, 0, 5, 0, 46, 2, 36, 0, 37, 0, 21, 31, 35, 0, 19, 28, 0, 38, 34, 0, 0, 10, 0, 15, 47, 41, 30, 0
|3, 0, 29, 6, 0, 0, 49, 0, 19, 38, 43, 4, 0, 0, 0, 26, 37, 0, 21, 0, 0, 0, 0, 0, 0, 18, 0, 34, 25, 0, 0, 0, 46, 48, 0, 22, 0, 13, 0, 0, 24, 20, 32, 0, 0, 0, 0, 33, 0
|17, 19, 0, 0, 0, 34, 0, 0, 47, 0, 44, 21, 41, 0, 0, 43, 24, 0, 18, 30, 0, 0, 0, 0, 38, 0, 0, 0, 0, 0, 0, 0, 0, 5, 36, 49, 12, 0, 0, 6, 46, 0, 0, 0, 2, 20, 13, 22, 0
|5, 0, 2, 0, 0, 40, 0, 9, 0, 0, 0, 0, 16, 31, 32, 20, 0, 4, 3, 0, 0, 0, 0, 0, 19, 0, 0, 37, 0, 15, 0, 0, 43, 8, 0, 0, 36, 0, 45, 42, 7, 0, 12, 14, 17, 35, 48, 0, 21
|0, 47, 0, 11, 7, 35, 28, 0, 32, 0, 46, 8, 5, 22, 33, 0, 0, 29, 0, 39, 25, 0, 13, 0, 0, 0, 0, 43, 0, 0, 19, 0, 0, 0, 0, 21, 10, 26, 0, 37, 17, 23, 0, 0, 49, 0, 34, 6, 1
|0, 27, 37, 12, 0, 0, 32, 14, 0, 0, 35, 40, 25, 0, 2, 0, 9, 36, 0, 0, 10, 23, 4, 11, 0, 0, 0, 0, 26, 0, 6, 0, 44, 0, 0, 39, 43, 0, 31, 0, 0, 5, 19, 0, 0, 38, 0, 0, 0
|0, 0, 31, 0, 0, 0, 0, 0, 0, 0, 0, 28, 24, 7, 34, 0, 0, 0, 46, 0, 49, 0, 0, 20, 0, 21, 0, 9, 0, 42, 0, 0, 0, 0, 12, 0, 0, 0, 35, 4, 0, 0, 43, 29, 0, 0, 0, 0, 37
|0, 28, 24, 0, 0, 20, 0, 44, 7, 0, 0, 0, 15, 12, 29, 37, 0, 19, 0, 8, 4, 0, 48, 0, 40, 39, 35, 0, 0, 49, 18, 32, 22, 14, 31, 9, 0, 21, 0, 0, 0, 0, 17, 6, 23, 30, 0, 0, 25
|0, 13, 44, 41, 48, 9, 11, 25, 0, 0, 31, 0, 0, 43, 0, 22, 18, 0, 0, 0, 0, 27, 0, 15, 45, 8, 20, 0, 17, 0, 0, 0, 0, 36, 0, 40, 42, 0, 12, 0, 0, 37, 28, 0, 0, 21, 0, 0, 19
|47, 17, 0, 35, 0, 0, 0, 22, 14, 9, 27, 0, 28, 38, 0, 0, 0, 0, 0, 0, 46, 0, 49, 16, 0, 0, 0, 44, 45, 0, 42, 7, 0, 0, 0, 33, 0, 23, 0, 31, 0, 0, 11, 48, 29, 0, 8, 0, 40
|33, 18, 4, 0, 0, 10, 0, 40, 0, 0, 8, 23, 0, 0, 17, 36, 30, 28, 0, 0, 0, 0, 2, 0, 0, 0, 0, 1, 0, 27, 0, 44, 0, 0, 0, 0, 0, 45, 19, 0, 25, 29, 0, 0, 12, 0, 0, 16, 3
|0, 22, 0, 19, 37, 0, 25, 0, 4, 0, 0, 0, 0, 0, 20, 11, 44, 45, 14, 0, 0, 0, 6, 12, 0, 0, 29, 5, 0, 48, 0, 2, 13, 41, 28, 35, 0, 0, 0, 16, 0, 46, 0, 0, 0, 0, 43, 18, 0
|29, 1, 0, 0, 40, 46, 0, 0, 6, 0, 42, 2, 19, 18, 0, 0, 0, 0, 48, 31, 0, 0, 23, 37, 34, 43, 0, 22, 11, 8, 5, 24, 47, 0, 33, 15, 0, 36, 0, 0, 38, 13, 14, 35, 20, 10, 0, 7, 45
|0, 16, 0, 2, 0, 0, 0, 30, 33, 0, 20, 0, 0, 0, 9, 3, 0, 43, 0, 35, 1, 0, 0, 17, 0, 0, 0, 41, 39, 0, 0, 29, 25, 0, 40, 0, 22, 32, 0, 0, 0, 11, 4, 42, 5, 34, 0, 31, 15
|11, 30, 0, 0, 0, 0, 29, 28, 0, 17, 0, 0, 26, 0, 0, 0, 1, 49, 0, 0, 0, 6, 22, 36, 4, 0, 43, 25, 18, 39, 0, 45, 38, 31, 32, 44, 15, 0, 42, 0, 0, 21, 0, 0, 0, 0, 33, 35, 10
|0, 4, 5, 0, 0, 25, 16, 42, 0, 46, 14, 30, 0, 49, 0, 0, 0, 15, 0, 48, 0, 35, 0, 0, 37, 23, 0, 0, 0, 0, 36, 0, 41, 0, 43, 0, 24, 1, 0, 0, 0, 0, 0, 38, 21, 29, 0, 0, 0
|0, 0, 0, 48, 31, 1, 37, 0, 0, 3, 11, 7, 2, 0, 10, 0, 0, 0, 36, 13, 6, 12, 0, 29, 0, 0, 14, 0, 0, 26, 0, 0, 0, 20, 0, 0, 0, 0, 34, 40, 0, 33, 16, 0, 0, 0, 28, 0, 27
|0, 0, 0, 0, 43, 38, 0, 13, 0, 48, 36, 0, 4, 0, 41, 0, 46, 22, 0, 29, 24, 44, 0, 0, 20, 0, 10, 2, 0, 11, 0, 19, 40, 6, 0, 47, 0, 0, 0, 18, 14, 0, 0, 25, 31, 15, 0, 5, 12
|0, 26, 0, 0, 0, 18, 3, 23, 10, 29, 24, 0, 0, 0, 21, 9, 39, 0, 33, 2, 12, 48, 38, 0, 8, 34, 13, 32, 30, 14, 0, 0, 16, 0, 37, 11, 0, 0, 46, 0, 0, 0, 40, 0, 47, 0, 0, 0, 41
|0, 0, 0, 0, 0, 0, 0, 34, 0, 0, 25, 0, 1, 0, 43, 35, 23, 11, 0, 0, 0, 0, 0, 0, 0, 15, 0, 0, 0, 28, 13, 49, 0, 0, 0, 30, 31, 10, 22, 0, 48, 38, 0, 0, 6, 2, 0, 0, 24
|0, 20, 23, 13, 0, 0, 6, 0, 41, 43, 38, 27, 0, 44, 0, 16, 3, 0, 8, 18, 5, 28, 0, 40, 0, 0, 39, 0, 0, 10, 0, 42, 9, 0, 47, 4, 0, 0, 0, 0, 36, 0, 0, 0, 45, 14, 0, 48, 46|];