order = 7;
grid = [|0, 2, 13, 12, 19, 0, 36, 0, 47, 41, 0, 0, 18, 0, 43, 0, 20, 0, 0, 6, 35, 0, 0, 0, 0, 0, 29, 0, 0, 5, 0, 38, 42, 0, 14, 0, 30, 23, 4, 27, 9, 0, 0, 37, 21, 0, 0, 0, 0
|0, 0, 0, 24, 14, 10, 43, 40, 20, 0, 0, 0, 0, 6, 0, 0, 0, 9, 0, 27, 7, 38, 17, 0, 0, 0, 0, 0, 0, 46, 15, 28, 36, 0, 0, 0, 0, 18, 0, 49, 11, 0, 0, 29, 0, 39, 0, 19, 0
|48, 0, 0, 41, 0, 9, 5, 0, 37, 0, 0, 0, 0, 0, 16, 32, 47, 0, 12, 0, 15, 30, 18, 0, 0, 23, 0, 0, 0, 0, 34, 0, 0, 4, 0, 14, 0, 29, 0, 0, 46, 0, 0, 40, 0, 33, 24, 0, 0
|30, 0, 20, 34, 18, 17, 33, 27, 0, 0, 2, 0, 14, 0, 0, 0, 0, 11, 40, 0, 0, 0, 0, 0, 37, 0, 28, 7, 25, 39, 31, 29, 0, 0, 0, 3, 0, 0, 42, 16, 0, 32, 0, 1, 0, 0, 0, 0, 0
|0, 4, 0, 27, 3, 46, 23, 0, 25, 0, 45, 30, 9, 22, 34, 0, 0, 0, 48, 0, 29, 0, 24, 11, 2, 10, 0, 0, 0, 0, 0, 1, 0, 0, 16, 0, 0, 0, 0, 17, 0, 0, 7, 0, 20, 38, 15, 0, 31
|0, 6, 8, 0, 49, 21, 37, 44, 17, 0, 0, 0, 0, 16, 0, 33, 18, 0, 26, 46, 38, 0, 0, 1, 48, 39, 4, 0, 22, 0, 0, 0, 27, 0, 35, 0, 7, 12, 0, 28, 20, 0, 0, 0, 0, 14, 9, 10, 0
|35, 47, 0, 0, 0, 31, 7, 0, 4, 0, 0, 0, 29, 34, 37, 0, 0, 0, 0, 5, 24, 0, 0, 0, 36, 46, 44, 0, 3, 0, 0, 23, 48, 0, 10, 0, 0, 38, 21, 0, 0, 26, 0, 0, 0, 0, 0, 6, 18
|44, 0, 0, 0, 0, 0, 24, 26, 0, 0, 0, 34, 0, 0, 0, 47, 36, 0, 0, 38, 0, 0, 2, 18, 28, 16, 0, 11, 43, 48, 0, 0, 0, 37, 0, 21, 15, 0, 0, 30, 0, 40, 0, 22, 10, 13, 0, 29, 0
|10, 0, 11, 0, 0, 29, 26, 0, 38, 18, 0, 46, 0, 32, 0, 0, 0, 33, 49, 23, 0, 35, 25, 37, 0, 0, 21, 0, 0, 0, 44, 3, 20, 0, 8, 0, 1, 7, 24, 19, 12, 48, 14, 45, 0, 0, 0, 5, 0
|0, 0, 0, 22, 0, 20, 15, 0, 36, 0, 0, 40, 25, 7, 27, 0, 0, 0, 0, 0, 10, 0, 3, 47, 0, 5, 0, 0, 0, 0, 0, 0, 46, 17, 4, 0, 0, 45, 0, 33, 26, 0, 39, 16, 0, 18, 8, 30, 0
|0, 34, 38, 17, 35, 41, 47, 4, 0, 0, 11, 0, 31, 0, 0, 15, 37, 0, 22, 29, 0, 32, 14, 10, 0, 0, 40, 0, 0, 26, 0, 0, 49, 0, 0, 0, 0, 0, 0, 6, 0, 0, 21, 33, 0, 0, 23, 0, 0
|0, 40, 46, 18, 36, 0, 27, 10, 12, 3, 0, 0, 0, 29, 0, 14, 11, 2, 0, 24, 0, 0, 0, 0, 0, 0, 26, 0, 34, 31, 28, 0, 0, 42, 5, 47, 0, 0, 44, 8, 0, 35, 0, 9, 0, 0, 6, 48, 49
|0, 0, 3, 0, 45, 0, 21, 48, 0, 1, 28, 43, 2, 0, 0, 40, 0, 7, 4, 0, 44, 39, 20, 0, 46, 42, 6, 27, 11, 38, 0, 18, 30, 0, 32, 29, 0, 5, 49, 0, 22, 31, 34, 12, 0, 0, 0, 0, 0
|7, 43, 23, 0, 0, 0, 0, 49, 0, 0, 0, 37, 6, 0, 0, 17, 0, 18, 0, 0, 34, 41, 44, 0, 12, 0, 0, 22, 0, 0, 36, 0, 0, 0, 47, 46, 32, 0, 16, 0, 2, 3, 0, 0, 0, 0, 42, 11, 0
|0, 27, 41, 0, 43, 15, 12, 0, 0, 14, 0, 8, 0, 0, 13, 0, 0, 0, 0, 0, 40, 0, 4, 0, 44, 0, 17, 36, 0, 0, 0, 49, 0, 0, 29, 0, 16, 28, 0, 0, 0, 5, 42, 0, 23, 0, 0, 24, 0
|0, 0, 10, 4, 0, 8, 0, 0, 0, 32, 39, 44, 19, 0, 0, 11, 0, 41, 0, 12, 48, 0, 47, 30, 0, 14, 15, 0, 42, 0, 2, 0, 5, 28, 18, 23, 0, 25, 0, 43, 0, 0, 49, 0, 31, 0, 0, 34, 46
|0, 28, 16, 36, 0, 0, 40, 5, 30, 0, 29, 27, 0, 12, 0, 25, 0, 0, 0, 15, 6, 0, 31, 19, 26, 8, 46, 0, 9, 0, 0, 0, 33, 0, 38, 22, 13, 37, 45, 42, 0, 18, 0, 0, 1, 21, 0, 2, 0
|0, 35, 18, 1, 0, 13, 32, 0, 46, 0, 0, 0, 0, 48, 2, 0, 0, 8, 0, 0, 43, 11, 0, 38, 0, 49, 3, 0, 0, 40, 0, 24, 0, 0, 0, 0, 0, 0, 14, 31, 0, 0, 0, 47, 33, 0, 0, 0, 0
|20, 25, 0, 0, 0, 22, 3, 0, 0, 40, 0, 0, 0, 0, 0, 0, 0, 1, 33, 9, 46, 18, 29, 0, 0, 21, 0, 39, 0, 37, 0, 8, 13, 0, 0, 38, 0, 0, 0, 0, 0, 4, 0, 0, 17, 5, 0, 0, 28
|0, 24, 7, 42, 37, 6, 0, 11, 1, 28, 10, 47, 0, 31, 0, 5, 0, 0, 0, 0, 30, 0, 0, 0, 0, 12, 33, 0, 35, 0, 0, 0, 0, 15, 0, 0, 9, 0, 40, 26, 0, 46, 0, 48, 36, 4, 0, 8, 0
|0, 0, 17, 11, 26, 0, 0, 0, 0, 0, 49, 0, 3, 4, 38, 0, 32, 16, 0, 0, 42, 5, 22, 28, 0, 0, 0, 0, 46, 0, 19, 0, 23, 36, 20, 0, 10, 8, 2, 0, 0, 0, 35, 0, 0, 0, 45, 41, 25
|1, 0, 34, 7, 0, 0, 0, 0, 0, 19, 0, 29, 0, 0, 0, 0, 46, 31, 10, 0, 23, 28, 0, 33, 0, 0, 24, 3, 36, 0, 49, 0, 6, 0, 0, 2, 21, 35, 0, 0, 0, 9, 0, 4, 13, 42, 26, 0, 0
|11, 0, 0, 9, 0, 0, 0, 0, 0, 0, 0, 0, 0, 13, 0, 19, 0, 26, 27, 7, 0, 0, 0, 4, 0, 34, 48, 0, 10, 0, 29, 40, 0, 43, 23, 0, 46, 0, 18, 0, 37, 0, 25, 17, 39, 41, 0, 0, 2
|0, 0, 0, 0, 0, 0, 28, 2, 7, 11, 25, 0, 0, 0, 0, 44, 0, 4, 20, 18, 13, 46, 0, 29, 27, 0, 43, 10, 15, 0, 0, 22, 0, 5, 0, 0, 0, 40, 32, 0, 23, 0, 0, 34, 6, 19, 31, 0, 1
|0, 0, 39, 0, 0, 23, 4, 46, 28, 0, 0, 0, 0, 0, 22, 9, 0, 42, 0, 0, 0, 0, 19, 13, 7, 26, 25, 0, 32, 1, 0, 2, 0, 0, 0, 0, 0, 0, 0, 36, 47, 6, 0, 5, 0, 48, 35, 16, 37
|49, 0, 0, 0, 0, 0, 29, 0, 34, 0, 20, 0, 48, 21, 0, 3, 0, 43, 37, 0, 0, 9, 0, 0, 0, 0, 32, 0, 0, 17, 16, 0, 18, 0, 0, 0, 0, 0, 0, 0, 0, 0, 28, 0, 0, 24, 0, 44, 10
|0, 10, 15, 0, 0, 0, 0, 18, 23, 31, 6, 36, 4, 0, 32, 0, 39, 0, 35, 0, 12, 0, 0, 0, 16, 0, 0, 0, 30, 13, 0, 26, 34, 0, 0, 0, 8, 1, 0, 0, 28, 0, 0, 0, 0, 0, 21, 0, 0
|0, 46, 0, 0, 0, 0, 35, 0, 10, 0, 0, 0, 0, 0, 0, 34, 0, 40, 0, 0, 0, 49, 11, 0, 0, 0, 36, 18, 24, 4, 21, 44, 0, 0, 31, 0, 0, 17, 7, 38, 29, 0, 8, 0, 0, 32, 33, 20, 0
|36, 29, 0, 47, 0, 0, 41, 28, 0, 9, 5, 33, 39, 0, 0, 30, 48, 46, 0, 0, 25, 0, 0, 0, 3, 0, 11, 44, 21, 0, 26, 37, 0, 0, 45, 24, 17, 14, 8, 10, 0, 0, 0, 32, 2, 0, 22, 0, 0
|24, 0, 0, 0, 0, 44, 25, 43, 0, 12, 32, 19, 17, 30, 29, 18, 0, 0, 8, 41, 0, 26, 0, 0, 15, 28, 0, 0, 14, 0, 0, 0, 7, 31, 0, 0, 0, 0, 0, 47, 0, 0, 0, 20, 48, 0, 5, 0, 34
|0, 0, 35, 31, 33, 0, 38, 3, 0, 45, 0, 25, 0, 37, 10, 13, 5, 0, 0, 0, 32, 0, 0, 42, 19, 24, 20, 34, 47, 0, 9, 41, 44, 16, 46, 49, 0, 22, 0, 7, 0, 30, 15, 0, 0, 0, 39, 4, 14
|28, 8, 27, 0, 40, 2, 0, 21, 0, 0, 0, 26, 0, 0, 47, 1, 0, 0, 0, 34, 37, 0, 0, 14, 32, 13, 45, 0, 0, 22, 11, 0, 0, 0, 17, 9, 48, 0, 3, 15, 0, 0, 0, 43, 16, 31, 0, 0, 19
|37, 0, 0, 0, 0, 0, 0, 0, 31, 38, 47, 41, 0, 0, 23, 4, 0, 22, 0, 0, 45, 0, 6, 0, 10, 0, 9, 0, 0, 33, 0, 0, 0, 0, 0, 43, 0, 21, 0, 29, 0, 12, 0, 35, 24, 49, 0, 3, 42
|0, 0, 45, 0, 0, 48, 0, 20, 29, 8, 13, 49, 0, 0, 40, 21, 0, 3, 0, 14, 27, 4, 7, 2, 0, 0, 0, 0, 19, 0, 0, 0, 25, 0, 0, 0, 0, 31, 0, 1, 36, 0, 0, 38, 0, 0, 17, 9, 0
|0, 23, 9, 0, 0, 11, 0, 0, 0, 4, 34, 7, 0, 0, 17, 0, 24, 0, 0, 0, 0, 0, 48, 46, 8, 29, 0, 0, 38, 30, 0, 39, 0, 0, 0, 28, 0, 32, 19, 40, 0, 25, 0, 18, 0, 0, 0, 37, 21
|4, 0, 0, 0, 0, 0, 34, 0, 0, 20, 0, 10, 0, 45, 11, 36, 30, 0, 38, 0, 0, 0, 43, 0, 0, 6, 0, 47, 28, 0, 32, 9, 19, 25, 13, 0, 0, 0, 48, 37, 1, 39, 0, 27, 0, 0, 0, 0, 17
|0, 36, 0, 44, 7, 49, 0, 37, 0, 15, 35, 0, 0, 0, 0, 0, 0, 0, 0, 0, 26, 0, 0, 27, 18, 0, 0, 0, 29, 16, 0, 0, 0, 0, 0, 0, 0, 0, 0, 0, 17, 8, 24, 0, 0, 9, 40, 0, 0
|0, 37, 0, 48, 0, 0, 0, 0, 0, 21, 27, 11, 30, 0, 42, 0, 0, 0, 0, 20, 0, 34, 8, 0, 9, 33, 16, 0, 6, 0, 38, 47, 0, 0, 0, 31, 0, 3, 10, 23, 25, 49, 44, 19, 0, 45, 0, 0, 41
|23, 0, 0, 0, 15, 25, 9, 13, 48, 0, 0, 0, 0, 0, 0, 39, 17, 37, 0, 47, 21, 40, 10, 44, 45, 0, 1, 0, 31, 0, 0, 0, 0, 27, 12, 32, 36, 20, 29, 0, 0, 0, 4, 42, 0, 0, 49, 0, 0
|6, 39, 47, 10, 0, 42, 0, 38, 0, 29, 24, 2, 49, 44, 33, 23, 15, 27, 0, 13, 18, 36, 21, 41, 0, 31, 0, 0, 0, 0, 30, 0, 4, 20, 22, 0, 0, 0, 9, 45, 34, 0, 0, 3, 0, 0, 0, 1, 48
|40, 30, 0, 0, 0, 0, 20, 0, 0, 0, 1, 0, 0, 47, 6, 0, 9, 0, 16, 8, 31, 0, 13, 49, 29, 37, 19, 28, 0, 42, 0, 10, 0, 0, 0, 44, 4, 0, 0, 0, 41, 0, 2, 0, 0, 0, 0, 0, 22
|14, 0, 28, 0, 0, 0, 0, 9, 0, 25, 40, 0, 33, 18, 7, 0, 29, 19, 0, 0, 49, 0, 15, 0, 0, 11, 23, 4, 0, 0, 0, 0, 0, 3, 43, 42, 0, 0, 38, 21, 13, 22, 0, 0, 0, 35, 20, 0, 0
|0, 20, 19, 0, 6, 36, 0, 29, 14, 46, 43, 22, 0, 0, 48, 16, 0, 0, 0, 0, 41, 0, 0, 45, 0, 47, 0, 0, 4, 18, 42, 15, 0, 0, 28, 40, 0, 0, 12, 0, 0, 0, 0, 2, 27, 3, 1, 26, 0
|0, 0, 48, 0, 29, 18, 8, 0, 40, 0, 0, 0, 11, 0, 46, 0, 0, 15, 9, 10, 0, 22, 0, 17, 5, 0, 2, 26, 27, 12, 6, 0, 0, 14, 44, 36, 0, 19, 0, 0, 3, 23, 13, 24, 43, 0, 0, 0, 16
|27, 0, 0, 13, 44, 4, 42, 17, 39, 37, 12, 0, 36, 25, 0, 0, 40, 0, 43, 0, 22, 0, 0, 31, 14, 0, 0, 0, 0, 19, 0, 0, 32, 0, 0, 0, 0, 0, 0, 9, 10, 47, 0, 0, 34, 20, 0, 28, 0
|41, 0, 21, 0, 0, 0, 0, 31, 0, 0, 0, 13, 0, 0, 26, 0, 49, 47, 6, 0, 0, 42, 37, 0, 40, 30, 0, 33, 39, 10, 0, 43, 9, 0, 0, 45, 2, 0, 0, 4, 35, 15, 22, 25, 0, 0, 0, 0, 0
|45, 0, 0, 33, 0, 0, 0, 23, 0, 0, 30, 0, 0, 26, 0, 38, 34, 0, 0, 31, 1, 0, 0, 0, 0, 0, 18, 0, 49, 0, 22, 35, 0, 0, 0, 0, 20, 13, 41, 0, 0, 28, 47, 7, 0, 0, 0, 21, 0
|12, 0, 0, 0, 47, 16, 0, 0, 15, 2, 4, 24, 41, 19, 39, 27, 3, 45, 28, 30, 33, 0, 32, 6, 21, 44, 10, 0, 13, 0, 20, 0, 0, 0, 0, 7, 18, 0, 0, 22, 0, 1, 9, 14, 42, 17, 46, 0, 0
|0, 0, 14, 0, 28, 35, 0, 34, 9, 10, 3, 45, 32, 1, 0, 42, 0, 29, 19, 36, 11, 7, 46, 0, 0, 0, 39, 0, 5, 0, 0, 0, 0, 21, 0, 0, 0, 0, 37, 24, 0, 43, 40, 15, 18, 12, 48, 31, 38|];