order = 7;
grid = [|0, 22, 19, 0, 0, 0, 36, 0, 18, 5, 39, 14, 23, 0, 0, 11, 9, 21, 16, 12, 28, 0, 31, 33, 47, 10, 20, 8, 0, 44, 0, 34, 17, 35, 13, 48, 1, 30, 29, 26, 0, 46, 0, 32, 42, 15, 0, 6, 40
|27, 45, 30, 0, 31, 47, 38, 0, 12, 46, 4, 19, 48, 3, 35, 1, 43, 32, 2, 44, 0, 49, 21, 42, 41, 16, 0, 37, 0, 9, 40, 26, 28, 15, 0, 0, 17, 0, 23, 36, 25, 0, 18, 0, 0, 14, 20, 22, 7
|33, 0, 10, 5, 18, 14, 35, 15, 25, 0, 20, 13, 0, 24, 40, 26, 0, 30, 0, 31, 0, 28, 23, 9, 32, 48, 3, 12, 0, 47, 8, 38, 11, 49, 43, 6, 45, 4, 0, 0, 34, 22, 27, 2, 1, 44, 37, 0, 0
|12, 3, 28, 7, 41, 21, 32, 9, 26, 35, 49, 0, 44, 10, 39, 15, 37, 20, 22, 42, 23, 0, 0, 17, 0, 0, 34, 29, 6, 14, 0, 0, 18, 48, 4, 8, 11, 2, 33, 16, 27, 38, 0, 24, 43, 13, 0, 0, 0
|0, 15, 0, 23, 25, 29, 46, 28, 27, 42, 0, 43, 17, 0, 13, 0, 48, 34, 36, 10, 47, 2, 6, 45, 0, 26, 0, 38, 20, 0, 37, 0, 33, 0, 39, 31, 7, 0, 49, 12, 18, 24, 35, 0, 9, 3, 21, 30, 5
|0, 0, 43, 9, 48, 44, 0, 31, 47, 30, 8, 0, 34, 41, 25, 0, 17, 24, 0, 6, 33, 13, 18, 0, 11, 15, 0, 0, 16, 12, 5, 7, 0, 22, 27, 37, 0, 19, 28, 32, 40, 21, 23, 0, 45, 49, 46, 4, 26
|8, 6, 13, 26, 1, 0, 34, 40, 0, 0, 33, 0, 2, 38, 41, 18, 27, 49, 4, 3, 0, 43, 0, 7, 24, 25, 0, 0, 0, 0, 36, 0, 0, 45, 30, 39, 15, 9, 0, 20, 47, 0, 0, 17, 31, 11, 48, 28, 12
|24, 0, 5, 25, 0, 0, 21, 19, 0, 23, 0, 44, 35, 27, 37, 17, 40, 31, 0, 2, 18, 14, 0, 29, 0, 36, 0, 45, 12, 6, 20, 0, 10, 0, 0, 0, 0, 42, 0, 3, 16, 28, 0, 41, 4, 0, 0, 0, 0
|0, 35, 44, 27, 45, 3, 37, 42, 0, 17, 14, 0, 0, 6, 49, 30, 32, 0, 23, 29, 9, 0, 10, 0, 39, 47, 41, 18, 5, 0, 2, 36, 4, 28, 19, 24, 13, 34, 22, 11, 31, 0, 21, 0, 26, 25, 12, 0, 0
|7, 19, 36, 47, 22, 32, 0, 0, 10, 0, 0, 0, 0, 49, 0, 41, 24, 12, 0, 43, 21, 3, 27, 15, 33, 38, 0, 48, 13, 26, 11, 18, 0, 42, 34, 14, 23, 39, 4, 1, 0, 30, 5, 37, 0, 2, 0, 44, 46
|0, 0, 40, 0, 8, 0, 18, 39, 46, 13, 3, 0, 22, 12, 11, 36, 34, 0, 0, 15, 25, 26, 0, 49, 5, 42, 0, 0, 41, 27, 47, 16, 0, 0, 0, 19, 35, 0, 38, 10, 29, 0, 32, 9, 0, 45, 0, 0, 20
|0, 13, 0, 0, 23, 0, 4, 0, 0, 41, 5, 0, 18, 2, 14, 0, 10, 42, 46, 0, 35, 8, 0, 0, 22, 6, 28, 0, 39, 49, 0, 0, 43, 0, 0, 0, 21, 7, 26, 9, 36, 33, 0, 48, 0, 29, 19, 0, 11
|0, 20, 41, 34, 46, 0, 16, 0, 45, 8, 0, 0, 0, 26, 7, 27, 28, 19, 0, 39, 13, 25, 32, 21, 0, 0, 0, 31, 17, 38, 35, 33, 29, 3, 37, 40, 12, 49, 2, 44, 5, 15, 14, 42, 10, 22, 24, 18, 23
|0, 29, 0, 0, 0, 0, 0, 33, 0, 0, 16, 40, 0, 37, 48, 22, 5, 0, 8, 4, 38, 17, 34, 11, 9, 0, 30, 0, 0, 24, 15, 14, 44, 31, 45, 27, 46, 20, 47, 0, 41, 18, 13, 1, 36, 35, 6, 7, 28
|42, 0, 47, 0, 11, 0, 24, 49, 29, 2, 27, 31, 21, 28, 0, 0, 39, 41, 0, 8, 48, 1, 43, 0, 30, 9, 19, 0, 36, 18, 32, 0, 13, 5, 0, 20, 14, 33, 3, 15, 26, 44, 0, 16, 46, 0, 0, 12, 35
|22, 4, 27, 44, 29, 49, 26, 0, 0, 7, 45, 0, 12, 14, 0, 0, 33, 38, 17, 40, 0, 0, 0, 23, 0, 0, 10, 46, 9, 15, 30, 0, 0, 0, 11, 25, 34, 24, 0, 42, 32, 0, 31, 36, 0, 43, 47, 13, 19
|36, 21, 0, 8, 0, 0, 41, 0, 35, 33, 34, 15, 4, 22, 3, 32, 49, 9, 0, 30, 0, 38, 16, 0, 7, 45, 44, 6, 31, 0, 17, 0, 40, 27, 25, 10, 2, 29, 43, 37, 12, 0, 26, 0, 11, 39, 42, 24, 18
|13, 32, 7, 39, 0, 0, 48, 36, 9, 40, 30, 0, 3, 0, 0, 20, 12, 5, 21, 1, 11, 37, 14, 41, 34, 4, 2, 0, 19, 45, 42, 29, 24, 47, 26, 46, 22, 8, 0, 31, 23, 6, 28, 25, 38, 33, 0, 49, 27
|6, 31, 3, 33, 30, 0, 12, 32, 24, 44, 0, 25, 37, 0, 43, 0, 45, 10, 13, 35, 22, 40, 29, 0, 0, 0, 11, 42, 0, 0, 0, 0, 34, 46, 16, 49, 38, 36, 17, 19, 0, 48, 2, 15, 5, 7, 0, 9, 0
|38, 14, 9, 46, 0, 0, 15, 5, 39, 6, 18, 0, 11, 0, 19, 29, 0, 0, 0, 16, 0, 35, 0, 32, 8, 0, 36, 21, 0, 0, 12, 0, 7, 43, 10, 47, 41, 27, 0, 30, 28, 0, 20, 22, 0, 23, 3, 1, 4
|10, 34, 25, 16, 40, 18, 0, 46, 43, 19, 0, 0, 38, 20, 15, 0, 36, 6, 0, 0, 24, 33, 39, 47, 12, 0, 0, 26, 0, 8, 22, 4, 0, 0, 0, 21, 9, 0, 13, 5, 0, 0, 48, 30, 37, 0, 29, 0, 45
|0, 30, 42, 0, 0, 0, 47, 1, 11, 14, 2, 0, 0, 23, 0, 0, 29, 37, 18, 0, 40, 0, 20, 8, 49, 0, 32, 0, 0, 3, 7, 9, 19, 25, 6, 4, 44, 41, 0, 0, 0, 26, 0, 13, 0, 31, 27, 0, 10
|17, 0, 12, 35, 34, 0, 3, 20, 19, 4, 0, 41, 45, 46, 0, 0, 13, 1, 43, 0, 30, 0, 9, 6, 0, 2, 31, 22, 10, 21, 29, 15, 39, 16, 18, 33, 24, 0, 5, 48, 7, 27, 0, 49, 32, 28, 11, 0, 25
|0, 0, 4, 0, 13, 28, 5, 18, 0, 3, 0, 38, 49, 0, 27, 0, 22, 15, 10, 25, 41, 16, 12, 19, 35, 0, 29, 36, 45, 2, 48, 20, 0, 23, 33, 0, 0, 46, 6, 0, 0, 0, 0, 44, 0, 17, 0, 0, 39
|0, 33, 6, 10, 19, 0, 27, 7, 0, 48, 0, 0, 15, 29, 20, 0, 4, 46, 3, 0, 14, 42, 47, 0, 0, 40, 38, 13, 0, 37, 28, 12, 0, 0, 0, 45, 31, 23, 21, 2, 39, 0, 0, 0, 0, 18, 36, 35, 1
|9, 0, 46, 45, 44, 41, 1, 13, 0, 34, 47, 30, 10, 0, 0, 21, 0, 17, 12, 0, 42, 0, 33, 26, 0, 27, 18, 0, 35, 40, 31, 43, 22, 38, 0, 16, 29, 32, 25, 28, 49, 0, 8, 6, 23, 19, 4, 15, 3
|37, 18, 0, 0, 15, 31, 49, 0, 8, 27, 25, 0, 24, 0, 0, 9, 23, 26, 32, 7, 16, 30, 41, 10, 0, 39, 46, 4, 11, 1, 34, 17, 47, 36, 14, 12, 43, 3, 40, 0, 35, 19, 45, 33, 48, 42, 22, 0, 0
|0, 36, 22, 38, 14, 23, 29, 26, 40, 28, 21, 12, 31, 0, 0, 0, 35, 0, 44, 19, 39, 0, 48, 0, 15, 7, 0, 0, 0, 0, 41, 42, 27, 0, 0, 18, 10, 0, 0, 17, 0, 34, 47, 46, 2, 20, 16, 5, 0
|47, 37, 0, 0, 38, 27, 33, 22, 34, 12, 0, 18, 16, 21, 46, 4, 0, 7, 28, 14, 20, 23, 25, 5, 17, 0, 13, 24, 0, 39, 49, 0, 6, 30, 41, 3, 36, 0, 32, 43, 0, 29, 1, 19, 35, 8, 0, 45, 2
|26, 0, 0, 36, 17, 8, 30, 4, 0, 39, 0, 3, 41, 19, 31, 43, 44, 0, 33, 0, 45, 32, 0, 27, 0, 20, 9, 49, 15, 11, 0, 47, 42, 18, 1, 0, 0, 40, 0, 14, 0, 0, 0, 7, 6, 38, 0, 16, 0
|0, 41, 0, 1, 39, 0, 0, 0, 49, 45, 43, 20, 47, 0, 12, 3, 6, 0, 11, 23, 0, 36, 7, 38, 26, 14, 0, 0, 34, 10, 46, 8, 0, 2, 31, 42, 27, 17, 0, 0, 0, 4, 30, 0, 22, 0, 33, 37, 32
|0, 5, 23, 22, 21, 46, 14, 27, 1, 0, 35, 11, 32, 44, 17, 2, 18, 16, 40, 36, 10, 6, 8, 0, 0, 3, 0, 41, 37, 25, 33, 19, 48, 29, 0, 0, 49, 28, 15, 39, 0, 13, 12, 4, 20, 47, 43, 26, 24
|0, 16, 0, 29, 6, 7, 0, 0, 33, 37, 10, 26, 46, 0, 0, 25, 19, 0, 24, 41, 0, 47, 30, 4, 2, 44, 15, 39, 0, 32, 43, 22, 36, 0, 20, 23, 0, 0, 11, 34, 38, 31, 49, 5, 40, 48, 14, 3, 42
|28, 0, 49, 32, 9, 4, 11, 2, 23, 0, 40, 0, 0, 30, 8, 42, 0, 39, 48, 0, 0, 21, 0, 43, 19, 46, 33, 34, 27, 7, 26, 24, 0, 14, 17, 0, 47, 18, 20, 45, 44, 16, 0, 31, 0, 10, 15, 41, 0
|0, 48, 15, 19, 2, 0, 43, 8, 31, 24, 0, 36, 0, 42, 22, 49, 30, 0, 34, 9, 32, 12, 37, 1, 0, 29, 40, 0, 38, 0, 13, 45, 16, 0, 23, 26, 0, 25, 41, 21, 6, 5, 17, 11, 0, 27, 0, 46, 44
|0, 27, 1, 30, 32, 38, 0, 35, 0, 47, 0, 39, 0, 31, 0, 0, 7, 36, 37, 18, 3, 0, 4, 44, 16, 41, 43, 40, 0, 5, 0, 2, 45, 13, 12, 9, 25, 0, 19, 33, 46, 0, 6, 20, 49, 26, 0, 0, 0
|41, 46, 33, 0, 20, 10, 0, 45, 0, 18, 44, 17, 0, 40, 32, 0, 0, 22, 9, 0, 0, 7, 38, 0, 6, 49, 0, 47, 43, 34, 0, 0, 37, 39, 15, 36, 28, 26, 24, 29, 1, 2, 11, 12, 0, 5, 30, 23, 48
|5, 26, 18, 0, 24, 16, 45, 43, 0, 0, 37, 49, 27, 0, 34, 6, 25, 0, 0, 46, 19, 0, 0, 20, 28, 22, 12, 11, 33, 0, 0, 48, 14, 32, 0, 38, 39, 13, 10, 35, 21, 23, 3, 0, 15, 4, 41, 2, 31
|35, 0, 0, 37, 36, 0, 19, 10, 0, 0, 0, 24, 29, 15, 26, 12, 14, 23, 0, 17, 0, 0, 1, 3, 25, 21, 45, 30, 0, 0, 0, 0, 31, 20, 0, 41, 42, 0, 0, 0, 22, 47, 44, 40, 18, 9, 0, 32, 0
|23, 28, 0, 3, 49, 15, 25, 0, 14, 0, 48, 2, 26, 4, 44, 0, 0, 27, 0, 0, 0, 24, 42, 46, 31, 19, 5, 0, 0, 36, 10, 6, 41, 11, 21, 0, 18, 0, 0, 8, 20, 17, 0, 0, 16, 0, 13, 0, 0
|0, 9, 0, 14, 12, 13, 0, 41, 38, 20, 32, 0, 25, 16, 1, 35, 15, 28, 39, 11, 0, 0, 36, 0, 0, 0, 0, 0, 26, 0, 18, 27, 30, 17, 47, 5, 0, 31, 44, 6, 3, 49, 0, 0, 19, 24, 45, 42, 8
|0, 44, 11, 6, 47, 42, 7, 34, 30, 22, 19, 0, 0, 33, 0, 24, 0, 43, 0, 0, 0, 18, 26, 39, 0, 13, 0, 0, 3, 16, 23, 1, 9, 40, 0, 0, 32, 12, 0, 4, 48, 0, 0, 0, 27, 0, 0, 0, 36
|0, 0, 37, 0, 0, 33, 0, 21, 17, 0, 41, 9, 0, 45, 5, 39, 1, 48, 42, 32, 0, 19, 28, 0, 3, 24, 0, 20, 8, 22, 4, 0, 38, 34, 40, 44, 26, 10, 0, 49, 14, 25, 46, 29, 13, 0, 2, 43, 0
|0, 0, 0, 43, 35, 5, 0, 30, 44, 36, 6, 29, 0, 1, 0, 13, 41, 2, 0, 21, 17, 22, 45, 0, 46, 32, 37, 27, 0, 31, 14, 11, 20, 10, 0, 28, 16, 47, 39, 40, 33, 0, 0, 3, 25, 12, 26, 34, 0
|19, 25, 21, 48, 28, 34, 40, 47, 2, 43, 46, 16, 20, 8, 30, 10, 3, 0, 35, 26, 12, 31, 15, 14, 42, 33, 6, 1, 0, 0, 45, 0, 0, 0, 0, 29, 4, 0, 0, 7, 13, 32, 0, 23, 44, 41, 5, 11, 9
|46, 47, 32, 13, 3, 36, 23, 14, 0, 0, 24, 33, 39, 0, 29, 19, 0, 40, 27, 20, 43, 10, 11, 25, 44, 35, 0, 9, 1, 42, 16, 5, 12, 0, 28, 2, 0, 45, 30, 0, 8, 41, 4, 21, 0, 37, 18, 48, 15
|45, 24, 0, 41, 0, 0, 0, 48, 0, 10, 31, 23, 40, 0, 47, 7, 0, 4, 49, 28, 6, 39, 13, 2, 0, 0, 0, 0, 32, 30, 9, 3, 25, 44, 29, 1, 20, 15, 12, 0, 37, 0, 0, 27, 8, 16, 35, 19, 14
|1, 39, 0, 15, 0, 0, 0, 0, 0, 26, 12, 27, 0, 0, 0, 0, 8, 14, 0, 24, 44, 4, 49, 16, 36, 23, 48, 0, 47, 43, 6, 41, 0, 21, 46, 0, 19, 11, 31, 0, 17, 0, 10, 0, 28, 40, 32, 20, 0
|44, 49, 14, 12, 10, 6, 20, 0, 4, 32, 0, 37, 28, 35, 9, 46, 0, 0, 25, 22, 34, 0, 40, 30, 0, 0, 0, 7, 18, 19, 0, 0, 15, 33, 0, 0, 5, 21, 0, 0, 24, 3, 42, 0, 0, 36, 0, 31, 0|];