order = 7;
grid = [|20, 33, 36, 22, 10, 31, 7, 0, 46, 0, 34, 0, 43, 44, 16, 49, 11, 0, 32, 0, 37, 27, 6, 0, 38, 21, 0, 8, 39, 48, 0, 14, 29, 25, 30, 0, 4, 1, 35, 5, 15, 41, 26, 0, 12, 40, 13, 42, 19
|19, 24, 48, 0, 11, 37, 0, 0, 0, 36, 38, 0, 32, 14, 5, 7, 25, 0, 1, 21, 15, 18, 44, 33, 0, 4, 0, 45, 27, 16, 34, 0, 0, 13, 23, 0, 0, 26, 0, 47, 0, 49, 35, 0, 29, 0, 41, 10, 0
|0, 0, 34, 9, 0, 23, 35, 0, 31, 16, 7, 37, 0, 0, 22, 10, 3, 41, 0, 0, 0, 49, 46, 0, 12, 29, 0, 13, 11, 45, 0, 38, 33, 0, 0, 18, 17, 27, 0, 39, 36, 0, 0, 1, 0, 6, 24, 48, 15
|8, 30, 5, 13, 40, 0, 12, 33, 0, 22, 0, 27, 21, 0, 28, 39, 4, 29, 31, 38, 46, 0, 36, 0, 0, 16, 0, 0, 0, 0, 3, 41, 0, 37, 18, 32, 23, 6, 43, 0, 0, 9, 17, 49, 0, 25, 0, 45, 0
|25, 0, 0, 0, 38, 0, 14, 6, 41, 13, 49, 26, 11, 23, 0, 9, 42, 0, 2, 20, 19, 22, 40, 1, 3, 10, 0, 0, 17, 7, 44, 36, 15, 21, 12, 37, 0, 0, 34, 24, 0, 16, 31, 5, 28, 0, 0, 43, 33
|43, 0, 0, 41, 42, 18, 15, 0, 45, 10, 0, 20, 40, 24, 33, 34, 17, 48, 27, 47, 0, 5, 14, 25, 28, 19, 0, 0, 22, 6, 46, 9, 0, 35, 0, 31, 38, 8, 0, 7, 29, 0, 32, 0, 0, 11, 3, 36, 0
|26, 32, 0, 6, 4, 45, 0, 1, 3, 47, 0, 35, 0, 29, 44, 43, 18, 23, 36, 30, 0, 17, 0, 11, 34, 15, 42, 41, 0, 24, 40, 49, 0, 19, 28, 33, 22, 25, 0, 2, 0, 0, 20, 46, 0, 27, 7, 0, 37
|0, 42, 18, 8, 0, 14, 31, 36, 0, 1, 0, 17, 28, 46, 21, 35, 0, 38, 0, 0, 29, 0, 5, 0, 23, 0, 25, 30, 16, 19, 0, 20, 12, 45, 6, 24, 0, 43, 4, 0, 0, 47, 39, 44, 33, 2, 11, 0, 0
|13, 1, 0, 37, 45, 43, 11, 0, 21, 0, 2, 22, 0, 32, 0, 25, 46, 36, 14, 9, 28, 0, 47, 31, 42, 20, 12, 24, 40, 41, 0, 0, 39, 15, 48, 0, 18, 16, 29, 8, 10, 0, 7, 34, 6, 3, 30, 4, 26
|6, 40, 0, 0, 0, 17, 0, 24, 44, 0, 19, 0, 0, 5, 49, 4, 45, 26, 43, 42, 0, 7, 13, 27, 36, 0, 0, 38, 10, 25, 0, 3, 0, 22, 0, 11, 32, 39, 33, 31, 37, 0, 23, 0, 8, 21, 12, 9, 29
|0, 7, 44, 26, 28, 29, 0, 45, 27, 49, 41, 48, 0, 47, 3, 16, 24, 2, 0, 37, 0, 15, 0, 46, 0, 0, 39, 9, 35, 30, 0, 0, 34, 0, 0, 0, 12, 22, 0, 0, 0, 0, 14, 0, 31, 5, 10, 13, 0
|0, 22, 38, 0, 19, 46, 0, 20, 25, 33, 12, 9, 0, 0, 47, 8, 44, 18, 0, 0, 0, 0, 34, 45, 0, 48, 17, 4, 7, 26, 0, 1, 13, 29, 14, 30, 27, 35, 28, 36, 3, 15, 0, 43, 16, 37, 0, 49, 41
|34, 35, 0, 30, 0, 39, 0, 4, 0, 0, 0, 3, 0, 13, 11, 33, 15, 0, 48, 32, 5, 0, 10, 0, 49, 1, 0, 0, 0, 8, 31, 2, 37, 47, 43, 42, 0, 20, 0, 9, 44, 45, 0, 19, 40, 17, 0, 18, 46
|10, 0, 33, 16, 12, 0, 3, 43, 0, 18, 0, 31, 0, 34, 0, 13, 40, 22, 41, 6, 39, 44, 8, 19, 0, 14, 35, 29, 0, 5, 36, 24, 0, 23, 4, 0, 2, 46, 0, 21, 0, 7, 15, 27, 38, 47, 45, 28, 20
|36, 0, 23, 19, 5, 0, 27, 47, 32, 24, 43, 16, 13, 28, 14, 12, 22, 0, 9, 0, 8, 39, 1, 17, 0, 44, 18, 0, 45, 0, 0, 15, 46, 11, 0, 26, 42, 0, 0, 0, 20, 37, 21, 41, 25, 0, 33, 31, 40
|22, 43, 20, 14, 25, 2, 47, 17, 0, 0, 3, 39, 1, 0, 0, 0, 0, 5, 28, 16, 0, 19, 0, 0, 40, 36, 45, 33, 37, 31, 0, 0, 0, 0, 21, 13, 10, 34, 49, 46, 27, 0, 44, 0, 0, 32, 42, 8, 38
|1, 16, 13, 0, 0, 8, 44, 0, 49, 42, 21, 0, 26, 0, 36, 24, 0, 0, 0, 40, 23, 0, 12, 0, 37, 0, 9, 46, 34, 0, 0, 10, 0, 7, 27, 48, 25, 17, 22, 14, 0, 18, 2, 15, 4, 0, 6, 0, 3
|0, 39, 42, 0, 17, 6, 48, 0, 37, 23, 0, 7, 12, 15, 0, 2, 10, 43, 13, 34, 27, 0, 24, 0, 21, 26, 0, 25, 44, 0, 33, 30, 28, 38, 0, 8, 9, 0, 0, 0, 45, 40, 1, 18, 22, 0, 16, 19, 49
|0, 15, 46, 35, 0, 4, 0, 0, 14, 40, 0, 0, 31, 0, 0, 0, 38, 39, 25, 26, 33, 20, 27, 0, 29, 0, 49, 0, 18, 23, 22, 0, 1, 48, 5, 44, 30, 11, 3, 19, 28, 0, 37, 0, 0, 0, 43, 47, 45
|0, 3, 0, 0, 31, 21, 45, 25, 33, 46, 6, 5, 48, 2, 0, 0, 37, 0, 18, 44, 0, 13, 0, 32, 43, 38, 4, 22, 0, 14, 0, 40, 0, 17, 41, 15, 39, 0, 0, 35, 16, 12, 0, 0, 9, 26, 27, 0, 24
|37, 38, 0, 40, 0, 41, 0, 19, 11, 44, 27, 10, 0, 0, 6, 17, 49, 0, 0, 15, 0, 0, 16, 14, 8, 35, 0, 0, 0, 0, 0, 25, 32, 9, 13, 0, 0, 24, 23, 43, 1, 33, 48, 20, 5, 0, 0, 0, 12
|38, 0, 40, 45, 27, 34, 0, 9, 8, 0, 22, 21, 15, 10, 41, 11, 39, 0, 0, 5, 0, 0, 0, 44, 46, 12, 0, 16, 0, 29, 0, 37, 30, 28, 24, 25, 3, 49, 7, 48, 0, 36, 13, 32, 1, 0, 23, 0, 43
|0, 26, 22, 12, 36, 30, 4, 40, 23, 25, 0, 0, 0, 41, 13, 3, 48, 27, 47, 0, 6, 43, 18, 38, 5, 0, 19, 49, 32, 0, 14, 0, 7, 0, 45, 16, 15, 31, 2, 0, 39, 35, 0, 21, 24, 9, 37, 20, 8
|24, 28, 0, 18, 0, 35, 0, 5, 13, 0, 33, 2, 16, 48, 31, 15, 0, 7, 22, 46, 0, 21, 17, 0, 9, 0, 0, 34, 4, 12, 0, 6, 49, 41, 10, 47, 45, 42, 0, 0, 23, 1, 38, 0, 0, 19, 39, 27, 36
|39, 11, 0, 0, 0, 44, 29, 0, 30, 4, 17, 45, 27, 0, 9, 0, 12, 24, 16, 28, 18, 1, 32, 0, 41, 13, 22, 0, 25, 0, 47, 23, 19, 3, 34, 20, 0, 5, 0, 33, 14, 43, 0, 0, 0, 0, 31, 0, 7
|9, 31, 3, 15, 0, 48, 0, 29, 0, 7, 32, 0, 0, 37, 34, 30, 14, 44, 38, 45, 10, 11, 0, 39, 0, 27, 0, 42, 2, 0, 0, 46, 21, 36, 40, 0, 0, 19, 0, 18, 22, 13, 28, 17, 49, 16, 47, 25, 5
|41, 13, 47, 25, 0, 5, 1, 14, 36, 0, 35, 49, 44, 0, 43, 0, 0, 0, 26, 0, 0, 8, 28, 0, 7, 24, 15, 40, 0, 39, 0, 22, 48, 16, 38, 46, 0, 30, 0, 27, 9, 29, 45, 3, 42, 33, 4, 12, 34
|7, 46, 10, 2, 6, 42, 0, 0, 12, 26, 18, 0, 0, 43, 29, 40, 19, 33, 23, 4, 49, 35, 45, 36, 25, 0, 3, 0, 0, 1, 13, 5, 27, 8, 0, 21, 34, 28, 0, 17, 0, 38, 0, 0, 44, 15, 0, 41, 14
|47, 0, 14, 0, 49, 11, 34, 41, 16, 8, 37, 1, 9, 42, 23, 31, 33, 13, 0, 0, 44, 25, 0, 0, 45, 18, 40, 27, 29, 2, 0, 19, 43, 39, 26, 22, 0, 32, 15, 0, 35, 48, 0, 36, 20, 46, 21, 0, 0
|44, 25, 24, 0, 1, 19, 0, 11, 17, 34, 0, 0, 33, 26, 10, 6, 2, 46, 42, 43, 0, 0, 23, 8, 35, 3, 28, 0, 9, 36, 4, 48, 0, 0, 0, 0, 47, 12, 13, 29, 0, 39, 41, 0, 15, 31, 14, 16, 0
|46, 12, 0, 23, 0, 0, 40, 0, 47, 48, 30, 0, 0, 22, 24, 45, 0, 20, 0, 29, 3, 4, 39, 26, 13, 42, 44, 0, 41, 0, 0, 17, 14, 18, 25, 0, 36, 0, 0, 16, 34, 31, 43, 0, 10, 0, 8, 33, 11
|27, 17, 0, 43, 0, 9, 0, 0, 40, 0, 25, 44, 23, 3, 32, 41, 0, 47, 5, 22, 0, 16, 20, 29, 14, 46, 0, 0, 0, 0, 42, 0, 10, 1, 15, 49, 26, 0, 11, 45, 19, 4, 30, 0, 48, 28, 2, 24, 18
|29, 37, 35, 42, 48, 0, 5, 46, 38, 0, 13, 14, 10, 0, 15, 27, 0, 0, 8, 0, 30, 24, 49, 2, 47, 22, 11, 43, 12, 21, 16, 45, 0, 34, 31, 0, 6, 41, 18, 0, 17, 0, 9, 26, 0, 1, 25, 0, 4
|45, 18, 0, 36, 0, 38, 13, 27, 29, 12, 24, 0, 4, 35, 19, 0, 0, 37, 17, 11, 40, 0, 33, 34, 30, 9, 41, 21, 3, 0, 0, 28, 6, 20, 0, 43, 1, 2, 46, 25, 8, 10, 5, 42, 23, 22, 49, 0, 47
|2, 21, 26, 0, 0, 0, 41, 31, 7, 20, 45, 43, 49, 0, 25, 0, 1, 0, 0, 0, 9, 10, 38, 12, 15, 17, 6, 0, 0, 46, 8, 0, 11, 0, 0, 14, 0, 0, 30, 0, 33, 23, 40, 37, 13, 34, 35, 29, 32
|0, 0, 4, 34, 0, 0, 32, 7, 5, 11, 47, 12, 19, 0, 48, 28, 0, 14, 37, 33, 0, 0, 3, 40, 22, 8, 38, 0, 0, 17, 15, 35, 24, 46, 29, 0, 16, 10, 0, 1, 25, 0, 36, 0, 0, 23, 44, 26, 42
|48, 36, 19, 47, 18, 26, 25, 0, 35, 28, 46, 33, 0, 1, 12, 29, 30, 40, 34, 2, 16, 0, 9, 24, 39, 49, 13, 17, 5, 20, 11, 0, 0, 32, 0, 0, 44, 3, 14, 6, 42, 0, 10, 8, 43, 41, 38, 0, 0
|0, 23, 15, 0, 0, 28, 8, 48, 20, 21, 0, 34, 42, 31, 1, 22, 27, 0, 46, 25, 35, 12, 0, 41, 26, 0, 33, 6, 13, 44, 45, 47, 36, 30, 37, 29, 49, 18, 39, 32, 38, 2, 0, 14, 0, 0, 0, 7, 0
|33, 20, 7, 38, 41, 27, 10, 16, 0, 2, 14, 25, 29, 17, 8, 0, 0, 11, 24, 13, 0, 36, 4, 21, 1, 34, 31, 44, 43, 18, 23, 12, 3, 26, 0, 35, 5, 0, 37, 15, 46, 22, 19, 6, 45, 0, 0, 0, 28
|0, 29, 1, 44, 24, 40, 6, 0, 4, 37, 23, 32, 36, 49, 39, 38, 20, 9, 15, 3, 7, 14, 42, 18, 0, 25, 48, 0, 28, 27, 10, 21, 41, 2, 8, 45, 0, 33, 47, 11, 0, 26, 12, 22, 34, 0, 0, 17, 0
|0, 5, 45, 39, 0, 3, 42, 22, 0, 0, 26, 38, 24, 27, 18, 23, 0, 17, 44, 19, 4, 29, 0, 35, 0, 0, 0, 7, 1, 9, 49, 34, 0, 14, 0, 36, 0, 40, 0, 28, 0, 0, 0, 0, 0, 48, 15, 11, 13
|35, 14, 9, 11, 46, 0, 22, 44, 10, 30, 39, 0, 3, 0, 26, 5, 41, 49, 0, 31, 0, 2, 37, 47, 0, 28, 43, 15, 48, 40, 25, 4, 38, 42, 0, 34, 21, 0, 17, 13, 7, 0, 18, 0, 0, 29, 0, 1, 16
|23, 0, 0, 0, 22, 36, 0, 0, 0, 0, 15, 6, 0, 0, 0, 20, 5, 34, 3, 18, 48, 0, 43, 30, 19, 7, 21, 11, 46, 0, 1, 29, 45, 12, 42, 39, 8, 14, 9, 37, 0, 0, 16, 24, 0, 44, 0, 40, 0
|3, 6, 43, 21, 0, 0, 28, 26, 22, 45, 8, 23, 0, 9, 40, 0, 0, 0, 29, 0, 11, 42, 0, 4, 17, 5, 0, 0, 14, 37, 19, 39, 44, 0, 20, 41, 0, 36, 27, 34, 0, 46, 33, 48, 7, 38, 1, 0, 2
|40, 0, 12, 7, 34, 0, 9, 3, 19, 43, 42, 4, 38, 16, 0, 44, 13, 31, 30, 41, 24, 46, 25, 0, 33, 39, 27, 14, 0, 28, 48, 8, 0, 0, 17, 23, 29, 21, 1, 26, 49, 5, 11, 0, 18, 20, 22, 0, 35
|14, 8, 11, 27, 29, 16, 38, 37, 48, 39, 1, 36, 46, 12, 42, 26, 9, 15, 0, 10, 0, 0, 41, 13, 0, 47, 34, 18, 21, 22, 24, 0, 25, 0, 49, 0, 7, 4, 20, 0, 2, 32, 3, 0, 30, 45, 0, 0, 23
|18, 0, 25, 5, 35, 20, 19, 10, 0, 0, 44, 0, 41, 0, 45, 0, 23, 0, 0, 8, 0, 28, 0, 0, 2, 37, 1, 26, 30, 34, 38, 0, 9, 31, 3, 6, 33, 15, 0, 0, 48, 0, 49, 0, 36, 0, 0, 21, 0
|15, 0, 0, 33, 0, 0, 26, 30, 0, 0, 29, 0, 0, 21, 38, 19, 36, 0, 6, 7, 43, 0, 22, 49, 44, 45, 10, 3, 23, 0, 41, 18, 0, 0, 35, 17, 40, 13, 16, 12, 31, 0, 0, 4, 46, 42, 9, 34, 25
|42, 0, 17, 1, 44, 0, 46, 49, 34, 5, 31, 13, 18, 0, 2, 21, 28, 25, 33, 0, 0, 9, 35, 0, 0, 23, 8, 36, 0, 47, 26, 7, 4, 40, 16, 10, 43, 38, 0, 30, 0, 3, 27, 29, 37, 12, 19, 14, 6|];