order = 7;
grid = [|11, 34, 0, 17, 0, 0, 19, 0, 0, 49, 20, 43, 47, 5, 30, 0, 28, 0, 0, 40, 0, 0, 0, 21, 24, 42, 0, 38, 18, 0, 0, 0, 46, 0, 1, 0, 37, 23, 0, 16, 25, 14, 0, 13, 0, 32, 0, 9, 44
|0, 41, 7, 24, 35, 4, 0, 25, 34, 0, 0, 0, 0, 13, 0, 38, 37, 47, 0, 0, 44, 0, 8, 0, 0, 30, 0, 18, 6, 0, 12, 0, 39, 23, 16, 9, 33, 0, 0, 43, 0, 19, 3, 28, 48, 22, 2, 0, 0
|6, 16, 28, 40, 0, 26, 0, 29, 0, 14, 27, 48, 3, 0, 0, 39, 0, 7, 0, 0, 0, 37, 9, 0, 13, 41, 47, 32, 34, 24, 8, 0, 30, 25, 0, 44, 38, 0, 0, 17, 0, 0, 0, 15, 0, 0, 21, 19, 0
|14, 45, 3, 21, 0, 12, 39, 8, 33, 37, 23, 44, 42, 0, 0, 0, 0, 6, 16, 0, 0, 0, 0, 0, 0, 0, 20, 28, 9, 5, 13, 15, 43, 19, 2, 40, 29, 0, 0, 0, 0, 0, 0, 24, 0, 46, 0, 41, 0
|9, 13, 0, 0, 37, 46, 38, 0, 31, 18, 0, 17, 1, 0, 48, 26, 0, 0, 24, 0, 32, 25, 3, 22, 34, 10, 40, 0, 4, 29, 27, 14, 20, 28, 44, 8, 49, 0, 41, 0, 0, 0, 47, 0, 7, 6, 12, 23, 16
|48, 18, 0, 0, 0, 44, 47, 41, 21, 0, 22, 6, 12, 0, 0, 1, 27, 23, 19, 46, 34, 0, 16, 0, 0, 43, 15, 17, 37, 0, 40, 0, 35, 38, 33, 0, 24, 7, 0, 28, 13, 3, 0, 8, 11, 0, 20, 42, 26
|27, 0, 43, 15, 0, 5, 0, 39, 24, 0, 19, 16, 28, 38, 0, 9, 0, 12, 49, 8, 25, 33, 48, 31, 4, 0, 46, 0, 21, 3, 7, 0, 47, 0, 0, 6, 2, 0, 1, 0, 0, 11, 14, 29, 0, 37, 40, 35, 45
|0, 0, 26, 28, 21, 0, 27, 13, 14, 47, 40, 15, 0, 25, 43, 12, 0, 18, 0, 19, 39, 46, 34, 2, 0, 29, 0, 4, 11, 9, 0, 37, 23, 32, 31, 24, 0, 49, 35, 1, 8, 7, 5, 20, 6, 3, 22, 0, 30
|37, 48, 19, 47, 0, 0, 33, 0, 44, 28, 26, 0, 0, 39, 20, 0, 21, 0, 0, 7, 17, 0, 0, 43, 8, 49, 1, 0, 36, 6, 0, 18, 27, 4, 0, 0, 0, 34, 10, 3, 2, 0, 45, 35, 38, 23, 0, 12, 25
|36, 0, 24, 44, 1, 0, 4, 0, 27, 7, 0, 0, 20, 19, 0, 29, 5, 35, 6, 3, 37, 0, 47, 14, 10, 38, 32, 11, 17, 8, 15, 0, 41, 33, 34, 0, 0, 0, 26, 45, 43, 30, 0, 0, 49, 0, 42, 39, 2
|40, 35, 23, 0, 17, 0, 0, 10, 0, 2, 3, 8, 32, 0, 0, 16, 31, 44, 9, 1, 0, 27, 42, 12, 22, 39, 33, 0, 24, 48, 49, 45, 0, 0, 46, 0, 19, 15, 47, 4, 18, 5, 34, 11, 14, 0, 36, 29, 7
|45, 6, 34, 49, 0, 3, 32, 0, 38, 24, 9, 33, 23, 0, 22, 0, 10, 0, 4, 2, 47, 48, 28, 30, 40, 0, 0, 26, 0, 1, 42, 0, 44, 13, 0, 17, 0, 11, 0, 0, 0, 39, 19, 43, 37, 21, 0, 18, 15
|10, 9, 8, 11, 0, 0, 0, 5, 0, 17, 34, 0, 41, 0, 26, 23, 0, 25, 36, 0, 42, 13, 0, 37, 3, 45, 7, 0, 0, 40, 0, 19, 2, 22, 14, 0, 27, 28, 44, 0, 0, 21, 0, 0, 31, 0, 24, 46, 47
|46, 2, 30, 14, 0, 7, 0, 0, 49, 11, 37, 4, 45, 0, 32, 48, 41, 24, 34, 0, 8, 5, 19, 6, 20, 9, 35, 0, 0, 38, 47, 39, 25, 43, 3, 42, 0, 22, 0, 0, 31, 33, 16, 0, 44, 0, 1, 0, 10
|43, 28, 0, 32, 46, 10, 29, 0, 0, 0, 44, 34, 5, 0, 0, 4, 0, 26, 47, 11, 38, 0, 35, 49, 39, 3, 0, 0, 42, 0, 17, 0, 13, 0, 0, 27, 6, 0, 7, 2, 0, 0, 30, 0, 19, 16, 33, 37, 41
|21, 24, 12, 0, 0, 0, 0, 0, 17, 0, 0, 32, 18, 7, 10, 36, 45, 0, 0, 39, 19, 34, 0, 47, 0, 28, 0, 40, 16, 2, 9, 22, 8, 0, 35, 0, 23, 33, 49, 29, 38, 13, 0, 6, 42, 15, 0, 5, 20
|2, 26, 0, 0, 6, 45, 37, 30, 0, 16, 35, 39, 0, 0, 24, 22, 46, 32, 0, 25, 9, 41, 0, 0, 42, 18, 0, 8, 0, 12, 0, 43, 0, 34, 19, 20, 31, 5, 4, 11, 0, 40, 7, 49, 10, 0, 0, 17, 48
|23, 0, 17, 39, 7, 35, 0, 47, 0, 0, 46, 31, 38, 10, 0, 0, 1, 0, 21, 27, 0, 0, 33, 11, 15, 26, 0, 0, 20, 36, 4, 48, 0, 44, 29, 19, 0, 0, 16, 30, 12, 42, 25, 45, 28, 8, 0, 24, 34
|34, 8, 33, 0, 42, 47, 0, 0, 29, 0, 41, 36, 26, 3, 49, 0, 0, 43, 14, 23, 0, 0, 25, 38, 6, 2, 13, 27, 1, 0, 0, 5, 0, 30, 0, 0, 0, 0, 0, 0, 17, 0, 11, 4, 12, 39, 9, 22, 46
|0, 3, 9, 19, 14, 49, 0, 4, 12, 33, 48, 28, 22, 20, 34, 8, 30, 5, 29, 42, 6, 21, 24, 16, 36, 1, 0, 10, 27, 0, 0, 23, 11, 45, 7, 26, 39, 44, 0, 18, 0, 46, 38, 0, 13, 2, 35, 0, 0
|22, 0, 0, 0, 44, 11, 13, 45, 1, 27, 0, 2, 14, 0, 0, 15, 20, 28, 0, 0, 0, 31, 5, 0, 7, 48, 9, 30, 33, 37, 0, 0, 32, 6, 0, 25, 35, 0, 0, 8, 34, 0, 29, 0, 23, 0, 26, 3, 21
|0, 0, 0, 10, 48, 43, 41, 9, 22, 44, 12, 14, 7, 16, 35, 0, 32, 0, 0, 49, 0, 0, 1, 13, 28, 47, 39, 0, 23, 4, 5, 8, 0, 17, 42, 29, 3, 24, 11, 0, 0, 0, 0, 2, 15, 34, 45, 33, 0
|0, 29, 42, 38, 32, 0, 17, 2, 45, 8, 1, 11, 25, 47, 18, 13, 9, 19, 31, 20, 23, 49, 30, 0, 14, 0, 10, 12, 40, 35, 44, 3, 34, 36, 0, 43, 46, 4, 21, 7, 0, 22, 0, 0, 27, 0, 6, 16, 0
|0, 7, 0, 25, 0, 0, 28, 34, 43, 13, 29, 26, 37, 41, 3, 5, 24, 8, 30, 0, 12, 0, 0, 0, 0, 0, 2, 46, 49, 0, 20, 0, 14, 0, 38, 0, 15, 1, 42, 47, 32, 44, 10, 17, 36, 18, 23, 0, 22
|0, 44, 0, 9, 47, 40, 34, 31, 32, 0, 28, 5, 0, 6, 15, 0, 0, 29, 43, 36, 2, 45, 41, 18, 35, 22, 38, 33, 0, 0, 0, 11, 37, 12, 0, 39, 0, 17, 23, 13, 0, 27, 0, 25, 20, 19, 30, 1, 4
|8, 11, 6, 12, 27, 36, 0, 48, 0, 3, 0, 42, 0, 18, 25, 28, 26, 38, 37, 16, 1, 4, 0, 0, 0, 5, 34, 0, 30, 21, 0, 29, 45, 46, 22, 33, 0, 10, 9, 20, 41, 2, 49, 32, 47, 7, 14, 0, 24
|16, 15, 0, 2, 24, 0, 14, 27, 0, 4, 10, 38, 33, 23, 45, 41, 0, 34, 0, 48, 22, 42, 7, 29, 21, 0, 25, 0, 47, 26, 32, 13, 28, 0, 18, 30, 8, 0, 0, 49, 0, 0, 35, 0, 9, 0, 43, 40, 5
|0, 39, 13, 37, 0, 1, 22, 40, 0, 20, 30, 21, 35, 0, 44, 0, 0, 14, 10, 4, 0, 19, 36, 0, 0, 32, 31, 6, 43, 25, 33, 2, 9, 0, 41, 0, 28, 0, 45, 12, 48, 18, 26, 38, 46, 0, 29, 11, 3
|29, 0, 0, 0, 0, 37, 49, 14, 25, 45, 33, 0, 9, 0, 28, 3, 0, 0, 42, 18, 20, 12, 2, 4, 0, 24, 43, 0, 19, 0, 1, 31, 5, 47, 32, 16, 11, 38, 34, 0, 35, 15, 0, 7, 0, 27, 17, 36, 6
|47, 0, 22, 35, 19, 17, 24, 43, 41, 39, 38, 0, 0, 4, 11, 37, 0, 9, 44, 34, 36, 16, 0, 27, 32, 0, 0, 7, 15, 45, 21, 40, 18, 3, 6, 12, 0, 29, 46, 33, 1, 31, 0, 0, 0, 13, 28, 0, 23
|13, 36, 5, 48, 18, 6, 30, 17, 28, 32, 42, 0, 0, 29, 0, 46, 19, 33, 0, 0, 14, 0, 37, 9, 0, 23, 49, 1, 38, 39, 22, 0, 7, 16, 4, 2, 41, 40, 0, 44, 45, 0, 20, 0, 24, 31, 0, 0, 0
|0, 0, 0, 4, 11, 25, 26, 44, 0, 0, 0, 0, 31, 1, 39, 32, 16, 0, 7, 43, 0, 18, 6, 15, 0, 0, 0, 5, 46, 0, 35, 9, 0, 37, 0, 0, 47, 42, 13, 27, 0, 49, 40, 0, 0, 0, 48, 34, 0
|7, 38, 39, 1, 43, 0, 44, 12, 0, 36, 2, 20, 0, 0, 47, 35, 0, 41, 22, 0, 15, 0, 0, 0, 31, 25, 19, 34, 10, 14, 0, 0, 0, 8, 0, 48, 4, 0, 0, 5, 0, 23, 37, 18, 16, 9, 32, 0, 49
|12, 0, 14, 0, 40, 15, 3, 0, 37, 34, 16, 47, 8, 0, 6, 17, 4, 10, 23, 5, 0, 0, 38, 46, 41, 0, 0, 13, 2, 49, 43, 25, 24, 11, 30, 7, 0, 32, 18, 0, 0, 9, 39, 0, 0, 33, 0, 21, 42
|32, 23, 21, 27, 9, 34, 16, 0, 18, 0, 15, 7, 6, 40, 0, 0, 0, 1, 38, 13, 49, 0, 17, 33, 45, 20, 11, 39, 44, 42, 0, 12, 48, 29, 28, 0, 0, 43, 30, 19, 24, 37, 0, 46, 4, 35, 47, 10, 14
|0, 19, 0, 3, 22, 30, 0, 20, 0, 21, 7, 23, 13, 0, 12, 40, 0, 37, 46, 32, 18, 6, 39, 25, 0, 8, 5, 9, 26, 43, 11, 28, 29, 49, 27, 36, 0, 14, 31, 0, 33, 0, 0, 0, 41, 0, 10, 47, 35
|20, 5, 40, 43, 38, 41, 0, 1, 16, 42, 8, 9, 39, 22, 23, 30, 0, 17, 2, 6, 13, 0, 46, 48, 0, 12, 21, 29, 14, 0, 18, 47, 4, 0, 24, 45, 44, 35, 27, 0, 15, 26, 31, 34, 32, 25, 11, 28, 19
|0, 0, 0, 0, 13, 23, 6, 32, 0, 15, 0, 24, 34, 14, 0, 43, 0, 21, 35, 28, 10, 11, 45, 17, 33, 4, 26, 41, 0, 20, 25, 0, 1, 31, 9, 0, 42, 0, 22, 48, 0, 47, 0, 39, 2, 0, 0, 44, 29
|0, 1, 16, 34, 8, 32, 0, 38, 47, 35, 25, 12, 29, 48, 33, 0, 0, 4, 27, 0, 45, 43, 10, 0, 23, 13, 0, 14, 0, 0, 19, 0, 0, 42, 0, 28, 7, 2, 0, 41, 40, 24, 15, 0, 0, 20, 0, 6, 18
|49, 47, 35, 0, 15, 0, 0, 33, 0, 41, 36, 27, 0, 28, 5, 19, 39, 22, 25, 44, 26, 2, 31, 0, 38, 34, 24, 37, 12, 0, 3, 0, 0, 40, 23, 18, 0, 46, 20, 10, 11, 29, 0, 9, 8, 45, 0, 14, 0
|24, 10, 25, 46, 33, 0, 11, 49, 0, 31, 18, 45, 0, 0, 7, 0, 14, 0, 0, 29, 0, 15, 0, 42, 16, 0, 27, 47, 41, 32, 0, 35, 36, 0, 17, 1, 21, 30, 6, 9, 23, 12, 43, 22, 40, 5, 3, 38, 13
|0, 0, 37, 0, 26, 0, 0, 19, 46, 0, 0, 0, 0, 11, 0, 42, 47, 49, 0, 9, 24, 28, 0, 0, 18, 0, 22, 0, 0, 34, 48, 0, 16, 15, 21, 5, 43, 13, 8, 32, 0, 25, 0, 0, 33, 30, 7, 27, 17
|0, 0, 44, 26, 3, 24, 42, 28, 5, 12, 4, 40, 0, 0, 8, 45, 48, 36, 13, 14, 29, 39, 32, 0, 25, 0, 18, 0, 0, 16, 0, 0, 10, 7, 0, 0, 30, 27, 19, 31, 0, 20, 6, 0, 35, 0, 34, 15, 33
|33, 27, 0, 0, 0, 16, 20, 46, 0, 43, 31, 41, 17, 0, 1, 0, 6, 2, 3, 35, 40, 0, 0, 0, 12, 11, 0, 49, 25, 19, 34, 24, 21, 0, 47, 13, 5, 0, 0, 42, 10, 4, 22, 0, 45, 0, 0, 0, 9
|1, 0, 31, 0, 0, 19, 0, 21, 20, 0, 14, 30, 49, 0, 9, 10, 0, 0, 15, 0, 33, 17, 13, 0, 0, 7, 23, 0, 39, 44, 0, 46, 3, 35, 48, 47, 18, 0, 2, 40, 0, 28, 42, 0, 0, 0, 0, 4, 27
|4, 21, 47, 0, 0, 9, 40, 6, 7, 29, 13, 37, 0, 27, 46, 0, 34, 31, 18, 41, 0, 30, 22, 1, 0, 15, 16, 44, 0, 0, 14, 0, 42, 20, 26, 0, 12, 0, 48, 35, 0, 17, 24, 0, 3, 11, 38, 0, 36
|0, 0, 0, 13, 34, 2, 46, 16, 35, 22, 0, 19, 36, 0, 42, 25, 23, 39, 28, 26, 21, 0, 27, 10, 37, 0, 3, 48, 31, 17, 38, 4, 15, 5, 8, 32, 45, 9, 33, 24, 0, 0, 18, 14, 1, 0, 41, 0, 0
|35, 43, 0, 6, 39, 18, 7, 24, 3, 0, 45, 25, 15, 8, 19, 20, 22, 16, 32, 38, 5, 47, 29, 34, 9, 33, 4, 42, 13, 0, 37, 41, 0, 0, 49, 0, 0, 26, 14, 46, 44, 36, 0, 21, 17, 40, 0, 2, 0
|0, 37, 48, 23, 0, 0, 12, 26, 0, 1, 39, 0, 0, 33, 27, 24, 0, 30, 17, 0, 4, 38, 21, 0, 5, 0, 28, 0, 29, 0, 2, 36, 40, 0, 45, 15, 16, 0, 0, 22, 6, 34, 13, 19, 0, 49, 46, 7, 0|];