order = 7;
grid = [|30, 9, 14, 12, 43, 26, 0, 38, 39, 4, 46, 32, 48, 42, 0, 10, 23, 19, 20, 11, 0, 21, 47, 0, 41, 40, 45, 28, 0, 29, 0, 36, 34, 16, 1, 3, 44, 7, 22, 0, 0, 0, 0, 17, 25, 15, 37, 33, 0
|0, 18, 27, 25, 0, 39, 0, 15, 9, 0, 40, 0, 24, 2, 0, 0, 12, 0, 48, 42, 47, 37, 0, 23, 46, 8, 29, 0, 0, 5, 17, 3, 0, 0, 0, 4, 31, 0, 21, 0, 0, 38, 20, 26, 45, 1, 14, 10, 7
|47, 2, 7, 41, 21, 11, 0, 0, 8, 36, 29, 0, 34, 33, 24, 26, 27, 0, 17, 46, 38, 44, 31, 0, 0, 15, 0, 0, 4, 25, 10, 13, 39, 42, 28, 0, 0, 0, 45, 14, 0, 0, 22, 19, 43, 3, 30, 48, 40
|0, 8, 29, 33, 28, 38, 0, 1, 20, 27, 0, 30, 7, 26, 0, 0, 31, 15, 36, 16, 13, 0, 3, 0, 0, 17, 19, 43, 0, 6, 0, 47, 23, 12, 0, 0, 42, 40, 18, 48, 0, 10, 34, 24, 9, 49, 46, 0, 0
|4, 34, 42, 19, 46, 37, 35, 11, 0, 21, 14, 0, 23, 31, 0, 45, 25, 28, 33, 40, 49, 0, 2, 18, 38, 6, 48, 10, 27, 0, 22, 7, 0, 0, 0, 24, 43, 29, 17, 0, 30, 1, 47, 0, 0, 5, 12, 16, 0
|3, 0, 17, 13, 49, 0, 0, 19, 47, 10, 22, 28, 5, 45, 44, 37, 1, 39, 9, 43, 29, 7, 0, 27, 0, 34, 25, 14, 35, 30, 0, 20, 31, 40, 18, 36, 0, 11, 33, 26, 32, 0, 42, 6, 21, 0, 0, 38, 0
|10, 40, 20, 15, 1, 0, 5, 43, 6, 17, 12, 0, 0, 0, 0, 0, 21, 0, 14, 3, 7, 0, 36, 39, 42, 26, 13, 0, 0, 0, 44, 0, 38, 0, 45, 9, 8, 46, 16, 2, 34, 47, 29, 28, 0, 0, 27, 0, 0
|8, 10, 48, 27, 0, 17, 0, 6, 5, 0, 49, 9, 33, 20, 40, 0, 29, 22, 3, 0, 0, 0, 34, 0, 0, 44, 2, 0, 23, 35, 7, 38, 14, 31, 43, 32, 26, 0, 0, 13, 18, 4, 30, 0, 24, 16, 47, 25, 19
|38, 29, 6, 0, 31, 0, 0, 0, 28, 47, 24, 2, 0, 14, 0, 19, 13, 41, 7, 17, 0, 26, 43, 0, 30, 0, 0, 0, 45, 32, 0, 5, 11, 33, 48, 34, 39, 0, 0, 3, 25, 16, 0, 10, 18, 0, 0, 20, 12
|0, 4, 11, 0, 26, 40, 2, 18, 30, 3, 45, 39, 44, 0, 48, 0, 16, 27, 1, 0, 25, 32, 10, 20, 31, 47, 0, 0, 29, 0, 42, 0, 46, 6, 0, 15, 24, 35, 9, 19, 17, 0, 0, 41, 22, 37, 38, 14, 23
|0, 46, 0, 21, 47, 0, 13, 4, 43, 26, 27, 19, 0, 12, 0, 0, 0, 38, 0, 36, 0, 23, 42, 29, 40, 0, 18, 37, 0, 44, 0, 10, 0, 41, 0, 20, 11, 28, 2, 0, 49, 31, 9, 45, 0, 39, 1, 3, 0
|28, 24, 16, 7, 41, 19, 18, 36, 31, 42, 0, 40, 21, 11, 23, 0, 4, 44, 0, 34, 0, 0, 39, 13, 0, 0, 0, 0, 0, 26, 47, 1, 3, 9, 0, 22, 30, 48, 10, 29, 38, 12, 33, 0, 32, 27, 43, 35, 6
|12, 0, 0, 20, 37, 1, 0, 34, 0, 0, 25, 41, 29, 0, 31, 9, 18, 30, 0, 26, 0, 17, 38, 0, 7, 0, 33, 0, 21, 0, 36, 19, 0, 22, 49, 45, 6, 27, 0, 47, 0, 0, 46, 4, 42, 0, 0, 13, 28
|14, 35, 44, 30, 5, 0, 23, 46, 16, 7, 1, 48, 15, 0, 47, 11, 20, 12, 2, 32, 0, 24, 19, 22, 0, 3, 0, 0, 0, 0, 28, 39, 13, 4, 37, 43, 36, 41, 40, 0, 0, 8, 0, 29, 0, 31, 26, 0, 17
|0, 0, 10, 0, 0, 16, 0, 0, 40, 39, 0, 37, 20, 44, 11, 31, 26, 0, 24, 2, 18, 36, 8, 33, 45, 49, 7, 41, 32, 0, 13, 15, 0, 38, 35, 23, 22, 17, 27, 0, 1, 46, 0, 0, 12, 34, 19, 5, 0
|49, 0, 34, 0, 23, 42, 20, 26, 0, 28, 41, 33, 17, 0, 38, 39, 5, 0, 0, 25, 15, 43, 11, 0, 3, 22, 37, 1, 0, 7, 0, 18, 30, 0, 44, 16, 19, 0, 35, 45, 2, 13, 8, 31, 27, 0, 24, 40, 29
|0, 3, 38, 40, 7, 41, 44, 24, 2, 19, 42, 0, 4, 15, 17, 23, 43, 13, 30, 27, 22, 9, 20, 31, 39, 29, 34, 0, 49, 1, 37, 28, 16, 8, 5, 14, 0, 12, 26, 36, 0, 18, 35, 32, 6, 45, 0, 0, 21
|24, 1, 47, 0, 15, 33, 0, 27, 48, 34, 18, 29, 0, 21, 37, 41, 8, 0, 0, 0, 0, 10, 0, 0, 5, 0, 6, 44, 11, 0, 9, 46, 0, 19, 0, 31, 20, 0, 30, 0, 28, 0, 39, 36, 2, 0, 16, 23, 0
|19, 5, 31, 37, 39, 28, 0, 0, 45, 6, 47, 43, 38, 7, 9, 4, 0, 20, 10, 12, 32, 27, 0, 24, 35, 0, 23, 18, 48, 41, 14, 2, 36, 0, 0, 40, 0, 15, 0, 44, 8, 29, 13, 0, 46, 11, 3, 42, 30
|27, 22, 46, 2, 36, 0, 30, 9, 25, 32, 11, 31, 13, 49, 19, 1, 34, 40, 0, 48, 16, 14, 0, 12, 28, 21, 0, 0, 0, 0, 43, 45, 42, 29, 10, 0, 0, 0, 0, 41, 0, 3, 44, 38, 33, 20, 18, 15, 37
|45, 0, 4, 18, 0, 13, 11, 8, 0, 23, 0, 0, 46, 0, 36, 3, 28, 21, 29, 0, 0, 30, 0, 2, 19, 32, 0, 47, 31, 27, 0, 24, 33, 26, 20, 0, 48, 39, 42, 25, 0, 0, 0, 43, 14, 22, 0, 7, 49
|0, 23, 24, 45, 27, 36, 0, 25, 0, 9, 10, 0, 8, 18, 42, 0, 6, 0, 28, 0, 0, 16, 26, 4, 48, 0, 32, 0, 7, 19, 0, 44, 29, 46, 0, 1, 0, 2, 38, 34, 0, 39, 15, 33, 0, 17, 49, 30, 3
|0, 25, 0, 0, 13, 7, 8, 41, 38, 33, 28, 14, 0, 0, 16, 29, 30, 1, 40, 19, 0, 0, 44, 46, 10, 5, 0, 3, 34, 20, 45, 49, 15, 18, 17, 0, 12, 24, 43, 23, 9, 42, 21, 27, 4, 35, 0, 0, 0
|0, 0, 0, 0, 0, 0, 16, 45, 0, 12, 4, 0, 2, 6, 39, 5, 0, 0, 32, 35, 20, 49, 0, 0, 23, 41, 15, 0, 13, 37, 33, 0, 28, 24, 38, 0, 29, 36, 0, 0, 40, 25, 11, 22, 0, 0, 34, 1, 0
|2, 0, 21, 47, 0, 0, 0, 0, 36, 48, 0, 17, 0, 0, 8, 46, 3, 33, 34, 22, 27, 1, 28, 25, 18, 0, 39, 13, 0, 4, 35, 26, 12, 23, 9, 11, 0, 0, 20, 10, 16, 0, 43, 40, 37, 24, 0, 45, 41
|26, 0, 35, 0, 0, 12, 29, 0, 27, 30, 34, 0, 1, 43, 15, 7, 10, 23, 38, 18, 36, 2, 45, 21, 20, 11, 24, 0, 22, 0, 25, 41, 47, 39, 6, 44, 3, 49, 32, 0, 31, 19, 0, 48, 0, 9, 0, 28, 5
|0, 0, 0, 9, 3, 0, 43, 0, 24, 20, 7, 0, 26, 0, 49, 17, 0, 45, 44, 21, 48, 0, 37, 0, 0, 19, 40, 0, 36, 2, 11, 31, 0, 30, 42, 33, 46, 0, 4, 18, 47, 27, 23, 39, 10, 25, 29, 0, 0
|0, 11, 1, 0, 34, 0, 37, 0, 15, 5, 39, 47, 49, 23, 25, 12, 9, 0, 26, 24, 4, 0, 30, 36, 33, 35, 0, 22, 43, 3, 0, 0, 27, 0, 16, 6, 28, 0, 41, 8, 45, 7, 0, 44, 19, 38, 0, 0, 20
|39, 38, 12, 34, 35, 4, 32, 49, 44, 2, 0, 21, 0, 41, 0, 25, 7, 36, 18, 0, 3, 40, 0, 6, 0, 16, 42, 33, 0, 13, 0, 0, 5, 0, 23, 48, 17, 10, 0, 15, 19, 11, 27, 0, 0, 47, 28, 0, 22
|0, 0, 36, 3, 2, 29, 0, 32, 42, 31, 0, 0, 0, 0, 35, 0, 0, 49, 11, 0, 0, 0, 5, 1, 0, 45, 0, 0, 46, 0, 0, 34, 40, 0, 22, 0, 18, 26, 0, 0, 43, 0, 0, 37, 15, 0, 21, 8, 0
|7, 26, 37, 11, 0, 0, 9, 0, 22, 0, 5, 38, 0, 19, 0, 0, 0, 6, 31, 44, 2, 0, 25, 28, 49, 0, 0, 4, 0, 0, 18, 27, 0, 36, 12, 0, 40, 42, 39, 0, 21, 14, 41, 0, 30, 0, 33, 0, 13
|18, 44, 15, 6, 0, 30, 24, 14, 7, 0, 26, 20, 3, 48, 0, 21, 0, 17, 23, 0, 0, 12, 0, 43, 22, 0, 36, 38, 37, 16, 8, 33, 35, 2, 31, 0, 0, 4, 25, 49, 0, 9, 5, 34, 1, 0, 45, 0, 11
|16, 0, 8, 0, 40, 5, 49, 39, 46, 15, 13, 12, 6, 24, 27, 0, 0, 37, 4, 0, 0, 18, 0, 34, 9, 30, 21, 32, 28, 11, 29, 0, 0, 43, 25, 38, 45, 23, 44, 1, 0, 0, 0, 35, 26, 7, 17, 2, 0
|13, 28, 41, 1, 17, 0, 0, 35, 0, 29, 0, 0, 0, 8, 0, 20, 42, 0, 0, 0, 9, 19, 27, 47, 0, 2, 10, 31, 44, 45, 32, 6, 7, 14, 4, 0, 34, 33, 5, 46, 0, 37, 24, 0, 0, 48, 40, 0, 38
|0, 47, 0, 0, 0, 27, 46, 10, 33, 18, 9, 34, 0, 30, 1, 13, 0, 0, 15, 38, 43, 35, 23, 26, 29, 0, 44, 0, 24, 17, 3, 0, 49, 0, 41, 8, 16, 32, 7, 0, 36, 0, 25, 0, 39, 12, 6, 19, 4
|29, 13, 49, 0, 18, 46, 28, 20, 34, 35, 36, 15, 40, 47, 14, 6, 0, 0, 16, 9, 12, 38, 1, 3, 21, 10, 22, 0, 8, 43, 31, 0, 2, 45, 0, 0, 37, 0, 0, 30, 0, 0, 4, 0, 17, 41, 11, 0, 0
|36, 21, 33, 23, 0, 14, 19, 7, 49, 22, 38, 4, 9, 3, 0, 40, 11, 31, 0, 5, 34, 28, 13, 0, 24, 42, 0, 2, 16, 0, 15, 0, 20, 44, 29, 0, 10, 25, 0, 0, 46, 6, 26, 47, 48, 30, 0, 39, 0
|11, 0, 0, 39, 48, 47, 0, 5, 26, 24, 0, 0, 43, 28, 0, 32, 38, 3, 41, 4, 19, 15, 7, 30, 44, 0, 35, 25, 1, 10, 49, 0, 22, 0, 46, 17, 14, 34, 36, 20, 42, 33, 45, 0, 0, 8, 9, 31, 16
|0, 27, 3, 0, 0, 35, 42, 2, 29, 14, 0, 45, 41, 37, 28, 36, 49, 0, 25, 20, 39, 0, 32, 0, 47, 33, 0, 5, 18, 21, 0, 17, 4, 34, 30, 13, 9, 16, 0, 22, 12, 0, 19, 15, 23, 0, 7, 44, 0
|0, 20, 9, 0, 30, 22, 12, 31, 32, 44, 0, 42, 0, 39, 0, 8, 37, 29, 0, 33, 23, 6, 0, 0, 0, 0, 43, 48, 47, 38, 19, 11, 41, 5, 7, 35, 0, 0, 15, 40, 4, 0, 1, 2, 0, 28, 25, 49, 34
|34, 43, 45, 0, 16, 44, 25, 0, 23, 0, 8, 0, 30, 27, 21, 35, 15, 0, 22, 7, 17, 0, 9, 0, 37, 31, 26, 20, 3, 42, 0, 14, 0, 48, 24, 2, 0, 38, 19, 11, 29, 28, 12, 18, 40, 33, 5, 36, 10
|15, 41, 0, 5, 6, 10, 0, 33, 12, 16, 19, 0, 0, 17, 43, 27, 2, 24, 0, 1, 30, 0, 0, 45, 0, 23, 49, 29, 40, 28, 39, 35, 9, 13, 0, 18, 0, 0, 31, 21, 26, 0, 0, 0, 20, 14, 0, 0, 46
|9, 0, 26, 8, 11, 3, 10, 0, 0, 38, 15, 27, 14, 0, 0, 42, 0, 25, 21, 41, 0, 0, 24, 16, 0, 18, 0, 23, 0, 33, 34, 40, 37, 28, 39, 0, 32, 30, 29, 43, 0, 20, 6, 5, 0, 13, 31, 0, 45
|43, 17, 13, 46, 25, 0, 22, 44, 0, 49, 23, 24, 42, 9, 2, 0, 36, 8, 6, 0, 0, 11, 35, 0, 32, 27, 12, 45, 0, 15, 1, 16, 48, 7, 47, 0, 4, 31, 3, 0, 0, 40, 37, 0, 28, 18, 0, 34, 33
|41, 0, 40, 44, 24, 0, 0, 3, 4, 25, 2, 26, 16, 5, 12, 0, 0, 34, 43, 37, 28, 42, 21, 19, 13, 1, 30, 39, 38, 31, 20, 29, 45, 0, 14, 10, 23, 6, 11, 0, 48, 17, 32, 0, 0, 0, 8, 9, 0
|0, 42, 23, 0, 14, 49, 47, 28, 13, 11, 0, 0, 35, 40, 3, 30, 17, 0, 0, 31, 33, 0, 0, 44, 0, 9, 0, 15, 10, 36, 2, 22, 18, 25, 0, 39, 1, 0, 34, 24, 7, 21, 48, 12, 41, 29, 4, 26, 27
|0, 0, 0, 28, 0, 0, 1, 29, 18, 0, 0, 7, 39, 0, 0, 49, 0, 32, 13, 10, 35, 0, 0, 37, 0, 38, 14, 40, 42, 0, 23, 43, 0, 11, 0, 27, 25, 8, 47, 9, 0, 0, 0, 0, 3, 21, 20, 17, 0
|35, 0, 18, 16, 32, 21, 4, 48, 17, 43, 33, 36, 31, 0, 0, 0, 46, 9, 0, 23, 40, 25, 29, 49, 0, 20, 0, 8, 6, 0, 5, 30, 0, 3, 13, 42, 0, 0, 28, 12, 15, 26, 14, 0, 0, 19, 0, 11, 1
|31, 0, 19, 29, 33, 2, 34, 0, 10, 45, 32, 6, 37, 1, 20, 44, 39, 14, 5, 15, 0, 48, 22, 0, 26, 28, 3, 0, 9, 0, 0, 4, 0, 49, 27, 46, 0, 18, 0, 16, 41, 36, 40, 25, 35, 0, 0, 24, 42|];