order = 7;
grid = [|6, 24, 18, 0, 2, 0, 0, 46, 25, 0, 16, 12, 5, 17, 1, 35, 0, 20, 29, 0, 11, 0, 41, 45, 0, 48, 37, 0, 39, 28, 8, 14, 26, 0, 13, 3, 0, 40, 27, 30, 4, 34, 42, 47, 32, 0, 21, 22, 0
|3, 29, 49, 0, 19, 0, 28, 0, 40, 20, 45, 37, 43, 32, 0, 34, 0, 13, 0, 42, 9, 0, 4, 7, 11, 47, 23, 0, 2, 17, 0, 0, 21, 0, 0, 22, 0, 14, 31, 0, 5, 18, 48, 0, 0, 30, 38, 1, 24
|25, 38, 0, 0, 26, 17, 12, 0, 36, 21, 35, 0, 0, 6, 41, 32, 0, 0, 0, 3, 7, 0, 0, 20, 14, 0, 24, 43, 0, 10, 22, 0, 49, 31, 29, 1, 0, 44, 33, 28, 15, 2, 19, 5, 0, 46, 39, 27, 0
|32, 0, 0, 1, 11, 22, 41, 28, 18, 24, 7, 47, 30, 4, 0, 31, 27, 14, 15, 12, 0, 40, 0, 5, 34, 0, 21, 38, 43, 0, 0, 19, 44, 46, 35, 37, 0, 0, 8, 49, 26, 13, 0, 20, 0, 0, 16, 0, 29
|0, 42, 23, 27, 0, 20, 30, 31, 0, 3, 13, 41, 14, 38, 49, 0, 33, 44, 40, 37, 19, 17, 46, 8, 29, 0, 26, 22, 5, 18, 0, 11, 36, 0, 1, 9, 21, 45, 10, 0, 0, 43, 34, 0, 12, 2, 15, 0, 4
|21, 14, 0, 43, 0, 4, 0, 15, 22, 2, 0, 42, 0, 8, 38, 5, 26, 24, 0, 30, 46, 0, 19, 1, 0, 39, 49, 13, 0, 41, 0, 0, 48, 0, 45, 0, 29, 32, 20, 36, 6, 12, 17, 11, 31, 0, 18, 44, 25
|0, 13, 46, 0, 7, 31, 5, 0, 26, 0, 27, 29, 49, 1, 45, 18, 0, 21, 2, 36, 0, 9, 0, 42, 12, 44, 25, 15, 16, 37, 32, 38, 20, 30, 0, 35, 24, 17, 47, 23, 11, 19, 3, 14, 41, 0, 0, 40, 28
|15, 12, 0, 39, 37, 0, 9, 20, 2, 28, 0, 14, 17, 27, 26, 16, 0, 38, 49, 19, 1, 0, 5, 23, 30, 45, 32, 41, 18, 46, 6, 0, 29, 21, 8, 0, 0, 48, 40, 0, 31, 0, 24, 0, 0, 7, 4, 35, 10
|49, 3, 0, 5, 31, 24, 2, 0, 35, 47, 29, 38, 0, 0, 10, 0, 45, 9, 33, 6, 4, 48, 28, 0, 18, 22, 0, 0, 30, 26, 0, 0, 43, 20, 16, 42, 0, 23, 19, 15, 41, 39, 0, 0, 17, 27, 0, 34, 0
|20, 47, 11, 0, 29, 32, 44, 40, 0, 5, 30, 45, 0, 41, 7, 37, 8, 23, 25, 0, 34, 2, 0, 0, 0, 1, 0, 0, 13, 36, 14, 0, 42, 27, 22, 0, 12, 0, 24, 4, 0, 3, 33, 0, 15, 0, 46, 39, 6
|0, 30, 45, 46, 4, 0, 0, 43, 0, 39, 18, 0, 44, 31, 3, 15, 5, 27, 20, 32, 47, 37, 14, 21, 0, 0, 0, 0, 1, 48, 0, 2, 0, 10, 33, 38, 0, 36, 0, 8, 0, 49, 23, 0, 26, 41, 22, 0, 11
|23, 40, 21, 0, 16, 38, 27, 0, 13, 0, 36, 0, 0, 26, 35, 0, 0, 17, 24, 11, 0, 0, 0, 19, 4, 34, 10, 25, 47, 0, 31, 41, 0, 0, 49, 0, 0, 28, 0, 32, 14, 20, 0, 0, 44, 29, 37, 9, 5
|43, 26, 36, 14, 0, 41, 1, 12, 34, 49, 4, 15, 0, 11, 0, 39, 21, 0, 22, 0, 40, 7, 13, 0, 46, 42, 9, 0, 0, 3, 19, 25, 23, 45, 5, 27, 0, 33, 35, 17, 10, 0, 31, 0, 0, 0, 20, 0, 2
|10, 0, 28, 7, 0, 0, 17, 32, 0, 33, 0, 48, 23, 42, 14, 43, 41, 12, 36, 0, 29, 3, 0, 0, 39, 27, 20, 47, 4, 9, 0, 34, 38, 0, 24, 6, 5, 30, 26, 25, 2, 0, 49, 0, 0, 45, 0, 21, 0
|40, 49, 0, 0, 0, 0, 7, 19, 17, 18, 33, 43, 48, 0, 0, 38, 34, 0, 23, 46, 0, 0, 21, 0, 28, 4, 11, 45, 0, 0, 15, 16, 0, 39, 0, 0, 0, 5, 3, 9, 0, 37, 0, 22, 30, 14, 6, 2, 35
|0, 0, 22, 32, 27, 0, 39, 34, 30, 8, 0, 26, 4, 7, 0, 40, 9, 6, 43, 0, 20, 47, 42, 10, 5, 0, 33, 2, 48, 0, 36, 0, 1, 35, 37, 49, 31, 0, 17, 0, 21, 25, 12, 0, 23, 44, 19, 3, 46
|14, 19, 0, 11, 0, 0, 48, 23, 3, 31, 10, 27, 0, 16, 0, 30, 44, 33, 0, 25, 0, 20, 1, 32, 8, 9, 12, 0, 49, 38, 21, 40, 28, 0, 6, 15, 2, 24, 46, 42, 43, 0, 0, 0, 0, 5, 26, 18, 13
|26, 6, 29, 28, 34, 45, 25, 24, 20, 36, 42, 0, 15, 13, 32, 0, 0, 11, 7, 1, 35, 49, 23, 37, 0, 30, 43, 40, 31, 19, 0, 22, 3, 5, 2, 44, 0, 12, 41, 14, 0, 4, 0, 0, 0, 0, 0, 38, 33
|38, 23, 31, 3, 46, 0, 35, 5, 41, 32, 11, 21, 37, 12, 0, 17, 19, 0, 0, 0, 0, 34, 15, 22, 6, 26, 16, 24, 42, 0, 45, 7, 9, 33, 44, 36, 0, 0, 48, 0, 30, 40, 0, 39, 1, 25, 8, 4, 20
|17, 4, 0, 9, 0, 43, 0, 0, 0, 29, 44, 1, 2, 45, 31, 21, 0, 22, 5, 26, 0, 0, 48, 0, 0, 3, 0, 35, 14, 27, 18, 10, 0, 0, 20, 32, 0, 11, 38, 0, 23, 7, 41, 0, 40, 15, 49, 0, 16
|2, 8, 5, 42, 24, 0, 21, 0, 0, 35, 40, 46, 38, 0, 12, 36, 37, 3, 48, 10, 0, 29, 25, 44, 13, 14, 41, 18, 34, 23, 4, 26, 30, 43, 17, 19, 39, 16, 0, 33, 0, 27, 28, 45, 0, 32, 31, 11, 47
|36, 39, 20, 17, 33, 28, 0, 10, 12, 40, 46, 0, 21, 0, 22, 24, 1, 37, 44, 49, 32, 14, 2, 43, 0, 15, 30, 23, 0, 0, 35, 42, 7, 0, 0, 45, 0, 29, 25, 27, 19, 47, 5, 0, 0, 0, 9, 41, 34
|0, 25, 40, 2, 0, 0, 32, 22, 24, 38, 15, 44, 0, 39, 0, 19, 23, 7, 6, 16, 0, 45, 0, 31, 0, 37, 0, 12, 0, 0, 0, 5, 11, 34, 0, 41, 43, 4, 28, 0, 42, 9, 21, 0, 0, 17, 47, 33, 26
|29, 5, 35, 37, 0, 15, 16, 7, 42, 0, 0, 3, 28, 18, 34, 0, 0, 46, 31, 0, 26, 0, 8, 11, 44, 0, 48, 21, 20, 25, 0, 47, 45, 40, 0, 10, 30, 6, 0, 12, 0, 36, 27, 4, 14, 22, 2, 24, 23
|11, 10, 4, 21, 42, 7, 34, 0, 6, 13, 0, 0, 27, 30, 17, 41, 0, 0, 45, 9, 0, 0, 38, 25, 33, 29, 47, 5, 24, 0, 0, 0, 0, 26, 0, 0, 35, 0, 0, 22, 39, 0, 37, 49, 0, 12, 36, 0, 3
|0, 0, 8, 19, 44, 12, 0, 0, 32, 4, 47, 33, 0, 49, 42, 0, 0, 29, 14, 5, 36, 27, 26, 0, 10, 0, 0, 9, 3, 6, 0, 0, 22, 28, 21, 2, 11, 0, 34, 0, 0, 0, 1, 0, 0, 39, 25, 15, 0
|27, 0, 0, 23, 38, 0, 31, 29, 1, 11, 0, 0, 0, 43, 0, 0, 0, 39, 0, 0, 12, 41, 22, 0, 0, 24, 28, 46, 0, 33, 37, 30, 0, 19, 36, 13, 0, 8, 0, 16, 40, 21, 0, 10, 20, 42, 32, 0, 44
|22, 1, 14, 0, 3, 0, 43, 36, 23, 0, 0, 25, 0, 2, 21, 0, 35, 0, 47, 27, 30, 16, 34, 40, 42, 6, 4, 32, 0, 29, 49, 46, 0, 44, 39, 33, 20, 37, 5, 24, 17, 15, 0, 28, 0, 31, 7, 19, 0
|0, 43, 2, 35, 0, 0, 45, 41, 21, 0, 0, 10, 25, 0, 0, 29, 0, 16, 46, 28, 0, 0, 36, 3, 49, 33, 18, 19, 0, 0, 17, 13, 34, 47, 0, 0, 0, 0, 4, 0, 12, 0, 14, 0, 38, 1, 0, 20, 39
|4, 36, 39, 0, 0, 0, 20, 38, 15, 23, 32, 18, 34, 44, 47, 49, 17, 31, 0, 45, 42, 5, 0, 48, 0, 21, 27, 26, 8, 24, 30, 28, 0, 1, 0, 0, 0, 22, 9, 37, 13, 41, 0, 25, 0, 10, 0, 29, 19
|0, 21, 0, 24, 49, 0, 22, 26, 31, 0, 48, 2, 0, 20, 33, 10, 30, 15, 35, 0, 0, 0, 0, 6, 41, 40, 0, 0, 19, 0, 11, 0, 32, 38, 27, 47, 0, 25, 1, 43, 36, 0, 0, 0, 37, 0, 34, 0, 8
|41, 31, 1, 33, 32, 19, 0, 0, 0, 14, 0, 35, 0, 40, 0, 0, 0, 0, 11, 8, 37, 23, 17, 0, 9, 43, 7, 39, 21, 20, 42, 36, 16, 0, 46, 0, 0, 0, 2, 26, 29, 48, 6, 0, 0, 0, 24, 30, 15
|34, 0, 0, 0, 23, 26, 8, 42, 4, 0, 1, 5, 47, 36, 27, 3, 40, 0, 0, 21, 25, 44, 12, 0, 45, 0, 15, 37, 41, 35, 0, 6, 2, 29, 43, 24, 32, 0, 0, 0, 33, 0, 11, 0, 49, 18, 17, 28, 22
|0, 16, 0, 12, 30, 29, 47, 0, 0, 0, 0, 7, 0, 3, 43, 9, 14, 0, 34, 2, 38, 0, 10, 24, 32, 28, 22, 1, 15, 39, 44, 48, 31, 4, 40, 17, 49, 20, 0, 46, 35, 0, 26, 41, 0, 0, 23, 45, 21
|44, 11, 0, 15, 18, 27, 10, 0, 43, 22, 28, 17, 29, 46, 20, 1, 24, 41, 0, 0, 6, 38, 30, 0, 47, 31, 13, 8, 37, 0, 0, 0, 0, 23, 9, 40, 19, 3, 16, 21, 34, 45, 0, 0, 36, 4, 35, 42, 32
|0, 27, 0, 0, 43, 37, 36, 13, 38, 1, 39, 0, 46, 22, 0, 26, 0, 8, 41, 0, 31, 12, 0, 4, 23, 18, 0, 6, 0, 49, 3, 0, 40, 42, 25, 0, 16, 0, 11, 10, 45, 17, 0, 35, 0, 24, 0, 14, 7
|0, 17, 0, 31, 0, 2, 4, 3, 0, 41, 24, 11, 0, 0, 18, 20, 46, 19, 28, 0, 33, 22, 43, 26, 37, 25, 38, 0, 45, 34, 9, 32, 10, 0, 23, 39, 0, 49, 0, 13, 47, 30, 0, 0, 0, 16, 5, 36, 1
|42, 20, 0, 29, 28, 11, 40, 47, 48, 34, 0, 0, 45, 0, 25, 44, 39, 5, 0, 22, 16, 13, 27, 35, 21, 8, 3, 49, 17, 7, 26, 24, 41, 18, 30, 4, 36, 0, 6, 0, 1, 23, 46, 15, 33, 0, 10, 12, 43
|18, 0, 0, 22, 25, 8, 14, 17, 7, 12, 2, 0, 36, 28, 0, 45, 10, 0, 0, 38, 21, 0, 11, 33, 1, 41, 31, 0, 44, 43, 16, 0, 0, 0, 47, 0, 34, 35, 37, 20, 0, 26, 4, 0, 3, 23, 30, 49, 42
|13, 46, 3, 0, 10, 39, 0, 49, 0, 0, 23, 6, 0, 0, 24, 14, 0, 1, 17, 4, 43, 36, 0, 16, 40, 0, 19, 30, 35, 2, 0, 20, 5, 37, 48, 12, 41, 42, 15, 18, 0, 38, 25, 34, 0, 8, 28, 31, 0
|24, 0, 7, 0, 45, 5, 38, 4, 0, 43, 26, 30, 10, 0, 0, 23, 0, 2, 42, 0, 49, 15, 0, 14, 0, 17, 34, 28, 46, 0, 13, 0, 12, 0, 11, 25, 0, 27, 21, 0, 0, 33, 0, 0, 19, 37, 44, 32, 41
|1, 34, 0, 41, 0, 23, 49, 16, 5, 0, 25, 40, 18, 37, 36, 0, 0, 35, 30, 13, 0, 10, 0, 47, 2, 0, 0, 42, 0, 4, 38, 8, 27, 22, 0, 14, 0, 43, 32, 0, 24, 28, 20, 6, 0, 11, 0, 0, 17
|31, 0, 0, 0, 0, 30, 11, 2, 29, 26, 38, 28, 3, 15, 19, 42, 36, 43, 9, 0, 14, 1, 35, 41, 25, 0, 8, 34, 0, 44, 20, 33, 0, 16, 18, 48, 17, 47, 13, 6, 0, 32, 22, 23, 24, 21, 0, 5, 12
|48, 2, 24, 38, 0, 36, 46, 30, 47, 0, 21, 4, 40, 34, 5, 22, 0, 0, 1, 33, 0, 0, 0, 28, 15, 0, 0, 31, 0, 8, 0, 23, 19, 32, 42, 20, 14, 41, 12, 35, 0, 10, 18, 16, 9, 13, 11, 7, 27
|0, 33, 15, 34, 35, 0, 13, 8, 14, 0, 9, 0, 31, 23, 11, 0, 0, 25, 21, 0, 0, 32, 0, 17, 16, 0, 46, 0, 29, 5, 39, 0, 47, 2, 28, 30, 0, 0, 0, 1, 0, 0, 0, 37, 6, 26, 41, 0, 48
|47, 0, 0, 25, 1, 21, 0, 35, 16, 0, 22, 49, 0, 19, 37, 2, 7, 0, 13, 48, 39, 6, 24, 12, 38, 5, 45, 4, 11, 30, 41, 0, 15, 3, 14, 0, 33, 34, 36, 44, 0, 0, 8, 0, 28, 40, 0, 0, 31
|0, 0, 0, 20, 5, 14, 6, 39, 0, 44, 17, 32, 41, 0, 15, 12, 0, 30, 0, 35, 0, 0, 0, 13, 48, 23, 29, 27, 22, 40, 0, 1, 4, 49, 26, 31, 0, 2, 42, 7, 37, 24, 38, 33, 25, 19, 3, 46, 0
|0, 44, 26, 0, 0, 0, 29, 18, 37, 48, 12, 0, 6, 33, 23, 47, 31, 0, 0, 20, 41, 42, 0, 9, 0, 11, 0, 3, 36, 13, 27, 45, 25, 0, 38, 21, 0, 46, 39, 19, 28, 0, 15, 2, 35, 34, 1, 0, 30
|0, 32, 0, 40, 41, 42, 19, 45, 27, 0, 43, 13, 1, 0, 46, 6, 3, 34, 38, 17, 28, 18, 44, 30, 22, 36, 2, 0, 0, 21, 0, 35, 0, 0, 0, 16, 15, 0, 0, 11, 0, 8, 39, 29, 0, 0, 14, 0, 0|];