order = 7;
grid = [|46, 0, 20, 0, 32, 39, 14, 0, 16, 0, 37, 15, 29, 31, 0, 38, 3, 35, 27, 18, 23, 36, 33, 24, 22, 0, 7, 41, 42, 30, 45, 13, 0, 26, 0, 19, 11, 43, 40, 0, 2, 0, 48, 8, 34, 0, 21, 9, 4
|40, 29, 36, 38, 11, 12, 0, 27, 0, 43, 2, 0, 44, 13, 0, 34, 0, 48, 42, 37, 8, 0, 5, 14, 35, 0, 15, 0, 18, 0, 31, 0, 9, 47, 17, 0, 30, 0, 0, 0, 0, 0, 0, 41, 20, 16, 0, 0, 0
|0, 41, 19, 0, 35, 0, 5, 46, 28, 30, 3, 17, 10, 7, 0, 0, 43, 45, 9, 11, 33, 0, 0, 27, 0, 47, 0, 6, 12, 0, 0, 37, 0, 16, 4, 0, 0, 14, 0, 23, 32, 8, 13, 0, 44, 40, 0, 22, 18
|0, 45, 15, 26, 0, 0, 6, 0, 38, 19, 22, 1, 32, 0, 0, 16, 0, 0, 14, 36, 0, 42, 18, 13, 46, 0, 21, 4, 11, 2, 49, 28, 29, 0, 39, 48, 35, 20, 31, 41, 0, 33, 7, 0, 24, 37, 43, 0, 25
|22, 33, 0, 18, 1, 0, 44, 0, 41, 20, 8, 5, 0, 0, 4, 26, 0, 0, 0, 13, 0, 0, 0, 11, 9, 0, 2, 29, 27, 0, 34, 6, 0, 43, 0, 3, 0, 37, 47, 10, 12, 0, 35, 38, 0, 0, 15, 36, 0
|48, 27, 47, 16, 37, 43, 4, 26, 18, 36, 14, 23, 0, 42, 49, 0, 6, 0, 0, 2, 7, 12, 8, 28, 25, 0, 38, 3, 5, 35, 0, 41, 0, 33, 22, 13, 15, 0, 44, 0, 0, 34, 19, 1, 0, 32, 30, 0, 11
|0, 9, 3, 23, 42, 0, 0, 11, 33, 48, 35, 34, 0, 0, 31, 20, 41, 32, 46, 17, 1, 45, 0, 43, 30, 37, 0, 10, 7, 19, 0, 40, 0, 21, 0, 4, 38, 0, 24, 22, 0, 5, 0, 0, 27, 0, 0, 6, 47
|11, 0, 0, 0, 21, 34, 17, 28, 8, 2, 0, 43, 49, 0, 41, 0, 0, 0, 0, 0, 18, 30, 39, 31, 15, 35, 36, 13, 48, 45, 27, 0, 19, 7, 10, 0, 0, 0, 0, 37, 5, 23, 26, 14, 12, 0, 38, 42, 40
|0, 40, 22, 0, 0, 0, 13, 25, 12, 0, 39, 18, 3, 37, 0, 19, 23, 16, 43, 26, 0, 29, 0, 42, 33, 24, 14, 9, 15, 49, 0, 20, 35, 2, 0, 21, 10, 8, 41, 36, 44, 27, 4, 34, 11, 0, 0, 5, 0
|24, 14, 0, 19, 0, 38, 42, 0, 7, 6, 10, 0, 13, 0, 5, 8, 0, 44, 28, 0, 45, 0, 3, 16, 0, 2, 0, 0, 36, 37, 32, 9, 0, 11, 40, 0, 12, 4, 49, 0, 34, 35, 30, 0, 39, 25, 31, 27, 22
|0, 2, 9, 39, 12, 27, 43, 0, 20, 38, 40, 35, 5, 36, 7, 13, 24, 0, 11, 49, 17, 18, 48, 0, 0, 10, 26, 21, 25, 41, 22, 4, 30, 42, 0, 14, 1, 31, 29, 46, 45, 28, 8, 0, 0, 0, 16, 0, 0
|25, 0, 0, 35, 26, 36, 23, 21, 47, 14, 45, 0, 1, 24, 38, 15, 0, 2, 29, 42, 0, 0, 27, 0, 6, 32, 0, 37, 13, 8, 28, 33, 12, 39, 16, 40, 0, 0, 30, 48, 0, 7, 43, 10, 41, 19, 17, 18, 20
|20, 3, 37, 8, 45, 5, 41, 42, 30, 15, 11, 44, 0, 0, 0, 14, 35, 39, 0, 27, 36, 38, 7, 40, 4, 12, 28, 46, 0, 26, 0, 21, 0, 31, 23, 0, 33, 0, 13, 18, 22, 0, 2, 0, 32, 49, 0, 0, 48
|0, 1, 0, 0, 0, 44, 18, 19, 23, 46, 48, 0, 27, 9, 0, 40, 0, 0, 21, 6, 0, 43, 0, 8, 41, 49, 22, 25, 47, 34, 0, 0, 14, 0, 3, 2, 20, 0, 16, 0, 39, 42, 36, 0, 45, 15, 13, 29, 0
|41, 22, 29, 5, 27, 19, 0, 10, 21, 25, 4, 47, 6, 16, 26, 0, 28, 43, 0, 0, 14, 46, 0, 38, 0, 36, 0, 0, 8, 24, 0, 42, 37, 12, 13, 9, 0, 11, 0, 2, 33, 15, 34, 18, 0, 1, 0, 35, 0
|0, 0, 46, 25, 2, 20, 0, 36, 17, 0, 29, 0, 0, 40, 19, 0, 16, 0, 15, 47, 0, 37, 23, 30, 0, 34, 6, 27, 21, 3, 10, 0, 38, 4, 5, 1, 49, 0, 45, 24, 0, 12, 41, 11, 7, 0, 39, 44, 32
|0, 4, 32, 17, 0, 24, 0, 49, 27, 37, 31, 0, 26, 11, 23, 10, 34, 9, 0, 20, 44, 21, 35, 0, 2, 15, 45, 33, 0, 46, 43, 0, 39, 48, 0, 22, 0, 29, 7, 8, 38, 41, 12, 3, 13, 42, 0, 19, 5
|0, 31, 0, 3, 43, 0, 0, 7, 0, 0, 18, 12, 35, 5, 0, 11, 21, 0, 2, 0, 38, 0, 24, 44, 0, 0, 10, 20, 0, 22, 0, 15, 45, 49, 0, 6, 19, 0, 34, 32, 26, 37, 16, 17, 25, 8, 48, 0, 29
|10, 36, 44, 12, 0, 0, 11, 0, 15, 0, 19, 14, 34, 0, 42, 0, 0, 6, 32, 7, 0, 22, 0, 0, 0, 0, 17, 0, 33, 1, 2, 0, 26, 20, 0, 0, 40, 25, 27, 30, 43, 0, 46, 37, 0, 9, 45, 47, 21
|0, 0, 21, 40, 8, 0, 0, 13, 32, 0, 44, 38, 0, 0, 0, 27, 48, 1, 0, 0, 37, 26, 0, 41, 0, 19, 43, 0, 30, 0, 7, 11, 25, 28, 29, 35, 36, 46, 23, 0, 47, 16, 24, 31, 33, 4, 0, 0, 10
|0, 23, 38, 0, 47, 6, 37, 2, 1, 45, 0, 42, 41, 33, 0, 25, 0, 0, 18, 8, 29, 16, 4, 0, 0, 11, 5, 0, 17, 0, 35, 19, 36, 34, 0, 0, 0, 10, 0, 44, 3, 31, 22, 49, 0, 14, 27, 15, 28
|0, 15, 0, 14, 28, 0, 0, 12, 0, 29, 34, 4, 2, 26, 13, 30, 45, 0, 49, 31, 19, 10, 36, 0, 24, 48, 42, 0, 0, 18, 21, 35, 41, 25, 9, 32, 0, 44, 43, 0, 40, 1, 17, 5, 0, 20, 7, 0, 39
|26, 6, 25, 48, 9, 49, 10, 38, 0, 13, 41, 0, 22, 43, 12, 21, 0, 0, 39, 33, 0, 20, 17, 18, 0, 3, 0, 19, 0, 4, 16, 1, 31, 24, 7, 0, 46, 0, 42, 34, 0, 29, 11, 30, 40, 45, 28, 32, 36
|45, 43, 5, 36, 13, 29, 32, 33, 39, 35, 0, 0, 40, 28, 16, 24, 0, 41, 47, 48, 26, 0, 21, 6, 7, 30, 9, 2, 37, 12, 42, 17, 10, 0, 0, 0, 31, 15, 14, 0, 25, 20, 0, 44, 46, 27, 22, 23, 49
|44, 30, 1, 0, 17, 31, 0, 5, 0, 0, 0, 10, 36, 6, 9, 18, 7, 0, 0, 25, 28, 0, 0, 0, 45, 8, 39, 23, 0, 29, 11, 0, 0, 38, 47, 49, 0, 19, 26, 0, 0, 0, 0, 48, 35, 0, 41, 12, 15
|23, 18, 35, 37, 46, 2, 16, 3, 24, 0, 9, 0, 0, 0, 0, 32, 42, 27, 36, 10, 0, 0, 31, 0, 5, 41, 11, 28, 19, 44, 48, 49, 0, 15, 30, 39, 45, 33, 4, 0, 8, 47, 1, 29, 0, 38, 34, 14, 13
|19, 38, 0, 42, 41, 0, 0, 14, 48, 44, 46, 20, 15, 45, 0, 5, 1, 8, 17, 0, 0, 49, 0, 35, 0, 0, 25, 32, 0, 36, 39, 27, 0, 23, 2, 10, 16, 30, 22, 0, 9, 18, 0, 4, 0, 26, 3, 24, 6
|27, 0, 34, 22, 0, 0, 0, 47, 31, 0, 23, 0, 0, 30, 3, 46, 11, 38, 0, 29, 0, 15, 0, 33, 14, 0, 1, 0, 26, 43, 40, 5, 13, 45, 6, 41, 24, 7, 28, 17, 0, 36, 0, 9, 19, 2, 10, 8, 42
|0, 0, 28, 21, 49, 0, 20, 22, 0, 11, 0, 2, 23, 0, 8, 12, 15, 47, 38, 19, 0, 9, 0, 39, 43, 42, 0, 40, 3, 31, 0, 18, 4, 41, 46, 44, 0, 34, 0, 0, 36, 14, 33, 32, 48, 6, 24, 26, 0
|38, 11, 0, 1, 39, 0, 19, 0, 14, 0, 47, 40, 9, 44, 46, 0, 37, 30, 35, 28, 16, 24, 26, 34, 48, 18, 32, 0, 0, 27, 0, 22, 0, 8, 49, 0, 23, 3, 2, 33, 7, 21, 15, 0, 29, 0, 5, 0, 31
|0, 42, 0, 2, 22, 40, 33, 37, 10, 26, 21, 46, 38, 0, 48, 9, 17, 36, 24, 4, 0, 41, 19, 23, 31, 0, 0, 14, 32, 28, 29, 12, 5, 0, 0, 43, 6, 35, 15, 20, 30, 11, 0, 16, 49, 39, 25, 7, 8
|35, 10, 0, 13, 24, 17, 36, 31, 0, 0, 15, 28, 12, 18, 0, 41, 39, 26, 0, 5, 34, 2, 46, 4, 0, 25, 0, 0, 45, 7, 0, 0, 0, 40, 33, 37, 8, 48, 19, 49, 16, 32, 0, 42, 0, 21, 11, 43, 0
|34, 44, 0, 32, 23, 46, 0, 16, 0, 0, 0, 7, 39, 0, 11, 0, 0, 18, 13, 14, 31, 8, 10, 0, 27, 0, 12, 0, 24, 0, 15, 38, 21, 17, 42, 0, 0, 41, 0, 0, 28, 0, 0, 22, 2, 35, 0, 30, 9
|31, 8, 6, 9, 0, 41, 0, 45, 0, 5, 42, 13, 0, 20, 25, 0, 33, 21, 0, 40, 32, 11, 0, 37, 0, 0, 35, 15, 2, 0, 0, 0, 16, 36, 19, 0, 29, 27, 10, 39, 0, 38, 44, 46, 14, 17, 23, 0, 0
|29, 5, 26, 47, 0, 25, 15, 24, 0, 33, 30, 32, 8, 48, 0, 44, 2, 0, 0, 45, 49, 1, 6, 21, 38, 0, 16, 0, 43, 0, 0, 39, 0, 0, 0, 31, 4, 0, 9, 42, 17, 46, 0, 0, 18, 10, 40, 41, 19
|0, 0, 0, 7, 38, 10, 35, 23, 45, 9, 26, 0, 0, 17, 29, 6, 0, 28, 0, 15, 46, 0, 34, 0, 0, 27, 3, 31, 0, 33, 30, 2, 42, 14, 43, 5, 0, 12, 20, 0, 4, 44, 37, 40, 21, 41, 1, 0, 24
|0, 12, 42, 49, 5, 26, 27, 15, 2, 10, 7, 0, 28, 46, 30, 37, 20, 0, 0, 44, 13, 6, 0, 1, 40, 21, 18, 43, 35, 25, 4, 36, 3, 32, 24, 0, 9, 38, 0, 0, 23, 17, 0, 0, 8, 0, 14, 34, 45
|9, 0, 0, 20, 4, 1, 3, 18, 6, 34, 0, 29, 33, 12, 35, 17, 25, 11, 31, 22, 0, 0, 44, 2, 36, 46, 19, 42, 41, 0, 0, 0, 47, 37, 0, 27, 26, 24, 0, 14, 15, 30, 0, 0, 0, 0, 32, 48, 0
|36, 0, 2, 0, 0, 0, 29, 35, 19, 42, 0, 3, 24, 0, 0, 0, 14, 5, 26, 43, 0, 23, 0, 7, 11, 9, 8, 39, 0, 0, 13, 0, 17, 0, 12, 46, 28, 0, 37, 0, 10, 22, 0, 15, 0, 30, 33, 25, 38
|47, 0, 40, 15, 25, 14, 31, 0, 0, 1, 36, 16, 30, 8, 0, 0, 27, 0, 34, 38, 24, 28, 41, 17, 0, 29, 0, 12, 9, 11, 5, 0, 49, 0, 0, 33, 21, 0, 32, 3, 42, 0, 23, 6, 22, 7, 35, 0, 0
|28, 37, 0, 45, 0, 0, 46, 0, 0, 4, 0, 21, 0, 41, 1, 7, 8, 0, 0, 32, 42, 0, 0, 48, 0, 20, 33, 24, 39, 0, 0, 29, 0, 27, 0, 47, 34, 49, 11, 25, 31, 0, 3, 36, 9, 0, 19, 10, 2
|43, 0, 0, 11, 0, 16, 39, 0, 22, 0, 32, 37, 31, 25, 2, 23, 18, 0, 33, 3, 9, 14, 0, 15, 10, 0, 47, 45, 1, 21, 20, 0, 46, 19, 0, 7, 0, 0, 8, 35, 6, 13, 5, 27, 42, 29, 12, 17, 0
|0, 20, 18, 34, 40, 42, 24, 29, 0, 31, 28, 0, 46, 15, 37, 2, 26, 0, 19, 0, 0, 48, 47, 0, 21, 0, 41, 30, 38, 39, 3, 23, 0, 1, 11, 0, 0, 45, 12, 4, 49, 9, 27, 25, 0, 0, 44, 0, 43
|21, 0, 39, 0, 36, 35, 0, 30, 44, 0, 20, 33, 19, 0, 45, 47, 38, 0, 8, 9, 25, 0, 15, 10, 23, 26, 40, 0, 0, 13, 12, 43, 2, 0, 0, 34, 0, 32, 0, 16, 41, 24, 0, 7, 0, 0, 4, 31, 0
|37, 0, 0, 43, 0, 3, 30, 39, 26, 8, 0, 6, 0, 0, 18, 28, 32, 22, 12, 21, 15, 13, 25, 0, 0, 0, 46, 16, 0, 42, 33, 31, 0, 35, 36, 29, 0, 23, 38, 0, 19, 2, 9, 45, 0, 34, 47, 49, 41
|4, 13, 45, 0, 0, 0, 0, 1, 40, 21, 16, 41, 0, 2, 14, 48, 49, 7, 5, 0, 27, 31, 42, 19, 37, 43, 29, 35, 34, 17, 18, 25, 15, 9, 0, 0, 44, 28, 6, 47, 0, 26, 0, 39, 0, 3, 8, 38, 12
|5, 0, 7, 0, 0, 47, 49, 17, 0, 0, 0, 45, 0, 0, 34, 0, 0, 29, 0, 23, 30, 3, 2, 0, 39, 38, 4, 22, 44, 48, 0, 0, 32, 46, 0, 36, 0, 0, 33, 40, 20, 10, 0, 35, 16, 11, 26, 0, 37
|12, 16, 41, 46, 19, 0, 0, 34, 13, 23, 25, 0, 0, 0, 43, 0, 0, 0, 0, 35, 11, 33, 1, 45, 18, 5, 49, 0, 4, 6, 47, 10, 28, 22, 0, 42, 37, 39, 3, 31, 0, 48, 29, 20, 15, 24, 2, 0, 30
|2, 26, 31, 44, 29, 32, 8, 43, 49, 47, 12, 48, 37, 0, 20, 3, 0, 42, 4, 41, 39, 0, 9, 36, 28, 6, 24, 34, 16, 5, 14, 45, 27, 0, 21, 11, 22, 0, 35, 15, 0, 25, 0, 19, 23, 46, 18, 0, 17|];