order = 7;
grid = [|0, 18, 0, 38, 1, 0, 16, 40, 41, 5, 17, 48, 0, 0, 39, 0, 34, 49, 35, 32, 42, 43, 0, 25, 21, 13, 7, 0, 14, 23, 0, 2, 20, 12, 22, 0, 31, 36, 47, 0, 0, 30, 46, 0, 11, 9, 6, 4, 33
|41, 0, 19, 26, 15, 0, 36, 0, 49, 0, 0, 46, 0, 0, 0, 12, 0, 0, 14, 18, 0, 9, 17, 39, 47, 0, 28, 0, 42, 44, 0, 40, 8, 11, 0, 22, 27, 29, 10, 23, 33, 24, 25, 13, 32, 30, 0, 37, 0
|35, 5, 0, 23, 0, 31, 0, 30, 12, 32, 0, 25, 4, 19, 36, 0, 37, 0, 0, 6, 13, 0, 45, 1, 11, 22, 16, 24, 39, 0, 10, 18, 15, 0, 0, 46, 0, 43, 0, 20, 49, 34, 0, 0, 0, 26, 2, 27, 17
|0, 0, 20, 37, 0, 4, 0, 39, 33, 0, 15, 0, 9, 0, 22, 0, 8, 2, 17, 23, 45, 10, 27, 0, 48, 40, 19, 0, 47, 35, 5, 49, 25, 0, 0, 6, 26, 42, 13, 32, 41, 0, 34, 24, 18, 29, 43, 31, 0
|8, 17, 40, 6, 47, 0, 12, 29, 10, 35, 11, 13, 0, 0, 0, 3, 21, 38, 0, 0, 0, 42, 30, 20, 33, 26, 49, 15, 0, 27, 32, 0, 36, 45, 37, 0, 25, 0, 28, 2, 1, 14, 44, 23, 16, 39, 22, 0, 48
|49, 3, 7, 44, 32, 0, 9, 1, 27, 42, 22, 20, 23, 0, 43, 0, 11, 33, 28, 0, 26, 2, 36, 0, 0, 35, 31, 5, 46, 24, 38, 4, 29, 0, 30, 17, 19, 12, 16, 48, 0, 0, 0, 8, 45, 15, 14, 47, 40
|30, 43, 0, 22, 25, 39, 42, 2, 0, 3, 47, 0, 0, 31, 16, 1, 0, 27, 0, 0, 0, 34, 41, 32, 0, 23, 38, 0, 48, 13, 17, 9, 0, 0, 0, 44, 35, 40, 45, 15, 11, 5, 12, 28, 20, 21, 0, 7, 0
|37, 0, 10, 41, 45, 36, 14, 35, 0, 8, 32, 7, 16, 0, 3, 49, 28, 24, 0, 0, 19, 0, 46, 0, 0, 9, 12, 20, 22, 43, 0, 31, 34, 33, 0, 0, 21, 15, 30, 47, 23, 0, 26, 0, 29, 25, 0, 44, 39
|12, 0, 0, 2, 0, 49, 5, 15, 14, 39, 9, 38, 0, 36, 0, 23, 30, 8, 48, 45, 0, 0, 0, 3, 0, 21, 0, 7, 28, 6, 4, 0, 0, 37, 16, 26, 0, 1, 0, 22, 27, 0, 11, 43, 17, 24, 47, 46, 0
|28, 0, 1, 17, 24, 0, 39, 19, 21, 23, 49, 40, 12, 41, 29, 14, 33, 0, 0, 7, 37, 0, 25, 15, 36, 18, 32, 0, 0, 3, 0, 0, 11, 26, 42, 38, 0, 10, 8, 5, 9, 43, 45, 0, 2, 13, 48, 30, 34
|0, 42, 21, 27, 0, 0, 7, 37, 31, 30, 0, 33, 0, 0, 26, 0, 22, 41, 6, 10, 2, 0, 0, 0, 45, 24, 29, 16, 9, 0, 19, 12, 32, 44, 0, 11, 0, 17, 46, 0, 0, 36, 20, 0, 0, 8, 15, 1, 5
|44, 34, 4, 0, 23, 30, 25, 48, 29, 26, 0, 0, 0, 0, 17, 21, 46, 18, 0, 16, 27, 39, 10, 43, 0, 49, 37, 41, 36, 8, 1, 5, 40, 15, 14, 2, 3, 0, 0, 0, 28, 31, 7, 9, 22, 6, 19, 0, 0
|20, 29, 48, 0, 46, 22, 11, 44, 45, 34, 3, 6, 18, 25, 40, 43, 1, 9, 39, 35, 32, 5, 26, 17, 0, 27, 8, 2, 0, 0, 30, 38, 0, 0, 0, 42, 0, 33, 41, 19, 12, 7, 0, 37, 31, 0, 10, 36, 4
|43, 9, 0, 32, 31, 0, 40, 0, 4, 22, 42, 0, 1, 0, 20, 47, 5, 0, 15, 36, 0, 28, 0, 44, 0, 48, 0, 30, 13, 0, 39, 45, 18, 10, 7, 14, 0, 0, 49, 37, 29, 0, 23, 3, 35, 38, 0, 12, 41
|3, 20, 32, 14, 22, 11, 38, 0, 28, 0, 0, 0, 24, 44, 18, 0, 0, 23, 1, 49, 0, 46, 21, 0, 41, 42, 30, 37, 2, 0, 36, 8, 5, 0, 0, 27, 12, 0, 26, 9, 0, 33, 0, 31, 48, 0, 13, 0, 45
|0, 41, 35, 0, 0, 43, 10, 32, 9, 49, 0, 12, 31, 23, 28, 0, 0, 0, 0, 19, 20, 0, 2, 7, 0, 36, 24, 6, 26, 46, 0, 3, 22, 47, 38, 37, 8, 45, 29, 40, 0, 44, 0, 0, 21, 34, 39, 0, 0
|4, 12, 0, 49, 39, 37, 0, 21, 26, 20, 0, 0, 19, 0, 2, 42, 0, 15, 7, 31, 43, 13, 0, 9, 28, 38, 1, 48, 0, 18, 14, 10, 30, 25, 35, 34, 5, 0, 24, 0, 22, 11, 17, 32, 0, 0, 29, 8, 0
|36, 6, 44, 0, 13, 23, 8, 0, 0, 47, 0, 0, 3, 0, 30, 0, 27, 40, 38, 41, 0, 0, 49, 0, 29, 45, 33, 25, 12, 28, 0, 1, 0, 20, 31, 39, 2, 32, 0, 21, 0, 0, 5, 42, 26, 14, 9, 10, 19
|0, 26, 9, 34, 17, 0, 27, 13, 30, 1, 29, 14, 0, 22, 10, 0, 0, 3, 25, 0, 24, 23, 8, 0, 15, 0, 18, 39, 45, 49, 21, 32, 37, 19, 0, 0, 42, 0, 43, 36, 31, 0, 16, 0, 46, 0, 44, 6, 38
|33, 45, 16, 19, 0, 21, 15, 42, 8, 0, 38, 4, 35, 43, 0, 0, 36, 0, 9, 29, 47, 27, 14, 0, 26, 31, 3, 0, 0, 11, 0, 13, 0, 0, 48, 0, 1, 25, 17, 18, 0, 46, 37, 2, 28, 0, 7, 49, 30
|42, 31, 2, 0, 0, 0, 0, 7, 0, 6, 10, 45, 36, 40, 46, 39, 14, 26, 21, 0, 8, 32, 19, 47, 17, 20, 0, 22, 27, 33, 0, 15, 0, 0, 0, 30, 38, 49, 48, 35, 0, 16, 41, 11, 0, 12, 1, 3, 24
|29, 47, 22, 0, 0, 0, 43, 0, 7, 28, 2, 24, 15, 21, 0, 35, 38, 19, 30, 37, 40, 0, 48, 8, 23, 10, 0, 11, 5, 16, 0, 0, 12, 14, 9, 13, 0, 0, 25, 41, 45, 27, 36, 0, 49, 3, 18, 17, 44
|0, 24, 38, 35, 0, 15, 3, 27, 0, 17, 4, 8, 37, 30, 34, 22, 0, 46, 41, 0, 5, 44, 13, 36, 20, 2, 0, 33, 10, 32, 0, 0, 0, 0, 49, 1, 6, 28, 40, 29, 26, 0, 31, 14, 12, 7, 0, 11, 25
|0, 0, 36, 45, 37, 20, 41, 26, 0, 18, 25, 39, 40, 3, 0, 0, 32, 11, 8, 0, 12, 0, 34, 35, 27, 0, 5, 29, 7, 15, 0, 48, 28, 4, 46, 9, 49, 44, 14, 10, 43, 2, 0, 16, 19, 33, 24, 0, 47
|2, 25, 0, 28, 5, 33, 0, 9, 1, 12, 13, 0, 6, 0, 0, 45, 44, 36, 0, 48, 0, 41, 0, 18, 0, 43, 17, 31, 24, 22, 0, 19, 27, 3, 8, 0, 7, 47, 0, 0, 21, 23, 40, 34, 37, 4, 0, 0, 20
|0, 13, 49, 8, 9, 7, 0, 10, 46, 48, 0, 44, 45, 14, 47, 2, 0, 0, 33, 20, 18, 0, 3, 24, 40, 0, 25, 19, 1, 0, 29, 37, 26, 38, 6, 0, 30, 0, 11, 0, 16, 0, 21, 35, 27, 23, 0, 5, 43
|0, 1, 0, 0, 21, 0, 0, 16, 0, 11, 20, 41, 5, 0, 23, 7, 0, 43, 24, 0, 29, 0, 0, 4, 42, 37, 22, 49, 0, 25, 0, 33, 2, 0, 44, 36, 34, 8, 15, 46, 0, 0, 0, 39, 9, 28, 0, 13, 0
|0, 0, 18, 11, 0, 0, 26, 23, 47, 33, 31, 0, 22, 0, 1, 0, 3, 13, 49, 15, 39, 6, 0, 14, 16, 7, 9, 28, 43, 0, 41, 0, 21, 36, 45, 24, 0, 20, 5, 0, 0, 37, 48, 0, 0, 0, 38, 0, 10
|0, 0, 0, 47, 0, 0, 31, 0, 34, 0, 0, 30, 21, 35, 27, 18, 7, 10, 0, 8, 28, 3, 0, 0, 44, 0, 42, 0, 11, 9, 40, 25, 4, 24, 39, 0, 22, 6, 33, 1, 2, 32, 14, 48, 41, 0, 20, 23, 49
|6, 27, 30, 48, 44, 9, 0, 0, 0, 31, 37, 32, 0, 45, 15, 11, 0, 5, 23, 4, 46, 24, 20, 10, 12, 0, 0, 34, 8, 14, 33, 16, 0, 42, 26, 0, 0, 0, 18, 28, 35, 0, 19, 7, 3, 43, 36, 25, 0
|0, 14, 45, 0, 33, 38, 49, 3, 20, 0, 19, 0, 8, 28, 24, 9, 13, 0, 22, 1, 17, 25, 0, 2, 0, 0, 4, 21, 35, 29, 0, 0, 10, 0, 0, 41, 37, 46, 0, 44, 30, 42, 0, 12, 5, 40, 34, 26, 0
|0, 39, 17, 18, 0, 42, 13, 6, 0, 27, 26, 0, 25, 4, 32, 0, 0, 0, 36, 12, 0, 48, 22, 41, 0, 46, 40, 0, 30, 38, 7, 23, 45, 5, 15, 43, 0, 0, 0, 14, 3, 9, 29, 10, 0, 37, 31, 24, 21
|23, 0, 3, 4, 0, 35, 2, 0, 0, 0, 41, 5, 29, 0, 42, 0, 19, 0, 44, 40, 0, 0, 1, 28, 49, 16, 15, 0, 34, 0, 37, 27, 0, 46, 12, 25, 0, 38, 31, 7, 24, 20, 6, 0, 47, 0, 11, 39, 0
|0, 10, 0, 0, 0, 12, 24, 0, 40, 0, 33, 11, 0, 47, 0, 0, 25, 37, 43, 39, 0, 26, 7, 0, 5, 6, 36, 23, 32, 41, 3, 20, 31, 0, 21, 4, 0, 48, 27, 17, 0, 45, 18, 0, 38, 44, 28, 0, 13
|0, 0, 37, 40, 43, 41, 20, 36, 15, 24, 0, 0, 7, 39, 0, 48, 47, 45, 0, 2, 31, 17, 9, 27, 32, 0, 14, 13, 49, 19, 28, 44, 0, 22, 18, 10, 11, 23, 0, 12, 0, 0, 33, 4, 0, 0, 35, 16, 0
|0, 0, 23, 0, 7, 25, 0, 11, 36, 4, 16, 21, 0, 0, 49, 0, 0, 0, 0, 46, 6, 8, 28, 42, 9, 44, 0, 0, 18, 10, 0, 26, 0, 0, 20, 45, 41, 14, 0, 33, 38, 47, 35, 5, 0, 31, 12, 0, 22
|0, 15, 0, 0, 10, 0, 0, 22, 0, 0, 0, 0, 49, 38, 0, 8, 48, 0, 2, 9, 44, 30, 5, 0, 43, 33, 39, 32, 37, 36, 24, 21, 35, 41, 0, 19, 23, 34, 42, 0, 46, 0, 47, 26, 7, 1, 3, 0, 0
|9, 48, 43, 0, 26, 0, 34, 25, 5, 40, 0, 19, 42, 0, 41, 10, 0, 35, 47, 22, 3, 20, 16, 21, 2, 14, 13, 1, 0, 45, 49, 11, 7, 8, 33, 28, 29, 37, 12, 24, 6, 18, 0, 30, 4, 27, 32, 0, 46
|0, 0, 0, 16, 49, 0, 6, 31, 39, 2, 35, 0, 0, 0, 33, 36, 0, 32, 0, 26, 0, 45, 15, 19, 0, 47, 23, 46, 3, 0, 25, 14, 0, 30, 13, 0, 10, 11, 21, 43, 44, 0, 9, 41, 34, 42, 17, 28, 29
|0, 4, 0, 21, 0, 0, 19, 47, 24, 14, 23, 0, 33, 0, 37, 16, 0, 17, 45, 30, 7, 0, 11, 48, 0, 25, 0, 3, 44, 0, 22, 46, 38, 0, 34, 31, 0, 5, 36, 0, 32, 0, 2, 0, 0, 20, 8, 40, 18
|22, 0, 24, 46, 42, 0, 35, 41, 13, 45, 43, 3, 30, 0, 11, 20, 12, 0, 5, 28, 0, 0, 0, 37, 7, 34, 10, 40, 0, 31, 9, 39, 47, 17, 0, 15, 48, 0, 2, 25, 4, 8, 49, 36, 0, 19, 0, 0, 0
|0, 32, 11, 0, 0, 2, 0, 8, 17, 0, 46, 28, 48, 1, 21, 13, 0, 0, 18, 0, 23, 29, 0, 26, 22, 4, 41, 36, 16, 0, 0, 6, 19, 27, 0, 0, 20, 30, 9, 3, 40, 35, 24, 44, 0, 10, 25, 45, 37
|0, 11, 13, 42, 34, 19, 17, 24, 16, 15, 0, 49, 44, 0, 45, 46, 39, 1, 0, 47, 35, 0, 43, 0, 0, 0, 2, 27, 0, 26, 18, 0, 3, 0, 10, 0, 28, 9, 37, 30, 0, 12, 0, 0, 0, 0, 0, 29, 0
|0, 37, 6, 31, 0, 0, 32, 12, 25, 36, 14, 22, 0, 0, 0, 0, 0, 42, 11, 17, 0, 16, 0, 29, 0, 41, 48, 0, 33, 1, 8, 0, 0, 13, 27, 5, 46, 0, 38, 34, 47, 19, 0, 21, 0, 45, 30, 0, 7
|46, 40, 25, 43, 0, 10, 22, 28, 3, 0, 30, 0, 27, 2, 0, 0, 0, 44, 34, 14, 36, 47, 0, 49, 39, 0, 11, 0, 38, 37, 35, 0, 16, 29, 23, 0, 45, 7, 6, 0, 42, 1, 32, 17, 0, 5, 4, 20, 31
|24, 49, 8, 33, 0, 0, 0, 5, 35, 19, 45, 43, 0, 0, 7, 27, 29, 25, 37, 38, 0, 12, 32, 13, 10, 1, 0, 0, 15, 39, 6, 28, 44, 9, 0, 40, 14, 21, 0, 31, 0, 0, 0, 0, 0, 11, 0, 34, 0
|15, 0, 14, 30, 38, 5, 0, 0, 23, 0, 6, 0, 47, 29, 13, 40, 24, 22, 26, 43, 10, 36, 4, 45, 35, 28, 0, 9, 19, 20, 12, 34, 42, 48, 11, 0, 32, 18, 0, 0, 17, 0, 8, 25, 39, 49, 37, 2, 0
|0, 35, 41, 29, 2, 27, 44, 4, 42, 37, 7, 18, 26, 8, 12, 5, 6, 21, 0, 3, 49, 19, 0, 0, 34, 15, 0, 0, 40, 0, 47, 17, 14, 31, 36, 20, 0, 39, 0, 11, 25, 0, 0, 1, 24, 48, 16, 9, 0
|0, 36, 0, 9, 0, 0, 0, 0, 32, 38, 34, 1, 13, 11, 0, 28, 2, 16, 31, 33, 41, 0, 6, 22, 0, 17, 44, 0, 25, 5, 0, 7, 46, 21, 43, 35, 24, 26, 0, 0, 0, 29, 42, 0, 0, 18, 27, 0, 12|];