order = 7;
grid = [|38, 22, 0, 0, 5, 0, 0, 44, 35, 1, 0, 0, 0, 14, 29, 3, 37, 33, 0, 48, 0, 19, 10, 0, 0, 17, 39, 0, 2, 13, 23, 30, 34, 27, 16, 41, 21, 4, 6, 43, 8, 0, 47, 0, 46, 26, 9, 40, 0
|11, 0, 0, 26, 46, 28, 9, 0, 25, 0, 34, 24, 49, 0, 0, 0, 14, 4, 0, 10, 23, 0, 42, 0, 0, 40, 3, 13, 0, 5, 0, 0, 38, 36, 48, 0, 7, 16, 47, 33, 0, 37, 17, 41, 0, 0, 20, 30, 0
|12, 23, 0, 41, 31, 0, 14, 4, 0, 43, 19, 13, 16, 0, 47, 1, 5, 6, 8, 25, 0, 0, 32, 28, 0, 37, 0, 2, 21, 0, 10, 0, 7, 18, 29, 9, 34, 17, 15, 46, 42, 48, 33, 39, 36, 24, 35, 49, 45
|6, 33, 34, 0, 10, 40, 43, 26, 29, 17, 0, 37, 42, 48, 0, 0, 28, 49, 36, 11, 2, 16, 0, 0, 0, 0, 41, 14, 32, 45, 9, 15, 25, 0, 8, 3, 44, 30, 24, 31, 23, 13, 0, 38, 27, 0, 0, 7, 0
|0, 48, 13, 37, 25, 15, 44, 22, 6, 5, 47, 23, 36, 0, 17, 39, 0, 0, 26, 42, 21, 8, 0, 33, 45, 0, 27, 31, 0, 1, 4, 0, 0, 28, 0, 18, 32, 38, 19, 10, 0, 0, 43, 34, 11, 16, 3, 14, 0
|0, 4, 16, 19, 36, 3, 2, 45, 9, 0, 10, 8, 0, 0, 13, 15, 0, 35, 43, 24, 44, 34, 47, 7, 48, 0, 23, 30, 12, 42, 20, 41, 33, 31, 17, 26, 0, 40, 27, 14, 0, 39, 0, 6, 25, 28, 37, 0, 29
|21, 39, 47, 29, 0, 17, 0, 0, 0, 32, 30, 7, 31, 38, 18, 46, 22, 34, 27, 16, 41, 15, 5, 20, 6, 4, 26, 9, 37, 3, 11, 49, 14, 0, 0, 35, 28, 12, 45, 36, 25, 0, 19, 0, 23, 0, 13, 10, 42
|14, 27, 19, 15, 42, 0, 35, 32, 46, 12, 44, 21, 40, 29, 0, 0, 48, 41, 0, 20, 0, 26, 0, 36, 16, 0, 0, 47, 34, 28, 0, 0, 0, 17, 39, 6, 45, 0, 7, 4, 18, 31, 0, 0, 43, 0, 38, 22, 0
|10, 34, 7, 45, 2, 0, 49, 0, 1, 8, 0, 0, 39, 36, 16, 0, 32, 0, 37, 0, 29, 0, 4, 14, 25, 18, 0, 46, 23, 35, 30, 0, 22, 0, 26, 33, 41, 43, 20, 5, 0, 0, 0, 15, 21, 31, 19, 3, 27
|33, 6, 38, 18, 0, 21, 0, 5, 15, 0, 28, 0, 24, 30, 0, 0, 10, 2, 22, 39, 4, 45, 0, 32, 13, 31, 0, 19, 20, 8, 41, 37, 36, 14, 0, 48, 25, 27, 34, 0, 46, 0, 29, 12, 26, 42, 17, 0, 0
|3, 0, 28, 46, 0, 39, 17, 0, 0, 0, 45, 0, 33, 27, 25, 38, 34, 19, 6, 14, 11, 20, 21, 15, 9, 5, 22, 0, 43, 0, 31, 4, 0, 32, 0, 24, 0, 23, 29, 42, 13, 16, 30, 18, 47, 49, 0, 0, 8
|0, 0, 43, 25, 47, 24, 0, 20, 49, 4, 23, 18, 41, 0, 0, 31, 3, 28, 35, 0, 26, 0, 0, 42, 40, 6, 29, 1, 19, 16, 33, 11, 48, 0, 0, 8, 0, 22, 12, 9, 10, 38, 14, 46, 2, 39, 0, 45, 32
|20, 8, 29, 0, 44, 26, 13, 3, 14, 0, 31, 6, 43, 0, 0, 23, 15, 0, 9, 47, 33, 37, 34, 49, 39, 30, 11, 41, 5, 24, 0, 45, 42, 12, 38, 32, 17, 1, 36, 0, 2, 21, 25, 0, 0, 0, 40, 16, 7
|9, 32, 0, 23, 41, 22, 31, 0, 0, 16, 0, 0, 34, 25, 43, 0, 36, 45, 18, 0, 49, 48, 8, 38, 3, 24, 0, 7, 27, 47, 0, 29, 15, 21, 1, 0, 14, 44, 26, 35, 0, 19, 28, 37, 5, 20, 4, 6, 33
|31, 26, 1, 47, 3, 14, 21, 35, 23, 0, 0, 39, 25, 13, 42, 0, 18, 16, 38, 49, 34, 0, 12, 0, 0, 15, 4, 0, 36, 20, 2, 17, 0, 33, 0, 44, 6, 8, 9, 48, 40, 41, 37, 0, 30, 43, 0, 28, 46
|29, 0, 0, 40, 0, 45, 30, 0, 0, 0, 20, 49, 0, 10, 0, 26, 35, 0, 47, 0, 6, 46, 0, 8, 22, 0, 0, 3, 18, 25, 42, 5, 41, 34, 24, 0, 0, 0, 0, 2, 19, 0, 39, 44, 12, 7, 32, 0, 0
|34, 18, 35, 39, 28, 0, 10, 0, 16, 44, 46, 0, 0, 1, 0, 33, 30, 0, 0, 37, 31, 49, 0, 9, 14, 48, 2, 6, 0, 38, 43, 0, 32, 15, 23, 0, 13, 7, 0, 24, 4, 42, 20, 40, 3, 25, 21, 0, 26
|22, 17, 46, 2, 0, 0, 11, 19, 4, 3, 0, 36, 30, 42, 45, 20, 44, 15, 21, 9, 43, 0, 23, 39, 26, 13, 0, 40, 31, 10, 6, 0, 47, 49, 28, 38, 29, 34, 25, 37, 0, 12, 18, 8, 16, 0, 5, 0, 14
|16, 19, 0, 36, 43, 6, 4, 12, 41, 14, 0, 40, 0, 7, 0, 17, 0, 0, 3, 1, 0, 38, 35, 0, 0, 42, 25, 0, 0, 0, 21, 48, 0, 30, 45, 23, 47, 0, 0, 18, 26, 33, 15, 0, 0, 34, 22, 0, 0
|49, 38, 0, 7, 27, 8, 24, 18, 26, 15, 22, 2, 47, 6, 11, 0, 0, 0, 5, 36, 12, 30, 0, 0, 19, 0, 0, 34, 0, 14, 0, 40, 0, 0, 0, 20, 46, 28, 35, 0, 32, 45, 23, 4, 0, 0, 42, 0, 31
|0, 12, 0, 20, 23, 0, 0, 0, 33, 34, 0, 43, 5, 9, 0, 0, 13, 0, 28, 0, 46, 0, 0, 0, 11, 47, 21, 0, 0, 22, 26, 8, 0, 35, 44, 39, 0, 14, 3, 30, 15, 10, 49, 2, 24, 36, 6, 19, 38
|27, 0, 22, 0, 0, 36, 0, 21, 0, 0, 0, 28, 15, 47, 23, 16, 11, 20, 0, 0, 19, 32, 49, 0, 46, 0, 13, 0, 14, 43, 12, 42, 18, 29, 6, 0, 9, 3, 0, 7, 30, 34, 31, 0, 17, 2, 0, 44, 25
|46, 0, 11, 44, 16, 47, 42, 0, 48, 0, 0, 31, 0, 19, 0, 0, 17, 1, 29, 0, 25, 22, 7, 3, 34, 10, 43, 37, 9, 23, 0, 27, 0, 13, 32, 45, 18, 2, 0, 12, 0, 0, 21, 36, 0, 0, 30, 38, 39
|0, 0, 32, 0, 4, 0, 0, 36, 0, 40, 1, 0, 0, 46, 0, 49, 21, 3, 42, 33, 9, 0, 0, 12, 0, 26, 0, 44, 0, 48, 0, 25, 2, 0, 37, 11, 0, 0, 0, 47, 0, 6, 10, 0, 18, 19, 0, 27, 35
|19, 40, 45, 3, 35, 29, 0, 37, 27, 24, 0, 32, 17, 34, 0, 0, 46, 14, 2, 6, 0, 18, 39, 48, 5, 0, 0, 23, 10, 4, 0, 0, 0, 0, 0, 43, 0, 21, 1, 0, 0, 22, 0, 0, 42, 0, 0, 0, 0
|37, 30, 0, 14, 0, 13, 0, 8, 0, 18, 41, 44, 2, 0, 0, 27, 7, 0, 0, 0, 47, 21, 28, 0, 38, 16, 36, 0, 40, 0, 0, 31, 19, 5, 0, 42, 23, 0, 46, 39, 48, 25, 0, 49, 9, 29, 43, 1, 20
|0, 28, 39, 43, 12, 9, 18, 0, 42, 11, 35, 5, 3, 23, 0, 44, 0, 0, 0, 38, 36, 0, 40, 29, 0, 0, 30, 20, 41, 34, 0, 1, 49, 45, 21, 31, 19, 32, 0, 0, 14, 27, 0, 22, 15, 46, 0, 0, 6
|2, 25, 0, 49, 0, 0, 23, 0, 22, 10, 0, 16, 0, 0, 48, 0, 43, 31, 40, 18, 0, 42, 0, 0, 47, 19, 9, 0, 0, 0, 36, 38, 0, 24, 0, 0, 8, 0, 33, 17, 44, 0, 32, 26, 0, 12, 0, 37, 34
|0, 24, 27, 1, 21, 48, 6, 49, 10, 36, 0, 0, 0, 16, 0, 11, 0, 39, 0, 2, 0, 0, 30, 0, 12, 34, 8, 0, 15, 33, 29, 32, 0, 4, 42, 0, 0, 46, 0, 0, 0, 23, 26, 43, 19, 47, 31, 20, 41
|4, 0, 2, 9, 30, 23, 12, 0, 0, 33, 15, 22, 46, 31, 7, 0, 0, 0, 34, 3, 0, 24, 0, 21, 0, 36, 18, 0, 26, 19, 49, 14, 0, 0, 41, 47, 42, 0, 0, 0, 16, 35, 38, 29, 1, 17, 8, 11, 40
|45, 37, 14, 28, 40, 0, 0, 43, 21, 0, 6, 25, 48, 32, 35, 9, 47, 8, 49, 30, 0, 39, 19, 0, 10, 0, 1, 17, 44, 27, 22, 34, 16, 0, 31, 36, 26, 41, 4, 0, 33, 0, 5, 7, 0, 15, 2, 12, 24
|41, 0, 0, 13, 38, 19, 22, 47, 34, 0, 2, 0, 11, 28, 6, 4, 0, 0, 0, 23, 0, 9, 31, 0, 32, 0, 45, 0, 35, 40, 0, 10, 24, 0, 18, 0, 27, 25, 0, 0, 7, 8, 46, 30, 0, 0, 48, 33, 37
|15, 0, 20, 10, 0, 0, 33, 41, 18, 0, 26, 27, 0, 5, 38, 48, 19, 0, 17, 46, 22, 4, 16, 40, 23, 14, 0, 42, 28, 2, 8, 21, 30, 0, 0, 13, 12, 0, 32, 49, 0, 0, 35, 25, 0, 45, 0, 39, 3
|25, 47, 0, 17, 8, 32, 0, 40, 30, 0, 14, 0, 35, 12, 0, 28, 41, 0, 31, 45, 37, 2, 3, 5, 27, 33, 0, 15, 11, 9, 48, 13, 0, 0, 36, 0, 22, 0, 39, 19, 0, 0, 42, 16, 6, 0, 10, 0, 21
|39, 49, 0, 31, 34, 0, 26, 0, 19, 0, 8, 0, 45, 4, 0, 21, 0, 44, 0, 29, 1, 0, 37, 47, 0, 35, 0, 38, 25, 7, 3, 23, 6, 0, 0, 0, 0, 15, 0, 11, 0, 30, 27, 9, 0, 0, 14, 18, 28
|0, 29, 49, 38, 22, 0, 45, 28, 37, 0, 0, 42, 23, 0, 0, 0, 0, 18, 33, 0, 14, 0, 0, 16, 0, 0, 20, 0, 7, 0, 44, 24, 0, 46, 4, 27, 0, 9, 31, 25, 21, 17, 6, 0, 41, 10, 0, 0, 48
|26, 31, 0, 0, 19, 43, 0, 0, 17, 25, 5, 0, 18, 21, 36, 30, 0, 13, 0, 28, 0, 12, 38, 27, 33, 9, 14, 29, 0, 37, 34, 6, 8, 0, 0, 0, 0, 11, 40, 15, 45, 0, 7, 32, 0, 3, 0, 46, 22
|0, 3, 25, 0, 0, 7, 46, 0, 0, 0, 12, 0, 10, 44, 8, 29, 16, 21, 0, 0, 24, 0, 0, 6, 37, 0, 19, 26, 0, 18, 1, 28, 0, 22, 5, 2, 0, 0, 42, 41, 0, 36, 40, 0, 45, 0, 0, 0, 0
|0, 35, 41, 6, 15, 18, 28, 0, 0, 31, 36, 0, 7, 0, 39, 34, 49, 38, 0, 0, 32, 40, 25, 30, 42, 44, 46, 45, 47, 0, 27, 0, 12, 11, 0, 10, 24, 19, 0, 0, 3, 1, 0, 17, 0, 37, 0, 0, 16
|0, 42, 33, 0, 37, 0, 36, 48, 45, 22, 29, 0, 32, 49, 0, 6, 4, 0, 0, 0, 10, 17, 18, 43, 2, 0, 34, 5, 3, 15, 0, 19, 0, 0, 0, 0, 38, 47, 13, 23, 20, 7, 24, 21, 39, 27, 1, 25, 0
|32, 21, 23, 12, 14, 30, 0, 0, 24, 9, 16, 20, 27, 35, 0, 25, 1, 0, 11, 17, 15, 3, 41, 22, 49, 28, 7, 4, 48, 0, 45, 0, 0, 0, 10, 0, 0, 6, 0, 44, 0, 29, 36, 47, 31, 38, 33, 5, 18
|0, 0, 4, 0, 0, 0, 34, 0, 8, 0, 40, 46, 19, 43, 0, 37, 45, 0, 0, 27, 3, 0, 0, 23, 31, 0, 0, 21, 0, 0, 0, 0, 17, 41, 25, 14, 48, 0, 18, 32, 0, 0, 2, 0, 35, 11, 49, 42, 0
|0, 41, 3, 22, 18, 0, 37, 9, 5, 0, 21, 19, 4, 40, 49, 0, 8, 12, 0, 13, 28, 31, 0, 34, 17, 0, 32, 0, 0, 36, 0, 16, 39, 42, 46, 25, 10, 26, 30, 27, 0, 14, 11, 20, 0, 6, 0, 0, 23
|0, 0, 0, 33, 0, 38, 0, 0, 31, 28, 42, 35, 1, 0, 34, 14, 0, 5, 4, 0, 0, 25, 26, 0, 15, 20, 0, 39, 30, 11, 32, 43, 29, 10, 22, 12, 36, 0, 0, 16, 9, 24, 41, 0, 0, 0, 18, 0, 49
|0, 0, 12, 0, 26, 0, 0, 0, 39, 0, 25, 0, 44, 18, 33, 43, 42, 9, 0, 15, 16, 23, 46, 1, 24, 41, 5, 48, 38, 49, 40, 35, 0, 19, 14, 7, 0, 37, 0, 34, 6, 0, 45, 27, 0, 32, 0, 31, 10
|28, 2, 0, 42, 0, 11, 19, 23, 32, 30, 43, 15, 22, 20, 24, 18, 6, 37, 0, 44, 0, 0, 27, 13, 0, 45, 12, 0, 4, 41, 7, 47, 0, 0, 0, 0, 0, 0, 0, 40, 0, 0, 34, 33, 38, 0, 16, 26, 36
|0, 0, 0, 0, 0, 25, 0, 38, 0, 27, 11, 34, 26, 33, 21, 45, 0, 0, 48, 22, 35, 36, 14, 4, 29, 7, 16, 10, 0, 6, 37, 0, 23, 0, 0, 19, 2, 13, 44, 8, 0, 32, 12, 42, 28, 0, 0, 24, 43
|23, 14, 0, 0, 29, 34, 0, 0, 36, 0, 0, 10, 0, 24, 46, 0, 0, 47, 7, 26, 39, 28, 0, 19, 0, 0, 42, 49, 0, 12, 0, 0, 44, 0, 27, 0, 33, 18, 43, 38, 35, 15, 9, 0, 40, 13, 25, 21, 4
|5, 15, 24, 16, 0, 0, 27, 0, 47, 41, 49, 14, 12, 0, 0, 0, 29, 11, 0, 32, 0, 6, 0, 0, 43, 22, 40, 18, 33, 31, 13, 26, 21, 0, 34, 4, 39, 42, 0, 20, 0, 0, 0, 0, 0, 30, 0, 2, 0|];