order = 7;
grid = [|9, 42, 4, 43, 5, 0, 38, 0, 1, 3, 36, 26, 44, 47, 12, 6, 35, 48, 10, 0, 0, 41, 40, 23, 0, 46, 17, 34, 27, 0, 22, 7, 28, 0, 33, 21, 14, 0, 2, 0, 0, 29, 15, 49, 25, 0, 30, 16, 13
|49, 13, 0, 0, 21, 36, 7, 9, 35, 0, 0, 11, 18, 15, 0, 0, 0, 27, 3, 17, 47, 0, 19, 30, 4, 24, 14, 0, 45, 34, 39, 43, 0, 0, 20, 33, 32, 16, 0, 48, 0, 28, 8, 46, 0, 5, 0, 38, 26
|0, 1, 0, 16, 24, 0, 31, 48, 37, 22, 6, 27, 28, 39, 15, 36, 0, 25, 43, 0, 30, 0, 13, 10, 0, 9, 0, 0, 0, 44, 41, 0, 0, 0, 47, 42, 17, 8, 26, 0, 11, 12, 23, 0, 34, 4, 0, 0, 7
|45, 35, 48, 0, 0, 30, 0, 33, 0, 32, 49, 0, 8, 0, 0, 13, 5, 4, 2, 19, 46, 44, 37, 0, 0, 0, 16, 11, 0, 18, 17, 0, 42, 26, 6, 0, 22, 24, 0, 0, 0, 0, 28, 1, 29, 3, 0, 14, 0
|29, 0, 0, 17, 0, 19, 11, 0, 31, 46, 0, 41, 42, 45, 0, 22, 0, 0, 14, 0, 7, 1, 18, 43, 48, 0, 5, 3, 21, 13, 25, 40, 35, 49, 8, 4, 10, 15, 6, 23, 47, 30, 12, 20, 36, 2, 0, 24, 32
|2, 40, 10, 0, 27, 22, 0, 14, 0, 7, 30, 23, 17, 4, 18, 0, 32, 45, 0, 0, 34, 20, 25, 21, 0, 26, 0, 42, 9, 38, 3, 36, 24, 0, 12, 49, 1, 19, 0, 0, 35, 5, 48, 33, 39, 0, 6, 37, 47
|0, 3, 44, 12, 26, 33, 14, 0, 5, 40, 0, 0, 2, 34, 0, 20, 8, 9, 49, 0, 21, 32, 47, 31, 0, 39, 45, 38, 23, 48, 0, 15, 4, 16, 30, 0, 36, 7, 46, 13, 41, 25, 22, 11, 0, 0, 27, 19, 42
|42, 4, 24, 0, 23, 43, 29, 40, 18, 1, 0, 0, 0, 6, 27, 2, 7, 41, 0, 39, 0, 9, 21, 16, 10, 17, 36, 48, 32, 20, 45, 0, 22, 38, 35, 0, 11, 0, 19, 28, 0, 0, 0, 31, 0, 37, 8, 44, 25
|21, 48, 0, 47, 41, 10, 12, 0, 28, 17, 20, 0, 27, 16, 9, 25, 31, 36, 0, 40, 19, 22, 0, 44, 0, 7, 0, 0, 29, 33, 11, 4, 6, 8, 43, 0, 0, 32, 38, 0, 0, 37, 0, 15, 1, 46, 34, 0, 49
|39, 49, 27, 8, 2, 38, 0, 24, 30, 35, 3, 29, 0, 9, 34, 48, 0, 32, 46, 20, 0, 25, 0, 1, 13, 47, 15, 0, 36, 31, 0, 41, 5, 10, 14, 44, 21, 26, 0, 0, 17, 7, 0, 45, 0, 33, 11, 22, 6
|35, 0, 37, 5, 20, 26, 0, 0, 32, 47, 8, 22, 48, 41, 28, 1, 16, 14, 21, 0, 6, 27, 11, 33, 46, 0, 4, 24, 0, 0, 0, 30, 23, 0, 7, 12, 9, 10, 13, 31, 34, 36, 0, 2, 38, 43, 0, 17, 3
|16, 32, 28, 22, 11, 0, 0, 38, 0, 0, 19, 0, 25, 31, 8, 4, 29, 47, 45, 10, 13, 6, 42, 37, 34, 14, 20, 0, 0, 1, 0, 24, 21, 18, 0, 48, 0, 0, 0, 2, 49, 43, 41, 0, 0, 36, 12, 7, 23
|33, 44, 0, 0, 9, 7, 0, 42, 0, 0, 14, 43, 37, 36, 38, 17, 49, 0, 5, 12, 11, 45, 32, 0, 39, 31, 19, 28, 13, 25, 2, 0, 0, 15, 26, 30, 6, 20, 22, 27, 8, 4, 35, 21, 40, 0, 0, 47, 18
|6, 36, 45, 14, 15, 0, 17, 0, 11, 0, 33, 5, 0, 21, 0, 0, 0, 0, 30, 24, 42, 26, 8, 0, 40, 0, 18, 2, 0, 12, 27, 47, 3, 37, 46, 1, 25, 41, 16, 29, 0, 39, 10, 4, 28, 48, 32, 9, 0
|37, 16, 2, 19, 47, 0, 27, 0, 0, 36, 35, 45, 0, 32, 40, 0, 9, 20, 0, 22, 0, 0, 0, 28, 42, 4, 25, 0, 7, 8, 49, 39, 13, 0, 0, 31, 30, 43, 0, 17, 14, 24, 46, 29, 6, 0, 33, 18, 15
|0, 20, 30, 0, 34, 12, 35, 7, 6, 24, 27, 3, 22, 0, 33, 0, 0, 13, 44, 0, 1, 16, 41, 46, 5, 11, 8, 0, 48, 0, 42, 9, 26, 21, 0, 39, 28, 38, 10, 4, 0, 0, 0, 0, 2, 49, 0, 32, 37
|0, 0, 17, 9, 45, 48, 41, 4, 46, 28, 13, 15, 14, 40, 0, 18, 0, 7, 0, 5, 31, 21, 0, 35, 1, 0, 0, 20, 43, 22, 0, 3, 37, 30, 25, 11, 0, 0, 47, 19, 12, 32, 0, 34, 0, 8, 0, 0, 24
|4, 0, 40, 33, 0, 0, 32, 8, 19, 0, 0, 47, 39, 0, 14, 0, 30, 16, 27, 21, 49, 0, 0, 0, 7, 23, 43, 37, 44, 17, 46, 0, 38, 45, 5, 0, 0, 0, 36, 6, 18, 9, 25, 35, 12, 28, 0, 41, 11
|18, 14, 8, 1, 0, 13, 0, 49, 17, 38, 16, 0, 9, 26, 0, 12, 37, 0, 0, 35, 28, 34, 24, 0, 0, 45, 0, 6, 4, 11, 47, 32, 19, 31, 41, 29, 46, 2, 0, 44, 0, 0, 21, 0, 0, 30, 0, 48, 0
|43, 38, 0, 24, 0, 49, 5, 30, 48, 44, 31, 37, 20, 2, 36, 0, 0, 34, 4, 0, 45, 18, 0, 29, 19, 0, 32, 0, 40, 23, 1, 0, 14, 33, 16, 41, 35, 0, 8, 0, 0, 3, 0, 39, 0, 47, 0, 0, 0
|10, 31, 3, 0, 6, 23, 46, 0, 0, 29, 42, 12, 0, 11, 32, 39, 17, 0, 41, 38, 8, 14, 22, 9, 33, 0, 30, 47, 0, 0, 34, 27, 36, 0, 0, 37, 13, 5, 7, 0, 0, 49, 0, 19, 44, 40, 20, 0, 16
|47, 37, 22, 10, 19, 25, 15, 20, 24, 9, 0, 35, 6, 0, 48, 29, 18, 30, 7, 14, 32, 23, 0, 0, 2, 42, 11, 0, 0, 39, 0, 0, 44, 28, 3, 5, 0, 45, 4, 38, 0, 1, 33, 0, 0, 0, 0, 49, 0
|11, 27, 16, 48, 44, 0, 36, 0, 38, 42, 47, 32, 23, 30, 2, 33, 0, 26, 1, 28, 39, 46, 3, 19, 0, 0, 0, 15, 34, 14, 37, 0, 40, 9, 0, 0, 49, 21, 43, 7, 31, 22, 17, 0, 0, 6, 25, 35, 8
|17, 0, 49, 21, 0, 28, 6, 41, 26, 19, 1, 7, 31, 37, 0, 0, 27, 0, 22, 0, 5, 4, 34, 48, 0, 25, 13, 30, 20, 36, 0, 0, 18, 42, 38, 0, 39, 11, 12, 0, 0, 2, 9, 44, 47, 0, 23, 3, 14
|3, 30, 0, 26, 40, 35, 18, 36, 43, 48, 4, 8, 45, 5, 0, 42, 20, 31, 12, 6, 23, 0, 29, 38, 0, 0, 24, 0, 2, 0, 10, 46, 15, 0, 27, 0, 47, 0, 44, 14, 37, 0, 1, 13, 41, 11, 21, 39, 0
|31, 2, 46, 32, 1, 14, 0, 0, 0, 39, 0, 34, 16, 25, 24, 43, 21, 10, 47, 36, 0, 17, 28, 0, 37, 5, 44, 0, 8, 6, 7, 0, 41, 0, 0, 35, 23, 9, 48, 33, 0, 27, 30, 38, 0, 20, 18, 42, 12
|41, 23, 42, 45, 8, 0, 0, 46, 49, 0, 18, 0, 21, 3, 0, 0, 15, 0, 13, 44, 35, 47, 14, 12, 16, 36, 6, 0, 11, 0, 31, 0, 25, 17, 22, 0, 0, 34, 0, 24, 10, 20, 0, 0, 0, 27, 29, 0, 48
|0, 7, 38, 0, 12, 5, 43, 29, 0, 15, 44, 28, 10, 0, 0, 11, 0, 49, 34, 0, 0, 39, 31, 22, 0, 21, 41, 35, 0, 47, 33, 23, 30, 0, 48, 17, 8, 18, 3, 36, 0, 6, 40, 0, 0, 0, 16, 2, 0
|26, 29, 0, 44, 0, 37, 49, 0, 25, 16, 45, 31, 38, 17, 43, 0, 4, 0, 0, 0, 20, 8, 46, 0, 22, 6, 0, 0, 33, 30, 0, 0, 7, 41, 28, 36, 0, 0, 18, 11, 0, 10, 0, 0, 21, 15, 0, 5, 40
|24, 19, 0, 0, 0, 0, 21, 6, 8, 0, 0, 0, 0, 0, 47, 30, 12, 37, 26, 13, 22, 0, 45, 0, 0, 0, 9, 0, 39, 0, 0, 35, 17, 0, 0, 14, 34, 0, 15, 0, 0, 31, 0, 32, 0, 41, 0, 43, 33
|0, 47, 0, 0, 32, 9, 48, 37, 22, 2, 0, 10, 3, 0, 41, 0, 42, 21, 24, 7, 36, 15, 33, 4, 26, 35, 1, 0, 6, 45, 20, 0, 31, 0, 40, 27, 29, 30, 39, 0, 43, 16, 0, 14, 0, 25, 17, 12, 38
|5, 6, 43, 0, 46, 0, 0, 0, 4, 13, 41, 36, 0, 0, 45, 14, 44, 1, 0, 48, 15, 28, 10, 17, 31, 12, 21, 32, 0, 19, 18, 8, 27, 0, 2, 7, 0, 0, 49, 0, 22, 38, 0, 9, 20, 42, 0, 29, 30
|15, 22, 35, 2, 30, 20, 45, 32, 9, 0, 0, 0, 26, 44, 0, 10, 34, 28, 39, 27, 17, 24, 36, 0, 38, 41, 0, 0, 46, 0, 0, 0, 43, 25, 0, 40, 0, 12, 42, 8, 0, 33, 0, 23, 18, 0, 4, 6, 31
|27, 41, 12, 0, 31, 34, 28, 0, 29, 0, 0, 18, 0, 42, 6, 16, 25, 8, 23, 33, 0, 43, 48, 2, 44, 3, 0, 0, 14, 0, 26, 0, 47, 22, 15, 0, 0, 0, 35, 0, 5, 17, 24, 36, 0, 0, 0, 0, 46
|0, 0, 36, 3, 0, 4, 16, 35, 39, 0, 15, 48, 12, 33, 46, 31, 19, 0, 0, 0, 29, 0, 23, 27, 0, 30, 7, 0, 38, 0, 24, 11, 0, 5, 21, 2, 37, 13, 28, 32, 0, 41, 44, 47, 8, 26, 0, 34, 0
|0, 28, 26, 6, 0, 0, 39, 0, 3, 8, 2, 0, 29, 0, 21, 34, 0, 35, 31, 0, 43, 48, 0, 0, 45, 37, 23, 41, 12, 0, 30, 0, 20, 1, 32, 10, 44, 0, 0, 22, 33, 11, 36, 25, 42, 7, 0, 40, 17
|0, 9, 41, 34, 38, 11, 22, 0, 7, 5, 32, 4, 36, 43, 19, 0, 14, 46, 0, 30, 0, 29, 15, 42, 21, 2, 49, 0, 0, 27, 23, 6, 0, 47, 37, 16, 18, 3, 0, 20, 0, 48, 13, 8, 0, 24, 44, 1, 35
|13, 45, 25, 4, 35, 16, 1, 18, 20, 12, 24, 40, 46, 0, 23, 47, 3, 29, 0, 2, 10, 36, 39, 32, 27, 0, 38, 26, 0, 7, 44, 0, 11, 0, 0, 19, 31, 37, 0, 0, 30, 8, 6, 41, 43, 9, 0, 33, 0
|0, 21, 31, 20, 0, 8, 3, 17, 14, 0, 37, 44, 19, 0, 5, 0, 0, 39, 32, 4, 27, 11, 0, 13, 25, 0, 33, 0, 0, 35, 16, 18, 46, 43, 24, 38, 0, 0, 0, 1, 40, 26, 0, 10, 48, 0, 2, 30, 29
|0, 10, 32, 0, 0, 2, 0, 31, 42, 0, 28, 0, 47, 0, 25, 7, 26, 11, 38, 8, 44, 40, 1, 20, 35, 19, 12, 0, 41, 5, 15, 48, 33, 29, 17, 34, 4, 14, 45, 49, 0, 0, 0, 0, 46, 0, 37, 23, 39
|0, 0, 33, 7, 18, 0, 37, 39, 34, 21, 0, 1, 13, 38, 20, 0, 24, 6, 36, 16, 41, 30, 0, 14, 3, 0, 47, 0, 42, 26, 8, 0, 45, 40, 31, 15, 2, 29, 23, 12, 0, 35, 11, 22, 32, 19, 49, 0, 0
|40, 15, 19, 0, 42, 0, 0, 0, 0, 0, 25, 30, 0, 0, 0, 37, 0, 0, 48, 1, 18, 10, 6, 24, 17, 0, 22, 4, 3, 9, 0, 38, 2, 36, 34, 43, 0, 27, 21, 39, 0, 46, 0, 28, 0, 31, 0, 0, 5
|22, 46, 21, 37, 4, 45, 23, 28, 0, 49, 39, 25, 0, 12, 7, 0, 48, 0, 6, 0, 0, 3, 0, 8, 14, 40, 0, 10, 18, 41, 38, 31, 0, 27, 9, 24, 33, 17, 11, 0, 13, 44, 0, 16, 19, 32, 47, 0, 1
|32, 0, 5, 31, 17, 41, 26, 34, 0, 18, 48, 6, 35, 8, 0, 9, 33, 43, 37, 23, 40, 19, 0, 0, 12, 1, 46, 21, 0, 0, 4, 2, 0, 0, 45, 28, 0, 0, 14, 16, 39, 42, 0, 0, 27, 0, 36, 13, 0
|34, 0, 9, 40, 3, 44, 0, 1, 16, 11, 0, 13, 32, 7, 0, 45, 39, 0, 0, 0, 25, 33, 0, 0, 24, 18, 0, 27, 15, 21, 0, 17, 0, 6, 42, 23, 43, 36, 0, 41, 2, 47, 49, 0, 0, 35, 48, 0, 0
|0, 25, 14, 18, 39, 6, 2, 43, 41, 20, 0, 42, 24, 0, 22, 27, 36, 17, 15, 47, 4, 35, 16, 0, 0, 44, 31, 0, 0, 3, 0, 0, 0, 48, 13, 46, 38, 40, 32, 37, 0, 0, 45, 12, 33, 23, 5, 0, 28
|38, 8, 15, 0, 48, 27, 30, 3, 2, 31, 46, 0, 40, 19, 29, 49, 0, 0, 20, 41, 16, 13, 4, 45, 0, 32, 0, 36, 37, 28, 0, 33, 34, 23, 44, 0, 12, 0, 9, 10, 25, 18, 43, 42, 17, 0, 7, 11, 0
|0, 33, 0, 49, 16, 24, 0, 44, 45, 4, 21, 17, 5, 0, 31, 35, 0, 42, 28, 0, 14, 0, 30, 6, 23, 0, 0, 39, 25, 0, 0, 0, 12, 0, 36, 0, 0, 48, 1, 34, 7, 15, 18, 3, 9, 0, 41, 46, 10
|36, 43, 29, 42, 0, 0, 20, 27, 47, 37, 26, 38, 33, 23, 13, 21, 0, 44, 0, 0, 12, 7, 0, 15, 41, 0, 48, 17, 0, 0, 32, 22, 16, 39, 11, 0, 0, 31, 5, 30, 0, 45, 0, 0, 24, 14, 40, 0, 2|];