order = 7;
grid = [|30, 9, 14, 0, 43, 26, 31, 38, 39, 4, 46, 32, 0, 42, 6, 10, 23, 19, 0, 11, 0, 0, 47, 5, 41, 0, 0, 0, 2, 29, 0, 36, 0, 16, 0, 3, 44, 0, 22, 0, 0, 49, 18, 17, 25, 15, 0, 33, 35
|0, 18, 0, 25, 22, 0, 36, 15, 9, 13, 40, 0, 0, 2, 41, 34, 0, 35, 48, 42, 47, 37, 49, 0, 46, 8, 0, 30, 33, 5, 17, 0, 43, 0, 11, 0, 0, 19, 0, 28, 0, 38, 20, 26, 45, 1, 14, 10, 7
|0, 0, 0, 0, 21, 11, 6, 37, 8, 36, 29, 49, 34, 33, 24, 26, 27, 18, 17, 46, 38, 44, 31, 32, 1, 0, 16, 0, 4, 25, 0, 13, 39, 42, 28, 12, 5, 20, 45, 14, 0, 35, 0, 19, 43, 3, 30, 48, 40
|32, 0, 29, 33, 28, 38, 0, 0, 20, 27, 44, 0, 7, 26, 0, 2, 0, 0, 36, 16, 13, 0, 3, 35, 11, 17, 19, 43, 14, 6, 41, 47, 23, 0, 21, 25, 42, 0, 18, 48, 37, 0, 34, 24, 0, 49, 46, 4, 39
|4, 0, 42, 19, 0, 37, 35, 11, 41, 21, 0, 0, 23, 31, 32, 0, 0, 28, 0, 40, 49, 20, 0, 18, 38, 6, 0, 0, 27, 9, 0, 0, 8, 15, 0, 0, 0, 0, 17, 39, 30, 1, 47, 13, 0, 5, 0, 16, 0
|3, 0, 0, 0, 0, 24, 48, 19, 47, 10, 22, 28, 0, 45, 0, 37, 1, 39, 9, 0, 0, 7, 12, 27, 4, 34, 25, 0, 35, 30, 46, 20, 31, 40, 18, 36, 41, 11, 33, 26, 32, 0, 0, 6, 21, 23, 2, 38, 8
|10, 40, 0, 15, 1, 23, 0, 0, 6, 17, 0, 35, 18, 25, 30, 22, 21, 4, 14, 0, 0, 33, 0, 39, 42, 26, 13, 0, 19, 49, 44, 48, 38, 37, 45, 0, 8, 46, 16, 2, 0, 47, 29, 28, 11, 32, 27, 0, 0
|0, 10, 48, 27, 42, 17, 0, 6, 5, 37, 0, 9, 33, 20, 0, 28, 29, 22, 3, 0, 21, 0, 0, 0, 0, 44, 2, 36, 0, 35, 7, 38, 14, 31, 0, 32, 26, 1, 46, 13, 18, 0, 30, 11, 0, 16, 47, 25, 0
|38, 0, 6, 49, 31, 9, 15, 23, 0, 47, 24, 0, 22, 0, 46, 19, 0, 0, 7, 17, 0, 26, 43, 8, 0, 4, 1, 35, 45, 32, 0, 0, 0, 33, 0, 34, 0, 0, 37, 0, 25, 0, 36, 10, 18, 40, 44, 20, 12
|33, 4, 11, 36, 26, 40, 0, 18, 30, 3, 45, 0, 44, 0, 48, 43, 0, 27, 1, 49, 25, 0, 0, 0, 31, 47, 28, 21, 0, 34, 0, 0, 0, 6, 8, 15, 0, 35, 0, 19, 17, 0, 7, 41, 22, 37, 0, 14, 23
|22, 0, 25, 0, 47, 34, 0, 0, 43, 26, 27, 19, 32, 12, 0, 0, 35, 38, 0, 36, 6, 23, 42, 0, 40, 0, 18, 0, 30, 0, 16, 10, 17, 0, 15, 20, 0, 28, 0, 7, 0, 31, 9, 45, 0, 39, 1, 3, 48
|28, 24, 16, 0, 41, 19, 0, 0, 0, 42, 17, 40, 0, 0, 0, 0, 4, 0, 37, 34, 14, 0, 39, 13, 0, 46, 0, 49, 0, 0, 47, 1, 3, 0, 0, 22, 30, 48, 10, 29, 38, 12, 33, 8, 32, 27, 43, 35, 6
|12, 32, 0, 20, 0, 0, 3, 34, 35, 8, 25, 41, 29, 10, 31, 9, 0, 0, 39, 26, 0, 17, 0, 11, 7, 48, 33, 0, 21, 40, 36, 19, 24, 0, 49, 45, 6, 27, 14, 47, 0, 23, 46, 4, 42, 0, 15, 13, 28
|14, 35, 44, 30, 5, 45, 23, 46, 16, 7, 0, 48, 15, 38, 47, 11, 0, 12, 0, 32, 10, 24, 19, 0, 0, 3, 9, 6, 25, 18, 0, 39, 13, 4, 37, 43, 36, 41, 40, 0, 33, 8, 49, 0, 34, 31, 0, 21, 0
|21, 48, 10, 43, 29, 16, 14, 0, 40, 39, 3, 37, 20, 44, 0, 31, 0, 42, 24, 0, 18, 0, 8, 33, 0, 0, 0, 41, 32, 0, 13, 15, 6, 0, 35, 0, 0, 17, 27, 4, 0, 46, 28, 9, 0, 34, 0, 0, 0
|0, 6, 0, 32, 23, 42, 20, 26, 14, 28, 41, 33, 0, 36, 0, 0, 5, 46, 47, 0, 15, 43, 0, 48, 3, 22, 37, 1, 12, 7, 4, 18, 30, 21, 44, 0, 0, 9, 35, 45, 2, 13, 0, 31, 27, 0, 24, 0, 29
|0, 3, 38, 40, 7, 0, 44, 0, 2, 0, 42, 10, 4, 0, 17, 23, 0, 13, 30, 27, 22, 9, 20, 31, 39, 0, 34, 46, 49, 1, 37, 0, 16, 0, 0, 14, 33, 12, 26, 36, 11, 18, 35, 32, 6, 0, 48, 0, 21
|24, 0, 47, 35, 15, 0, 0, 27, 48, 0, 18, 29, 12, 0, 37, 41, 0, 7, 49, 14, 45, 0, 40, 42, 5, 13, 0, 44, 11, 0, 9, 46, 25, 0, 0, 0, 0, 43, 30, 38, 28, 32, 39, 0, 0, 4, 16, 0, 0
|19, 0, 0, 37, 39, 0, 26, 22, 0, 6, 47, 43, 0, 7, 9, 0, 0, 0, 10, 12, 0, 27, 16, 0, 35, 25, 0, 18, 0, 41, 14, 0, 36, 0, 34, 40, 21, 15, 0, 44, 8, 29, 0, 1, 46, 0, 3, 42, 0
|27, 22, 46, 2, 36, 8, 0, 9, 25, 32, 0, 31, 13, 0, 19, 0, 34, 0, 35, 48, 0, 14, 17, 12, 0, 0, 4, 0, 0, 23, 43, 45, 42, 0, 10, 5, 7, 47, 0, 41, 0, 0, 44, 38, 33, 20, 0, 15, 37
|45, 12, 0, 18, 0, 0, 11, 8, 1, 0, 35, 5, 46, 0, 36, 0, 0, 0, 29, 6, 0, 30, 0, 2, 0, 0, 38, 47, 0, 0, 40, 24, 33, 26, 20, 0, 48, 39, 42, 25, 10, 34, 0, 0, 14, 22, 41, 7, 0
|0, 23, 24, 0, 27, 0, 0, 25, 37, 9, 0, 0, 8, 0, 0, 14, 6, 0, 0, 13, 31, 16, 26, 4, 0, 43, 32, 0, 0, 19, 21, 44, 29, 46, 40, 0, 0, 0, 38, 0, 0, 39, 15, 33, 47, 17, 0, 30, 0
|48, 0, 0, 22, 0, 0, 8, 41, 38, 33, 28, 14, 11, 32, 16, 29, 30, 0, 0, 19, 37, 47, 44, 46, 0, 5, 31, 0, 0, 20, 45, 49, 0, 18, 17, 26, 12, 0, 43, 23, 9, 42, 0, 27, 4, 0, 36, 6, 0
|46, 19, 0, 42, 10, 31, 16, 0, 3, 12, 4, 44, 0, 0, 0, 5, 47, 43, 32, 0, 0, 49, 14, 9, 23, 41, 15, 0, 13, 37, 33, 8, 28, 24, 0, 0, 29, 36, 48, 17, 40, 25, 11, 0, 0, 26, 34, 0, 18
|0, 0, 21, 0, 44, 6, 0, 0, 36, 0, 0, 0, 19, 29, 8, 46, 0, 33, 34, 0, 0, 0, 28, 0, 18, 7, 39, 0, 5, 4, 35, 0, 12, 23, 0, 11, 0, 14, 0, 10, 16, 0, 0, 40, 0, 0, 32, 45, 41
|26, 33, 35, 0, 4, 0, 0, 40, 27, 0, 34, 46, 1, 43, 15, 7, 10, 23, 38, 18, 36, 2, 0, 21, 20, 0, 24, 0, 22, 14, 25, 41, 47, 39, 6, 44, 0, 49, 32, 37, 0, 0, 16, 0, 8, 9, 13, 28, 5
|0, 15, 28, 9, 3, 32, 43, 0, 24, 20, 7, 13, 26, 35, 0, 17, 41, 45, 44, 21, 0, 8, 37, 38, 0, 19, 40, 0, 0, 2, 11, 0, 0, 30, 0, 33, 0, 22, 4, 18, 47, 27, 23, 39, 10, 25, 29, 12, 14
|0, 11, 0, 0, 34, 18, 0, 21, 0, 5, 39, 47, 49, 0, 25, 12, 9, 2, 26, 24, 4, 0, 30, 36, 0, 35, 17, 0, 43, 3, 48, 32, 27, 10, 16, 6, 28, 13, 41, 0, 45, 7, 0, 44, 19, 38, 42, 0, 20
|0, 38, 12, 34, 0, 0, 32, 49, 0, 2, 37, 21, 45, 0, 0, 25, 7, 0, 18, 0, 3, 40, 0, 6, 0, 0, 42, 0, 26, 13, 0, 9, 0, 1, 0, 0, 0, 0, 24, 15, 19, 0, 0, 20, 0, 0, 28, 43, 22
|23, 0, 0, 3, 0, 0, 33, 32, 42, 31, 0, 25, 0, 0, 35, 0, 19, 49, 0, 30, 24, 13, 5, 0, 17, 0, 0, 0, 0, 0, 38, 34, 40, 47, 22, 28, 0, 0, 12, 6, 0, 41, 10, 37, 0, 0, 21, 8, 9
|7, 0, 0, 11, 20, 0, 9, 17, 22, 0, 5, 38, 47, 19, 34, 16, 0, 6, 31, 44, 0, 3, 25, 28, 49, 24, 0, 4, 15, 48, 0, 27, 10, 36, 12, 29, 40, 42, 0, 0, 21, 14, 0, 23, 30, 46, 33, 32, 0
|18, 44, 0, 6, 19, 30, 0, 14, 7, 40, 0, 20, 3, 48, 0, 0, 32, 17, 23, 0, 46, 12, 41, 43, 0, 39, 36, 38, 0, 16, 0, 33, 35, 2, 31, 0, 0, 4, 0, 49, 0, 0, 0, 34, 1, 42, 0, 29, 11
|16, 31, 8, 10, 40, 5, 49, 39, 0, 15, 13, 12, 6, 24, 27, 0, 14, 37, 4, 47, 41, 18, 48, 0, 0, 30, 21, 32, 28, 11, 0, 42, 19, 43, 25, 38, 45, 0, 0, 1, 20, 0, 3, 0, 0, 0, 17, 2, 36
|13, 28, 41, 1, 17, 0, 0, 0, 11, 29, 0, 0, 36, 0, 22, 20, 42, 0, 12, 39, 9, 0, 27, 47, 15, 2, 10, 31, 44, 45, 32, 6, 7, 14, 4, 30, 0, 33, 5, 46, 0, 0, 0, 0, 16, 48, 40, 18, 38
|42, 47, 22, 48, 45, 0, 46, 10, 0, 18, 0, 34, 28, 30, 1, 13, 0, 5, 15, 38, 0, 35, 23, 26, 29, 37, 44, 11, 24, 17, 0, 21, 0, 20, 41, 0, 0, 0, 0, 31, 36, 2, 25, 14, 0, 12, 0, 19, 4
|29, 13, 49, 26, 18, 46, 0, 20, 34, 35, 36, 15, 40, 47, 14, 6, 44, 48, 16, 9, 12, 0, 1, 3, 21, 0, 22, 0, 8, 43, 31, 25, 0, 45, 33, 7, 37, 0, 23, 0, 0, 24, 4, 42, 17, 41, 11, 27, 0
|0, 21, 33, 0, 0, 14, 0, 7, 49, 22, 0, 0, 9, 3, 0, 40, 11, 0, 45, 0, 34, 0, 13, 17, 0, 42, 27, 2, 0, 12, 0, 0, 0, 44, 29, 41, 10, 25, 0, 32, 0, 6, 0, 0, 48, 30, 35, 39, 43
|11, 37, 2, 39, 48, 47, 40, 5, 26, 0, 6, 0, 0, 0, 0, 0, 38, 3, 41, 4, 0, 0, 7, 30, 44, 12, 0, 25, 1, 10, 49, 0, 0, 0, 0, 17, 0, 0, 36, 20, 0, 0, 45, 21, 29, 0, 9, 0, 16
|1, 27, 3, 31, 38, 35, 42, 0, 29, 14, 48, 45, 41, 37, 0, 36, 0, 10, 25, 0, 39, 46, 32, 40, 47, 33, 11, 0, 18, 0, 0, 17, 0, 0, 0, 0, 0, 0, 0, 0, 0, 43, 19, 15, 23, 6, 7, 44, 0
|17, 20, 9, 24, 0, 22, 0, 31, 32, 0, 21, 42, 10, 39, 26, 8, 37, 29, 0, 33, 23, 0, 18, 14, 0, 36, 43, 0, 47, 38, 19, 11, 41, 5, 7, 35, 27, 0, 0, 40, 4, 0, 1, 0, 13, 28, 0, 49, 34
|0, 43, 45, 4, 16, 44, 25, 13, 0, 0, 0, 1, 30, 27, 0, 35, 15, 0, 0, 0, 0, 39, 9, 41, 37, 0, 0, 20, 3, 42, 0, 14, 0, 0, 24, 2, 49, 38, 19, 11, 29, 28, 12, 18, 40, 0, 5, 36, 0
|0, 41, 32, 5, 6, 10, 7, 33, 0, 16, 19, 11, 25, 17, 0, 27, 2, 0, 42, 0, 30, 34, 4, 45, 8, 23, 49, 29, 40, 0, 0, 35, 9, 13, 0, 0, 47, 44, 31, 21, 26, 48, 38, 3, 20, 14, 22, 0, 0
|0, 0, 26, 8, 0, 3, 10, 12, 19, 38, 0, 27, 14, 0, 7, 0, 0, 25, 21, 0, 1, 0, 24, 0, 2, 0, 47, 23, 17, 0, 34, 40, 37, 0, 39, 49, 0, 30, 0, 43, 35, 20, 6, 0, 44, 0, 0, 22, 45
|43, 0, 0, 46, 25, 20, 22, 0, 21, 49, 23, 24, 42, 9, 2, 38, 36, 8, 0, 29, 26, 11, 35, 0, 32, 0, 0, 45, 41, 0, 1, 0, 48, 7, 0, 0, 4, 0, 3, 0, 0, 0, 0, 0, 28, 18, 0, 34, 33
|0, 7, 40, 0, 24, 15, 27, 3, 4, 0, 2, 0, 16, 0, 12, 18, 22, 34, 0, 37, 0, 42, 0, 19, 13, 1, 30, 39, 38, 31, 0, 29, 0, 35, 14, 10, 23, 6, 0, 0, 48, 17, 0, 46, 49, 36, 0, 9, 47
|37, 42, 0, 0, 14, 49, 47, 0, 13, 0, 20, 0, 35, 40, 3, 0, 17, 0, 19, 31, 33, 5, 0, 0, 0, 9, 46, 0, 0, 0, 0, 22, 18, 0, 32, 39, 0, 0, 34, 24, 0, 21, 0, 0, 41, 29, 0, 0, 27
|6, 45, 5, 28, 12, 48, 0, 0, 18, 41, 30, 7, 39, 34, 4, 0, 24, 32, 13, 10, 0, 0, 33, 37, 36, 38, 14, 0, 0, 46, 0, 0, 26, 11, 0, 0, 0, 8, 47, 0, 22, 44, 0, 16, 0, 0, 20, 17, 15
|35, 39, 0, 16, 32, 0, 4, 48, 17, 0, 33, 36, 31, 22, 45, 0, 46, 9, 27, 23, 40, 25, 29, 49, 34, 0, 0, 8, 6, 0, 5, 30, 44, 3, 13, 42, 2, 37, 28, 0, 15, 26, 14, 7, 38, 19, 0, 11, 0
|31, 0, 0, 29, 0, 0, 34, 0, 10, 45, 0, 6, 0, 1, 20, 44, 0, 0, 5, 15, 11, 0, 22, 0, 0, 28, 0, 0, 9, 8, 12, 4, 0, 49, 0, 0, 38, 18, 0, 0, 0, 0, 40, 25, 0, 43, 0, 24, 42|];