order = 7;
grid = [|43, 20, 0, 38, 16, 17, 0, 42, 32, 45, 31, 8, 0, 12, 0, 0, 3, 0, 25, 0, 49, 0, 15, 9, 30, 0, 23, 22, 26, 0, 1, 21, 39, 44, 19, 40, 27, 36, 6, 35, 11, 33, 41, 2, 0, 7, 47, 29, 0
|21, 12, 1, 2, 11, 19, 23, 35, 37, 4, 15, 40, 22, 3, 33, 27, 28, 16, 0, 43, 29, 0, 49, 45, 17, 20, 0, 44, 41, 34, 0, 48, 32, 18, 25, 47, 9, 10, 0, 39, 8, 0, 6, 0, 0, 30, 5, 42, 0
|0, 3, 35, 48, 25, 5, 36, 0, 24, 49, 0, 9, 20, 33, 15, 44, 38, 12, 11, 47, 2, 0, 14, 4, 16, 43, 0, 42, 0, 30, 45, 17, 6, 10, 13, 0, 41, 0, 29, 32, 31, 26, 27, 0, 40, 8, 39, 0, 19
|45, 0, 42, 0, 0, 31, 33, 5, 10, 47, 23, 36, 0, 0, 20, 0, 34, 19, 48, 41, 37, 3, 0, 40, 6, 39, 1, 0, 0, 12, 0, 0, 7, 16, 11, 0, 30, 0, 43, 17, 14, 0, 49, 0, 21, 0, 25, 13, 15
|0, 39, 8, 0, 0, 34, 6, 41, 0, 7, 0, 0, 0, 1, 0, 35, 40, 5, 30, 0, 0, 0, 0, 25, 0, 19, 0, 0, 27, 24, 0, 0, 49, 0, 2, 23, 42, 0, 48, 3, 0, 0, 37, 44, 43, 0, 33, 9, 36
|0, 14, 4, 40, 15, 24, 41, 0, 17, 0, 30, 26, 0, 29, 0, 7, 1, 31, 39, 0, 21, 33, 8, 12, 47, 48, 0, 37, 35, 43, 3, 42, 0, 28, 0, 16, 0, 44, 0, 0, 19, 49, 10, 0, 0, 18, 11, 0, 45
|0, 44, 46, 28, 0, 49, 30, 0, 19, 21, 39, 0, 43, 6, 0, 42, 0, 0, 32, 23, 0, 29, 36, 41, 0, 0, 24, 34, 40, 0, 31, 0, 33, 14, 0, 38, 0, 37, 7, 4, 0, 0, 35, 3, 0, 12, 0, 1, 17
|33, 4, 12, 29, 14, 46, 2, 38, 45, 0, 8, 0, 0, 27, 25, 32, 0, 37, 0, 7, 36, 0, 0, 5, 0, 0, 35, 41, 10, 19, 0, 24, 42, 0, 34, 30, 0, 0, 0, 11, 47, 40, 9, 28, 15, 0, 17, 49, 16
|40, 32, 19, 24, 0, 27, 1, 48, 11, 2, 36, 35, 14, 0, 29, 13, 33, 0, 0, 31, 12, 0, 45, 23, 7, 37, 0, 9, 0, 0, 16, 28, 0, 43, 8, 42, 6, 26, 44, 49, 10, 17, 0, 30, 47, 0, 41, 0, 3
|34, 6, 38, 31, 18, 0, 0, 24, 21, 0, 25, 33, 0, 46, 0, 9, 16, 47, 49, 5, 0, 0, 0, 10, 42, 32, 4, 48, 17, 45, 0, 7, 30, 40, 0, 15, 2, 0, 39, 12, 37, 43, 26, 29, 11, 0, 14, 0, 13
|47, 36, 13, 23, 21, 7, 45, 32, 30, 5, 40, 20, 49, 28, 18, 39, 48, 0, 0, 0, 11, 0, 25, 3, 0, 29, 33, 0, 15, 0, 26, 14, 0, 2, 4, 0, 31, 24, 16, 0, 34, 0, 0, 43, 37, 42, 35, 6, 10
|41, 0, 0, 42, 44, 48, 0, 4, 7, 23, 19, 37, 0, 18, 8, 28, 27, 0, 3, 0, 43, 0, 6, 30, 11, 47, 49, 16, 0, 5, 12, 36, 31, 0, 0, 45, 35, 20, 25, 0, 29, 0, 22, 0, 46, 38, 0, 0, 0
|3, 37, 0, 0, 0, 0, 11, 29, 47, 16, 41, 15, 10, 0, 40, 24, 0, 0, 0, 38, 1, 2, 27, 0, 26, 34, 0, 8, 20, 44, 13, 22, 25, 49, 23, 0, 19, 46, 4, 28, 33, 32, 0, 39, 31, 5, 18, 0, 12
|0, 10, 28, 15, 0, 25, 16, 26, 42, 22, 34, 12, 6, 0, 4, 21, 2, 17, 0, 30, 45, 14, 0, 38, 40, 0, 43, 13, 0, 46, 39, 0, 29, 0, 3, 8, 36, 5, 18, 0, 0, 41, 44, 0, 32, 33, 1, 19, 27
|0, 25, 0, 45, 32, 22, 4, 0, 0, 10, 24, 23, 30, 15, 0, 11, 6, 0, 0, 0, 0, 12, 21, 26, 9, 3, 0, 0, 49, 8, 28, 19, 40, 48, 0, 46, 0, 0, 17, 0, 18, 0, 42, 13, 29, 35, 0, 7, 47
|0, 0, 7, 46, 23, 28, 0, 0, 20, 0, 11, 32, 27, 49, 0, 43, 0, 8, 40, 33, 0, 0, 38, 22, 0, 5, 14, 2, 21, 15, 30, 0, 0, 1, 12, 48, 34, 47, 0, 13, 24, 6, 36, 45, 39, 0, 0, 44, 26
|30, 49, 11, 36, 3, 21, 44, 0, 0, 13, 0, 0, 39, 40, 5, 0, 12, 18, 0, 16, 24, 32, 7, 17, 29, 0, 0, 19, 0, 14, 25, 47, 2, 34, 20, 35, 8, 43, 9, 0, 0, 31, 4, 6, 41, 0, 0, 33, 48
|38, 0, 0, 0, 43, 6, 19, 0, 41, 42, 33, 16, 9, 0, 44, 0, 0, 35, 0, 26, 48, 0, 30, 0, 13, 11, 0, 1, 7, 32, 37, 23, 24, 36, 29, 10, 28, 27, 15, 0, 0, 12, 3, 5, 0, 2, 49, 0, 18
|9, 27, 0, 0, 47, 16, 0, 45, 48, 0, 6, 0, 46, 0, 0, 23, 25, 0, 36, 0, 34, 44, 4, 28, 31, 0, 42, 15, 0, 0, 0, 5, 0, 26, 0, 0, 0, 14, 32, 30, 49, 29, 24, 0, 8, 0, 22, 0, 37
|2, 34, 0, 14, 0, 12, 48, 0, 18, 19, 47, 22, 44, 26, 0, 49, 13, 0, 0, 29, 15, 25, 0, 0, 37, 0, 8, 45, 0, 0, 17, 0, 27, 46, 42, 4, 38, 39, 11, 0, 5, 7, 0, 0, 23, 0, 0, 28, 30
|0, 0, 37, 0, 0, 20, 26, 2, 35, 34, 29, 5, 4, 0, 28, 14, 0, 30, 0, 0, 17, 48, 0, 24, 43, 0, 46, 0, 33, 0, 11, 39, 16, 0, 44, 36, 21, 40, 23, 22, 3, 19, 31, 0, 9, 0, 38, 12, 25
|0, 21, 24, 7, 35, 44, 5, 30, 29, 41, 9, 1, 19, 47, 43, 18, 0, 3, 42, 40, 0, 45, 46, 0, 14, 49, 0, 38, 31, 39, 10, 37, 48, 32, 6, 20, 23, 0, 12, 0, 0, 28, 0, 33, 26, 27, 0, 17, 0
|28, 8, 22, 34, 42, 18, 0, 27, 31, 0, 38, 49, 45, 0, 1, 0, 10, 9, 2, 0, 46, 40, 29, 16, 21, 0, 12, 11, 30, 26, 47, 0, 0, 4, 0, 0, 0, 0, 3, 33, 39, 0, 0, 25, 19, 0, 7, 15, 0
|14, 41, 29, 0, 12, 40, 0, 7, 43, 37, 0, 0, 42, 11, 19, 31, 8, 24, 16, 34, 13, 0, 48, 0, 0, 28, 6, 0, 5, 23, 27, 33, 18, 21, 0, 9, 47, 15, 45, 0, 44, 2, 39, 0, 3, 0, 10, 30, 0
|46, 43, 0, 37, 36, 30, 25, 0, 15, 48, 17, 6, 0, 0, 0, 47, 0, 0, 44, 28, 7, 13, 33, 1, 39, 22, 18, 20, 24, 16, 38, 45, 3, 9, 40, 49, 0, 21, 26, 19, 42, 10, 5, 0, 2, 31, 8, 0, 41
|23, 0, 31, 0, 48, 33, 38, 20, 44, 3, 0, 2, 12, 24, 21, 41, 0, 39, 27, 4, 35, 30, 5, 0, 0, 0, 0, 0, 25, 17, 0, 1, 46, 0, 28, 43, 14, 7, 13, 36, 0, 34, 0, 18, 45, 16, 0, 0, 6
|0, 16, 6, 3, 45, 10, 0, 40, 0, 33, 13, 39, 8, 23, 36, 26, 0, 20, 14, 17, 5, 0, 42, 0, 25, 7, 0, 0, 12, 29, 0, 0, 19, 15, 35, 0, 48, 0, 0, 41, 38, 0, 0, 49, 44, 9, 28, 32, 46
|0, 1, 0, 19, 9, 39, 0, 0, 16, 28, 0, 0, 35, 0, 38, 0, 0, 45, 33, 15, 0, 23, 0, 43, 3, 26, 44, 31, 11, 20, 0, 0, 0, 8, 7, 5, 29, 22, 27, 6, 30, 0, 40, 0, 12, 48, 42, 36, 24
|39, 0, 26, 0, 0, 0, 7, 17, 40, 9, 48, 0, 28, 20, 0, 0, 22, 0, 23, 13, 0, 0, 0, 2, 0, 45, 15, 5, 43, 31, 46, 35, 36, 30, 41, 12, 0, 38, 10, 1, 0, 42, 16, 0, 18, 29, 0, 3, 0
|16, 19, 44, 25, 41, 38, 0, 0, 23, 0, 0, 14, 0, 21, 0, 30, 18, 48, 28, 49, 0, 7, 37, 0, 22, 40, 0, 33, 45, 6, 24, 3, 4, 11, 47, 0, 0, 29, 5, 0, 35, 8, 32, 36, 42, 43, 0, 31, 1
|32, 13, 45, 1, 22, 0, 0, 8, 4, 15, 2, 41, 18, 37, 7, 36, 35, 0, 12, 39, 33, 0, 31, 0, 19, 38, 16, 29, 34, 48, 20, 0, 44, 42, 17, 0, 26, 0, 24, 21, 0, 30, 14, 0, 0, 6, 40, 0, 0
|18, 31, 48, 21, 0, 11, 20, 13, 6, 39, 5, 0, 0, 0, 16, 29, 0, 0, 9, 45, 0, 4, 34, 47, 0, 1, 30, 0, 8, 0, 0, 0, 37, 19, 0, 44, 3, 0, 40, 2, 36, 46, 28, 12, 49, 0, 23, 0, 35
|0, 2, 43, 0, 0, 42, 0, 44, 3, 32, 49, 24, 29, 38, 11, 20, 5, 0, 0, 0, 26, 21, 9, 0, 0, 12, 0, 0, 1, 28, 33, 40, 22, 39, 0, 0, 18, 25, 34, 31, 0, 14, 15, 17, 0, 0, 0, 0, 4
|24, 40, 0, 12, 34, 36, 10, 22, 25, 31, 0, 0, 33, 16, 14, 0, 0, 21, 0, 2, 3, 43, 26, 42, 0, 44, 39, 6, 0, 0, 29, 18, 15, 0, 0, 32, 45, 9, 0, 47, 48, 20, 46, 37, 7, 11, 30, 38, 8
|0, 23, 15, 0, 0, 0, 0, 0, 1, 30, 0, 27, 47, 36, 0, 38, 0, 40, 24, 0, 42, 0, 0, 48, 8, 14, 0, 3, 2, 9, 0, 0, 0, 7, 0, 13, 43, 6, 19, 16, 28, 22, 33, 26, 25, 41, 0, 0, 0
|0, 0, 3, 33, 2, 0, 0, 0, 0, 26, 37, 0, 0, 45, 32, 15, 43, 7, 5, 14, 23, 16, 39, 0, 36, 0, 31, 18, 42, 22, 41, 38, 0, 25, 30, 1, 17, 0, 8, 27, 0, 0, 0, 0, 35, 40, 19, 4, 49
|0, 7, 14, 11, 19, 0, 24, 15, 49, 0, 4, 3, 0, 32, 0, 6, 20, 28, 8, 0, 30, 41, 13, 0, 0, 21, 45, 43, 0, 33, 40, 16, 0, 17, 0, 0, 12, 18, 0, 9, 0, 39, 38, 34, 1, 44, 29, 37, 5
|1, 22, 36, 10, 0, 45, 35, 0, 2, 6, 43, 0, 0, 25, 49, 3, 0, 38, 21, 0, 18, 42, 19, 8, 5, 46, 48, 30, 4, 7, 44, 34, 0, 31, 0, 29, 13, 32, 14, 24, 20, 0, 12, 41, 0, 28, 0, 16, 33
|31, 46, 0, 41, 40, 37, 43, 1, 27, 8, 0, 0, 0, 48, 10, 16, 44, 0, 4, 12, 39, 9, 20, 0, 33, 0, 0, 0, 0, 49, 6, 2, 0, 24, 45, 26, 5, 34, 38, 23, 15, 0, 30, 0, 36, 25, 0, 18, 7
|44, 38, 0, 0, 4, 0, 27, 39, 5, 0, 22, 0, 0, 0, 48, 0, 0, 0, 34, 1, 0, 0, 23, 37, 49, 15, 3, 40, 28, 18, 32, 13, 0, 0, 0, 25, 11, 19, 0, 7, 43, 0, 0, 24, 6, 21, 9, 26, 42
|8, 48, 0, 5, 28, 0, 18, 12, 38, 0, 16, 30, 0, 0, 26, 19, 24, 36, 17, 35, 47, 6, 22, 11, 0, 4, 25, 7, 0, 1, 9, 29, 21, 0, 37, 33, 0, 41, 42, 0, 2, 44, 43, 0, 27, 0, 32, 0, 23
|25, 0, 0, 17, 6, 9, 21, 33, 0, 18, 44, 7, 0, 19, 22, 0, 0, 0, 37, 11, 40, 1, 0, 29, 38, 10, 26, 12, 0, 36, 0, 27, 43, 5, 0, 28, 0, 35, 0, 45, 16, 3, 0, 48, 13, 0, 0, 0, 0
|20, 0, 16, 9, 46, 41, 0, 19, 39, 29, 18, 0, 0, 34, 30, 12, 0, 27, 0, 0, 28, 8, 3, 7, 35, 25, 32, 47, 6, 40, 43, 15, 26, 23, 24, 31, 44, 0, 33, 10, 22, 48, 0, 0, 4, 49, 36, 45, 2
|0, 0, 21, 39, 37, 32, 0, 31, 26, 0, 0, 4, 0, 2, 35, 1, 7, 0, 0, 48, 10, 0, 43, 6, 0, 16, 13, 23, 46, 3, 5, 9, 45, 29, 33, 19, 40, 49, 47, 34, 17, 27, 25, 0, 30, 14, 0, 20, 44
|0, 0, 34, 49, 0, 2, 12, 6, 36, 1, 27, 42, 5, 30, 13, 22, 19, 26, 15, 3, 0, 37, 40, 0, 20, 0, 28, 21, 0, 0, 4, 10, 17, 41, 0, 14, 46, 8, 35, 29, 9, 23, 0, 16, 24, 47, 31, 0, 32
|35, 0, 40, 44, 10, 0, 15, 9, 8, 24, 0, 0, 0, 43, 31, 0, 0, 4, 0, 0, 0, 38, 1, 49, 0, 27, 19, 0, 13, 11, 34, 32, 28, 47, 22, 3, 16, 30, 2, 37, 12, 25, 23, 42, 33, 46, 0, 41, 0
|48, 0, 25, 4, 0, 43, 3, 16, 12, 0, 20, 45, 23, 41, 47, 40, 0, 0, 0, 8, 6, 11, 17, 31, 44, 9, 10, 0, 0, 2, 7, 30, 1, 0, 18, 39, 24, 42, 28, 26, 32, 0, 19, 0, 22, 0, 27, 0, 0
|0, 28, 0, 6, 0, 0, 8, 0, 46, 40, 3, 44, 0, 22, 2, 0, 0, 0, 0, 9, 32, 34, 12, 15, 0, 0, 29, 0, 16, 42, 19, 49, 14, 20, 48, 21, 7, 0, 36, 43, 1, 38, 18, 35, 5, 0, 0, 0, 11
|19, 30, 0, 0, 0, 1, 17, 0, 33, 11, 0, 0, 32, 0, 23, 0, 46, 0, 43, 24, 0, 0, 2, 39, 45, 42, 5, 0, 44, 37, 8, 31, 12, 0, 21, 6, 0, 4, 0, 18, 41, 0, 7, 0, 28, 0, 26, 40, 29|];