order = 7;
grid = [|0, 46, 0, 42, 16, 35, 0, 0, 0, 5, 0, 0, 31, 38, 14, 13, 48, 0, 0, 0, 18, 0, 0, 1, 19, 29, 0, 49, 0, 0, 27, 0, 10, 0, 47, 17, 30, 0, 36, 8, 41, 0, 28, 43, 22, 0, 26, 21, 0
|12, 11, 0, 47, 2, 28, 0, 9, 27, 42, 0, 13, 20, 24, 40, 0, 22, 43, 39, 4, 25, 23, 35, 41, 10, 0, 46, 34, 44, 15, 19, 45, 0, 0, 49, 38, 1, 37, 31, 0, 48, 0, 6, 30, 36, 33, 0, 0, 16
|49, 38, 0, 18, 41, 19, 0, 43, 32, 29, 25, 0, 35, 0, 0, 28, 16, 0, 36, 42, 0, 4, 0, 48, 24, 0, 40, 5, 0, 1, 0, 0, 26, 3, 13, 0, 0, 14, 21, 0, 7, 47, 15, 17, 0, 20, 0, 2, 0
|30, 14, 0, 15, 1, 45, 44, 3, 37, 0, 7, 33, 0, 0, 31, 26, 0, 10, 0, 41, 27, 0, 36, 25, 13, 18, 32, 42, 0, 0, 21, 0, 5, 20, 24, 28, 22, 0, 43, 0, 0, 49, 0, 34, 12, 9, 0, 0, 0
|3, 17, 0, 27, 25, 36, 0, 19, 22, 46, 4, 40, 49, 0, 0, 38, 20, 34, 0, 32, 0, 0, 0, 31, 7, 21, 39, 0, 0, 0, 30, 16, 0, 8, 0, 45, 12, 9, 13, 23, 10, 0, 24, 37, 0, 0, 42, 35, 18
|37, 43, 20, 22, 39, 32, 24, 2, 45, 26, 28, 48, 10, 0, 47, 0, 12, 46, 9, 21, 7, 8, 33, 0, 16, 38, 0, 15, 0, 0, 23, 36, 0, 34, 41, 4, 0, 5, 35, 29, 42, 27, 0, 0, 14, 0, 11, 0, 49
|0, 0, 7, 48, 26, 23, 31, 1, 0, 21, 34, 0, 41, 18, 24, 0, 17, 35, 0, 49, 0, 2, 22, 0, 0, 28, 27, 9, 4, 0, 0, 29, 0, 0, 42, 20, 0, 11, 39, 40, 3, 16, 25, 45, 19, 38, 44, 0, 10
|39, 19, 0, 6, 0, 0, 48, 7, 0, 45, 38, 0, 43, 27, 34, 0, 15, 29, 10, 5, 24, 14, 49, 46, 21, 22, 0, 0, 12, 35, 0, 2, 0, 31, 0, 0, 41, 0, 32, 37, 9, 20, 0, 23, 11, 42, 13, 0, 0
|0, 30, 25, 4, 10, 38, 11, 26, 0, 47, 0, 12, 24, 29, 9, 17, 3, 6, 43, 37, 36, 42, 2, 33, 0, 0, 28, 48, 20, 0, 34, 39, 23, 22, 32, 27, 19, 0, 0, 49, 0, 13, 0, 0, 21, 40, 18, 15, 45
|43, 44, 18, 40, 0, 0, 9, 0, 0, 0, 14, 0, 0, 33, 41, 23, 0, 0, 42, 12, 0, 0, 25, 32, 11, 37, 31, 38, 0, 0, 1, 26, 21, 46, 0, 30, 28, 36, 24, 0, 29, 17, 22, 27, 10, 5, 2, 4, 39
|0, 21, 0, 24, 45, 46, 36, 0, 0, 25, 1, 0, 8, 11, 28, 0, 0, 38, 0, 33, 35, 47, 5, 29, 27, 39, 0, 19, 0, 17, 40, 48, 42, 49, 0, 7, 0, 3, 15, 43, 22, 0, 9, 0, 0, 6, 37, 26, 14
|42, 0, 32, 0, 14, 0, 0, 39, 41, 2, 0, 0, 0, 5, 20, 45, 0, 27, 0, 0, 0, 9, 15, 13, 18, 0, 24, 30, 10, 28, 37, 11, 0, 4, 0, 12, 23, 21, 33, 0, 0, 34, 49, 19, 44, 48, 25, 38, 47
|27, 0, 0, 13, 7, 2, 22, 21, 0, 19, 20, 0, 0, 42, 16, 40, 44, 0, 18, 0, 49, 35, 6, 26, 0, 10, 41, 23, 0, 30, 8, 9, 14, 25, 0, 0, 48, 1, 38, 0, 39, 46, 34, 29, 0, 0, 32, 24, 0
|26, 0, 0, 49, 23, 5, 37, 18, 15, 17, 10, 28, 0, 9, 25, 0, 39, 0, 21, 19, 0, 0, 0, 44, 45, 20, 12, 43, 7, 24, 38, 13, 0, 41, 0, 40, 0, 6, 2, 31, 0, 0, 33, 0, 16, 36, 8, 46, 30
|23, 10, 2, 41, 9, 13, 16, 17, 24, 44, 11, 42, 0, 0, 1, 18, 5, 22, 8, 0, 0, 21, 31, 43, 33, 19, 0, 0, 26, 27, 46, 20, 0, 7, 36, 32, 0, 0, 0, 48, 0, 0, 0, 47, 35, 39, 28, 0, 25
|0, 34, 30, 37, 0, 0, 14, 0, 39, 43, 35, 22, 23, 0, 33, 11, 45, 42, 0, 0, 0, 29, 27, 7, 4, 0, 26, 3, 0, 9, 49, 17, 0, 15, 16, 31, 46, 38, 47, 20, 0, 0, 21, 10, 0, 19, 24, 0, 13
|28, 29, 44, 0, 21, 27, 0, 41, 25, 0, 0, 47, 18, 7, 38, 0, 10, 20, 0, 46, 39, 34, 0, 15, 22, 42, 13, 24, 0, 8, 32, 23, 19, 14, 5, 49, 35, 0, 45, 3, 30, 43, 0, 33, 0, 0, 36, 12, 37
|20, 0, 22, 36, 0, 15, 1, 32, 13, 12, 37, 0, 0, 45, 7, 14, 35, 19, 25, 24, 21, 11, 38, 0, 46, 0, 0, 0, 43, 0, 0, 0, 0, 2, 0, 10, 0, 8, 0, 28, 26, 0, 42, 5, 4, 23, 3, 40, 48
|5, 0, 4, 11, 0, 49, 0, 6, 0, 36, 30, 0, 1, 0, 13, 43, 0, 40, 23, 0, 0, 0, 9, 35, 12, 2, 48, 8, 24, 39, 0, 0, 0, 0, 37, 44, 0, 19, 18, 0, 0, 25, 20, 22, 7, 0, 45, 0, 0
|0, 24, 38, 45, 0, 0, 6, 46, 5, 16, 19, 21, 14, 8, 30, 36, 0, 31, 49, 0, 0, 0, 10, 0, 39, 41, 0, 0, 47, 4, 13, 0, 0, 0, 29, 37, 7, 33, 0, 1, 11, 22, 43, 18, 32, 0, 0, 9, 26
|0, 0, 0, 0, 19, 0, 0, 0, 3, 0, 0, 0, 33, 10, 37, 0, 47, 4, 12, 27, 0, 5, 14, 0, 36, 0, 18, 0, 0, 45, 22, 30, 35, 0, 48, 42, 2, 34, 23, 13, 0, 9, 0, 0, 46, 17, 0, 0, 8
|36, 0, 14, 3, 42, 33, 43, 0, 19, 0, 24, 0, 0, 20, 21, 27, 34, 0, 32, 30, 0, 49, 40, 0, 0, 26, 10, 45, 8, 44, 0, 1, 9, 0, 6, 16, 39, 7, 5, 41, 23, 28, 29, 0, 0, 22, 17, 47, 4
|32, 0, 0, 10, 13, 26, 0, 0, 28, 1, 0, 0, 0, 44, 4, 47, 0, 12, 22, 14, 37, 0, 8, 5, 15, 6, 0, 33, 29, 19, 16, 49, 40, 17, 39, 25, 3, 31, 42, 0, 34, 45, 0, 48, 30, 24, 0, 18, 20
|40, 4, 23, 8, 49, 22, 27, 33, 29, 39, 45, 5, 0, 0, 19, 0, 6, 36, 35, 0, 9, 41, 16, 42, 0, 24, 17, 32, 46, 34, 28, 3, 0, 38, 11, 18, 21, 30, 48, 47, 0, 10, 0, 1, 31, 0, 7, 0, 44
|46, 16, 34, 0, 0, 0, 2, 22, 26, 31, 41, 0, 42, 32, 0, 25, 0, 17, 11, 48, 28, 36, 21, 27, 0, 9, 37, 0, 0, 0, 45, 7, 24, 47, 23, 35, 0, 20, 4, 44, 43, 0, 12, 6, 8, 15, 10, 39, 19
|7, 47, 37, 28, 0, 11, 12, 49, 0, 14, 0, 0, 4, 21, 10, 0, 46, 15, 24, 40, 0, 13, 39, 0, 3, 44, 25, 18, 30, 36, 33, 43, 41, 48, 0, 22, 0, 17, 19, 32, 27, 6, 45, 2, 42, 26, 34, 5, 0
|38, 20, 0, 44, 24, 25, 0, 0, 0, 6, 43, 17, 11, 48, 0, 0, 23, 7, 29, 16, 45, 0, 12, 34, 0, 30, 22, 47, 0, 14, 0, 27, 37, 26, 4, 1, 13, 15, 8, 0, 49, 2, 36, 3, 40, 28, 41, 33, 21
|9, 48, 17, 39, 0, 0, 45, 27, 47, 30, 40, 15, 0, 34, 8, 33, 0, 18, 41, 44, 13, 31, 28, 0, 23, 0, 1, 7, 21, 12, 2, 22, 20, 0, 25, 29, 24, 26, 46, 0, 14, 37, 32, 49, 0, 43, 35, 16, 0
|2, 5, 13, 7, 0, 43, 0, 0, 20, 41, 0, 39, 34, 22, 0, 35, 0, 3, 0, 8, 30, 45, 0, 18, 32, 0, 42, 11, 27, 0, 47, 25, 36, 23, 17, 9, 44, 0, 0, 0, 0, 0, 10, 14, 48, 0, 16, 0, 12
|31, 40, 11, 21, 47, 0, 0, 0, 9, 38, 12, 0, 26, 4, 0, 0, 33, 0, 20, 25, 0, 48, 37, 16, 2, 27, 34, 13, 35, 41, 24, 5, 0, 19, 1, 0, 0, 0, 49, 0, 32, 0, 44, 39, 28, 18, 30, 0, 15
|22, 25, 8, 19, 32, 44, 39, 31, 21, 40, 0, 2, 46, 3, 42, 15, 37, 0, 0, 13, 16, 10, 20, 24, 0, 7, 38, 35, 6, 33, 48, 28, 18, 43, 0, 11, 27, 4, 26, 12, 0, 1, 0, 9, 49, 45, 29, 17, 0
|1, 0, 16, 20, 27, 37, 0, 35, 42, 15, 0, 10, 17, 23, 44, 0, 0, 28, 4, 0, 48, 12, 0, 6, 0, 49, 36, 0, 3, 38, 9, 21, 0, 29, 14, 41, 33, 40, 30, 39, 2, 0, 8, 26, 0, 0, 0, 43, 0
|14, 12, 28, 38, 48, 29, 33, 0, 0, 0, 47, 0, 25, 43, 0, 49, 0, 24, 0, 22, 31, 40, 0, 9, 0, 5, 8, 4, 2, 0, 26, 0, 44, 39, 7, 0, 0, 10, 17, 15, 6, 0, 3, 42, 37, 21, 0, 13, 0
|6, 26, 41, 0, 18, 30, 3, 29, 49, 0, 0, 1, 0, 0, 11, 12, 9, 39, 0, 0, 10, 22, 19, 21, 44, 23, 0, 0, 42, 31, 4, 15, 32, 45, 0, 8, 0, 46, 16, 34, 13, 5, 35, 0, 0, 2, 47, 7, 38
|0, 9, 35, 0, 36, 0, 49, 44, 16, 32, 0, 0, 28, 19, 6, 2, 0, 14, 38, 0, 26, 15, 0, 39, 0, 0, 29, 0, 0, 40, 0, 12, 0, 37, 8, 43, 18, 45, 25, 0, 31, 48, 11, 0, 0, 46, 20, 0, 41
|0, 36, 10, 14, 3, 0, 15, 20, 0, 0, 0, 4, 0, 31, 23, 41, 18, 16, 30, 34, 8, 37, 0, 0, 0, 40, 6, 0, 0, 2, 0, 44, 0, 11, 0, 21, 0, 0, 12, 0, 33, 29, 1, 32, 0, 35, 49, 45, 0
|0, 0, 48, 0, 38, 0, 0, 15, 33, 10, 0, 41, 16, 46, 12, 37, 0, 45, 44, 0, 19, 0, 42, 0, 9, 0, 0, 29, 18, 0, 5, 14, 4, 24, 40, 13, 31, 49, 1, 0, 36, 0, 39, 20, 34, 0, 0, 11, 22
|0, 0, 26, 0, 4, 9, 0, 23, 1, 49, 2, 0, 37, 39, 17, 0, 38, 33, 13, 11, 32, 16, 48, 3, 5, 15, 21, 10, 45, 0, 25, 0, 34, 0, 31, 0, 43, 27, 0, 7, 35, 14, 47, 0, 18, 30, 40, 28, 24
|0, 37, 19, 0, 12, 0, 13, 14, 43, 7, 21, 18, 45, 35, 0, 0, 27, 0, 47, 9, 40, 25, 4, 0, 34, 46, 23, 36, 0, 10, 29, 6, 49, 16, 33, 0, 0, 42, 28, 2, 0, 0, 41, 38, 26, 44, 48, 0, 0
|45, 2, 5, 34, 0, 1, 18, 0, 0, 0, 0, 32, 22, 12, 0, 46, 36, 26, 14, 0, 43, 30, 41, 38, 0, 11, 33, 27, 37, 0, 0, 47, 0, 28, 3, 24, 4, 39, 9, 0, 44, 23, 19, 25, 17, 0, 0, 0, 7
|0, 23, 27, 43, 20, 40, 0, 47, 17, 0, 44, 24, 19, 25, 39, 0, 0, 0, 28, 3, 4, 18, 0, 14, 49, 31, 7, 0, 48, 26, 0, 0, 0, 9, 38, 0, 0, 41, 34, 10, 45, 8, 0, 0, 15, 13, 33, 37, 2
|0, 7, 49, 0, 0, 0, 25, 34, 30, 0, 3, 0, 0, 0, 48, 10, 2, 21, 31, 0, 0, 24, 44, 0, 47, 0, 19, 39, 41, 43, 0, 0, 0, 1, 46, 6, 0, 18, 0, 38, 37, 0, 5, 8, 23, 4, 9, 0, 0
|10, 0, 45, 9, 0, 21, 7, 38, 0, 0, 8, 0, 30, 40, 2, 34, 24, 25, 16, 28, 0, 27, 18, 37, 42, 35, 0, 46, 36, 0, 43, 0, 1, 6, 0, 48, 0, 29, 0, 33, 19, 32, 13, 11, 39, 41, 4, 23, 0
|0, 0, 46, 5, 37, 0, 20, 12, 6, 28, 18, 11, 0, 0, 15, 7, 0, 30, 33, 23, 0, 43, 32, 0, 31, 0, 0, 2, 40, 22, 3, 38, 25, 27, 21, 39, 9, 47, 10, 26, 1, 41, 48, 24, 45, 8, 14, 0, 35
|47, 18, 24, 0, 0, 4, 8, 45, 35, 0, 29, 25, 0, 1, 0, 48, 40, 49, 19, 0, 20, 0, 7, 0, 0, 34, 0, 41, 28, 42, 14, 46, 0, 0, 26, 2, 17, 0, 0, 22, 38, 15, 31, 21, 5, 3, 43, 44, 32
|29, 49, 0, 33, 0, 41, 23, 5, 7, 48, 31, 19, 0, 0, 35, 1, 14, 32, 46, 0, 22, 0, 30, 0, 8, 0, 11, 0, 34, 0, 18, 24, 45, 44, 2, 36, 16, 0, 6, 27, 28, 21, 26, 15, 47, 25, 38, 20, 0
|16, 22, 0, 0, 6, 14, 26, 0, 46, 0, 0, 20, 0, 41, 0, 0, 0, 13, 3, 0, 42, 0, 0, 0, 0, 0, 0, 0, 49, 0, 17, 0, 33, 35, 10, 5, 0, 0, 0, 0, 25, 0, 18, 28, 0, 37, 12, 0, 1
|15, 27, 1, 25, 28, 0, 30, 42, 2, 3, 49, 16, 39, 37, 0, 21, 31, 0, 17, 43, 6, 26, 0, 36, 0, 0, 14, 0, 23, 0, 0, 41, 8, 5, 9, 0, 0, 0, 0, 4, 40, 12, 46, 7, 0, 10, 0, 22, 0
|17, 0, 36, 35, 40, 31, 38, 4, 0, 33, 23, 43, 0, 47, 26, 0, 0, 0, 37, 0, 12, 1, 29, 22, 28, 0, 0, 44, 0, 7, 0, 0, 0, 13, 15, 14, 0, 24, 0, 46, 0, 11, 30, 16, 0, 0, 27, 34, 6|];