order = 7;
grid = [|20, 10, 0, 42, 19, 0, 2, 35, 21, 48, 0, 0, 49, 0, 0, 47, 5, 9, 43, 0, 14, 17, 34, 45, 0, 0, 27, 46, 0, 0, 31, 0, 12, 40, 0, 29, 30, 7, 18, 13, 28, 23, 0, 3, 36, 44, 0, 26, 0
|0, 17, 32, 39, 37, 0, 0, 13, 46, 5, 0, 29, 0, 20, 0, 0, 19, 16, 0, 35, 27, 23, 0, 11, 0, 38, 10, 25, 0, 34, 7, 42, 41, 28, 26, 45, 33, 4, 0, 0, 1, 6, 47, 24, 0, 15, 8, 2, 12
|45, 0, 0, 6, 14, 0, 0, 43, 15, 17, 12, 4, 0, 26, 0, 41, 49, 44, 42, 33, 24, 32, 0, 39, 29, 0, 3, 16, 0, 2, 10, 5, 23, 22, 8, 48, 34, 9, 0, 25, 40, 0, 31, 0, 7, 27, 1, 11, 0
|9, 18, 27, 36, 48, 47, 7, 16, 10, 0, 0, 28, 31, 0, 4, 0, 23, 0, 26, 46, 0, 0, 42, 44, 30, 5, 49, 0, 37, 33, 38, 1, 0, 3, 43, 0, 8, 32, 35, 24, 41, 39, 13, 0, 17, 0, 20, 6, 34
|0, 4, 26, 23, 24, 29, 0, 36, 0, 38, 2, 19, 8, 0, 0, 18, 20, 0, 11, 17, 1, 0, 13, 15, 40, 28, 0, 9, 44, 0, 0, 46, 0, 0, 21, 0, 0, 0, 27, 0, 37, 42, 35, 5, 30, 0, 0, 43, 14
|5, 11, 21, 40, 33, 16, 31, 0, 0, 9, 32, 34, 24, 0, 37, 2, 0, 0, 30, 7, 0, 0, 36, 12, 0, 1, 8, 41, 27, 4, 0, 17, 20, 18, 19, 15, 43, 10, 26, 22, 46, 3, 0, 0, 45, 0, 42, 39, 0
|22, 0, 1, 25, 0, 0, 28, 3, 27, 42, 7, 37, 45, 6, 21, 32, 0, 0, 13, 29, 10, 0, 31, 0, 0, 19, 14, 43, 0, 47, 15, 0, 9, 49, 24, 0, 5, 20, 0, 0, 0, 44, 48, 23, 40, 38, 18, 41, 46
|8, 32, 38, 12, 31, 33, 46, 10, 13, 3, 29, 0, 1, 45, 0, 0, 24, 42, 25, 14, 19, 28, 21, 0, 2, 0, 39, 0, 9, 0, 26, 40, 4, 0, 17, 41, 22, 16, 0, 7, 0, 0, 34, 35, 0, 11, 0, 18, 5
|13, 24, 29, 1, 34, 0, 40, 0, 35, 0, 16, 30, 36, 12, 22, 0, 0, 43, 0, 0, 28, 19, 0, 7, 0, 0, 0, 0, 15, 27, 45, 39, 8, 20, 49, 6, 18, 46, 31, 32, 25, 26, 0, 47, 0, 2, 41, 0, 0
|17, 49, 22, 0, 27, 19, 5, 8, 25, 6, 41, 0, 0, 0, 15, 11, 29, 0, 33, 0, 0, 16, 12, 34, 26, 0, 0, 35, 47, 18, 23, 31, 43, 7, 0, 42, 0, 3, 21, 28, 36, 0, 40, 48, 0, 9, 39, 24, 45
|11, 0, 0, 15, 45, 42, 10, 0, 0, 7, 0, 2, 0, 48, 47, 26, 0, 0, 49, 21, 30, 0, 32, 0, 20, 0, 18, 0, 6, 38, 14, 22, 24, 5, 0, 8, 0, 0, 4, 0, 9, 0, 12, 0, 0, 1, 44, 16, 0
|7, 0, 0, 0, 21, 37, 0, 39, 24, 0, 5, 11, 0, 19, 0, 0, 0, 17, 0, 0, 31, 9, 27, 8, 49, 48, 0, 6, 10, 32, 1, 29, 0, 30, 3, 47, 2, 0, 34, 44, 0, 33, 36, 46, 13, 26, 0, 23, 20
|6, 0, 0, 0, 18, 44, 36, 0, 37, 0, 15, 33, 42, 43, 2, 27, 0, 0, 34, 40, 16, 4, 10, 41, 24, 45, 0, 31, 11, 28, 21, 0, 25, 0, 0, 38, 12, 1, 17, 0, 0, 0, 14, 8, 29, 0, 3, 19, 7
|4, 23, 0, 48, 3, 2, 9, 0, 0, 28, 38, 0, 26, 18, 0, 0, 0, 46, 5, 32, 0, 44, 0, 0, 13, 0, 1, 0, 41, 12, 33, 36, 19, 34, 0, 27, 24, 45, 43, 40, 11, 15, 21, 37, 25, 0, 30, 10, 31
|0, 46, 12, 9, 16, 0, 0, 0, 0, 0, 43, 0, 35, 5, 32, 1, 45, 26, 0, 0, 39, 14, 19, 25, 18, 0, 41, 3, 13, 0, 49, 0, 31, 29, 15, 2, 28, 34, 30, 0, 6, 21, 8, 11, 48, 0, 47, 0, 38
|0, 29, 0, 0, 0, 39, 0, 18, 23, 0, 13, 0, 0, 40, 42, 0, 0, 11, 0, 16, 3, 0, 8, 30, 28, 0, 36, 12, 0, 43, 4, 0, 7, 0, 10, 44, 49, 35, 0, 17, 32, 37, 27, 0, 0, 41, 15, 45, 19
|32, 28, 31, 19, 0, 0, 21, 26, 45, 49, 48, 24, 38, 0, 0, 30, 22, 18, 20, 0, 17, 0, 9, 10, 44, 15, 0, 7, 3, 1, 34, 14, 2, 0, 0, 16, 0, 41, 47, 0, 4, 0, 43, 36, 0, 0, 33, 29, 23
|0, 0, 11, 34, 13, 26, 17, 0, 4, 31, 0, 3, 19, 8, 0, 33, 0, 0, 10, 0, 25, 5, 0, 47, 35, 2, 0, 45, 0, 0, 41, 48, 16, 36, 0, 7, 0, 38, 0, 18, 42, 43, 9, 0, 39, 0, 6, 0, 21
|1, 2, 0, 43, 15, 0, 33, 0, 12, 16, 42, 25, 0, 0, 48, 21, 0, 4, 41, 38, 0, 0, 17, 49, 6, 26, 34, 23, 45, 22, 9, 0, 0, 35, 47, 10, 40, 31, 39, 0, 0, 0, 18, 20, 0, 28, 0, 46, 3
|0, 0, 7, 0, 38, 30, 0, 44, 11, 0, 1, 39, 6, 0, 14, 0, 0, 35, 0, 27, 36, 43, 33, 29, 21, 16, 40, 0, 12, 19, 17, 18, 46, 42, 0, 3, 0, 0, 0, 0, 15, 0, 2, 0, 24, 31, 34, 49, 32
|18, 40, 49, 0, 44, 3, 8, 0, 36, 15, 28, 0, 0, 9, 0, 34, 12, 31, 2, 0, 0, 27, 20, 22, 1, 39, 42, 32, 38, 5, 37, 33, 26, 21, 0, 23, 29, 48, 24, 0, 45, 0, 16, 7, 4, 14, 13, 25, 35
|40, 0, 10, 3, 29, 0, 0, 38, 0, 27, 26, 18, 21, 0, 0, 43, 11, 6, 0, 0, 23, 20, 49, 1, 0, 30, 45, 0, 32, 46, 0, 12, 33, 24, 0, 13, 0, 0, 0, 42, 34, 0, 37, 16, 47, 0, 0, 31, 0
|0, 0, 37, 5, 0, 48, 0, 2, 43, 39, 33, 0, 16, 28, 0, 15, 40, 47, 44, 0, 0, 31, 11, 32, 25, 14, 21, 38, 8, 29, 18, 19, 0, 9, 4, 1, 0, 0, 20, 6, 27, 30, 23, 0, 10, 12, 35, 13, 41
|39, 15, 4, 0, 30, 0, 49, 0, 31, 0, 20, 17, 0, 37, 0, 38, 8, 32, 45, 2, 0, 47, 0, 28, 46, 18, 0, 44, 16, 42, 0, 0, 14, 11, 41, 0, 10, 24, 0, 33, 0, 22, 0, 6, 43, 34, 40, 9, 0
|0, 16, 0, 11, 0, 0, 19, 40, 6, 0, 45, 0, 0, 0, 33, 0, 4, 36, 1, 39, 0, 0, 23, 0, 27, 0, 26, 22, 2, 21, 28, 35, 30, 10, 48, 43, 25, 0, 15, 0, 0, 18, 49, 32, 3, 0, 5, 20, 0
|31, 0, 0, 38, 32, 21, 0, 24, 7, 0, 0, 41, 0, 11, 0, 14, 18, 19, 0, 0, 46, 0, 0, 0, 36, 0, 0, 17, 34, 39, 0, 47, 0, 15, 1, 0, 0, 28, 29, 45, 44, 2, 0, 0, 0, 4, 48, 0, 27
|33, 20, 0, 44, 47, 45, 26, 22, 1, 14, 36, 15, 0, 3, 10, 28, 30, 21, 37, 12, 9, 41, 6, 4, 48, 34, 0, 29, 0, 49, 27, 0, 13, 43, 40, 5, 46, 39, 16, 8, 17, 0, 0, 42, 0, 18, 2, 7, 0
|2, 1, 8, 0, 42, 18, 12, 0, 49, 0, 19, 32, 44, 0, 35, 0, 27, 24, 0, 34, 0, 33, 7, 0, 39, 40, 43, 0, 0, 36, 20, 45, 0, 0, 0, 4, 0, 47, 0, 0, 26, 0, 38, 28, 0, 21, 29, 15, 0
|35, 21, 0, 0, 39, 20, 3, 11, 0, 30, 47, 48, 7, 17, 18, 24, 33, 1, 9, 10, 0, 49, 0, 0, 12, 44, 0, 28, 46, 0, 43, 0, 38, 27, 42, 0, 16, 0, 6, 34, 29, 0, 45, 4, 41, 37, 0, 5, 36
|38, 31, 18, 0, 41, 46, 0, 49, 16, 19, 0, 43, 37, 29, 45, 6, 39, 13, 7, 0, 11, 0, 47, 35, 0, 27, 2, 1, 4, 0, 0, 28, 36, 0, 5, 25, 0, 0, 10, 30, 20, 14, 0, 40, 0, 0, 23, 0, 15
|0, 44, 13, 16, 0, 23, 4, 1, 9, 0, 46, 36, 15, 0, 0, 5, 0, 30, 27, 0, 40, 11, 22, 38, 7, 6, 17, 34, 0, 0, 32, 49, 39, 0, 45, 21, 26, 33, 12, 41, 3, 47, 10, 19, 20, 8, 0, 35, 48
|0, 0, 33, 17, 0, 27, 0, 6, 41, 22, 40, 31, 28, 42, 38, 37, 44, 14, 32, 3, 21, 8, 30, 0, 0, 0, 20, 24, 26, 25, 35, 10, 0, 0, 0, 19, 36, 2, 1, 0, 18, 4, 0, 39, 49, 7, 43, 47, 0
|0, 14, 2, 7, 0, 9, 0, 12, 20, 0, 0, 35, 3, 39, 0, 4, 0, 25, 47, 41, 0, 0, 0, 18, 0, 0, 32, 0, 23, 0, 30, 15, 48, 19, 31, 0, 0, 13, 49, 43, 5, 45, 44, 27, 22, 0, 11, 0, 0
|0, 0, 0, 22, 0, 5, 6, 21, 32, 33, 0, 45, 0, 0, 36, 17, 0, 23, 12, 0, 2, 10, 41, 19, 14, 3, 46, 4, 0, 7, 29, 0, 0, 44, 18, 35, 38, 8, 48, 0, 0, 0, 0, 26, 31, 24, 9, 34, 16
|10, 30, 24, 0, 40, 36, 15, 4, 38, 23, 8, 44, 5, 34, 49, 48, 26, 0, 35, 0, 0, 39, 45, 16, 43, 0, 0, 37, 0, 0, 6, 41, 11, 47, 33, 31, 9, 0, 28, 46, 0, 27, 1, 14, 0, 13, 12, 3, 2
|24, 0, 0, 35, 17, 11, 42, 34, 48, 36, 0, 16, 39, 1, 30, 10, 25, 38, 21, 0, 45, 15, 0, 0, 32, 22, 0, 0, 0, 0, 12, 3, 0, 26, 13, 0, 0, 5, 0, 29, 0, 7, 0, 0, 0, 43, 46, 0, 49
|0, 0, 6, 0, 4, 15, 47, 42, 30, 20, 18, 27, 43, 0, 0, 8, 32, 0, 0, 37, 35, 0, 39, 21, 45, 10, 0, 33, 28, 0, 36, 9, 22, 14, 44, 0, 0, 40, 2, 3, 0, 49, 11, 25, 34, 5, 17, 0, 13
|26, 5, 30, 14, 28, 0, 38, 7, 0, 46, 49, 13, 41, 21, 0, 0, 34, 0, 0, 9, 0, 42, 4, 0, 31, 35, 44, 0, 33, 15, 0, 0, 45, 17, 20, 11, 47, 43, 32, 0, 0, 1, 0, 2, 37, 36, 16, 48, 40
|0, 0, 41, 0, 12, 40, 1, 25, 47, 11, 0, 38, 0, 15, 0, 19, 0, 28, 14, 22, 5, 0, 43, 0, 3, 13, 16, 8, 49, 24, 42, 4, 35, 2, 34, 46, 21, 0, 0, 20, 0, 0, 7, 18, 23, 10, 0, 30, 26
|0, 3, 48, 0, 2, 0, 20, 19, 0, 0, 17, 40, 9, 31, 13, 0, 0, 7, 0, 36, 33, 6, 28, 46, 34, 0, 0, 26, 43, 0, 39, 37, 10, 0, 27, 22, 44, 18, 25, 4, 0, 0, 29, 41, 12, 0, 0, 42, 0
|36, 19, 0, 49, 0, 8, 13, 37, 28, 0, 23, 14, 2, 0, 26, 0, 17, 27, 3, 20, 43, 25, 0, 5, 0, 0, 0, 18, 0, 0, 11, 21, 1, 31, 29, 33, 0, 0, 42, 48, 16, 12, 39, 9, 44, 32, 38, 22, 0
|0, 43, 16, 21, 9, 0, 18, 33, 26, 29, 0, 12, 22, 0, 11, 40, 42, 2, 4, 6, 0, 1, 38, 48, 17, 49, 37, 0, 0, 41, 46, 0, 5, 0, 23, 30, 39, 36, 45, 0, 13, 34, 20, 0, 27, 3, 24, 28, 0
|15, 35, 3, 0, 23, 34, 22, 41, 0, 24, 39, 8, 20, 0, 17, 0, 14, 0, 0, 0, 32, 0, 1, 6, 16, 21, 0, 27, 30, 9, 0, 43, 49, 45, 0, 0, 0, 0, 7, 19, 48, 36, 0, 29, 46, 42, 26, 44, 0
|21, 0, 45, 37, 0, 25, 39, 46, 19, 44, 3, 5, 48, 49, 0, 42, 0, 0, 36, 47, 0, 0, 0, 24, 8, 17, 29, 0, 7, 31, 16, 6, 28, 1, 22, 34, 41, 11, 40, 26, 10, 35, 32, 0, 2, 23, 4, 27, 0
|30, 48, 17, 0, 43, 0, 32, 15, 40, 0, 0, 9, 33, 36, 27, 0, 38, 10, 29, 11, 0, 0, 35, 2, 0, 41, 0, 49, 5, 26, 0, 23, 3, 39, 14, 0, 6, 21, 46, 1, 22, 28, 0, 34, 16, 0, 19, 0, 18
|0, 8, 0, 2, 26, 41, 27, 0, 0, 47, 0, 6, 13, 14, 0, 22, 21, 0, 28, 24, 37, 0, 25, 43, 10, 32, 5, 11, 0, 20, 19, 34, 18, 4, 38, 12, 45, 0, 0, 23, 33, 31, 3, 17, 1, 48, 0, 0, 0
|12, 38, 28, 24, 5, 7, 0, 32, 18, 43, 0, 26, 4, 0, 1, 0, 2, 34, 19, 45, 49, 0, 44, 3, 0, 36, 48, 39, 0, 0, 0, 25, 0, 41, 46, 0, 0, 42, 13, 27, 47, 0, 22, 33, 6, 20, 31, 8, 0
|44, 36, 0, 0, 6, 49, 0, 45, 42, 1, 34, 23, 10, 0, 0, 0, 0, 0, 16, 0, 0, 22, 0, 31, 19, 33, 0, 47, 48, 35, 24, 32, 27, 13, 0, 39, 3, 0, 38, 2, 43, 0, 15, 12, 28, 25, 14, 21, 9
|19, 47, 0, 0, 46, 1, 14, 28, 17, 25, 0, 0, 0, 27, 23, 0, 3, 5, 0, 4, 0, 34, 0, 20, 38, 0, 0, 15, 0, 10, 2, 44, 21, 33, 36, 18, 32, 30, 8, 49, 0, 0, 41, 0, 0, 45, 7, 0, 43|];