order = 7;
grid = [|0, 0, 34, 3, 0, 0, 0, 15, 8, 0, 31, 28, 0, 0, 2, 24, 47, 0, 13, 23, 0, 11, 14, 0, 21, 9, 45, 44, 0, 26, 0, 0, 25, 27, 0, 36, 19, 0, 18, 46, 39, 0, 30, 33, 16, 0, 43, 0, 32
|35, 0, 30, 9, 18, 32, 42, 49, 0, 11, 0, 12, 43, 36, 41, 44, 15, 38, 0, 0, 7, 27, 48, 0, 0, 0, 25, 3, 8, 10, 0, 47, 39, 6, 0, 22, 21, 0, 37, 5, 14, 28, 40, 24, 20, 0, 1, 34, 23
|13, 33, 12, 11, 24, 8, 5, 32, 18, 0, 44, 27, 0, 42, 0, 0, 10, 25, 1, 16, 0, 37, 39, 0, 0, 17, 19, 0, 29, 23, 15, 9, 0, 0, 46, 49, 43, 30, 3, 20, 2, 0, 26, 7, 6, 0, 28, 14, 47
|0, 38, 0, 2, 0, 6, 26, 16, 0, 0, 0, 33, 7, 37, 3, 0, 30, 27, 43, 0, 8, 0, 0, 0, 0, 15, 0, 49, 0, 36, 22, 17, 21, 31, 12, 24, 25, 47, 0, 0, 0, 13, 41, 9, 0, 46, 18, 44, 0
|20, 23, 0, 27, 0, 28, 15, 0, 13, 0, 0, 3, 19, 46, 11, 34, 49, 31, 5, 18, 35, 32, 47, 12, 24, 22, 43, 0, 37, 0, 33, 0, 16, 14, 0, 8, 0, 0, 7, 41, 9, 0, 38, 0, 21, 17, 4, 29, 48
|0, 0, 0, 44, 25, 21, 45, 47, 0, 48, 5, 9, 0, 0, 19, 22, 0, 40, 12, 20, 0, 30, 33, 0, 28, 7, 34, 0, 0, 0, 32, 0, 43, 0, 41, 26, 11, 0, 27, 4, 0, 1, 36, 0, 13, 37, 0, 2, 0
|0, 40, 46, 14, 0, 47, 0, 21, 0, 2, 30, 34, 38, 4, 0, 26, 37, 17, 45, 6, 9, 1, 0, 0, 0, 10, 0, 36, 7, 20, 28, 13, 24, 11, 19, 33, 44, 29, 12, 0, 0, 23, 25, 27, 42, 0, 31, 0, 3
|14, 0, 43, 0, 38, 4, 35, 18, 23, 45, 22, 30, 2, 3, 12, 48, 0, 32, 17, 28, 16, 0, 11, 29, 37, 8, 40, 0, 27, 6, 0, 49, 0, 20, 33, 13, 0, 0, 9, 24, 15, 46, 0, 42, 0, 36, 0, 0, 25
|0, 0, 3, 42, 0, 0, 2, 0, 39, 21, 14, 16, 28, 38, 18, 35, 4, 8, 0, 26, 11, 46, 44, 23, 19, 0, 0, 9, 36, 43, 30, 24, 5, 10, 0, 37, 0, 48, 0, 0, 45, 17, 13, 12, 0, 41, 29, 0, 40
|15, 31, 0, 17, 23, 0, 24, 0, 0, 0, 33, 11, 6, 9, 7, 29, 0, 43, 34, 10, 45, 0, 0, 39, 25, 4, 1, 0, 21, 46, 41, 37, 48, 2, 0, 14, 0, 19, 40, 0, 27, 32, 0, 0, 22, 18, 16, 30, 35
|41, 0, 13, 40, 33, 0, 25, 46, 34, 7, 8, 19, 47, 0, 1, 0, 0, 0, 0, 22, 36, 6, 3, 24, 17, 45, 26, 18, 31, 35, 9, 0, 32, 29, 42, 2, 0, 43, 16, 38, 28, 0, 0, 14, 0, 27, 48, 23, 10
|0, 5, 26, 19, 0, 11, 46, 0, 25, 0, 10, 29, 24, 0, 27, 30, 42, 6, 44, 3, 20, 28, 21, 33, 14, 0, 48, 35, 0, 17, 16, 40, 0, 15, 0, 34, 8, 41, 36, 0, 0, 7, 2, 45, 1, 39, 0, 49, 0
|0, 0, 9, 48, 36, 0, 0, 0, 5, 0, 41, 0, 1, 12, 0, 40, 0, 24, 0, 0, 0, 0, 13, 16, 30, 0, 0, 42, 14, 28, 7, 34, 22, 23, 0, 18, 35, 20, 0, 0, 10, 6, 15, 0, 26, 32, 44, 37, 19
|29, 37, 32, 28, 10, 0, 27, 0, 20, 49, 42, 0, 0, 0, 0, 2, 23, 0, 9, 0, 41, 22, 5, 0, 7, 0, 0, 31, 11, 0, 0, 39, 45, 18, 8, 0, 0, 1, 21, 12, 4, 0, 33, 0, 46, 3, 24, 17, 6
|0, 0, 5, 0, 6, 12, 44, 9, 1, 0, 7, 0, 17, 0, 42, 0, 48, 23, 25, 4, 29, 0, 15, 41, 46, 30, 0, 28, 43, 47, 10, 3, 40, 0, 0, 19, 0, 2, 24, 0, 21, 0, 0, 36, 33, 31, 0, 32, 45
|25, 42, 27, 32, 49, 24, 30, 0, 19, 0, 46, 0, 26, 0, 28, 0, 39, 0, 0, 9, 5, 36, 34, 0, 6, 40, 16, 13, 45, 37, 12, 33, 0, 44, 21, 41, 48, 0, 31, 18, 29, 0, 4, 0, 2, 7, 0, 0, 1
|17, 28, 45, 41, 37, 10, 1, 0, 48, 27, 0, 13, 0, 30, 0, 16, 0, 0, 2, 35, 18, 0, 24, 0, 0, 0, 22, 19, 0, 0, 0, 11, 6, 32, 36, 0, 46, 0, 0, 0, 42, 12, 39, 40, 0, 25, 47, 3, 26
|0, 21, 31, 34, 15, 13, 19, 12, 47, 0, 0, 38, 42, 0, 0, 0, 36, 3, 27, 0, 46, 43, 0, 0, 5, 14, 44, 37, 26, 48, 2, 8, 41, 9, 39, 0, 7, 4, 10, 49, 6, 0, 0, 29, 0, 20, 35, 0, 0
|9, 14, 39, 38, 35, 0, 43, 0, 10, 0, 34, 0, 0, 44, 26, 32, 45, 0, 19, 37, 12, 0, 42, 0, 33, 48, 11, 0, 30, 5, 0, 0, 0, 7, 22, 40, 0, 8, 47, 13, 20, 0, 27, 0, 49, 6, 46, 18, 17
|0, 20, 2, 33, 40, 36, 0, 39, 0, 0, 0, 22, 5, 0, 0, 13, 44, 30, 41, 0, 0, 0, 0, 0, 27, 18, 0, 45, 15, 49, 46, 0, 23, 17, 24, 3, 32, 37, 14, 1, 0, 35, 19, 0, 0, 0, 12, 38, 43
|48, 46, 0, 47, 0, 0, 11, 2, 45, 0, 32, 43, 14, 6, 24, 31, 0, 1, 22, 0, 34, 0, 38, 26, 29, 12, 10, 0, 13, 19, 20, 0, 0, 0, 0, 23, 0, 33, 39, 30, 25, 0, 0, 41, 15, 28, 42, 0, 37
|0, 19, 24, 20, 0, 43, 0, 8, 49, 0, 45, 0, 23, 0, 30, 27, 0, 28, 0, 13, 2, 3, 25, 15, 39, 29, 12, 22, 18, 0, 0, 5, 42, 47, 14, 6, 31, 46, 1, 17, 34, 4, 37, 0, 35, 11, 38, 0, 36
|26, 11, 41, 35, 42, 40, 10, 0, 0, 0, 1, 47, 33, 0, 0, 38, 0, 4, 0, 45, 6, 0, 0, 21, 0, 44, 36, 8, 20, 27, 37, 0, 0, 3, 0, 39, 0, 24, 28, 29, 43, 0, 0, 30, 19, 0, 2, 15, 0
|46, 0, 0, 15, 2, 38, 0, 0, 0, 0, 6, 35, 22, 27, 29, 37, 43, 48, 3, 0, 0, 18, 19, 30, 23, 0, 47, 41, 25, 8, 4, 21, 10, 0, 40, 0, 12, 45, 5, 14, 11, 49, 34, 39, 17, 0, 20, 7, 33
|45, 8, 37, 0, 17, 5, 36, 48, 30, 28, 43, 26, 39, 0, 10, 47, 19, 9, 23, 0, 0, 0, 0, 0, 11, 46, 31, 0, 49, 24, 38, 35, 34, 33, 44, 0, 2, 42, 41, 22, 0, 20, 32, 25, 3, 21, 27, 0, 29
|4, 13, 7, 39, 29, 0, 0, 42, 0, 15, 0, 0, 31, 19, 49, 25, 14, 0, 40, 1, 0, 20, 16, 32, 0, 33, 38, 27, 0, 22, 36, 0, 0, 41, 11, 9, 26, 3, 0, 0, 35, 10, 28, 0, 0, 0, 5, 24, 8
|12, 48, 18, 0, 0, 0, 31, 0, 46, 29, 0, 4, 20, 13, 35, 5, 0, 11, 8, 44, 24, 9, 45, 49, 43, 37, 42, 17, 28, 0, 39, 30, 2, 0, 0, 38, 40, 7, 23, 0, 36, 21, 16, 0, 41, 0, 0, 6, 22
|47, 49, 22, 0, 27, 25, 3, 0, 0, 18, 2, 0, 34, 11, 46, 41, 0, 39, 0, 36, 17, 0, 0, 28, 10, 5, 6, 24, 9, 45, 13, 29, 0, 1, 31, 15, 30, 0, 8, 19, 33, 37, 42, 48, 23, 43, 0, 4, 0
|19, 32, 23, 29, 0, 0, 33, 1, 0, 30, 47, 49, 15, 0, 0, 6, 0, 13, 10, 21, 28, 39, 12, 11, 0, 24, 0, 34, 48, 0, 43, 16, 18, 22, 17, 35, 37, 25, 26, 0, 0, 36, 3, 5, 0, 14, 7, 41, 4
|0, 34, 1, 49, 0, 0, 0, 0, 0, 46, 39, 0, 9, 2, 8, 15, 29, 0, 11, 0, 0, 33, 37, 0, 26, 19, 18, 43, 41, 14, 0, 0, 3, 30, 0, 47, 20, 32, 42, 21, 0, 0, 0, 0, 25, 0, 6, 28, 0
|30, 0, 10, 8, 39, 42, 0, 0, 33, 14, 28, 32, 3, 0, 37, 23, 16, 26, 0, 0, 25, 0, 6, 22, 0, 49, 0, 29, 0, 2, 34, 0, 0, 40, 20, 7, 9, 13, 0, 43, 31, 18, 12, 15, 36, 0, 21, 0, 27
|0, 0, 25, 0, 21, 2, 17, 0, 35, 0, 13, 45, 0, 43, 0, 14, 24, 5, 7, 34, 47, 31, 1, 0, 16, 3, 30, 20, 33, 15, 0, 19, 0, 8, 0, 48, 4, 22, 38, 0, 0, 0, 0, 32, 40, 0, 39, 11, 49
|11, 0, 4, 0, 46, 35, 6, 22, 7, 12, 0, 0, 18, 21, 0, 3, 41, 36, 0, 19, 30, 14, 9, 8, 0, 0, 28, 38, 0, 0, 0, 0, 37, 39, 26, 27, 0, 0, 44, 45, 49, 0, 17, 34, 29, 0, 0, 0, 2
|27, 3, 38, 16, 14, 37, 7, 31, 29, 0, 0, 48, 0, 0, 43, 18, 17, 33, 4, 32, 22, 45, 23, 0, 15, 0, 21, 25, 5, 13, 35, 0, 36, 49, 6, 0, 0, 39, 0, 34, 12, 0, 47, 0, 8, 0, 26, 0, 0
|24, 0, 40, 18, 45, 0, 48, 0, 41, 0, 27, 23, 0, 0, 31, 9, 0, 20, 0, 46, 0, 0, 2, 7, 4, 47, 0, 0, 12, 0, 29, 25, 38, 28, 32, 11, 17, 14, 15, 6, 0, 33, 43, 13, 37, 0, 22, 19, 0
|8, 4, 6, 13, 20, 7, 14, 35, 0, 37, 21, 0, 40, 33, 38, 49, 12, 22, 0, 2, 3, 26, 30, 0, 0, 36, 5, 39, 46, 41, 1, 31, 0, 0, 29, 0, 0, 0, 34, 0, 0, 48, 11, 17, 10, 9, 23, 47, 42
|34, 25, 44, 22, 0, 0, 12, 45, 0, 0, 17, 5, 10, 26, 4, 7, 0, 29, 0, 27, 0, 38, 49, 37, 9, 31, 3, 11, 16, 0, 0, 15, 0, 24, 0, 0, 0, 21, 0, 35, 0, 39, 0, 2, 28, 0, 36, 13, 0
|0, 35, 48, 46, 0, 18, 21, 3, 27, 19, 23, 14, 41, 16, 20, 0, 32, 0, 47, 0, 0, 29, 28, 0, 12, 25, 13, 6, 0, 7, 49, 26, 0, 0, 34, 45, 15, 0, 0, 2, 8, 5, 31, 37, 0, 33, 0, 22, 39
|32, 2, 49, 45, 5, 0, 0, 0, 42, 25, 38, 7, 30, 47, 14, 46, 35, 41, 6, 0, 43, 23, 0, 44, 0, 21, 4, 15, 10, 0, 11, 22, 20, 13, 0, 31, 18, 0, 33, 26, 37, 0, 29, 19, 0, 34, 3, 27, 16
|3, 26, 0, 30, 43, 31, 38, 0, 9, 36, 24, 0, 0, 34, 23, 21, 11, 0, 0, 5, 0, 16, 46, 2, 47, 32, 14, 33, 42, 0, 0, 6, 27, 45, 0, 10, 22, 12, 0, 25, 0, 0, 49, 18, 48, 8, 0, 0, 7
|42, 0, 28, 0, 16, 27, 41, 0, 0, 13, 0, 1, 12, 0, 34, 33, 25, 0, 31, 17, 19, 0, 18, 43, 8, 0, 24, 0, 47, 0, 21, 32, 0, 0, 5, 30, 6, 11, 46, 7, 23, 0, 45, 0, 38, 4, 15, 0, 14
|1, 24, 0, 37, 47, 0, 40, 11, 0, 43, 0, 0, 8, 39, 9, 0, 26, 0, 36, 30, 0, 34, 0, 19, 22, 42, 41, 7, 2, 0, 0, 0, 28, 4, 35, 0, 29, 27, 49, 16, 0, 0, 0, 6, 44, 12, 32, 25, 5
|49, 6, 0, 0, 30, 45, 9, 19, 3, 0, 29, 8, 13, 28, 36, 4, 27, 0, 21, 0, 0, 24, 10, 0, 44, 39, 20, 46, 32, 1, 17, 41, 0, 16, 0, 0, 0, 0, 0, 40, 7, 31, 23, 22, 5, 2, 37, 42, 34
|0, 27, 47, 5, 8, 46, 0, 4, 0, 38, 0, 24, 49, 0, 39, 12, 13, 35, 30, 40, 37, 15, 41, 0, 3, 16, 2, 23, 19, 0, 6, 7, 0, 21, 0, 20, 34, 0, 0, 0, 48, 0, 10, 1, 32, 29, 25, 0, 0
|37, 17, 0, 23, 3, 15, 29, 20, 0, 5, 16, 39, 32, 31, 25, 8, 9, 2, 24, 0, 44, 0, 27, 38, 40, 11, 7, 1, 22, 34, 18, 36, 49, 43, 45, 0, 10, 35, 6, 28, 30, 41, 48, 4, 14, 0, 19, 26, 13
|2, 7, 0, 0, 13, 0, 0, 0, 12, 34, 35, 42, 0, 0, 5, 17, 0, 0, 0, 47, 23, 0, 43, 25, 18, 26, 37, 32, 44, 3, 40, 38, 29, 46, 10, 21, 0, 49, 22, 9, 0, 8, 6, 31, 39, 15, 45, 36, 41
|38, 43, 42, 31, 0, 0, 16, 7, 11, 47, 9, 41, 0, 1, 0, 0, 34, 10, 0, 15, 32, 0, 22, 13, 35, 6, 17, 14, 0, 4, 0, 20, 0, 37, 28, 29, 27, 23, 0, 36, 0, 44, 46, 3, 12, 40, 30, 8, 18
|39, 12, 0, 36, 32, 48, 34, 10, 40, 0, 15, 0, 46, 18, 22, 1, 6, 0, 29, 0, 0, 49, 8, 0, 0, 28, 33, 0, 35, 0, 27, 0, 0, 5, 0, 0, 3, 38, 45, 37, 0, 0, 0, 16, 11, 44, 17, 43, 20
|40, 10, 0, 24, 28, 41, 0, 17, 0, 0, 0, 6, 0, 0, 33, 19, 3, 46, 20, 11, 31, 0, 4, 42, 36, 34, 29, 0, 23, 30, 8, 48, 15, 12, 2, 0, 1, 16, 32, 39, 0, 0, 7, 0, 27, 0, 49, 9, 21|];