order = 7;
grid = [|18, 37, 2, 40, 34, 0, 0, 41, 16, 0, 31, 0, 46, 12, 0, 47, 19, 0, 0, 14, 39, 20, 38, 4, 13, 0, 0, 0, 7, 15, 0, 25, 23, 0, 10, 0, 3, 29, 43, 0, 0, 35, 0, 0, 0, 48, 21, 32, 33
|0, 0, 4, 43, 0, 25, 0, 47, 32, 0, 0, 6, 35, 48, 42, 33, 27, 0, 9, 45, 0, 0, 37, 10, 1, 46, 26, 0, 21, 3, 30, 17, 24, 40, 5, 16, 0, 12, 38, 0, 14, 22, 36, 49, 8, 29, 2, 11, 19
|0, 41, 0, 45, 10, 47, 9, 33, 17, 0, 0, 14, 3, 44, 0, 24, 0, 0, 8, 6, 37, 0, 22, 29, 42, 16, 0, 12, 49, 13, 36, 1, 48, 32, 31, 25, 20, 28, 21, 19, 27, 46, 0, 15, 0, 35, 23, 30, 40
|27, 33, 46, 6, 38, 0, 14, 5, 15, 25, 39, 0, 0, 24, 31, 28, 10, 3, 4, 2, 22, 8, 9, 49, 44, 36, 0, 21, 35, 29, 34, 20, 0, 0, 0, 0, 30, 7, 37, 0, 17, 42, 41, 0, 47, 43, 0, 12, 1
|8, 0, 1, 5, 0, 29, 0, 7, 22, 23, 26, 9, 0, 0, 25, 21, 30, 35, 13, 16, 46, 0, 0, 28, 27, 40, 17, 0, 37, 42, 47, 44, 0, 12, 6, 33, 34, 41, 18, 15, 0, 32, 10, 0, 0, 14, 3, 24, 39
|30, 0, 19, 11, 35, 0, 28, 42, 8, 40, 2, 29, 21, 1, 48, 12, 15, 0, 0, 49, 0, 5, 0, 7, 45, 34, 14, 25, 0, 18, 16, 0, 41, 22, 0, 0, 47, 6, 0, 0, 26, 13, 4, 44, 0, 20, 31, 17, 37
|32, 42, 22, 12, 21, 16, 24, 0, 37, 43, 19, 10, 49, 34, 0, 0, 40, 26, 29, 17, 20, 15, 0, 39, 31, 48, 0, 3, 46, 9, 0, 0, 33, 0, 8, 23, 0, 11, 44, 45, 0, 36, 0, 5, 27, 0, 0, 7, 6
|49, 0, 0, 10, 37, 9, 20, 0, 43, 2, 42, 32, 29, 46, 12, 0, 38, 0, 0, 0, 0, 0, 0, 0, 11, 0, 8, 44, 24, 0, 39, 0, 0, 13, 30, 27, 1, 0, 0, 0, 18, 34, 0, 28, 23, 26, 17, 45, 0
|0, 31, 17, 7, 36, 48, 27, 0, 45, 1, 38, 23, 4, 0, 0, 25, 0, 0, 0, 5, 0, 46, 41, 24, 39, 0, 21, 0, 0, 32, 15, 16, 3, 0, 11, 0, 33, 0, 29, 0, 44, 30, 47, 8, 40, 49, 14, 10, 43
|22, 19, 0, 8, 26, 0, 0, 0, 48, 10, 0, 0, 5, 35, 7, 17, 0, 0, 1, 0, 4, 18, 0, 32, 36, 42, 12, 30, 38, 37, 6, 31, 40, 2, 0, 14, 9, 0, 3, 47, 11, 43, 16, 29, 41, 13, 25, 33, 44
|2, 0, 29, 33, 0, 39, 38, 15, 0, 0, 0, 20, 47, 30, 0, 44, 22, 24, 21, 13, 27, 0, 16, 31, 0, 10, 0, 4, 0, 0, 23, 0, 0, 48, 0, 32, 0, 35, 0, 0, 0, 45, 19, 18, 11, 0, 5, 0, 42
|43, 0, 44, 47, 40, 24, 18, 9, 34, 33, 41, 0, 36, 13, 11, 26, 0, 10, 3, 8, 0, 0, 20, 23, 7, 29, 38, 0, 14, 0, 42, 45, 5, 4, 1, 17, 12, 22, 19, 25, 16, 0, 15, 46, 0, 0, 0, 37, 0
|42, 0, 0, 0, 41, 4, 0, 0, 21, 0, 7, 22, 11, 0, 43, 0, 49, 29, 39, 32, 0, 0, 1, 33, 0, 35, 40, 45, 26, 0, 44, 10, 27, 19, 17, 0, 46, 0, 6, 24, 20, 15, 34, 30, 31, 9, 0, 36, 48
|6, 11, 30, 0, 0, 0, 5, 44, 12, 16, 0, 0, 0, 37, 46, 35, 33, 28, 45, 0, 47, 19, 2, 9, 17, 15, 48, 26, 18, 8, 0, 43, 34, 29, 0, 21, 39, 10, 42, 0, 0, 38, 0, 0, 24, 0, 0, 20, 22
|11, 13, 14, 3, 8, 1, 0, 24, 0, 12, 47, 7, 0, 28, 23, 0, 29, 0, 38, 0, 26, 0, 0, 0, 35, 21, 0, 6, 31, 25, 0, 0, 42, 5, 48, 15, 18, 17, 0, 20, 0, 39, 43, 27, 36, 16, 30, 0, 32
|26, 23, 0, 9, 7, 49, 43, 14, 25, 0, 0, 3, 0, 0, 0, 0, 6, 19, 22, 0, 0, 12, 0, 0, 46, 24, 16, 2, 0, 45, 35, 21, 18, 34, 44, 42, 0, 0, 47, 8, 29, 0, 28, 1, 15, 37, 4, 48, 38
|15, 48, 32, 0, 22, 41, 46, 26, 18, 45, 0, 43, 23, 0, 16, 0, 0, 13, 44, 9, 17, 0, 7, 0, 28, 0, 31, 8, 1, 6, 3, 37, 0, 11, 0, 19, 24, 30, 0, 38, 21, 49, 12, 0, 29, 47, 33, 25, 20
|47, 17, 25, 0, 24, 0, 34, 11, 20, 0, 0, 0, 0, 0, 28, 0, 21, 0, 41, 1, 0, 48, 0, 19, 30, 43, 29, 36, 40, 12, 38, 49, 26, 0, 0, 4, 0, 0, 35, 0, 9, 23, 42, 6, 13, 0, 0, 0, 0
|0, 27, 31, 30, 0, 35, 37, 34, 4, 19, 16, 44, 1, 39, 0, 32, 0, 36, 15, 20, 0, 0, 0, 22, 25, 0, 49, 38, 29, 0, 0, 14, 17, 41, 13, 0, 28, 0, 45, 26, 0, 0, 0, 21, 18, 40, 7, 0, 10
|0, 45, 33, 38, 16, 18, 0, 0, 36, 0, 6, 42, 0, 0, 30, 43, 0, 49, 0, 47, 2, 10, 0, 41, 0, 26, 15, 37, 22, 24, 19, 28, 20, 0, 23, 7, 25, 1, 0, 0, 32, 31, 3, 39, 0, 46, 44, 5, 0
|0, 29, 6, 4, 0, 10, 39, 0, 31, 0, 21, 38, 22, 49, 27, 46, 45, 42, 25, 18, 33, 0, 0, 34, 0, 5, 3, 20, 30, 0, 7, 0, 0, 8, 0, 43, 44, 40, 48, 37, 36, 2, 14, 24, 19, 0, 0, 26, 11
|0, 0, 47, 19, 0, 37, 30, 38, 0, 0, 12, 0, 0, 11, 49, 36, 26, 0, 2, 46, 21, 24, 0, 0, 0, 23, 0, 35, 34, 28, 8, 7, 0, 20, 9, 39, 22, 44, 1, 18, 10, 16, 0, 0, 0, 15, 0, 31, 45
|33, 10, 26, 20, 28, 0, 4, 0, 0, 47, 45, 0, 48, 2, 9, 23, 34, 0, 0, 0, 15, 0, 0, 0, 49, 0, 41, 19, 13, 44, 18, 0, 36, 0, 46, 11, 6, 0, 14, 3, 0, 0, 0, 22, 0, 24, 35, 21, 30
|12, 46, 36, 0, 45, 22, 6, 0, 13, 0, 33, 17, 28, 0, 8, 20, 47, 14, 7, 0, 32, 0, 26, 11, 9, 31, 30, 18, 0, 10, 21, 0, 29, 0, 25, 5, 0, 0, 2, 27, 0, 19, 48, 41, 49, 34, 39, 40, 0
|24, 0, 3, 1, 49, 31, 0, 39, 0, 32, 37, 15, 18, 4, 0, 0, 0, 22, 0, 0, 28, 38, 6, 13, 5, 25, 20, 0, 16, 0, 0, 30, 12, 0, 35, 46, 36, 21, 9, 29, 34, 0, 8, 26, 0, 23, 27, 19, 47
|29, 21, 34, 18, 43, 8, 0, 0, 19, 0, 20, 24, 27, 0, 0, 1, 48, 16, 5, 30, 13, 0, 0, 15, 47, 4, 0, 7, 0, 40, 41, 2, 6, 0, 22, 35, 0, 45, 26, 31, 25, 12, 0, 37, 33, 10, 0, 0, 0
|48, 15, 9, 44, 27, 38, 0, 0, 46, 34, 43, 35, 7, 0, 0, 29, 3, 41, 0, 0, 0, 32, 0, 0, 10, 2, 37, 0, 0, 0, 14, 26, 49, 0, 45, 30, 17, 4, 28, 13, 0, 0, 6, 0, 12, 0, 0, 1, 36
|0, 40, 16, 41, 0, 13, 32, 21, 26, 22, 0, 8, 0, 3, 4, 31, 0, 6, 0, 35, 43, 34, 0, 45, 12, 0, 28, 42, 0, 0, 24, 5, 38, 1, 15, 47, 7, 0, 49, 33, 0, 0, 20, 9, 0, 18, 29, 0, 46
|45, 8, 40, 29, 30, 34, 0, 37, 5, 39, 0, 1, 41, 7, 38, 10, 28, 47, 16, 31, 6, 0, 4, 0, 21, 20, 0, 11, 0, 19, 9, 0, 0, 15, 0, 18, 49, 0, 12, 0, 0, 27, 33, 48, 26, 0, 46, 13, 0
|31, 0, 35, 28, 0, 0, 10, 3, 33, 0, 44, 0, 19, 27, 40, 0, 0, 0, 30, 24, 11, 49, 5, 12, 0, 41, 45, 0, 20, 0, 0, 0, 47, 0, 18, 13, 0, 9, 16, 32, 2, 0, 0, 23, 0, 7, 15, 38, 25
|41, 0, 0, 21, 18, 0, 25, 32, 47, 0, 0, 16, 31, 42, 0, 49, 4, 2, 35, 44, 0, 0, 40, 38, 0, 0, 23, 27, 45, 1, 0, 34, 7, 10, 33, 24, 19, 8, 0, 48, 30, 26, 22, 36, 5, 39, 20, 9, 0
|0, 0, 24, 0, 9, 33, 0, 43, 0, 0, 35, 21, 12, 20, 0, 13, 7, 46, 34, 37, 25, 0, 30, 26, 19, 8, 10, 0, 0, 2, 29, 0, 28, 49, 14, 44, 41, 23, 39, 6, 0, 11, 31, 40, 16, 45, 0, 42, 18
|38, 0, 37, 27, 47, 0, 16, 28, 30, 49, 36, 0, 26, 0, 0, 5, 9, 0, 0, 22, 45, 35, 31, 0, 48, 33, 46, 39, 6, 11, 13, 40, 25, 0, 3, 1, 0, 14, 10, 7, 43, 0, 0, 4, 2, 41, 19, 0, 24
|20, 7, 49, 39, 13, 12, 48, 2, 10, 46, 11, 0, 25, 22, 0, 3, 36, 0, 23, 26, 19, 28, 0, 0, 32, 9, 24, 0, 0, 31, 17, 41, 16, 38, 4, 0, 0, 0, 0, 34, 0, 0, 0, 35, 30, 8, 0, 43, 27
|0, 0, 23, 22, 0, 43, 2, 6, 24, 9, 0, 4, 17, 40, 33, 0, 32, 18, 42, 27, 0, 13, 34, 0, 16, 7, 25, 0, 8, 0, 37, 35, 0, 30, 39, 31, 45, 38, 0, 0, 28, 0, 49, 11, 0, 3, 0, 29, 0
|25, 0, 0, 37, 31, 7, 47, 0, 35, 20, 0, 19, 24, 0, 32, 6, 0, 4, 11, 48, 1, 0, 0, 0, 0, 0, 13, 10, 28, 36, 26, 22, 0, 0, 12, 0, 40, 39, 15, 0, 49, 14, 21, 33, 42, 44, 8, 16, 0
|10, 39, 0, 15, 20, 30, 13, 0, 27, 14, 9, 48, 32, 0, 0, 16, 46, 12, 28, 23, 0, 42, 0, 1, 18, 19, 4, 34, 0, 38, 0, 11, 45, 0, 21, 3, 43, 26, 7, 17, 0, 47, 24, 31, 0, 2, 40, 6, 0
|0, 22, 45, 0, 5, 11, 0, 0, 0, 31, 49, 0, 38, 17, 26, 9, 0, 25, 0, 0, 24, 30, 0, 0, 37, 32, 0, 0, 15, 0, 27, 8, 14, 16, 40, 0, 0, 34, 0, 0, 19, 10, 23, 43, 0, 36, 12, 18, 3
|0, 34, 43, 46, 0, 19, 0, 0, 0, 13, 22, 0, 16, 0, 45, 41, 44, 0, 0, 29, 0, 31, 14, 0, 0, 12, 9, 48, 10, 0, 20, 47, 39, 0, 24, 36, 32, 42, 0, 30, 37, 18, 0, 17, 28, 0, 49, 27, 0
|23, 12, 28, 14, 33, 21, 35, 46, 0, 0, 34, 26, 10, 0, 3, 0, 42, 30, 31, 43, 38, 29, 0, 8, 0, 11, 0, 5, 0, 17, 2, 0, 19, 0, 49, 9, 0, 0, 0, 22, 45, 0, 7, 13, 0, 0, 48, 0, 4
|16, 24, 38, 48, 2, 26, 29, 18, 0, 42, 15, 11, 33, 25, 34, 39, 17, 20, 49, 7, 36, 0, 0, 3, 22, 45, 0, 0, 0, 0, 0, 13, 1, 46, 0, 28, 27, 31, 8, 12, 6, 0, 0, 0, 0, 19, 9, 35, 41
|36, 4, 0, 49, 32, 40, 0, 12, 0, 0, 28, 30, 6, 43, 13, 0, 0, 15, 10, 19, 0, 7, 24, 0, 0, 27, 2, 16, 9, 0, 48, 3, 31, 42, 29, 41, 21, 33, 23, 0, 38, 44, 46, 0, 25, 11, 22, 47, 0
|17, 47, 0, 26, 0, 45, 33, 22, 3, 18, 8, 0, 43, 0, 0, 30, 1, 23, 0, 25, 0, 4, 12, 16, 0, 0, 7, 9, 2, 49, 11, 19, 13, 21, 34, 0, 0, 0, 0, 42, 0, 28, 39, 32, 6, 27, 0, 0, 35
|21, 0, 48, 34, 29, 28, 40, 20, 9, 5, 27, 49, 44, 14, 0, 38, 0, 39, 6, 33, 7, 0, 15, 0, 2, 3, 0, 31, 42, 0, 0, 4, 0, 24, 36, 45, 23, 19, 17, 16, 12, 0, 1, 10, 43, 30, 0, 46, 8
|0, 30, 0, 16, 3, 27, 0, 0, 23, 21, 32, 46, 0, 38, 0, 0, 41, 45, 0, 40, 5, 6, 48, 14, 0, 13, 19, 33, 0, 0, 22, 29, 0, 25, 7, 34, 0, 0, 0, 44, 0, 0, 11, 12, 9, 31, 28, 4, 49
|9, 0, 0, 13, 0, 0, 41, 45, 11, 24, 0, 0, 0, 19, 29, 15, 16, 8, 0, 3, 49, 0, 10, 30, 34, 28, 5, 46, 48, 39, 0, 0, 43, 33, 27, 22, 35, 47, 32, 21, 0, 40, 18, 0, 17, 42, 36, 0, 0
|0, 6, 0, 25, 23, 0, 0, 0, 28, 7, 0, 36, 0, 26, 0, 0, 24, 31, 46, 4, 12, 21, 35, 20, 41, 18, 0, 0, 0, 0, 45, 15, 0, 9, 16, 49, 13, 0, 0, 43, 0, 3, 0, 47, 0, 0, 34, 0, 0
|0, 36, 10, 24, 39, 0, 0, 35, 42, 4, 48, 33, 13, 15, 21, 34, 14, 32, 0, 11, 0, 26, 43, 27, 40, 0, 47, 0, 17, 30, 31, 12, 46, 0, 38, 6, 0, 37, 5, 2, 8, 9, 45, 19, 0, 25, 16, 41, 0
|0, 0, 12, 0, 44, 0, 49, 0, 0, 0, 1, 0, 34, 41, 0, 22, 20, 17, 27, 28, 0, 45, 0, 36, 8, 39, 42, 0, 3, 5, 40, 23, 37, 0, 26, 38, 11, 46, 0, 10, 33, 7, 29, 2, 48, 21, 0, 15, 13|];