order = 7;
grid = [|0, 42, 4, 0, 5, 32, 38, 19, 0, 3, 36, 0, 44, 47, 0, 6, 35, 48, 0, 31, 24, 41, 40, 23, 8, 0, 17, 34, 27, 37, 0, 7, 28, 0, 0, 21, 0, 39, 2, 0, 20, 29, 15, 49, 25, 18, 30, 16, 13
|0, 13, 6, 41, 0, 0, 7, 9, 0, 25, 0, 11, 0, 0, 42, 23, 40, 27, 3, 0, 0, 12, 19, 0, 0, 24, 0, 22, 45, 0, 39, 43, 1, 0, 20, 0, 32, 16, 37, 48, 44, 28, 8, 0, 0, 0, 31, 38, 26
|46, 1, 20, 0, 24, 18, 0, 48, 0, 0, 0, 0, 0, 39, 0, 36, 38, 25, 43, 0, 0, 2, 13, 0, 0, 0, 0, 0, 0, 44, 41, 14, 32, 19, 47, 42, 17, 8, 26, 3, 0, 12, 23, 0, 34, 0, 45, 21, 7
|45, 0, 48, 0, 0, 30, 47, 33, 0, 32, 49, 21, 8, 0, 39, 13, 5, 4, 0, 19, 46, 44, 0, 7, 36, 15, 0, 11, 31, 0, 0, 0, 42, 26, 6, 9, 22, 0, 0, 40, 0, 34, 28, 0, 29, 3, 43, 0, 41
|29, 34, 39, 17, 0, 0, 11, 16, 0, 46, 0, 0, 42, 45, 44, 22, 0, 0, 14, 26, 7, 1, 18, 43, 48, 27, 5, 3, 0, 0, 25, 40, 0, 49, 0, 0, 10, 15, 0, 23, 0, 30, 12, 20, 36, 2, 9, 24, 32
|2, 0, 10, 15, 27, 22, 8, 14, 13, 0, 30, 0, 17, 0, 0, 41, 32, 45, 16, 0, 34, 20, 0, 0, 28, 0, 0, 42, 9, 0, 3, 0, 24, 0, 0, 0, 0, 19, 31, 0, 35, 0, 48, 0, 39, 44, 6, 0, 47
|28, 3, 44, 0, 26, 0, 14, 10, 0, 40, 43, 0, 0, 34, 1, 20, 0, 0, 49, 37, 21, 32, 47, 31, 6, 39, 45, 0, 23, 48, 29, 15, 4, 16, 0, 18, 36, 7, 0, 13, 0, 25, 0, 11, 35, 17, 0, 19, 0
|0, 4, 24, 0, 23, 43, 29, 40, 0, 0, 0, 49, 15, 0, 27, 2, 0, 0, 0, 39, 26, 9, 0, 0, 0, 17, 36, 0, 0, 20, 0, 34, 22, 38, 0, 47, 11, 46, 19, 28, 3, 14, 5, 31, 0, 0, 8, 44, 0
|21, 48, 13, 47, 41, 10, 12, 2, 0, 17, 0, 0, 27, 16, 9, 0, 31, 36, 0, 40, 0, 22, 35, 0, 0, 7, 0, 0, 0, 33, 11, 0, 6, 8, 43, 0, 5, 32, 38, 42, 24, 0, 14, 0, 1, 46, 34, 0, 0
|39, 0, 27, 8, 2, 38, 19, 24, 30, 0, 0, 29, 4, 0, 34, 0, 23, 0, 46, 20, 0, 25, 0, 1, 0, 47, 15, 43, 0, 0, 28, 41, 5, 10, 0, 44, 0, 26, 0, 0, 0, 0, 42, 45, 16, 33, 11, 0, 0
|0, 18, 37, 5, 0, 0, 25, 45, 0, 47, 8, 0, 48, 41, 28, 1, 16, 14, 21, 0, 0, 27, 0, 33, 46, 0, 4, 24, 49, 42, 0, 30, 23, 44, 7, 12, 9, 10, 13, 31, 34, 36, 39, 2, 38, 43, 0, 0, 3
|16, 32, 28, 22, 11, 0, 40, 0, 44, 26, 19, 0, 25, 31, 8, 0, 29, 47, 45, 10, 0, 6, 0, 37, 34, 14, 0, 0, 17, 1, 9, 24, 21, 18, 0, 48, 0, 35, 0, 0, 49, 43, 0, 0, 30, 36, 0, 7, 23
|33, 0, 1, 0, 0, 0, 34, 42, 10, 0, 14, 43, 0, 0, 38, 17, 0, 3, 5, 0, 11, 0, 32, 41, 39, 31, 19, 28, 13, 0, 2, 0, 0, 15, 0, 30, 6, 20, 22, 0, 0, 0, 35, 0, 0, 29, 0, 47, 18
|0, 36, 0, 14, 15, 31, 17, 13, 0, 34, 33, 5, 0, 0, 35, 44, 0, 22, 30, 24, 42, 26, 8, 0, 40, 0, 18, 2, 0, 12, 0, 47, 0, 37, 46, 1, 0, 41, 16, 0, 0, 39, 10, 4, 28, 48, 0, 0, 0
|0, 16, 0, 0, 0, 21, 27, 5, 0, 36, 35, 45, 0, 0, 40, 3, 0, 20, 11, 0, 0, 38, 0, 28, 42, 4, 25, 0, 7, 8, 49, 0, 13, 12, 0, 31, 30, 0, 34, 17, 14, 24, 46, 0, 6, 1, 0, 18, 15
|0, 20, 30, 36, 0, 12, 0, 7, 0, 24, 27, 3, 0, 18, 0, 19, 0, 13, 44, 0, 0, 0, 0, 46, 5, 11, 8, 40, 48, 15, 0, 0, 26, 21, 0, 39, 28, 38, 10, 0, 45, 0, 0, 17, 2, 0, 14, 0, 0
|44, 0, 17, 9, 45, 48, 0, 0, 46, 28, 0, 15, 14, 0, 26, 0, 0, 7, 0, 5, 0, 21, 49, 0, 1, 0, 0, 20, 43, 22, 0, 3, 37, 30, 25, 0, 16, 33, 47, 19, 0, 32, 38, 34, 23, 0, 42, 36, 24
|4, 26, 40, 33, 29, 0, 0, 8, 0, 10, 34, 47, 39, 1, 14, 24, 30, 16, 0, 21, 0, 31, 0, 3, 7, 23, 43, 37, 44, 17, 46, 20, 38, 45, 5, 0, 48, 42, 36, 6, 18, 9, 25, 35, 0, 28, 13, 0, 11
|0, 14, 8, 1, 0, 0, 42, 0, 17, 38, 16, 0, 0, 26, 0, 12, 0, 0, 0, 0, 28, 0, 24, 36, 15, 0, 39, 6, 0, 11, 47, 32, 19, 31, 41, 29, 0, 2, 0, 44, 27, 40, 0, 0, 22, 30, 3, 48, 43
|43, 38, 11, 24, 22, 0, 5, 30, 48, 0, 0, 37, 20, 2, 0, 46, 6, 0, 0, 0, 45, 0, 17, 29, 0, 0, 32, 12, 40, 23, 1, 28, 0, 0, 16, 0, 35, 25, 0, 0, 0, 3, 26, 39, 7, 47, 10, 0, 9
|10, 0, 3, 0, 6, 23, 0, 25, 21, 0, 42, 0, 43, 11, 32, 39, 17, 15, 41, 38, 8, 14, 22, 9, 33, 48, 0, 47, 0, 0, 34, 27, 36, 0, 0, 0, 13, 5, 7, 26, 1, 49, 0, 19, 44, 40, 20, 45, 16
|47, 37, 22, 0, 19, 25, 0, 0, 0, 9, 17, 35, 6, 13, 0, 29, 18, 30, 0, 14, 32, 0, 0, 40, 0, 42, 0, 8, 0, 39, 21, 12, 44, 0, 0, 5, 0, 0, 4, 0, 0, 0, 33, 43, 31, 0, 46, 0, 36
|0, 27, 16, 48, 44, 0, 36, 12, 38, 0, 47, 0, 23, 30, 2, 33, 0, 26, 1, 28, 39, 0, 3, 0, 18, 0, 10, 15, 0, 14, 37, 45, 40, 9, 4, 13, 49, 21, 43, 7, 31, 22, 17, 24, 0, 6, 0, 35, 0
|0, 24, 0, 0, 33, 0, 6, 41, 26, 0, 0, 7, 31, 37, 0, 8, 0, 40, 22, 45, 0, 4, 34, 48, 43, 25, 13, 30, 0, 36, 35, 29, 18, 42, 38, 32, 39, 0, 12, 15, 46, 2, 9, 44, 47, 10, 0, 3, 14
|3, 30, 0, 26, 0, 35, 18, 36, 43, 48, 0, 8, 45, 5, 17, 0, 20, 31, 0, 0, 23, 49, 29, 38, 0, 33, 0, 0, 2, 16, 0, 46, 15, 0, 27, 25, 47, 28, 44, 14, 0, 19, 1, 13, 41, 11, 21, 39, 22
|31, 2, 46, 32, 1, 14, 4, 0, 0, 39, 11, 34, 16, 25, 24, 43, 21, 0, 47, 36, 3, 0, 0, 26, 0, 5, 44, 45, 8, 6, 7, 49, 41, 13, 19, 0, 23, 9, 0, 33, 29, 0, 30, 38, 15, 20, 0, 0, 12
|41, 0, 42, 0, 8, 39, 0, 46, 49, 33, 0, 2, 0, 0, 37, 0, 15, 19, 0, 44, 0, 0, 14, 12, 16, 36, 0, 0, 11, 43, 0, 5, 25, 17, 22, 26, 40, 0, 30, 24, 10, 20, 0, 7, 4, 0, 29, 28, 48
|20, 7, 0, 13, 0, 5, 0, 0, 27, 0, 44, 0, 10, 14, 4, 11, 46, 49, 34, 0, 9, 39, 0, 0, 32, 0, 0, 0, 1, 47, 0, 23, 30, 0, 0, 17, 8, 18, 3, 36, 42, 6, 40, 26, 37, 45, 0, 2, 19
|26, 29, 23, 44, 13, 37, 49, 0, 25, 16, 45, 31, 38, 0, 0, 0, 4, 0, 0, 3, 20, 8, 0, 39, 22, 6, 0, 14, 33, 30, 12, 42, 7, 41, 0, 36, 24, 1, 18, 0, 0, 10, 27, 0, 21, 0, 35, 5, 0
|24, 19, 7, 38, 10, 42, 0, 0, 8, 27, 0, 20, 0, 46, 47, 30, 12, 37, 0, 0, 0, 5, 45, 11, 0, 0, 9, 0, 39, 0, 36, 0, 17, 4, 23, 14, 34, 44, 15, 25, 48, 0, 2, 32, 3, 41, 28, 43, 33
|0, 47, 18, 11, 32, 9, 48, 37, 0, 0, 23, 10, 3, 28, 41, 0, 0, 0, 0, 7, 36, 15, 0, 0, 26, 35, 1, 13, 6, 45, 20, 44, 31, 34, 0, 27, 29, 30, 0, 46, 43, 16, 0, 14, 0, 25, 0, 0, 38
|0, 0, 43, 0, 0, 0, 0, 11, 0, 13, 41, 36, 34, 24, 0, 14, 44, 1, 35, 48, 15, 28, 10, 0, 31, 12, 21, 32, 16, 19, 0, 0, 27, 0, 2, 7, 26, 23, 0, 47, 22, 38, 37, 0, 0, 42, 39, 0, 30
|0, 22, 0, 2, 30, 20, 45, 32, 0, 14, 5, 19, 26, 44, 11, 10, 0, 28, 0, 27, 17, 24, 0, 0, 38, 41, 37, 0, 46, 29, 48, 0, 43, 25, 1, 40, 3, 12, 0, 8, 21, 33, 7, 23, 18, 0, 4, 6, 31
|27, 41, 12, 39, 31, 34, 28, 21, 0, 30, 0, 18, 49, 42, 6, 16, 25, 8, 23, 0, 0, 43, 48, 2, 0, 0, 40, 0, 14, 32, 26, 37, 0, 0, 15, 0, 0, 4, 35, 0, 5, 0, 0, 0, 11, 13, 1, 10, 46
|1, 17, 36, 0, 14, 0, 16, 35, 39, 43, 15, 48, 12, 33, 46, 0, 0, 18, 40, 0, 29, 42, 23, 27, 20, 30, 7, 25, 38, 0, 24, 11, 0, 5, 21, 0, 37, 13, 0, 32, 6, 41, 44, 0, 0, 26, 22, 34, 45
|14, 28, 26, 6, 0, 46, 39, 15, 3, 8, 0, 0, 29, 0, 0, 34, 13, 35, 0, 0, 43, 48, 5, 0, 45, 37, 23, 0, 12, 4, 30, 0, 20, 1, 32, 10, 44, 47, 24, 0, 33, 0, 36, 0, 42, 7, 38, 40, 0
|12, 9, 41, 34, 38, 0, 0, 26, 7, 5, 32, 4, 0, 0, 0, 40, 0, 46, 0, 30, 33, 29, 15, 42, 21, 0, 49, 31, 10, 0, 0, 6, 0, 47, 0, 16, 18, 3, 25, 20, 0, 48, 13, 8, 45, 24, 0, 1, 35
|13, 45, 25, 0, 35, 0, 0, 18, 0, 12, 0, 0, 46, 48, 23, 47, 0, 29, 42, 2, 10, 36, 39, 32, 27, 28, 0, 26, 22, 7, 0, 0, 11, 0, 0, 0, 31, 37, 17, 5, 30, 8, 6, 0, 43, 9, 0, 33, 34
|23, 21, 0, 20, 0, 8, 0, 17, 14, 45, 37, 44, 0, 49, 0, 15, 0, 39, 32, 4, 0, 11, 0, 0, 0, 34, 33, 9, 28, 35, 16, 18, 0, 43, 24, 0, 0, 0, 41, 1, 0, 26, 47, 10, 0, 12, 2, 30, 0
|30, 0, 0, 0, 43, 2, 24, 0, 0, 6, 28, 9, 0, 22, 25, 0, 26, 0, 38, 8, 44, 40, 1, 20, 0, 19, 0, 16, 0, 5, 15, 48, 0, 29, 0, 34, 4, 14, 45, 0, 36, 13, 0, 18, 46, 0, 0, 0, 39
|48, 5, 33, 0, 18, 17, 0, 39, 0, 21, 10, 1, 13, 38, 0, 0, 0, 6, 0, 0, 41, 30, 44, 14, 3, 43, 47, 46, 42, 0, 0, 0, 45, 40, 0, 15, 2, 0, 23, 12, 0, 0, 11, 22, 0, 0, 49, 4, 27
|40, 15, 19, 0, 0, 47, 44, 23, 33, 41, 25, 30, 11, 35, 49, 37, 45, 12, 48, 0, 18, 10, 6, 24, 17, 8, 22, 4, 3, 9, 13, 38, 0, 0, 34, 43, 0, 27, 0, 0, 32, 46, 0, 28, 14, 31, 0, 0, 5
|22, 46, 21, 37, 0, 45, 0, 0, 36, 0, 39, 0, 30, 12, 7, 0, 0, 5, 6, 0, 0, 3, 43, 8, 14, 40, 42, 10, 18, 41, 38, 31, 29, 27, 9, 24, 0, 17, 11, 35, 0, 44, 0, 16, 0, 32, 47, 15, 1
|0, 0, 5, 31, 0, 41, 26, 34, 0, 0, 48, 0, 0, 0, 3, 9, 33, 0, 37, 23, 0, 19, 38, 0, 12, 1, 46, 21, 47, 24, 4, 2, 10, 7, 45, 28, 20, 49, 14, 16, 39, 0, 0, 30, 0, 22, 36, 13, 44
|34, 12, 9, 0, 0, 44, 0, 1, 16, 11, 22, 13, 32, 7, 30, 45, 0, 38, 19, 0, 25, 33, 0, 5, 24, 0, 28, 0, 15, 21, 14, 17, 0, 6, 42, 23, 43, 36, 0, 41, 2, 47, 49, 0, 26, 0, 48, 31, 0
|0, 0, 14, 18, 0, 6, 2, 43, 41, 20, 9, 42, 0, 0, 22, 27, 36, 17, 0, 47, 4, 35, 16, 34, 11, 44, 31, 29, 30, 3, 19, 0, 49, 0, 0, 46, 0, 40, 32, 0, 0, 21, 45, 0, 0, 23, 0, 0, 0
|38, 8, 15, 0, 48, 0, 30, 0, 2, 31, 0, 0, 0, 19, 29, 0, 1, 24, 20, 41, 16, 13, 0, 45, 0, 32, 0, 36, 37, 0, 0, 0, 0, 23, 44, 6, 0, 0, 9, 0, 25, 18, 0, 42, 17, 39, 0, 11, 21
|19, 0, 0, 49, 16, 24, 13, 44, 45, 4, 21, 0, 5, 29, 31, 35, 11, 42, 28, 32, 14, 37, 30, 6, 0, 22, 0, 0, 25, 40, 43, 26, 0, 20, 36, 8, 27, 0, 1, 34, 7, 15, 18, 3, 9, 38, 0, 46, 10
|0, 43, 0, 42, 0, 1, 0, 27, 47, 37, 26, 38, 0, 23, 13, 21, 10, 44, 8, 18, 12, 0, 0, 0, 0, 49, 48, 17, 35, 46, 0, 22, 16, 39, 0, 0, 0, 31, 0, 0, 4, 0, 34, 6, 0, 14, 40, 25, 2|];