order = 7;
grid = [|15, 2, 13, 12, 19, 28, 36, 1, 0, 0, 46, 39, 0, 11, 43, 0, 20, 17, 3, 0, 35, 16, 33, 34, 49, 32, 29, 0, 7, 5, 40, 0, 42, 0, 14, 48, 30, 23, 4, 27, 9, 0, 26, 37, 21, 0, 25, 22, 8
|0, 0, 26, 24, 14, 10, 43, 40, 20, 23, 0, 0, 13, 6, 4, 45, 2, 9, 0, 27, 0, 0, 17, 3, 31, 35, 5, 0, 12, 46, 15, 28, 36, 44, 37, 8, 0, 0, 25, 49, 11, 33, 0, 29, 30, 39, 0, 19, 47
|48, 38, 1, 41, 0, 0, 5, 0, 0, 7, 31, 0, 10, 43, 0, 32, 0, 36, 12, 0, 15, 30, 18, 21, 20, 0, 13, 25, 0, 0, 34, 19, 17, 4, 0, 0, 0, 29, 39, 0, 46, 0, 27, 40, 49, 33, 24, 42, 3
|30, 45, 0, 0, 18, 0, 33, 27, 5, 48, 2, 38, 0, 36, 8, 0, 44, 0, 40, 49, 19, 6, 26, 9, 0, 0, 28, 7, 25, 39, 31, 0, 41, 47, 21, 0, 0, 0, 42, 16, 15, 32, 23, 0, 4, 0, 43, 12, 13
|39, 4, 44, 27, 3, 0, 23, 0, 0, 0, 45, 30, 9, 0, 34, 41, 42, 13, 48, 21, 29, 0, 24, 11, 2, 10, 0, 12, 0, 0, 18, 1, 43, 0, 16, 37, 5, 47, 6, 17, 40, 36, 7, 0, 0, 38, 15, 0, 31
|32, 6, 8, 29, 49, 21, 0, 44, 17, 24, 42, 0, 15, 16, 25, 0, 0, 23, 26, 46, 38, 0, 40, 1, 48, 39, 4, 43, 22, 11, 13, 30, 27, 0, 35, 19, 7, 12, 31, 28, 0, 34, 0, 0, 0, 0, 9, 10, 45
|35, 47, 0, 40, 25, 31, 7, 33, 4, 49, 8, 12, 0, 34, 37, 0, 0, 30, 0, 0, 0, 19, 0, 15, 0, 46, 44, 0, 0, 20, 45, 23, 0, 9, 10, 1, 41, 0, 21, 0, 43, 0, 17, 0, 0, 16, 2, 6, 0
|44, 49, 12, 6, 42, 33, 24, 26, 45, 39, 19, 0, 23, 41, 0, 47, 36, 5, 46, 0, 8, 1, 2, 18, 28, 16, 31, 11, 43, 48, 27, 0, 35, 37, 25, 21, 15, 9, 17, 0, 4, 40, 0, 22, 10, 13, 3, 29, 0
|10, 9, 11, 30, 0, 29, 26, 42, 0, 0, 0, 0, 47, 0, 31, 6, 0, 33, 0, 23, 0, 35, 0, 37, 34, 36, 21, 17, 2, 15, 0, 3, 0, 22, 0, 13, 1, 7, 24, 19, 12, 48, 14, 45, 0, 0, 0, 5, 40
|31, 0, 2, 0, 0, 20, 0, 0, 0, 13, 9, 40, 25, 7, 0, 0, 12, 48, 42, 32, 10, 43, 3, 47, 0, 5, 0, 29, 0, 21, 41, 6, 46, 0, 4, 34, 28, 45, 0, 33, 26, 0, 39, 16, 19, 0, 8, 30, 0
|0, 34, 38, 0, 0, 41, 47, 4, 0, 0, 11, 20, 0, 5, 45, 15, 0, 28, 22, 29, 3, 32, 14, 0, 13, 48, 40, 19, 16, 26, 1, 0, 49, 12, 0, 0, 25, 27, 36, 6, 0, 42, 21, 33, 46, 0, 23, 43, 24
|19, 40, 46, 0, 36, 32, 27, 0, 12, 3, 0, 0, 21, 0, 1, 0, 11, 0, 30, 24, 0, 33, 45, 0, 0, 4, 26, 15, 34, 0, 28, 0, 39, 0, 0, 47, 43, 41, 44, 8, 38, 0, 20, 9, 0, 25, 6, 0, 0
|13, 16, 0, 25, 45, 37, 0, 48, 8, 1, 28, 0, 0, 35, 9, 0, 0, 7, 0, 19, 44, 39, 0, 24, 46, 42, 0, 27, 11, 0, 10, 0, 0, 33, 32, 0, 23, 5, 49, 14, 22, 31, 34, 12, 26, 47, 0, 17, 0
|7, 43, 23, 28, 39, 5, 0, 49, 33, 0, 14, 0, 6, 0, 21, 17, 0, 18, 13, 0, 34, 41, 44, 8, 12, 9, 30, 22, 40, 29, 36, 0, 24, 19, 47, 46, 0, 10, 16, 0, 0, 3, 0, 31, 35, 1, 0, 11, 4
|0, 27, 0, 21, 43, 0, 12, 7, 2, 14, 37, 8, 22, 9, 13, 26, 0, 10, 18, 0, 40, 0, 4, 0, 0, 25, 17, 0, 1, 34, 47, 49, 11, 0, 29, 33, 0, 0, 30, 35, 0, 5, 42, 0, 0, 6, 38, 24, 0
|29, 33, 0, 4, 9, 0, 0, 36, 13, 32, 39, 0, 19, 38, 35, 11, 22, 0, 0, 0, 0, 0, 47, 30, 24, 14, 15, 20, 42, 6, 2, 16, 5, 28, 0, 23, 0, 25, 1, 43, 7, 21, 49, 26, 31, 40, 27, 34, 46
|47, 28, 0, 36, 0, 39, 40, 5, 30, 0, 29, 0, 0, 12, 0, 25, 23, 0, 0, 0, 0, 10, 0, 19, 26, 8, 0, 0, 0, 41, 43, 4, 33, 7, 38, 22, 13, 37, 45, 42, 49, 0, 3, 44, 1, 0, 11, 2, 32
|5, 0, 18, 1, 0, 13, 0, 0, 46, 0, 0, 42, 0, 0, 2, 29, 0, 8, 21, 4, 0, 11, 16, 38, 6, 49, 0, 0, 17, 40, 39, 0, 10, 26, 30, 0, 44, 36, 0, 31, 27, 20, 0, 47, 33, 22, 37, 7, 0
|20, 0, 49, 2, 31, 22, 3, 0, 0, 40, 23, 16, 0, 24, 36, 7, 19, 0, 33, 9, 46, 18, 29, 0, 42, 21, 27, 39, 44, 37, 12, 0, 0, 45, 48, 38, 0, 0, 47, 34, 6, 4, 43, 0, 17, 5, 10, 14, 28
|38, 24, 7, 42, 0, 6, 19, 11, 1, 0, 0, 47, 0, 31, 49, 5, 27, 20, 45, 44, 30, 0, 34, 23, 41, 12, 0, 13, 0, 14, 0, 0, 22, 15, 3, 17, 0, 39, 40, 26, 32, 46, 16, 48, 0, 4, 18, 8, 29
|34, 44, 17, 11, 26, 0, 14, 0, 21, 0, 49, 0, 3, 4, 38, 0, 32, 0, 47, 0, 42, 5, 22, 28, 0, 1, 7, 40, 46, 27, 19, 0, 0, 36, 0, 0, 10, 8, 2, 48, 24, 29, 35, 13, 9, 0, 0, 0, 25
|1, 32, 34, 0, 30, 0, 44, 45, 41, 0, 0, 0, 37, 0, 14, 8, 46, 31, 10, 16, 23, 28, 12, 0, 0, 0, 24, 3, 0, 25, 49, 20, 6, 11, 0, 2, 0, 35, 0, 5, 48, 0, 18, 4, 13, 0, 26, 0, 0
|11, 22, 31, 9, 8, 47, 6, 32, 49, 0, 0, 1, 42, 0, 0, 19, 0, 26, 27, 7, 0, 20, 30, 4, 0, 0, 0, 0, 10, 45, 29, 40, 0, 43, 0, 0, 46, 44, 0, 3, 37, 0, 0, 17, 39, 0, 0, 15, 2
|0, 48, 36, 16, 0, 0, 0, 2, 0, 11, 25, 35, 24, 8, 41, 44, 0, 0, 0, 18, 0, 0, 42, 29, 27, 0, 0, 10, 15, 0, 0, 22, 47, 5, 33, 30, 12, 40, 32, 0, 23, 14, 45, 34, 6, 19, 31, 49, 0
|21, 18, 39, 20, 24, 23, 0, 46, 28, 0, 44, 15, 0, 0, 22, 0, 45, 42, 29, 33, 17, 31, 19, 13, 0, 0, 0, 8, 32, 0, 0, 0, 12, 41, 27, 0, 0, 0, 34, 36, 0, 0, 30, 5, 14, 48, 35, 0, 0
|49, 13, 0, 45, 12, 38, 29, 30, 0, 47, 20, 0, 48, 21, 15, 3, 1, 43, 37, 11, 5, 9, 0, 0, 0, 2, 32, 0, 0, 0, 16, 46, 18, 35, 19, 4, 31, 0, 26, 41, 33, 27, 0, 36, 0, 24, 0, 0, 0
|33, 0, 0, 5, 27, 19, 2, 18, 0, 0, 6, 36, 4, 3, 0, 49, 39, 24, 35, 48, 12, 44, 41, 0, 16, 0, 37, 0, 30, 13, 0, 26, 34, 38, 42, 20, 8, 1, 0, 0, 28, 45, 29, 46, 0, 11, 0, 47, 9
|43, 46, 0, 0, 41, 14, 35, 22, 0, 16, 0, 9, 0, 39, 0, 34, 6, 40, 2, 0, 47, 49, 0, 5, 1, 45, 36, 18, 24, 0, 21, 44, 0, 48, 31, 15, 19, 17, 0, 38, 29, 13, 8, 0, 3, 32, 33, 20, 27
|36, 0, 4, 0, 20, 34, 41, 0, 18, 9, 0, 33, 39, 23, 19, 30, 48, 46, 31, 42, 25, 12, 49, 0, 0, 0, 11, 0, 21, 43, 26, 0, 0, 0, 45, 24, 0, 0, 8, 10, 16, 38, 1, 32, 2, 7, 0, 27, 0
|0, 21, 6, 3, 10, 0, 0, 43, 11, 0, 32, 19, 0, 30, 0, 0, 35, 38, 8, 41, 0, 0, 39, 16, 15, 28, 22, 1, 14, 0, 0, 42, 7, 31, 49, 27, 0, 46, 0, 47, 45, 2, 33, 20, 48, 36, 5, 0, 34
|17, 0, 35, 31, 0, 43, 38, 3, 0, 45, 48, 25, 40, 37, 10, 13, 5, 6, 11, 2, 32, 21, 0, 42, 19, 24, 20, 34, 47, 28, 9, 0, 0, 16, 46, 0, 0, 22, 0, 7, 18, 30, 15, 8, 12, 0, 39, 4, 0
|0, 8, 0, 49, 40, 2, 0, 21, 24, 6, 36, 26, 35, 10, 47, 1, 33, 0, 0, 34, 0, 23, 5, 0, 0, 0, 0, 38, 20, 22, 11, 0, 0, 18, 17, 9, 48, 4, 0, 15, 42, 41, 46, 43, 16, 31, 44, 25, 19
|37, 19, 32, 14, 0, 0, 39, 15, 0, 0, 47, 41, 16, 46, 0, 4, 26, 22, 36, 28, 45, 0, 0, 25, 0, 18, 9, 30, 48, 0, 8, 27, 2, 1, 40, 0, 34, 21, 20, 29, 44, 0, 11, 35, 24, 49, 13, 3, 42
|18, 12, 45, 0, 22, 48, 46, 20, 29, 8, 13, 0, 44, 42, 0, 21, 16, 3, 0, 14, 0, 4, 7, 2, 33, 43, 0, 37, 19, 24, 5, 32, 25, 0, 34, 6, 39, 0, 35, 1, 36, 0, 41, 38, 28, 0, 0, 9, 23
|42, 0, 9, 15, 16, 0, 13, 14, 22, 0, 34, 0, 1, 0, 17, 0, 0, 0, 44, 0, 20, 0, 0, 0, 0, 29, 41, 0, 0, 30, 35, 39, 3, 6, 0, 0, 33, 32, 19, 40, 5, 25, 10, 18, 0, 26, 0, 0, 0
|4, 41, 24, 0, 21, 12, 34, 16, 42, 20, 7, 0, 8, 0, 11, 36, 30, 44, 0, 40, 2, 3, 43, 26, 0, 0, 35, 0, 28, 49, 0, 0, 0, 0, 13, 5, 14, 0, 0, 37, 0, 39, 31, 0, 15, 23, 29, 18, 17
|0, 36, 0, 44, 0, 49, 31, 37, 19, 15, 0, 4, 0, 14, 3, 43, 0, 12, 0, 45, 26, 48, 38, 0, 0, 0, 0, 32, 29, 16, 0, 0, 21, 39, 1, 0, 47, 2, 28, 46, 17, 8, 0, 6, 0, 9, 40, 13, 30
|26, 37, 29, 0, 13, 1, 18, 12, 0, 0, 27, 0, 30, 17, 42, 0, 0, 35, 32, 0, 28, 34, 8, 39, 9, 33, 16, 5, 6, 0, 38, 0, 0, 46, 15, 31, 24, 3, 10, 23, 25, 49, 44, 19, 0, 0, 14, 36, 0
|23, 3, 43, 19, 15, 25, 0, 13, 0, 22, 0, 6, 0, 28, 5, 0, 17, 37, 24, 47, 21, 0, 0, 0, 45, 7, 1, 2, 31, 35, 14, 11, 8, 27, 0, 0, 36, 0, 29, 18, 30, 16, 4, 42, 38, 34, 49, 33, 26
|6, 39, 47, 10, 32, 0, 0, 0, 26, 0, 24, 2, 0, 44, 33, 23, 15, 27, 25, 13, 18, 36, 21, 41, 17, 0, 0, 46, 37, 7, 30, 5, 0, 20, 22, 35, 0, 43, 9, 45, 34, 19, 12, 3, 0, 0, 0, 1, 48
|40, 0, 33, 35, 0, 27, 20, 39, 3, 36, 1, 23, 5, 47, 6, 48, 0, 14, 16, 0, 31, 25, 13, 49, 29, 37, 19, 0, 0, 0, 0, 10, 45, 34, 0, 44, 4, 0, 15, 0, 41, 0, 2, 0, 11, 43, 32, 46, 22
|14, 17, 0, 0, 2, 45, 0, 0, 0, 25, 40, 31, 33, 0, 0, 46, 29, 0, 34, 1, 49, 24, 0, 12, 30, 11, 23, 0, 41, 44, 0, 36, 26, 3, 43, 0, 27, 6, 38, 0, 0, 22, 37, 10, 0, 35, 0, 39, 5
|9, 20, 19, 32, 6, 36, 10, 29, 14, 46, 0, 22, 7, 33, 48, 0, 0, 25, 0, 0, 0, 13, 0, 0, 0, 0, 0, 24, 0, 18, 42, 0, 0, 30, 0, 40, 0, 49, 12, 44, 21, 17, 5, 2, 27, 0, 1, 26, 39
|25, 31, 48, 0, 0, 18, 8, 47, 40, 35, 38, 21, 0, 0, 46, 20, 0, 15, 0, 10, 0, 22, 0, 0, 5, 41, 2, 26, 0, 12, 0, 34, 0, 14, 0, 36, 42, 19, 33, 32, 0, 23, 0, 24, 43, 37, 30, 0, 16
|27, 7, 0, 13, 44, 0, 42, 17, 39, 37, 12, 0, 36, 25, 0, 2, 40, 21, 43, 35, 22, 0, 1, 31, 0, 3, 0, 0, 0, 0, 0, 0, 0, 8, 0, 0, 29, 16, 46, 9, 10, 47, 6, 49, 0, 20, 0, 28, 33
|41, 5, 21, 0, 34, 0, 1, 0, 16, 44, 18, 13, 0, 20, 26, 24, 49, 0, 6, 0, 0, 0, 37, 36, 40, 30, 12, 0, 0, 10, 46, 0, 9, 23, 0, 45, 0, 48, 27, 4, 35, 15, 22, 25, 0, 8, 19, 32, 11
|45, 0, 40, 0, 46, 0, 17, 23, 6, 0, 30, 0, 0, 0, 12, 0, 34, 32, 5, 31, 1, 8, 9, 43, 0, 19, 18, 0, 49, 3, 0, 0, 37, 29, 2, 39, 20, 13, 0, 11, 14, 0, 47, 7, 44, 10, 4, 21, 36
|12, 11, 37, 43, 47, 16, 0, 8, 15, 0, 4, 0, 41, 19, 39, 0, 3, 0, 28, 0, 33, 29, 32, 6, 21, 44, 10, 48, 13, 36, 20, 25, 38, 40, 26, 0, 0, 0, 5, 22, 31, 1, 9, 0, 42, 17, 0, 23, 35
|2, 26, 0, 0, 28, 35, 0, 34, 9, 0, 3, 45, 32, 0, 44, 42, 0, 29, 0, 0, 0, 7, 46, 20, 4, 27, 39, 49, 0, 0, 33, 17, 0, 21, 41, 0, 6, 30, 37, 24, 8, 43, 0, 15, 18, 12, 48, 31, 38|];