order = 7;
grid = [|30, 9, 14, 12, 0, 26, 31, 38, 39, 4, 46, 32, 48, 42, 6, 0, 0, 0, 20, 11, 8, 21, 0, 5, 0, 40, 45, 0, 2, 29, 0, 0, 0, 0, 0, 0, 0, 0, 0, 0, 13, 49, 18, 17, 25, 15, 37, 33, 35
|44, 18, 27, 0, 22, 39, 0, 15, 9, 13, 0, 16, 24, 2, 0, 34, 12, 35, 0, 0, 47, 0, 0, 23, 0, 0, 0, 30, 0, 0, 17, 3, 43, 32, 11, 4, 31, 19, 0, 0, 6, 38, 20, 26, 0, 0, 14, 0, 7
|47, 0, 7, 41, 21, 11, 6, 37, 8, 0, 29, 49, 0, 33, 24, 0, 27, 0, 17, 46, 38, 44, 31, 32, 1, 15, 0, 9, 0, 0, 0, 13, 39, 0, 0, 0, 5, 20, 45, 14, 23, 35, 22, 0, 43, 3, 0, 0, 0
|32, 0, 29, 33, 28, 38, 0, 1, 20, 0, 44, 0, 7, 0, 5, 2, 0, 0, 36, 16, 13, 0, 3, 35, 11, 17, 0, 43, 14, 6, 0, 47, 23, 12, 21, 25, 0, 40, 0, 0, 37, 0, 34, 24, 0, 49, 46, 0, 39
|4, 34, 0, 19, 0, 37, 35, 11, 0, 21, 0, 3, 0, 31, 32, 45, 25, 0, 33, 0, 49, 0, 2, 18, 38, 6, 48, 10, 27, 9, 0, 7, 8, 15, 26, 24, 43, 29, 17, 39, 30, 1, 47, 13, 36, 0, 0, 16, 0
|0, 16, 17, 13, 49, 0, 0, 19, 47, 10, 0, 28, 0, 45, 44, 37, 0, 39, 9, 43, 0, 7, 0, 27, 0, 34, 25, 14, 35, 30, 46, 20, 31, 40, 0, 36, 41, 0, 0, 26, 0, 15, 42, 6, 0, 23, 0, 0, 8
|0, 0, 0, 15, 1, 23, 0, 0, 6, 17, 0, 35, 0, 25, 30, 22, 21, 4, 14, 0, 0, 33, 0, 39, 42, 26, 13, 24, 19, 49, 44, 0, 38, 37, 0, 9, 0, 46, 0, 2, 34, 47, 0, 28, 11, 0, 27, 0, 31
|0, 10, 48, 0, 42, 17, 39, 6, 5, 0, 49, 0, 33, 20, 40, 0, 0, 22, 3, 45, 21, 0, 0, 15, 12, 44, 2, 36, 23, 0, 7, 38, 14, 31, 43, 0, 26, 1, 46, 0, 18, 4, 30, 11, 0, 0, 47, 0, 0
|38, 0, 0, 49, 0, 9, 0, 0, 28, 47, 24, 2, 22, 14, 46, 19, 13, 41, 7, 17, 42, 26, 0, 0, 30, 4, 1, 0, 45, 32, 0, 0, 11, 33, 48, 0, 0, 21, 37, 3, 25, 16, 36, 10, 0, 0, 0, 20, 12
|0, 0, 11, 36, 26, 40, 2, 0, 30, 3, 45, 39, 44, 0, 48, 0, 16, 27, 1, 49, 0, 0, 10, 20, 31, 47, 28, 0, 0, 34, 42, 12, 0, 6, 8, 15, 0, 35, 9, 0, 17, 5, 7, 41, 22, 0, 38, 14, 23
|22, 0, 0, 21, 47, 34, 13, 4, 43, 26, 27, 19, 32, 0, 33, 0, 35, 38, 0, 36, 6, 23, 42, 0, 40, 14, 0, 37, 30, 44, 16, 10, 0, 41, 15, 20, 11, 28, 2, 0, 49, 31, 9, 0, 5, 39, 1, 0, 48
|28, 24, 16, 7, 41, 19, 18, 0, 0, 42, 17, 0, 21, 11, 0, 15, 4, 44, 0, 0, 0, 0, 39, 13, 0, 46, 5, 49, 0, 26, 47, 1, 0, 9, 2, 22, 30, 0, 0, 29, 38, 12, 33, 8, 32, 0, 43, 0, 6
|12, 32, 43, 20, 0, 1, 3, 34, 0, 8, 25, 0, 29, 10, 31, 9, 0, 0, 0, 26, 5, 0, 38, 11, 0, 0, 0, 16, 0, 40, 36, 0, 0, 22, 49, 45, 0, 27, 0, 47, 44, 23, 46, 4, 0, 2, 15, 13, 28
|0, 0, 44, 0, 0, 45, 23, 46, 0, 7, 1, 48, 15, 0, 0, 11, 20, 12, 2, 32, 10, 24, 0, 0, 27, 3, 9, 6, 25, 18, 28, 39, 13, 0, 0, 43, 36, 41, 40, 0, 0, 8, 49, 29, 34, 0, 26, 21, 17
|21, 48, 10, 43, 0, 16, 14, 0, 40, 39, 3, 0, 20, 44, 11, 31, 0, 0, 24, 0, 18, 36, 0, 0, 45, 49, 7, 41, 32, 47, 13, 15, 0, 0, 0, 23, 0, 17, 27, 4, 1, 46, 28, 9, 12, 34, 19, 5, 25
|49, 6, 0, 0, 23, 42, 0, 26, 14, 0, 41, 0, 17, 0, 38, 39, 5, 46, 0, 0, 15, 43, 0, 0, 3, 22, 37, 1, 12, 0, 0, 0, 30, 21, 44, 16, 19, 9, 35, 45, 2, 13, 0, 31, 27, 10, 24, 0, 29
|25, 3, 38, 40, 0, 41, 44, 24, 0, 0, 0, 0, 4, 0, 0, 23, 0, 13, 30, 27, 0, 9, 20, 31, 0, 0, 34, 46, 0, 1, 37, 28, 16, 8, 5, 14, 0, 12, 0, 36, 11, 18, 35, 32, 0, 0, 48, 0, 21
|24, 1, 47, 35, 15, 33, 17, 27, 48, 0, 18, 29, 12, 21, 0, 41, 8, 7, 49, 14, 45, 10, 40, 42, 0, 0, 0, 44, 11, 0, 0, 46, 0, 19, 0, 31, 20, 43, 30, 0, 0, 32, 39, 36, 2, 0, 0, 23, 0
|19, 5, 31, 37, 39, 28, 26, 22, 45, 6, 47, 43, 38, 7, 9, 4, 33, 20, 10, 12, 32, 27, 16, 0, 35, 25, 0, 18, 48, 41, 0, 2, 0, 17, 0, 40, 0, 0, 49, 44, 8, 29, 13, 0, 0, 11, 3, 42, 30
|27, 22, 46, 2, 36, 8, 0, 0, 25, 32, 11, 31, 13, 49, 19, 1, 0, 40, 35, 0, 16, 14, 0, 12, 0, 21, 4, 26, 39, 23, 0, 45, 42, 0, 0, 5, 7, 47, 0, 0, 0, 3, 44, 0, 33, 20, 18, 15, 37
|45, 0, 4, 18, 0, 13, 0, 8, 0, 0, 0, 5, 46, 0, 0, 3, 0, 21, 29, 6, 44, 30, 15, 2, 19, 0, 38, 47, 0, 0, 40, 24, 33, 0, 20, 0, 48, 39, 42, 25, 0, 0, 17, 43, 0, 0, 41, 7, 49
|20, 0, 0, 45, 0, 36, 41, 25, 37, 9, 10, 22, 8, 0, 42, 14, 6, 11, 28, 13, 31, 16, 26, 4, 0, 43, 32, 12, 0, 0, 0, 0, 29, 46, 40, 1, 35, 0, 0, 34, 0, 39, 15, 33, 0, 0, 49, 30, 3
|48, 25, 0, 22, 13, 7, 8, 41, 38, 0, 28, 14, 11, 32, 16, 29, 30, 1, 40, 19, 37, 47, 0, 46, 0, 5, 31, 3, 34, 20, 0, 0, 15, 18, 17, 26, 12, 24, 0, 23, 9, 42, 21, 0, 4, 35, 0, 6, 0
|46, 19, 0, 42, 0, 31, 0, 0, 3, 12, 4, 44, 2, 0, 39, 5, 47, 43, 0, 0, 20, 0, 14, 9, 23, 41, 15, 0, 0, 37, 33, 8, 28, 24, 38, 21, 29, 0, 0, 17, 40, 25, 11, 22, 0, 26, 34, 0, 18
|0, 0, 21, 0, 0, 6, 38, 0, 36, 0, 31, 0, 0, 29, 8, 0, 0, 33, 34, 22, 27, 1, 28, 25, 18, 7, 0, 13, 5, 0, 35, 26, 12, 23, 9, 11, 15, 14, 0, 10, 0, 30, 43, 0, 37, 24, 0, 0, 0
|0, 33, 0, 17, 4, 12, 0, 40, 27, 0, 34, 0, 1, 0, 15, 7, 10, 0, 38, 18, 0, 2, 45, 21, 20, 0, 24, 0, 0, 14, 25, 41, 47, 39, 6, 44, 3, 49, 0, 37, 31, 19, 0, 48, 0, 9, 13, 0, 5
|5, 0, 28, 0, 3, 0, 43, 16, 0, 20, 0, 0, 26, 35, 0, 0, 0, 45, 0, 0, 48, 0, 0, 38, 0, 19, 0, 34, 0, 0, 0, 31, 1, 30, 0, 0, 46, 22, 0, 0, 47, 27, 23, 0, 0, 25, 29, 12, 0
|40, 11, 1, 14, 34, 18, 37, 0, 15, 5, 39, 0, 49, 23, 25, 12, 9, 0, 0, 0, 0, 29, 0, 36, 0, 0, 0, 22, 43, 3, 48, 32, 27, 10, 0, 6, 28, 0, 41, 8, 0, 7, 31, 0, 0, 0, 42, 46, 20
|39, 0, 12, 34, 0, 4, 32, 49, 44, 2, 0, 21, 45, 41, 29, 25, 7, 0, 0, 0, 3, 40, 0, 6, 0, 0, 0, 33, 26, 0, 30, 9, 5, 1, 0, 48, 17, 10, 0, 0, 19, 11, 0, 20, 0, 47, 0, 0, 0
|0, 0, 36, 3, 2, 29, 33, 32, 42, 31, 16, 0, 27, 4, 35, 0, 0, 49, 11, 30, 24, 13, 5, 0, 17, 45, 20, 7, 46, 39, 0, 0, 0, 47, 22, 28, 18, 26, 12, 6, 43, 0, 10, 0, 0, 44, 0, 0, 9
|7, 26, 37, 11, 0, 43, 9, 17, 22, 1, 5, 0, 47, 19, 0, 16, 45, 6, 31, 44, 2, 0, 25, 28, 0, 24, 8, 4, 0, 0, 18, 27, 10, 0, 12, 29, 0, 42, 39, 35, 21, 0, 41, 0, 30, 0, 33, 32, 0
|18, 44, 15, 6, 0, 30, 24, 14, 7, 40, 26, 20, 0, 48, 10, 21, 0, 0, 23, 28, 46, 0, 41, 0, 0, 39, 0, 38, 37, 16, 8, 33, 35, 2, 31, 0, 0, 4, 25, 49, 27, 9, 5, 0, 1, 42, 45, 29, 0
|0, 31, 0, 10, 0, 0, 49, 0, 46, 15, 13, 12, 0, 24, 27, 33, 14, 37, 0, 47, 41, 0, 48, 34, 9, 30, 0, 32, 28, 11, 0, 42, 19, 0, 25, 0, 45, 0, 0, 1, 20, 22, 3, 35, 26, 0, 0, 0, 36
|13, 0, 0, 1, 17, 25, 21, 35, 11, 0, 0, 23, 0, 8, 0, 20, 0, 26, 12, 39, 9, 19, 0, 47, 15, 0, 10, 31, 44, 45, 32, 6, 7, 14, 0, 0, 0, 33, 5, 46, 3, 37, 24, 0, 16, 48, 40, 18, 0
|42, 47, 22, 48, 45, 27, 46, 10, 33, 18, 0, 0, 28, 0, 1, 0, 40, 0, 15, 0, 0, 35, 23, 0, 29, 37, 0, 0, 24, 0, 3, 21, 49, 20, 41, 8, 16, 32, 7, 31, 36, 2, 0, 14, 39, 0, 6, 0, 4
|0, 13, 49, 26, 18, 46, 28, 20, 34, 0, 0, 0, 40, 0, 14, 6, 44, 0, 16, 0, 12, 38, 1, 3, 0, 10, 22, 19, 0, 0, 31, 25, 2, 45, 0, 0, 0, 0, 23, 30, 0, 0, 4, 42, 0, 41, 11, 27, 0
|36, 21, 0, 23, 8, 14, 19, 0, 49, 0, 38, 0, 9, 3, 18, 0, 11, 0, 45, 5, 34, 0, 13, 17, 0, 42, 0, 0, 16, 0, 15, 0, 0, 44, 29, 41, 10, 25, 0, 32, 46, 6, 26, 47, 48, 0, 0, 39, 43
|11, 37, 2, 39, 48, 47, 40, 5, 26, 24, 6, 18, 43, 0, 13, 32, 0, 3, 41, 4, 0, 15, 7, 30, 44, 12, 35, 0, 1, 10, 49, 23, 0, 0, 46, 0, 14, 34, 36, 20, 42, 33, 45, 21, 29, 8, 9, 31, 16
|0, 27, 3, 31, 38, 35, 42, 0, 29, 14, 0, 45, 0, 37, 28, 36, 0, 10, 0, 20, 0, 46, 32, 40, 47, 33, 11, 5, 0, 21, 26, 0, 4, 0, 30, 13, 0, 0, 8, 22, 12, 43, 19, 0, 0, 0, 7, 44, 24
|17, 20, 9, 0, 0, 22, 12, 0, 32, 0, 0, 42, 10, 39, 26, 0, 37, 29, 46, 33, 23, 0, 18, 0, 16, 36, 43, 48, 47, 0, 19, 11, 41, 5, 7, 35, 27, 3, 0, 40, 4, 0, 1, 2, 13, 0, 25, 0, 34
|0, 43, 45, 0, 16, 44, 25, 0, 23, 46, 0, 1, 30, 27, 21, 0, 15, 0, 0, 0, 17, 39, 0, 41, 37, 31, 26, 20, 3, 0, 0, 14, 0, 48, 24, 2, 49, 38, 19, 11, 29, 0, 12, 18, 40, 33, 5, 36, 0
|15, 41, 32, 5, 6, 10, 0, 33, 12, 16, 19, 11, 25, 0, 43, 27, 0, 24, 42, 0, 30, 34, 4, 45, 8, 23, 49, 29, 40, 0, 39, 35, 9, 13, 36, 18, 47, 0, 31, 0, 26, 0, 0, 3, 20, 0, 22, 37, 46
|9, 36, 26, 0, 11, 3, 10, 0, 19, 38, 15, 27, 14, 0, 7, 42, 0, 0, 21, 41, 1, 4, 24, 16, 0, 18, 0, 23, 0, 33, 34, 40, 37, 0, 39, 0, 0, 0, 29, 43, 0, 0, 0, 0, 44, 13, 31, 22, 45
|0, 17, 13, 0, 25, 20, 22, 44, 21, 49, 23, 24, 0, 9, 0, 38, 0, 8, 6, 29, 26, 0, 35, 0, 0, 27, 12, 45, 41, 15, 1, 16, 48, 7, 47, 19, 0, 0, 0, 0, 0, 0, 37, 0, 28, 0, 39, 0, 33
|41, 7, 40, 44, 0, 0, 0, 3, 4, 0, 0, 26, 16, 5, 12, 18, 22, 34, 43, 0, 0, 42, 21, 0, 13, 1, 0, 0, 38, 31, 20, 0, 0, 35, 0, 0, 23, 6, 0, 33, 48, 0, 32, 46, 49, 36, 0, 9, 47
|37, 42, 23, 38, 0, 0, 47, 28, 13, 11, 20, 8, 35, 40, 3, 30, 0, 0, 19, 31, 33, 0, 6, 44, 43, 9, 46, 15, 0, 36, 2, 0, 18, 0, 32, 39, 1, 45, 34, 0, 7, 21, 48, 12, 0, 0, 0, 0, 27
|6, 0, 5, 0, 12, 48, 1, 29, 18, 41, 30, 0, 39, 34, 4, 0, 0, 32, 13, 10, 35, 0, 33, 37, 0, 0, 14, 0, 42, 0, 23, 43, 0, 11, 19, 27, 25, 8, 0, 9, 22, 44, 2, 16, 3, 0, 20, 17, 15
|35, 39, 18, 16, 32, 21, 0, 48, 17, 43, 33, 36, 31, 0, 45, 0, 0, 9, 0, 23, 40, 25, 0, 49, 0, 0, 41, 8, 0, 24, 0, 30, 44, 3, 13, 42, 2, 0, 28, 0, 15, 0, 14, 0, 38, 19, 10, 11, 1
|31, 0, 0, 0, 33, 0, 34, 47, 10, 45, 32, 6, 0, 1, 20, 0, 39, 14, 5, 0, 11, 48, 22, 7, 26, 0, 3, 17, 9, 8, 0, 4, 21, 49, 27, 0, 38, 0, 13, 16, 0, 36, 40, 25, 35, 43, 23, 24, 42|];