order = 7;
grid = [|28, 41, 5, 8, 37, 39, 16, 49, 0, 19, 33, 0, 0, 0, 36, 22, 0, 0, 40, 9, 0, 30, 0, 20, 0, 21, 0, 47, 0, 11, 18, 0, 0, 2, 26, 0, 0, 29, 10, 14, 0, 48, 38, 43, 0, 32, 31, 35, 44
|0, 17, 21, 19, 30, 0, 0, 1, 20, 10, 5, 37, 0, 29, 0, 0, 0, 44, 0, 2, 35, 43, 0, 48, 33, 14, 36, 26, 0, 39, 7, 0, 41, 6, 23, 0, 8, 0, 13, 16, 15, 0, 3, 9, 12, 34, 45, 0, 4
|44, 0, 46, 12, 0, 43, 34, 0, 40, 25, 18, 26, 31, 35, 8, 15, 7, 32, 0, 14, 17, 37, 10, 16, 0, 0, 19, 0, 30, 42, 13, 48, 0, 9, 0, 47, 0, 3, 11, 38, 41, 20, 22, 5, 33, 0, 0, 0, 21
|0, 40, 20, 3, 35, 14, 0, 11, 0, 0, 16, 17, 4, 41, 26, 0, 21, 29, 45, 10, 46, 0, 6, 49, 12, 0, 0, 0, 0, 0, 28, 44, 33, 0, 37, 39, 0, 36, 0, 5, 7, 18, 25, 48, 0, 8, 42, 0, 15
|0, 42, 0, 0, 38, 47, 0, 21, 9, 0, 3, 36, 34, 44, 31, 12, 16, 0, 13, 27, 0, 22, 40, 7, 0, 0, 0, 1, 25, 32, 15, 5, 35, 0, 10, 0, 0, 46, 45, 0, 24, 0, 14, 49, 39, 0, 41, 37, 19
|45, 0, 11, 0, 18, 13, 31, 24, 39, 0, 14, 32, 0, 0, 0, 49, 20, 0, 3, 41, 42, 15, 25, 17, 5, 44, 2, 34, 0, 43, 0, 19, 12, 16, 29, 0, 33, 6, 21, 26, 35, 23, 28, 40, 46, 1, 7, 10, 47
|7, 0, 15, 36, 0, 25, 0, 47, 12, 13, 42, 45, 0, 48, 0, 0, 30, 23, 5, 11, 39, 35, 38, 0, 31, 0, 0, 4, 14, 20, 40, 3, 0, 46, 21, 9, 27, 22, 0, 1, 44, 43, 0, 24, 0, 29, 2, 16, 0
|21, 29, 40, 16, 6, 0, 0, 42, 0, 0, 0, 0, 13, 49, 7, 1, 0, 47, 9, 17, 25, 45, 20, 0, 0, 23, 15, 48, 22, 0, 0, 18, 24, 0, 35, 28, 0, 11, 30, 4, 46, 37, 41, 0, 3, 0, 10, 19, 0
|0, 44, 0, 0, 14, 0, 39, 12, 34, 0, 10, 29, 28, 24, 41, 42, 23, 36, 27, 0, 45, 46, 0, 0, 0, 26, 7, 37, 0, 0, 31, 0, 19, 30, 0, 0, 0, 5, 0, 22, 21, 0, 32, 25, 0, 9, 0, 13, 18
|0, 12, 0, 5, 3, 0, 0, 0, 46, 40, 25, 14, 0, 1, 0, 0, 22, 19, 0, 39, 15, 0, 49, 10, 28, 31, 33, 13, 7, 16, 0, 17, 0, 0, 42, 0, 2, 0, 35, 29, 20, 0, 34, 0, 38, 43, 0, 24, 0
|8, 18, 25, 9, 19, 22, 17, 20, 7, 0, 35, 38, 41, 47, 24, 37, 28, 0, 0, 0, 30, 0, 4, 11, 44, 34, 21, 2, 0, 29, 1, 12, 5, 40, 0, 10, 32, 26, 6, 23, 0, 13, 33, 39, 48, 15, 0, 36, 27
|0, 38, 37, 30, 0, 15, 23, 48, 0, 17, 26, 18, 44, 0, 0, 0, 40, 11, 12, 20, 0, 47, 0, 0, 0, 0, 22, 41, 0, 10, 0, 36, 46, 39, 0, 0, 31, 19, 7, 0, 27, 0, 29, 6, 4, 0, 21, 0, 28
|27, 13, 0, 28, 0, 10, 0, 30, 0, 0, 37, 39, 0, 0, 2, 0, 44, 49, 0, 35, 33, 3, 24, 18, 0, 19, 0, 0, 0, 41, 0, 38, 25, 23, 11, 14, 40, 0, 0, 0, 0, 16, 46, 20, 47, 31, 5, 7, 1
|24, 0, 42, 0, 0, 0, 1, 5, 21, 33, 9, 0, 0, 0, 10, 13, 0, 8, 0, 34, 0, 36, 30, 0, 38, 0, 14, 0, 48, 26, 4, 28, 32, 0, 2, 0, 44, 47, 49, 41, 39, 3, 0, 17, 0, 0, 0, 0, 0
|10, 3, 2, 0, 0, 12, 45, 0, 25, 34, 0, 0, 20, 0, 44, 30, 0, 0, 0, 18, 0, 33, 0, 0, 41, 42, 17, 49, 28, 14, 19, 21, 16, 5, 9, 1, 35, 0, 0, 7, 40, 4, 48, 47, 6, 23, 15, 39, 36
|30, 1, 0, 0, 21, 23, 36, 17, 33, 0, 48, 0, 10, 0, 16, 41, 6, 13, 0, 24, 14, 44, 34, 9, 0, 22, 40, 7, 35, 31, 12, 46, 39, 3, 0, 38, 15, 0, 20, 0, 11, 0, 0, 18, 0, 0, 0, 2, 26
|16, 37, 27, 0, 25, 0, 9, 0, 36, 0, 0, 35, 42, 0, 0, 0, 15, 31, 0, 48, 32, 0, 0, 30, 24, 45, 0, 38, 29, 0, 22, 0, 0, 47, 1, 3, 39, 14, 0, 8, 0, 0, 0, 0, 0, 21, 17, 43, 34
|46, 0, 22, 38, 47, 41, 0, 23, 0, 6, 0, 12, 2, 40, 29, 0, 17, 25, 7, 4, 8, 39, 14, 35, 48, 11, 1, 21, 10, 0, 26, 32, 45, 42, 0, 16, 9, 0, 36, 0, 0, 19, 49, 30, 31, 3, 24, 20, 5
|40, 6, 32, 0, 15, 26, 0, 0, 1, 24, 0, 28, 21, 30, 0, 39, 27, 9, 0, 45, 34, 12, 0, 0, 0, 0, 0, 36, 0, 0, 33, 0, 18, 0, 0, 31, 0, 48, 2, 17, 0, 44, 0, 8, 0, 35, 0, 41, 29
|42, 0, 7, 48, 13, 19, 0, 38, 15, 26, 8, 0, 0, 3, 1, 2, 0, 0, 28, 23, 12, 31, 0, 6, 46, 25, 5, 0, 0, 24, 17, 43, 34, 36, 49, 0, 0, 10, 0, 0, 32, 30, 45, 14, 44, 0, 11, 0, 9
|35, 0, 0, 0, 0, 18, 5, 0, 19, 0, 0, 46, 11, 32, 33, 40, 36, 20, 10, 0, 0, 23, 15, 28, 2, 0, 4, 8, 44, 0, 30, 7, 48, 41, 6, 26, 12, 13, 34, 43, 49, 45, 0, 0, 1, 25, 0, 0, 16
|0, 46, 10, 40, 0, 27, 14, 0, 3, 35, 0, 8, 25, 9, 0, 0, 5, 45, 23, 33, 13, 0, 44, 37, 42, 0, 18, 0, 19, 0, 29, 2, 31, 28, 47, 0, 0, 0, 26, 0, 1, 21, 0, 32, 17, 22, 39, 6, 38
|15, 24, 0, 0, 4, 16, 37, 45, 28, 36, 0, 23, 18, 0, 42, 0, 19, 6, 17, 12, 0, 0, 29, 47, 25, 48, 0, 0, 9, 5, 3, 41, 7, 38, 46, 40, 10, 44, 0, 0, 2, 32, 0, 0, 34, 0, 43, 33, 0
|2, 30, 17, 39, 44, 6, 0, 29, 47, 0, 49, 20, 0, 0, 38, 0, 0, 15, 14, 8, 22, 0, 0, 31, 0, 3, 45, 11, 33, 0, 36, 0, 37, 0, 32, 13, 16, 27, 0, 42, 19, 24, 12, 1, 0, 0, 26, 0, 23
|12, 5, 1, 45, 0, 0, 38, 34, 24, 0, 15, 4, 0, 46, 9, 11, 0, 16, 0, 37, 44, 2, 28, 26, 0, 17, 39, 0, 0, 22, 6, 13, 27, 43, 48, 0, 25, 0, 0, 0, 18, 41, 47, 36, 0, 7, 0, 30, 0
|3, 0, 34, 47, 23, 48, 0, 44, 11, 0, 12, 7, 5, 17, 0, 0, 0, 21, 41, 25, 36, 0, 0, 0, 0, 0, 46, 43, 16, 8, 10, 1, 26, 4, 40, 29, 22, 38, 14, 9, 0, 0, 0, 45, 18, 37, 27, 0, 20
|29, 43, 36, 18, 0, 0, 22, 0, 10, 14, 21, 1, 39, 33, 27, 32, 3, 40, 47, 30, 0, 5, 12, 34, 0, 38, 0, 6, 42, 15, 23, 49, 11, 20, 0, 37, 45, 0, 0, 0, 0, 0, 9, 41, 35, 0, 25, 48, 24
|13, 0, 19, 31, 0, 9, 8, 22, 38, 37, 2, 27, 0, 6, 0, 29, 0, 18, 49, 1, 0, 41, 36, 21, 0, 20, 0, 35, 0, 30, 24, 25, 0, 17, 0, 0, 0, 12, 0, 48, 0, 11, 42, 16, 5, 46, 0, 3, 10
|17, 4, 31, 0, 40, 0, 30, 46, 8, 0, 44, 42, 47, 21, 5, 36, 32, 14, 34, 15, 0, 18, 2, 41, 45, 0, 0, 33, 23, 28, 35, 16, 10, 48, 0, 49, 6, 37, 22, 0, 38, 7, 1, 13, 0, 27, 0, 29, 25
|25, 36, 45, 44, 0, 8, 21, 39, 22, 0, 41, 16, 9, 0, 6, 0, 0, 3, 30, 19, 0, 0, 23, 4, 0, 0, 20, 29, 32, 0, 49, 11, 13, 7, 0, 0, 0, 0, 1, 34, 0, 10, 0, 28, 42, 18, 12, 17, 43
|0, 11, 0, 41, 34, 0, 28, 13, 45, 18, 24, 40, 1, 14, 47, 46, 0, 26, 39, 0, 49, 0, 7, 0, 0, 36, 6, 9, 3, 17, 2, 15, 43, 12, 0, 0, 29, 23, 0, 44, 5, 25, 30, 37, 21, 19, 33, 31, 0
|9, 0, 23, 10, 5, 0, 18, 0, 35, 7, 31, 19, 3, 25, 21, 0, 11, 4, 20, 0, 27, 34, 0, 15, 0, 0, 0, 46, 1, 37, 39, 0, 47, 29, 22, 36, 41, 30, 33, 40, 13, 8, 44, 0, 24, 0, 0, 0, 14
|0, 19, 0, 22, 12, 42, 35, 0, 4, 0, 17, 10, 37, 0, 25, 44, 0, 41, 1, 16, 0, 32, 5, 24, 21, 13, 38, 31, 34, 6, 0, 8, 30, 0, 18, 20, 46, 28, 43, 11, 14, 15, 40, 3, 2, 49, 47, 9, 48
|0, 49, 43, 0, 0, 0, 0, 33, 6, 0, 38, 0, 26, 20, 35, 23, 12, 2, 0, 28, 10, 16, 0, 22, 19, 1, 48, 39, 41, 9, 44, 27, 40, 14, 25, 21, 18, 0, 0, 0, 0, 31, 8, 46, 45, 0, 0, 34, 7
|47, 14, 6, 26, 27, 1, 7, 43, 0, 29, 0, 0, 0, 5, 37, 0, 48, 17, 18, 0, 38, 0, 35, 0, 11, 0, 0, 0, 46, 36, 20, 0, 0, 0, 31, 19, 0, 2, 9, 0, 16, 0, 10, 0, 0, 41, 0, 0, 39
|0, 45, 48, 0, 16, 21, 29, 0, 42, 0, 40, 44, 19, 28, 17, 0, 41, 1, 0, 0, 23, 8, 0, 36, 0, 5, 31, 10, 26, 0, 11, 35, 22, 15, 0, 0, 37, 0, 24, 6, 9, 38, 0, 34, 49, 2, 13, 46, 30
|0, 7, 38, 42, 11, 17, 2, 0, 18, 21, 46, 6, 33, 23, 19, 0, 35, 0, 25, 29, 31, 0, 22, 12, 15, 24, 49, 0, 27, 3, 48, 37, 44, 13, 16, 5, 0, 43, 4, 32, 45, 0, 39, 10, 0, 47, 0, 14, 0
|32, 15, 3, 37, 36, 31, 46, 0, 26, 1, 11, 2, 24, 4, 0, 0, 39, 28, 22, 0, 21, 0, 48, 0, 14, 35, 0, 27, 20, 0, 8, 6, 0, 45, 30, 23, 0, 41, 44, 0, 34, 29, 5, 7, 25, 0, 18, 0, 33
|18, 0, 44, 33, 49, 40, 6, 0, 0, 0, 22, 0, 7, 13, 15, 0, 38, 0, 26, 5, 0, 29, 0, 0, 17, 2, 34, 16, 12, 21, 46, 9, 23, 10, 41, 11, 20, 31, 25, 19, 8, 14, 0, 42, 0, 24, 3, 28, 0
|5, 0, 39, 34, 22, 20, 19, 0, 0, 0, 45, 0, 12, 37, 30, 6, 14, 7, 8, 0, 48, 25, 0, 0, 47, 32, 0, 23, 24, 40, 43, 29, 0, 0, 0, 2, 13, 42, 18, 46, 0, 26, 35, 15, 0, 11, 1, 4, 41
|23, 25, 12, 35, 9, 30, 43, 8, 0, 38, 0, 0, 14, 31, 45, 10, 37, 42, 0, 0, 0, 0, 0, 13, 18, 0, 0, 40, 4, 1, 5, 0, 2, 0, 33, 48, 28, 15, 27, 21, 3, 22, 0, 26, 29, 17, 0, 0, 0
|0, 0, 24, 13, 1, 28, 0, 15, 5, 0, 39, 49, 29, 36, 18, 33, 0, 0, 2, 0, 11, 6, 0, 45, 26, 46, 37, 0, 47, 25, 42, 0, 38, 0, 34, 0, 7, 16, 40, 0, 30, 0, 21, 27, 0, 0, 23, 22, 31
|34, 22, 0, 32, 0, 49, 11, 3, 29, 27, 1, 21, 35, 42, 14, 25, 0, 48, 44, 26, 19, 0, 8, 23, 36, 40, 0, 15, 43, 46, 41, 30, 6, 33, 0, 45, 4, 20, 16, 0, 0, 5, 24, 31, 7, 10, 0, 12, 2
|0, 35, 18, 14, 17, 45, 0, 4, 31, 16, 0, 43, 36, 12, 20, 21, 8, 10, 29, 0, 47, 0, 41, 33, 0, 0, 0, 5, 0, 49, 0, 22, 28, 0, 27, 46, 3, 9, 0, 2, 25, 39, 26, 23, 15, 44, 48, 0, 42
|0, 27, 41, 0, 10, 37, 33, 0, 13, 0, 6, 22, 0, 38, 23, 9, 2, 30, 0, 36, 0, 21, 0, 46, 0, 4, 35, 0, 5, 0, 32, 26, 29, 1, 12, 43, 0, 0, 47, 24, 48, 0, 17, 19, 14, 39, 0, 25, 3
|43, 26, 30, 0, 48, 44, 15, 37, 14, 5, 32, 9, 0, 39, 40, 17, 4, 0, 0, 42, 41, 0, 31, 0, 20, 0, 25, 12, 2, 0, 47, 24, 0, 19, 13, 0, 23, 34, 8, 35, 10, 28, 0, 0, 36, 38, 0, 0, 0
|36, 2, 0, 46, 28, 29, 12, 40, 0, 47, 0, 25, 0, 34, 11, 38, 45, 39, 37, 0, 18, 48, 0, 44, 0, 10, 0, 0, 8, 0, 16, 0, 0, 21, 14, 17, 26, 7, 0, 0, 0, 33, 6, 0, 27, 0, 0, 5, 0
|38, 16, 0, 23, 7, 5, 0, 0, 48, 15, 19, 24, 17, 0, 46, 34, 0, 27, 43, 6, 1, 26, 0, 0, 0, 49, 47, 28, 18, 0, 0, 4, 9, 0, 20, 44, 30, 21, 12, 36, 0, 42, 11, 0, 0, 0, 37, 8, 32
|0, 21, 0, 25, 42, 4, 0, 0, 44, 46, 23, 33, 30, 11, 12, 0, 49, 5, 0, 7, 28, 0, 0, 2, 3, 0, 32, 18, 39, 0, 38, 0, 15, 34, 0, 0, 14, 0, 0, 13, 0, 0, 43, 29, 20, 45, 9, 47, 22|];