order = 7;
grid = [|24, 4, 12, 3, 0, 48, 1, 23, 2, 38, 45, 0, 37, 8, 0, 33, 0, 29, 21, 31, 25, 41, 0, 6, 0, 0, 18, 0, 46, 9, 5, 0, 0, 40, 10, 0, 19, 0, 0, 0, 32, 39, 20, 0, 27, 28, 13, 17, 0
|0, 45, 32, 10, 49, 29, 46, 12, 41, 0, 0, 0, 47, 14, 0, 40, 0, 27, 0, 42, 20, 28, 0, 31, 21, 0, 0, 22, 48, 8, 13, 0, 19, 33, 25, 38, 26, 1, 0, 18, 7, 0, 2, 35, 15, 0, 44, 39, 24
|20, 0, 21, 0, 19, 8, 30, 39, 0, 36, 29, 0, 0, 13, 0, 4, 0, 15, 6, 0, 44, 0, 0, 0, 33, 32, 26, 2, 24, 17, 38, 0, 0, 0, 45, 11, 0, 25, 48, 31, 0, 0, 41, 40, 34, 12, 0, 14, 22
|13, 0, 22, 0, 0, 0, 14, 0, 0, 0, 33, 5, 46, 0, 0, 0, 19, 0, 34, 48, 7, 0, 0, 12, 0, 45, 27, 0, 0, 6, 0, 39, 43, 0, 21, 0, 0, 35, 0, 29, 44, 0, 25, 0, 0, 1, 0, 47, 31
|44, 33, 0, 28, 0, 47, 38, 32, 10, 0, 35, 31, 43, 49, 12, 24, 14, 41, 1, 0, 39, 0, 0, 0, 25, 0, 37, 13, 4, 0, 0, 0, 0, 34, 18, 0, 22, 0, 0, 36, 27, 0, 7, 21, 0, 0, 8, 42, 0
|0, 31, 0, 41, 0, 37, 35, 25, 0, 0, 15, 24, 0, 0, 47, 45, 0, 11, 26, 28, 0, 0, 19, 0, 14, 4, 29, 0, 0, 32, 22, 12, 49, 2, 23, 34, 33, 40, 0, 46, 0, 21, 38, 10, 9, 5, 48, 18, 6
|6, 0, 25, 0, 0, 27, 0, 4, 34, 22, 40, 1, 19, 0, 9, 38, 35, 2, 0, 43, 10, 23, 39, 0, 11, 0, 48, 0, 7, 29, 47, 28, 15, 31, 20, 0, 0, 13, 5, 12, 0, 8, 32, 0, 33, 0, 45, 0, 37
|0, 0, 2, 34, 7, 0, 8, 33, 23, 10, 25, 38, 0, 0, 0, 6, 20, 45, 37, 22, 49, 1, 44, 24, 42, 13, 36, 29, 5, 0, 9, 0, 0, 3, 0, 40, 46, 19, 30, 0, 26, 47, 4, 43, 48, 0, 18, 15, 16
|42, 0, 49, 6, 26, 0, 22, 40, 46, 16, 47, 0, 36, 0, 0, 1, 3, 28, 30, 0, 33, 35, 7, 15, 4, 0, 17, 34, 37, 25, 45, 32, 39, 19, 43, 14, 18, 11, 24, 8, 31, 10, 5, 0, 12, 13, 2, 0, 41
|41, 0, 0, 25, 48, 24, 45, 1, 0, 42, 3, 21, 0, 44, 8, 47, 10, 7, 2, 13, 17, 39, 9, 26, 19, 0, 22, 0, 36, 0, 31, 23, 40, 0, 0, 15, 6, 29, 27, 38, 20, 4, 37, 0, 28, 0, 14, 35, 11
|9, 17, 27, 1, 3, 18, 39, 0, 0, 29, 20, 34, 0, 37, 0, 15, 48, 26, 0, 5, 35, 0, 32, 0, 41, 46, 0, 16, 38, 0, 44, 0, 0, 30, 7, 13, 28, 0, 42, 21, 36, 12, 6, 0, 40, 25, 23, 45, 47
|33, 10, 0, 0, 13, 0, 31, 0, 15, 0, 17, 43, 12, 19, 46, 36, 42, 21, 0, 0, 32, 0, 0, 23, 28, 0, 8, 0, 11, 0, 29, 4, 20, 47, 0, 0, 39, 0, 25, 0, 0, 34, 26, 0, 22, 27, 7, 49, 44
|28, 46, 47, 0, 15, 20, 23, 35, 22, 13, 11, 45, 2, 39, 4, 44, 29, 38, 0, 0, 14, 0, 37, 40, 27, 30, 25, 31, 18, 0, 48, 0, 0, 0, 0, 7, 5, 32, 0, 16, 0, 0, 0, 42, 0, 0, 3, 0, 0
|0, 19, 30, 40, 38, 4, 36, 7, 8, 0, 24, 14, 28, 0, 16, 12, 41, 34, 39, 25, 0, 5, 21, 0, 0, 3, 47, 0, 13, 2, 0, 15, 0, 42, 46, 0, 44, 23, 49, 0, 48, 22, 10, 1, 0, 29, 0, 31, 20
|12, 22, 8, 23, 0, 0, 15, 46, 1, 49, 0, 3, 0, 26, 30, 0, 25, 35, 44, 14, 43, 17, 0, 16, 20, 7, 4, 19, 9, 11, 39, 13, 34, 24, 47, 0, 48, 27, 29, 32, 37, 0, 33, 36, 0, 18, 40, 0, 21
|30, 41, 10, 44, 42, 46, 49, 31, 33, 35, 39, 0, 48, 4, 0, 7, 0, 37, 0, 36, 45, 13, 0, 29, 47, 8, 0, 1, 43, 19, 23, 0, 0, 5, 32, 22, 0, 6, 18, 26, 21, 20, 3, 27, 0, 9, 25, 28, 38
|47, 0, 0, 45, 29, 2, 0, 0, 0, 18, 0, 15, 0, 24, 28, 5, 0, 48, 16, 27, 0, 25, 6, 0, 23, 0, 38, 9, 1, 0, 12, 0, 8, 21, 31, 0, 7, 0, 35, 0, 0, 19, 42, 0, 0, 32, 49, 13, 39
|32, 0, 6, 36, 21, 0, 5, 0, 0, 7, 43, 17, 11, 25, 0, 19, 0, 0, 9, 8, 46, 18, 2, 0, 31, 40, 28, 27, 0, 26, 0, 37, 0, 0, 15, 39, 0, 12, 0, 49, 0, 0, 47, 22, 10, 35, 0, 24, 0
|4, 0, 20, 38, 27, 0, 24, 16, 21, 23, 44, 32, 6, 34, 0, 0, 0, 0, 18, 47, 2, 45, 0, 36, 48, 0, 3, 46, 41, 28, 10, 33, 29, 22, 40, 0, 9, 17, 31, 25, 13, 42, 14, 19, 43, 26, 5, 1, 12
|0, 48, 18, 0, 9, 14, 16, 0, 19, 41, 27, 0, 22, 0, 32, 0, 6, 0, 0, 26, 0, 43, 34, 39, 12, 0, 0, 24, 25, 49, 4, 0, 42, 17, 0, 47, 3, 0, 36, 28, 11, 5, 15, 0, 8, 0, 0, 0, 7
|25, 0, 37, 19, 43, 17, 0, 8, 0, 12, 13, 28, 5, 0, 38, 29, 0, 4, 22, 1, 0, 42, 0, 14, 32, 0, 49, 26, 6, 18, 35, 27, 46, 7, 36, 0, 0, 16, 0, 0, 0, 30, 0, 48, 20, 0, 11, 0, 45
|0, 21, 34, 12, 30, 49, 42, 0, 0, 0, 22, 0, 3, 23, 29, 0, 8, 10, 20, 0, 6, 38, 0, 35, 17, 0, 31, 15, 14, 37, 25, 1, 48, 0, 0, 0, 45, 24, 16, 41, 4, 0, 0, 32, 46, 44, 0, 0, 0
|14, 24, 31, 0, 18, 7, 0, 0, 32, 0, 0, 37, 15, 0, 40, 9, 0, 0, 41, 30, 4, 34, 48, 49, 10, 21, 46, 0, 22, 0, 27, 11, 47, 0, 0, 12, 42, 0, 0, 5, 29, 0, 0, 0, 13, 0, 0, 8, 35
|23, 35, 0, 32, 44, 0, 0, 17, 16, 0, 46, 19, 8, 10, 0, 37, 31, 0, 48, 7, 0, 20, 0, 2, 36, 9, 14, 41, 40, 45, 42, 5, 13, 29, 12, 0, 47, 22, 43, 0, 6, 11, 49, 39, 24, 0, 4, 27, 0
|16, 0, 11, 47, 40, 1, 9, 0, 0, 0, 48, 49, 20, 6, 23, 0, 0, 24, 0, 2, 13, 19, 22, 33, 8, 0, 32, 42, 34, 43, 0, 0, 4, 46, 0, 31, 36, 28, 39, 35, 38, 17, 21, 0, 37, 45, 26, 0, 18
|0, 6, 13, 43, 0, 0, 0, 24, 40, 0, 31, 18, 0, 38, 22, 34, 47, 0, 33, 0, 0, 0, 0, 7, 5, 27, 45, 11, 0, 15, 49, 0, 9, 44, 26, 0, 8, 0, 23, 10, 0, 0, 12, 20, 29, 16, 41, 25, 0
|0, 0, 0, 46, 0, 0, 41, 5, 0, 43, 12, 4, 44, 0, 45, 27, 1, 17, 38, 0, 26, 0, 24, 13, 16, 23, 30, 6, 31, 33, 8, 19, 21, 28, 0, 0, 0, 0, 0, 0, 0, 25, 0, 3, 0, 7, 22, 9, 42
|22, 8, 19, 29, 25, 45, 4, 14, 30, 34, 0, 26, 9, 7, 44, 11, 0, 5, 32, 16, 15, 47, 40, 28, 3, 12, 39, 43, 17, 24, 0, 0, 23, 0, 35, 0, 21, 33, 37, 0, 0, 13, 0, 31, 0, 6, 0, 36, 10
|38, 0, 14, 49, 0, 13, 32, 34, 48, 31, 23, 27, 1, 41, 10, 30, 36, 46, 8, 0, 29, 44, 26, 45, 2, 0, 35, 39, 3, 0, 33, 18, 0, 15, 0, 20, 16, 7, 21, 47, 17, 24, 40, 9, 19, 42, 37, 0, 28
|45, 20, 29, 0, 0, 0, 18, 28, 7, 2, 32, 39, 40, 11, 0, 0, 16, 42, 0, 37, 0, 12, 36, 34, 22, 0, 41, 14, 21, 23, 1, 46, 0, 0, 0, 25, 0, 49, 0, 0, 5, 0, 8, 0, 31, 0, 24, 4, 15
|7, 44, 41, 0, 10, 6, 0, 22, 3, 0, 8, 0, 35, 45, 48, 13, 4, 0, 0, 17, 0, 0, 49, 21, 0, 16, 43, 0, 39, 31, 14, 0, 32, 9, 42, 0, 34, 18, 0, 40, 12, 26, 1, 5, 47, 36, 38, 11, 2
|27, 2, 0, 0, 22, 43, 17, 0, 0, 44, 37, 46, 13, 15, 5, 21, 9, 0, 25, 0, 0, 7, 0, 0, 18, 1, 42, 32, 19, 4, 20, 38, 26, 45, 0, 0, 11, 36, 28, 6, 0, 0, 30, 0, 0, 3, 16, 34, 23
|3, 0, 23, 31, 47, 0, 0, 0, 14, 19, 0, 0, 0, 16, 0, 26, 0, 0, 0, 15, 22, 9, 46, 48, 24, 11, 0, 5, 0, 41, 2, 17, 36, 8, 34, 44, 4, 42, 32, 0, 43, 0, 13, 18, 0, 10, 27, 12, 25
|0, 11, 46, 0, 1, 16, 0, 0, 12, 5, 36, 10, 0, 20, 2, 41, 0, 18, 49, 6, 34, 3, 0, 4, 0, 25, 19, 17, 28, 44, 30, 0, 35, 43, 37, 27, 29, 39, 38, 22, 0, 0, 0, 14, 21, 48, 33, 7, 32
|35, 9, 0, 0, 34, 19, 48, 43, 18, 0, 21, 0, 0, 42, 1, 3, 0, 0, 0, 44, 38, 0, 0, 27, 0, 28, 33, 47, 10, 7, 40, 0, 12, 11, 0, 30, 13, 45, 14, 0, 0, 2, 22, 0, 41, 20, 6, 46, 26
|0, 3, 0, 0, 6, 0, 13, 19, 25, 0, 34, 0, 33, 29, 0, 18, 44, 47, 0, 21, 8, 4, 0, 32, 0, 0, 0, 49, 0, 5, 46, 42, 30, 0, 22, 36, 35, 31, 10, 0, 28, 43, 17, 11, 0, 38, 12, 0, 27
|49, 0, 44, 48, 0, 0, 43, 10, 11, 37, 5, 41, 0, 12, 25, 0, 27, 0, 46, 0, 0, 0, 0, 19, 6, 0, 0, 28, 20, 36, 0, 7, 33, 18, 4, 1, 0, 47, 0, 9, 16, 0, 24, 45, 26, 40, 35, 30, 0
|21, 5, 38, 8, 0, 10, 29, 3, 35, 15, 26, 7, 45, 30, 13, 2, 40, 16, 0, 0, 0, 0, 33, 42, 44, 18, 0, 36, 47, 48, 17, 0, 28, 27, 9, 4, 0, 41, 11, 20, 0, 32, 39, 25, 1, 0, 31, 6, 0
|0, 1, 0, 0, 36, 41, 27, 38, 24, 4, 28, 2, 32, 18, 26, 22, 0, 0, 45, 20, 5, 8, 12, 3, 40, 43, 15, 30, 44, 0, 11, 25, 31, 0, 19, 21, 49, 48, 0, 33, 23, 0, 29, 0, 0, 0, 10, 16, 46
|18, 0, 0, 11, 20, 25, 7, 48, 42, 0, 9, 47, 0, 0, 33, 0, 0, 31, 0, 41, 0, 0, 16, 5, 35, 14, 24, 0, 0, 40, 32, 2, 0, 6, 0, 29, 0, 26, 45, 30, 46, 0, 28, 13, 44, 0, 19, 37, 3
|15, 28, 35, 0, 0, 22, 0, 13, 31, 0, 1, 8, 17, 0, 43, 48, 7, 9, 4, 29, 30, 0, 11, 0, 38, 39, 20, 37, 0, 10, 24, 49, 41, 0, 3, 42, 0, 0, 44, 19, 0, 6, 36, 2, 18, 23, 34, 32, 0
|0, 0, 0, 14, 24, 0, 19, 0, 0, 40, 0, 44, 49, 0, 0, 35, 0, 0, 28, 10, 1, 31, 17, 0, 0, 41, 0, 23, 0, 39, 37, 34, 45, 0, 38, 0, 0, 0, 2, 13, 22, 18, 0, 4, 0, 15, 0, 20, 48
|0, 38, 45, 22, 35, 0, 6, 44, 43, 47, 0, 12, 0, 5, 7, 0, 49, 13, 11, 33, 3, 0, 28, 8, 9, 31, 1, 21, 23, 0, 15, 48, 37, 0, 14, 18, 25, 10, 46, 2, 0, 27, 19, 41, 30, 24, 17, 29, 40
|40, 0, 7, 0, 32, 21, 37, 30, 28, 0, 10, 35, 27, 3, 14, 20, 0, 0, 5, 24, 48, 2, 29, 17, 34, 19, 13, 4, 33, 47, 43, 0, 18, 25, 11, 0, 0, 0, 8, 23, 45, 36, 44, 6, 0, 0, 42, 0, 0
|26, 0, 28, 27, 12, 0, 34, 15, 0, 9, 41, 36, 24, 0, 0, 0, 37, 0, 29, 4, 0, 49, 42, 11, 43, 47, 23, 0, 0, 0, 19, 40, 5, 10, 1, 0, 0, 0, 0, 48, 3, 0, 18, 7, 0, 0, 20, 38, 13
|31, 25, 5, 4, 0, 15, 0, 11, 20, 0, 18, 13, 29, 0, 6, 23, 28, 22, 0, 0, 36, 14, 0, 38, 39, 10, 44, 0, 12, 42, 34, 0, 7, 0, 0, 19, 43, 0, 33, 0, 47, 49, 16, 8, 3, 21, 0, 26, 9
|19, 49, 1, 0, 14, 23, 0, 0, 37, 0, 0, 42, 16, 0, 41, 0, 38, 0, 10, 45, 27, 0, 0, 0, 46, 15, 12, 18, 2, 0, 36, 0, 24, 32, 29, 17, 30, 4, 13, 0, 34, 9, 35, 28, 25, 47, 39, 48, 5
|29, 0, 17, 0, 41, 11, 0, 2, 38, 6, 49, 22, 0, 48, 15, 8, 0, 30, 0, 32, 19, 26, 25, 20, 7, 24, 5, 45, 35, 27, 0, 31, 0, 39, 13, 28, 1, 21, 0, 44, 42, 40, 46, 23, 4, 0, 36, 33, 34
|0, 18, 24, 13, 8, 3, 47, 21, 17, 0, 0, 23, 25, 33, 39, 0, 0, 1, 42, 0, 9, 16, 41, 37, 0, 36, 0, 0, 45, 38, 0, 22, 44, 0, 49, 5, 31, 0, 26, 0, 35, 29, 0, 12, 14, 0, 15, 0, 43|];