order = 7;
grid = [|39, 0, 47, 1, 0, 17, 34, 0, 0, 18, 0, 45, 12, 32, 21, 44, 11, 40, 16, 5, 13, 0, 14, 6, 0, 49, 33, 23, 0, 0, 22, 31, 29, 0, 0, 41, 37, 2, 24, 20, 9, 0, 25, 7, 43, 46, 30, 0, 0
|0, 11, 8, 49, 38, 7, 41, 0, 17, 13, 0, 25, 35, 5, 20, 0, 0, 0, 19, 48, 18, 4, 37, 0, 27, 47, 40, 0, 0, 23, 0, 24, 0, 26, 0, 32, 33, 0, 0, 28, 10, 34, 29, 14, 22, 0, 0, 1, 0
|46, 14, 2, 32, 42, 6, 24, 31, 0, 26, 30, 0, 0, 41, 37, 4, 28, 0, 17, 34, 15, 36, 39, 0, 0, 1, 25, 0, 16, 5, 12, 40, 0, 33, 0, 8, 18, 23, 0, 21, 7, 49, 0, 45, 0, 3, 0, 27, 13
|0, 3, 33, 45, 9, 29, 44, 14, 28, 1, 0, 0, 0, 47, 0, 43, 39, 0, 27, 12, 0, 35, 10, 11, 18, 5, 0, 0, 6, 38, 41, 7, 32, 34, 0, 15, 4, 31, 16, 0, 40, 0, 49, 36, 0, 48, 17, 20, 42
|26, 16, 0, 0, 10, 12, 5, 0, 11, 27, 40, 2, 29, 7, 47, 24, 0, 0, 0, 31, 25, 19, 9, 45, 28, 34, 41, 8, 17, 20, 49, 0, 0, 18, 0, 44, 6, 46, 3, 22, 36, 35, 4, 0, 15, 39, 32, 33, 0
|0, 19, 27, 36, 0, 0, 13, 49, 0, 34, 9, 37, 44, 0, 0, 0, 0, 0, 0, 0, 3, 16, 17, 43, 32, 0, 29, 2, 42, 14, 45, 0, 8, 0, 39, 26, 48, 0, 0, 25, 0, 1, 41, 24, 31, 40, 28, 0, 18
|37, 21, 4, 20, 28, 18, 40, 33, 48, 19, 16, 6, 39, 38, 0, 9, 32, 49, 8, 41, 35, 12, 0, 24, 0, 7, 3, 0, 36, 1, 0, 46, 0, 0, 43, 14, 0, 29, 13, 45, 17, 42, 0, 0, 47, 0, 11, 0, 0
|33, 0, 25, 28, 0, 22, 48, 0, 0, 0, 36, 21, 4, 39, 0, 16, 17, 7, 0, 27, 43, 2, 0, 0, 38, 0, 26, 0, 0, 0, 30, 19, 0, 0, 44, 45, 24, 5, 32, 12, 13, 0, 3, 0, 6, 42, 0, 47, 14
|0, 49, 29, 24, 30, 46, 47, 0, 6, 38, 0, 3, 0, 0, 44, 0, 18, 45, 32, 4, 19, 33, 0, 21, 0, 15, 9, 0, 27, 12, 28, 35, 39, 0, 0, 43, 11, 34, 8, 16, 2, 0, 0, 0, 20, 0, 36, 0, 23
|38, 45, 5, 0, 1, 4, 17, 30, 0, 23, 27, 31, 20, 0, 0, 35, 33, 3, 24, 0, 47, 43, 28, 44, 42, 0, 49, 0, 13, 8, 48, 0, 22, 9, 11, 37, 7, 26, 0, 18, 6, 46, 39, 0, 0, 10, 0, 40, 25
|40, 2, 0, 13, 12, 0, 7, 0, 22, 32, 43, 24, 14, 42, 0, 28, 5, 9, 11, 23, 26, 8, 0, 41, 0, 31, 6, 47, 20, 0, 17, 18, 25, 0, 0, 27, 30, 36, 21, 39, 15, 44, 35, 0, 46, 49, 33, 0, 0
|23, 41, 0, 31, 0, 43, 0, 44, 8, 47, 29, 5, 0, 0, 13, 0, 25, 0, 46, 21, 0, 22, 16, 32, 0, 18, 17, 35, 0, 10, 0, 33, 38, 7, 15, 0, 0, 42, 0, 48, 20, 40, 28, 0, 4, 24, 34, 12, 9
|0, 36, 10, 0, 26, 0, 32, 12, 35, 45, 48, 28, 7, 17, 42, 0, 2, 20, 31, 0, 0, 0, 0, 19, 0, 0, 13, 46, 43, 40, 47, 0, 24, 14, 29, 4, 0, 0, 23, 0, 33, 38, 16, 0, 0, 15, 18, 37, 8
|0, 18, 11, 0, 3, 15, 0, 41, 49, 46, 33, 9, 2, 13, 29, 48, 0, 0, 34, 0, 39, 27, 40, 30, 7, 0, 24, 4, 45, 26, 36, 0, 0, 42, 32, 10, 14, 25, 47, 0, 35, 0, 0, 21, 1, 19, 44, 43, 17
|49, 0, 3, 29, 47, 26, 42, 0, 1, 0, 0, 0, 27, 14, 33, 0, 19, 35, 30, 9, 31, 15, 0, 37, 13, 28, 20, 45, 7, 43, 5, 8, 48, 2, 18, 34, 36, 0, 0, 40, 21, 0, 17, 0, 38, 0, 24, 23, 0
|0, 0, 13, 0, 8, 25, 0, 39, 0, 11, 24, 36, 42, 0, 3, 49, 38, 21, 37, 29, 28, 0, 0, 0, 2, 6, 35, 48, 0, 34, 40, 0, 17, 1, 0, 19, 0, 18, 33, 32, 0, 23, 0, 0, 7, 31, 0, 4, 20
|35, 23, 0, 18, 11, 10, 33, 8, 3, 40, 2, 0, 49, 21, 24, 25, 42, 15, 4, 26, 5, 7, 0, 17, 0, 32, 14, 43, 19, 16, 20, 0, 0, 12, 0, 0, 0, 38, 22, 13, 31, 45, 34, 0, 48, 37, 41, 0, 0
|0, 0, 32, 0, 44, 0, 27, 0, 30, 0, 4, 22, 0, 0, 48, 2, 0, 41, 23, 0, 12, 42, 33, 16, 29, 0, 34, 21, 35, 15, 46, 0, 45, 36, 31, 39, 3, 0, 17, 7, 43, 9, 0, 5, 49, 25, 0, 0, 0
|16, 39, 20, 4, 7, 19, 1, 13, 43, 0, 12, 44, 23, 28, 45, 8, 6, 0, 14, 32, 17, 31, 0, 18, 49, 40, 0, 38, 22, 0, 11, 3, 26, 25, 24, 0, 35, 30, 2, 0, 29, 48, 47, 0, 9, 0, 15, 0, 33
|48, 0, 43, 0, 36, 0, 12, 34, 7, 6, 5, 33, 45, 31, 22, 40, 0, 44, 0, 20, 11, 9, 25, 47, 0, 0, 0, 1, 0, 27, 0, 38, 28, 13, 4, 0, 26, 0, 41, 15, 42, 24, 0, 35, 3, 0, 0, 0, 2
|5, 34, 31, 40, 0, 9, 15, 0, 0, 17, 32, 35, 18, 48, 43, 47, 46, 13, 0, 7, 27, 3, 24, 22, 0, 10, 12, 0, 49, 37, 0, 0, 23, 21, 42, 28, 0, 14, 0, 44, 4, 0, 45, 1, 11, 0, 16, 0, 0
|12, 0, 24, 17, 40, 0, 19, 10, 16, 0, 28, 15, 3, 45, 26, 18, 0, 27, 0, 43, 38, 39, 1, 23, 47, 20, 0, 33, 31, 21, 0, 36, 49, 0, 5, 9, 42, 22, 34, 0, 8, 32, 11, 6, 2, 4, 0, 29, 41
|0, 8, 26, 22, 20, 35, 4, 42, 29, 49, 31, 12, 41, 9, 5, 34, 0, 36, 0, 37, 0, 44, 32, 0, 17, 0, 11, 24, 0, 28, 3, 14, 33, 39, 25, 23, 38, 1, 6, 43, 0, 30, 27, 0, 18, 47, 45, 16, 48
|15, 0, 9, 0, 45, 0, 39, 37, 0, 48, 47, 34, 6, 0, 1, 7, 49, 0, 20, 0, 0, 41, 18, 10, 30, 46, 0, 36, 40, 2, 42, 17, 0, 19, 0, 33, 13, 44, 0, 5, 16, 0, 26, 22, 32, 0, 3, 35, 24
|13, 47, 44, 0, 6, 49, 0, 7, 20, 0, 11, 18, 43, 33, 0, 23, 31, 22, 0, 24, 32, 29, 0, 38, 40, 0, 0, 16, 0, 35, 0, 37, 0, 46, 0, 48, 12, 27, 15, 10, 14, 0, 1, 25, 17, 34, 42, 0, 5
|0, 32, 14, 0, 0, 27, 43, 0, 40, 30, 1, 4, 13, 46, 9, 17, 3, 11, 0, 33, 45, 48, 0, 0, 0, 2, 8, 25, 47, 0, 10, 34, 0, 38, 6, 0, 0, 7, 26, 29, 0, 0, 37, 0, 39, 23, 12, 15, 0
|0, 31, 37, 0, 0, 34, 0, 24, 27, 0, 38, 0, 21, 36, 0, 15, 41, 28, 35, 6, 16, 14, 0, 0, 26, 0, 43, 0, 11, 48, 0, 29, 12, 22, 13, 0, 47, 17, 0, 19, 3, 4, 33, 9, 40, 8, 7, 30, 0
|36, 42, 0, 23, 33, 0, 38, 2, 14, 5, 0, 26, 17, 35, 0, 29, 48, 47, 44, 30, 4, 6, 0, 0, 12, 3, 0, 15, 18, 9, 32, 20, 0, 0, 8, 11, 0, 0, 37, 0, 0, 0, 0, 13, 10, 0, 0, 46, 31
|47, 0, 0, 48, 16, 31, 18, 0, 34, 0, 0, 8, 38, 23, 12, 33, 15, 14, 0, 11, 30, 0, 43, 20, 41, 24, 10, 39, 3, 7, 9, 45, 42, 32, 22, 40, 0, 0, 5, 46, 0, 2, 44, 4, 28, 36, 29, 0, 35
|0, 38, 28, 6, 37, 5, 46, 11, 0, 2, 41, 49, 0, 24, 18, 10, 44, 43, 0, 0, 0, 0, 0, 0, 48, 16, 31, 0, 0, 36, 35, 0, 20, 17, 1, 42, 0, 13, 30, 33, 23, 26, 14, 40, 0, 12, 27, 0, 3
|24, 1, 0, 2, 43, 0, 0, 0, 12, 15, 3, 13, 46, 0, 0, 42, 20, 0, 47, 19, 7, 0, 0, 4, 0, 14, 27, 0, 0, 0, 21, 48, 37, 0, 49, 16, 0, 0, 44, 0, 32, 0, 18, 33, 0, 5, 38, 0, 0
|27, 12, 49, 33, 22, 23, 0, 47, 0, 42, 26, 14, 9, 16, 0, 31, 0, 39, 48, 0, 0, 45, 6, 25, 5, 44, 0, 29, 0, 30, 19, 41, 0, 15, 38, 0, 0, 28, 18, 36, 1, 0, 0, 0, 34, 0, 10, 0, 0
|44, 25, 34, 10, 19, 0, 0, 0, 33, 36, 0, 20, 5, 30, 35, 13, 0, 0, 38, 28, 23, 40, 8, 46, 3, 37, 32, 0, 14, 18, 0, 12, 0, 47, 2, 21, 17, 4, 45, 11, 41, 0, 0, 16, 26, 0, 48, 0, 0
|8, 30, 40, 15, 21, 36, 0, 0, 0, 4, 17, 0, 31, 27, 0, 6, 0, 5, 26, 25, 24, 28, 0, 0, 0, 35, 0, 0, 33, 0, 13, 44, 0, 43, 16, 22, 0, 48, 14, 3, 12, 20, 32, 0, 37, 0, 19, 7, 0
|0, 13, 0, 35, 0, 0, 0, 28, 45, 43, 22, 10, 48, 44, 0, 27, 8, 2, 49, 46, 40, 18, 0, 12, 36, 33, 19, 17, 5, 6, 34, 0, 0, 0, 0, 25, 39, 0, 9, 0, 37, 0, 0, 31, 0, 21, 20, 42, 1
|29, 0, 18, 0, 0, 41, 49, 45, 0, 33, 39, 42, 36, 10, 40, 19, 0, 4, 13, 44, 0, 1, 22, 14, 0, 27, 5, 6, 9, 47, 0, 43, 0, 48, 0, 31, 32, 0, 0, 17, 30, 0, 15, 23, 0, 0, 26, 34, 0
|43, 40, 6, 9, 4, 0, 8, 23, 0, 29, 13, 1, 30, 37, 0, 0, 35, 32, 7, 0, 42, 24, 0, 2, 33, 48, 0, 3, 46, 39, 16, 5, 0, 0, 17, 0, 25, 21, 19, 26, 34, 22, 38, 28, 27, 20, 49, 10, 45
|32, 28, 48, 42, 0, 33, 37, 20, 44, 16, 0, 7, 8, 3, 49, 26, 0, 38, 0, 2, 9, 0, 36, 0, 11, 25, 18, 19, 10, 0, 1, 15, 0, 40, 12, 0, 46, 0, 0, 0, 0, 13, 5, 39, 0, 30, 21, 24, 0
|0, 10, 21, 0, 17, 13, 26, 0, 24, 28, 6, 48, 0, 43, 11, 0, 22, 0, 41, 16, 46, 20, 23, 31, 9, 0, 7, 42, 30, 4, 0, 2, 0, 0, 36, 29, 44, 0, 0, 49, 18, 5, 40, 47, 8, 33, 35, 3, 19
|19, 27, 0, 16, 5, 11, 2, 0, 47, 31, 49, 46, 0, 22, 0, 21, 1, 0, 0, 45, 0, 37, 13, 0, 35, 4, 30, 40, 29, 0, 0, 32, 44, 20, 0, 6, 8, 0, 39, 23, 38, 33, 0, 0, 42, 41, 25, 9, 7
|3, 15, 35, 0, 0, 0, 22, 27, 26, 0, 18, 41, 40, 0, 17, 0, 0, 33, 5, 47, 0, 0, 38, 39, 10, 8, 16, 0, 25, 42, 6, 23, 0, 49, 19, 36, 2, 37, 0, 9, 28, 14, 43, 48, 13, 1, 4, 31, 0
|30, 0, 0, 38, 34, 0, 0, 9, 5, 0, 0, 19, 25, 4, 27, 3, 23, 18, 0, 0, 0, 46, 49, 0, 43, 0, 47, 0, 41, 0, 0, 26, 13, 37, 0, 0, 10, 20, 40, 42, 48, 11, 2, 17, 44, 29, 22, 32, 16
|9, 44, 42, 41, 29, 3, 0, 19, 13, 0, 10, 11, 47, 0, 0, 12, 26, 16, 0, 0, 0, 23, 0, 0, 0, 0, 15, 27, 4, 32, 0, 30, 35, 8, 40, 7, 1, 45, 46, 0, 39, 0, 31, 49, 0, 0, 5, 48, 21
|11, 4, 1, 26, 0, 20, 25, 0, 42, 0, 23, 0, 33, 8, 34, 0, 0, 19, 6, 35, 2, 10, 12, 40, 46, 17, 0, 18, 38, 13, 15, 22, 36, 0, 0, 30, 0, 16, 0, 47, 0, 43, 9, 3, 24, 45, 0, 14, 28
|10, 48, 0, 7, 13, 40, 28, 43, 31, 9, 14, 39, 26, 0, 38, 5, 37, 0, 0, 42, 1, 0, 29, 36, 6, 22, 21, 44, 34, 17, 24, 49, 3, 16, 0, 20, 0, 35, 4, 0, 25, 18, 46, 0, 19, 0, 0, 11, 27
|34, 43, 0, 47, 0, 8, 23, 48, 36, 0, 44, 0, 1, 0, 15, 32, 21, 24, 0, 18, 0, 5, 0, 3, 20, 26, 0, 9, 37, 0, 31, 28, 14, 10, 7, 0, 40, 12, 42, 27, 19, 29, 6, 41, 0, 17, 13, 25, 4
|18, 0, 22, 27, 31, 0, 35, 46, 41, 21, 45, 17, 0, 29, 4, 0, 0, 48, 3, 40, 10, 49, 30, 33, 16, 19, 1, 0, 0, 25, 0, 42, 9, 5, 20, 0, 23, 32, 28, 0, 44, 0, 0, 0, 36, 0, 0, 38, 39
|0, 0, 15, 19, 39, 14, 21, 0, 25, 35, 34, 38, 0, 49, 23, 36, 0, 31, 0, 13, 44, 32, 0, 8, 0, 0, 42, 0, 48, 0, 0, 1, 47, 6, 46, 0, 9, 0, 0, 24, 0, 3, 0, 12, 0, 2, 40, 0, 43
|17, 5, 16, 0, 0, 0, 0, 4, 37, 3, 0, 0, 28, 0, 7, 46, 0, 30, 9, 0, 49, 0, 11, 13, 24, 43, 0, 31, 39, 45, 26, 27, 0, 41, 23, 38, 0, 0, 0, 8, 22, 15, 42, 0, 29, 0, 1, 44, 34|];