order = 7;
grid = [|0, 0, 23, 0, 12, 0, 0, 0, 0, 0, 0, 0, 0, 35, 0, 0, 4, 0, 0, 48, 0, 19, 0, 0, 0, 16, 0, 0, 0, 0, 8, 0, 0, 29, 25, 0, 44, 0, 0, 0, 0, 0, 3, 0, 0, 0, 45, 0, 0
|0, 0, 0, 0, 10, 25, 0, 19, 0, 0, 0, 0, 36, 0, 0, 0, 0, 0, 14, 30, 3, 0, 0, 0, 0, 31, 0, 44, 43, 0, 0, 0, 0, 0, 0, 26, 35, 0, 0, 0, 0, 0, 27, 0, 0, 0, 0, 24, 0
|0, 0, 0, 0, 0, 0, 30, 0, 0, 44, 0, 0, 0, 1, 0, 0, 0, 11, 0, 0, 0, 6, 0, 0, 0, 0, 0, 0, 41, 49, 0, 0, 0, 19, 2, 0, 0, 34, 27, 3, 0, 0, 0, 0, 5, 0, 14, 0, 0
|0, 0, 0, 0, 0, 29, 45, 0, 15, 33, 0, 10, 0, 0, 0, 0, 0, 0, 0, 0, 0, 0, 3, 25, 0, 0, 0, 0, 12, 0, 0, 0, 0, 0, 0, 24, 0, 7, 28, 0, 16, 47, 0, 0, 0, 44, 0, 39, 6
|0, 0, 0, 0, 4, 0, 0, 0, 17, 0, 18, 0, 0, 45, 0, 5, 0, 0, 0, 25, 0, 35, 0, 0, 0, 9, 0, 0, 0, 0, 0, 0, 0, 0, 0, 0, 0, 31, 0, 0, 0, 0, 0, 0, 16, 0, 0, 0, 0
|0, 0, 43, 0, 0, 0, 35, 16, 0, 0, 0, 0, 0, 0, 0, 0, 0, 31, 0, 0, 19, 0, 0, 21, 0, 0, 0, 0, 0, 0, 0, 0, 0, 0, 0, 0, 5, 8, 0, 0, 40, 0, 18, 0, 0, 0, 47, 0, 0
|0, 0, 0, 0, 0, 0, 16, 0, 0, 0, 0, 0, 20, 14, 0, 0, 0, 29, 40, 8, 0, 0, 0, 0, 0, 0, 0, 33, 0, 35, 0, 0, 0, 0, 0, 39, 0, 0, 0, 0, 0, 0, 0, 0, 0, 0, 0, 0, 0
|0, 0, 20, 0, 30, 0, 0, 21, 0, 29, 0, 0, 0, 0, 0, 0, 38, 42, 0, 19, 0, 0, 0, 0, 0, 0, 23, 0, 35, 41, 24, 0, 0, 0, 3, 0, 0, 0, 0, 18, 0, 0, 0, 8, 6, 10, 13, 0, 25
|0, 0, 15, 0, 0, 0, 0, 0, 32, 39, 0, 0, 0, 0, 24, 13, 0, 20, 27, 10, 0, 0, 0, 0, 26, 0, 0, 7, 0, 30, 9, 0, 0, 5, 0, 0, 0, 0, 0, 0, 0, 0, 47, 0, 0, 40, 22, 12, 16
|0, 28, 36, 0, 0, 0, 0, 0, 0, 0, 0, 0, 0, 27, 43, 0, 0, 0, 0, 1, 0, 44, 0, 0, 9, 0, 31, 47, 0, 0, 17, 6, 26, 16, 0, 0, 0, 2, 0, 8, 0, 35, 0, 0, 14, 0, 0, 0, 41
|0, 0, 0, 0, 0, 22, 0, 0, 0, 0, 0, 0, 0, 25, 0, 0, 0, 0, 0, 0, 6, 0, 0, 10, 0, 46, 41, 1, 0, 0, 0, 11, 0, 0, 0, 0, 0, 0, 9, 5, 23, 0, 0, 27, 0, 30, 43, 0, 0
|0, 0, 0, 0, 0, 0, 0, 6, 0, 0, 30, 0, 0, 0, 0, 0, 45, 32, 41, 0, 15, 3, 0, 0, 0, 0, 20, 12, 0, 0, 0, 47, 25, 0, 0, 0, 0, 0, 0, 0, 0, 0, 0, 7, 0, 0, 0, 0, 0
|0, 32, 25, 0, 0, 0, 0, 0, 0, 0, 19, 0, 0, 0, 0, 44, 0, 30, 0, 0, 0, 0, 0, 0, 0, 0, 0, 11, 27, 0, 14, 0, 0, 0, 0, 7, 10, 3, 0, 0, 0, 0, 0, 20, 0, 0, 31, 0, 0
|0, 0, 41, 1, 14, 0, 3, 0, 0, 47, 10, 0, 33, 46, 0, 0, 0, 0, 0, 0, 12, 0, 0, 0, 0, 0, 0, 0, 0, 0, 0, 0, 0, 0, 0, 20, 19, 0, 31, 0, 0, 27, 5, 0, 17, 0, 0, 0, 0
|8, 0, 0, 0, 17, 0, 0, 0, 0, 0, 4, 0, 3, 18, 28, 0, 0, 1, 9, 42, 35, 0, 0, 46, 0, 0, 0, 0, 0, 48, 0, 0, 0, 0, 0, 0, 0, 0, 0, 39, 0, 0, 0, 0, 45, 0, 0, 0, 0
|0, 10, 0, 0, 0, 0, 0, 0, 48, 0, 0, 49, 0, 20, 0, 40, 0, 46, 0, 0, 0, 33, 0, 0, 0, 0, 0, 0, 0, 0, 47, 0, 0, 0, 30, 8, 0, 0, 17, 0, 35, 0, 0, 0, 0, 29, 12, 0, 0
|0, 48, 13, 0, 0, 7, 0, 2, 0, 1, 0, 0, 0, 0, 0, 15, 0, 33, 0, 0, 14, 0, 21, 44, 0, 0, 0, 35, 0, 0, 0, 0, 0, 0, 0, 40, 0, 0, 0, 0, 49, 11, 0, 43, 0, 0, 0, 0, 0
|39, 0, 0, 0, 0, 30, 0, 0, 0, 0, 0, 33, 10, 0, 0, 0, 0, 0, 16, 0, 0, 0, 31, 0, 0, 0, 0, 43, 0, 25, 0, 0, 0, 0, 35, 0, 0, 44, 0, 21, 0, 0, 0, 0, 0, 0, 0, 0, 27
|3, 0, 0, 0, 0, 0, 25, 0, 0, 22, 0, 0, 40, 47, 0, 0, 0, 0, 0, 36, 27, 0, 0, 0, 24, 6, 0, 0, 21, 0, 0, 5, 0, 0, 11, 1, 0, 9, 41, 0, 38, 0, 13, 0, 0, 0, 0, 0, 0
|0, 0, 0, 22, 0, 0, 9, 0, 0, 0, 0, 30, 25, 11, 20, 0, 13, 47, 26, 7, 8, 0, 32, 0, 0, 0, 0, 0, 0, 29, 23, 0, 40, 45, 0, 36, 0, 0, 19, 0, 0, 0, 0, 0, 3, 0, 34, 0, 0
|21, 47, 0, 0, 18, 0, 20, 0, 35, 0, 0, 0, 0, 0, 17, 0, 0, 6, 29, 39, 31, 0, 0, 1, 3, 8, 0, 0, 46, 0, 0, 12, 0, 43, 0, 0, 0, 0, 48, 15, 26, 30, 40, 0, 0, 0, 19, 25, 0
|0, 0, 0, 0, 0, 0, 0, 0, 27, 0, 0, 0, 0, 0, 0, 46, 0, 45, 0, 0, 0, 0, 0, 19, 0, 39, 0, 9, 1, 0, 0, 0, 43, 0, 24, 5, 32, 0, 0, 49, 0, 0, 7, 37, 0, 36, 15, 0, 0
|0, 0, 0, 12, 22, 0, 0, 0, 0, 0, 0, 0, 0, 44, 0, 0, 16, 0, 0, 38, 25, 0, 0, 0, 0, 0, 24, 0, 0, 36, 0, 15, 0, 0, 23, 0, 39, 0, 0, 0, 0, 0, 0, 0, 0, 0, 42, 0, 0
|0, 0, 0, 0, 0, 0, 0, 0, 37, 2, 39, 6, 0, 8, 0, 1, 27, 34, 0, 40, 4, 23, 0, 0, 0, 17, 0, 0, 0, 10, 0, 0, 0, 25, 0, 42, 0, 0, 0, 20, 0, 0, 0, 46, 0, 22, 5, 0, 0
|0, 0, 5, 0, 0, 0, 0, 0, 0, 45, 0, 0, 0, 43, 44, 0, 30, 17, 0, 0, 0, 0, 0, 0, 1, 0, 0, 22, 0, 0, 0, 0, 7, 0, 0, 2, 0, 0, 0, 0, 0, 0, 0, 0, 0, 0, 33, 0, 0
|0, 42, 0, 19, 0, 0, 2, 0, 0, 0, 0, 0, 0, 0, 0, 3, 15, 0, 11, 24, 0, 0, 6, 30, 8, 0, 0, 0, 0, 20, 0, 46, 0, 0, 13, 37, 9, 35, 0, 0, 0, 0, 17, 0, 12, 0, 0, 0, 0
|0, 0, 39, 0, 0, 17, 0, 0, 0, 48, 15, 0, 0, 0, 33, 14, 0, 36, 10, 0, 22, 0, 42, 0, 0, 0, 0, 0, 19, 0, 37, 0, 35, 12, 5, 0, 0, 0, 8, 7, 0, 0, 6, 18, 0, 34, 3, 31, 0
|11, 0, 0, 28, 0, 0, 0, 0, 3, 0, 0, 0, 0, 38, 0, 7, 0, 48, 0, 29, 0, 0, 0, 0, 0, 0, 4, 0, 0, 21, 0, 39, 0, 14, 27, 0, 0, 0, 46, 0, 24, 0, 0, 0, 0, 25, 0, 13, 0
|27, 38, 0, 0, 0, 45, 0, 0, 12, 7, 0, 28, 0, 0, 10, 0, 0, 0, 0, 14, 0, 1, 49, 0, 0, 25, 0, 0, 6, 0, 0, 35, 0, 0, 0, 0, 0, 0, 39, 16, 0, 0, 0, 0, 40, 8, 21, 0, 0
|0, 0, 0, 0, 0, 0, 0, 4, 0, 25, 0, 0, 0, 0, 0, 0, 0, 0, 0, 0, 0, 0, 0, 0, 0, 0, 0, 0, 0, 40, 0, 48, 0, 27, 0, 0, 0, 0, 0, 28, 0, 49, 0, 47, 35, 0, 0, 0, 0
|0, 2, 0, 0, 0, 0, 0, 9, 0, 20, 0, 21, 0, 0, 0, 0, 35, 0, 39, 0, 17, 0, 0, 41, 14, 0, 0, 0, 26, 0, 0, 18, 12, 0, 1, 0, 0, 0, 0, 0, 0, 0, 36, 0, 10, 0, 38, 0, 0
|10, 12, 0, 0, 0, 39, 0, 0, 0, 0, 0, 46, 0, 0, 0, 0, 0, 0, 0, 0, 0, 36, 11, 0, 35, 0, 0, 13, 0, 0, 0, 3, 0, 0, 0, 0, 0, 0, 0, 17, 0, 32, 28, 0, 0, 0, 0, 0, 31
|0, 0, 11, 0, 0, 0, 22, 0, 0, 31, 0, 0, 0, 0, 46, 36, 8, 0, 15, 0, 0, 18, 0, 0, 0, 0, 10, 0, 0, 34, 21, 0, 0, 28, 7, 0, 0, 38, 0, 0, 4, 24, 0, 0, 0, 0, 0, 0, 3
|0, 0, 8, 0, 0, 0, 0, 36, 5, 0, 0, 32, 0, 6, 0, 0, 0, 9, 12, 0, 0, 0, 0, 3, 0, 0, 0, 0, 25, 0, 0, 0, 0, 0, 0, 44, 41, 11, 2, 35, 0, 0, 19, 0, 0, 0, 0, 48, 0
|0, 0, 0, 31, 21, 0, 46, 35, 0, 0, 0, 18, 0, 24, 0, 29, 0, 0, 3, 0, 0, 20, 0, 0, 33, 0, 0, 0, 13, 0, 0, 0, 9, 0, 0, 27, 0, 0, 0, 40, 47, 0, 44, 0, 0, 0, 0, 49, 23
|18, 0, 0, 0, 9, 0, 0, 0, 0, 0, 36, 0, 47, 0, 42, 0, 0, 0, 22, 0, 0, 31, 0, 27, 0, 0, 0, 0, 7, 0, 0, 4, 0, 0, 0, 0, 0, 0, 0, 32, 8, 0, 0, 0, 0, 0, 48, 0, 29
|0, 46, 0, 0, 0, 0, 0, 0, 0, 0, 26, 0, 0, 41, 0, 0, 0, 0, 7, 0, 0, 12, 0, 13, 0, 0, 36, 0, 2, 0, 0, 31, 0, 35, 0, 33, 0, 0, 23, 0, 20, 0, 15, 0, 24, 32, 39, 0, 0
|41, 17, 0, 7, 0, 0, 0, 0, 0, 15, 0, 20, 0, 0, 0, 0, 0, 0, 0, 0, 0, 24, 0, 0, 0, 0, 0, 0, 0, 0, 43, 0, 0, 0, 0, 0, 0, 27, 0, 0, 29, 0, 0, 0, 0, 0, 0, 36, 0
|0, 0, 2, 38, 0, 0, 0, 11, 0, 32, 0, 40, 13, 0, 36, 0, 34, 14, 24, 0, 29, 0, 0, 0, 0, 0, 0, 0, 5, 0, 0, 0, 0, 0, 20, 0, 0, 0, 0, 0, 0, 0, 0, 0, 46, 0, 0, 0, 0
|0, 0, 6, 0, 0, 0, 0, 18, 0, 0, 0, 0, 0, 0, 0, 0, 0, 0, 0, 37, 0, 41, 0, 23, 0, 0, 39, 0, 0, 0, 0, 25, 0, 0, 46, 0, 0, 0, 0, 0, 7, 0, 33, 0, 2, 0, 0, 0, 0
|0, 0, 0, 0, 0, 0, 0, 0, 0, 24, 0, 0, 0, 33, 41, 0, 28, 8, 0, 0, 0, 49, 0, 17, 46, 0, 9, 0, 0, 0, 0, 0, 0, 36, 26, 3, 0, 0, 0, 0, 0, 0, 0, 0, 27, 0, 7, 18, 35
|0, 0, 0, 0, 31, 0, 0, 0, 0, 0, 23, 25, 1, 0, 0, 33, 20, 35, 0, 0, 0, 7, 0, 0, 0, 0, 0, 0, 0, 0, 0, 0, 28, 21, 0, 46, 0, 19, 24, 41, 0, 2, 0, 0, 0, 0, 0, 0, 22
|24, 18, 0, 0, 0, 10, 27, 0, 0, 0, 46, 0, 0, 48, 0, 0, 0, 26, 0, 0, 23, 0, 14, 0, 44, 0, 17, 6, 0, 0, 0, 0, 3, 9, 0, 0, 2, 0, 13, 0, 0, 0, 0, 11, 0, 0, 40, 47, 0
|0, 0, 0, 40, 0, 2, 32, 33, 24, 0, 0, 0, 0, 0, 0, 0, 0, 0, 0, 34, 0, 0, 0, 4, 0, 23, 0, 0, 0, 0, 15, 0, 0, 0, 0, 0, 0, 0, 0, 0, 0, 29, 0, 21, 0, 0, 0, 46, 0
|0, 34, 3, 0, 0, 15, 0, 0, 0, 38, 0, 9, 0, 0, 0, 0, 0, 0, 0, 0, 0, 2, 0, 0, 0, 0, 0, 0, 39, 0, 0, 13, 0, 26, 0, 23, 31, 0, 0, 0, 0, 28, 10, 4, 0, 0, 0, 14, 0
|14, 0, 12, 0, 49, 0, 48, 5, 0, 23, 0, 0, 8, 0, 30, 0, 0, 37, 0, 0, 0, 0, 18, 0, 0, 38, 0, 16, 47, 0, 0, 0, 10, 0, 36, 4, 0, 41, 0, 0, 0, 0, 0, 0, 31, 0, 2, 0, 0
|0, 31, 38, 0, 0, 0, 0, 0, 2, 0, 13, 39, 0, 32, 0, 0, 0, 4, 0, 0, 0, 10, 46, 34, 0, 0, 21, 0, 29, 0, 19, 0, 0, 44, 0, 0, 0, 0, 26, 0, 27, 0, 0, 24, 0, 18, 9, 0, 0
|0, 0, 0, 0, 0, 0, 7, 31, 0, 0, 0, 4, 14, 0, 0, 27, 0, 24, 0, 0, 0, 9, 0, 0, 15, 0, 0, 32, 23, 0, 38, 0, 0, 30, 0, 10, 0, 0, 25, 0, 0, 0, 0, 6, 0, 0, 0, 0, 0
|26, 45, 0, 0, 0, 13, 5, 0, 0, 0, 0, 0, 0, 0, 3, 0, 0, 38, 2, 0, 10, 0, 0, 11, 0, 7, 0, 0, 0, 31, 0, 0, 0, 20, 0, 0, 0, 32, 0, 0, 0, 0, 0, 0, 0, 0, 0, 0, 0|];