order = 7;
grid = [|43, 20, 0, 0, 0, 0, 0, 0, 0, 45, 31, 0, 48, 0, 24, 0, 0, 0, 0, 0, 0, 0, 0, 0, 30, 0, 23, 0, 0, 0, 1, 0, 0, 0, 19, 40, 0, 0, 6, 35, 0, 33, 0, 0, 0, 0, 47, 0, 0
|21, 0, 0, 0, 0, 19, 23, 0, 37, 0, 15, 0, 0, 0, 0, 0, 0, 0, 0, 0, 0, 0, 49, 45, 17, 0, 0, 0, 0, 0, 36, 0, 0, 0, 0, 0, 0, 0, 0, 0, 8, 0, 0, 31, 38, 0, 0, 0, 0
|0, 3, 35, 0, 0, 0, 36, 0, 0, 49, 46, 9, 20, 0, 0, 0, 0, 0, 0, 0, 0, 0, 0, 4, 0, 0, 21, 0, 37, 0, 0, 0, 6, 0, 13, 0, 0, 0, 29, 0, 0, 26, 0, 0, 0, 0, 39, 0, 0
|0, 9, 42, 0, 0, 31, 0, 0, 0, 0, 0, 0, 38, 0, 0, 0, 0, 0, 0, 0, 0, 0, 0, 0, 0, 0, 1, 0, 0, 0, 0, 0, 0, 0, 0, 2, 30, 0, 43, 0, 0, 0, 0, 0, 21, 24, 0, 0, 0
|22, 0, 8, 47, 29, 0, 0, 0, 0, 0, 0, 0, 16, 1, 17, 0, 0, 5, 0, 0, 4, 0, 0, 0, 46, 0, 0, 0, 27, 0, 0, 0, 49, 0, 0, 23, 0, 12, 0, 3, 0, 45, 0, 0, 43, 0, 0, 0, 36
|0, 0, 4, 0, 0, 0, 0, 0, 0, 0, 30, 0, 0, 0, 0, 0, 0, 0, 0, 0, 0, 33, 0, 0, 0, 0, 0, 0, 0, 43, 0, 42, 23, 0, 0, 0, 25, 44, 0, 0, 0, 0, 0, 32, 0, 18, 0, 0, 45
|0, 0, 0, 28, 0, 0, 0, 25, 0, 21, 0, 0, 0, 0, 0, 42, 0, 0, 32, 0, 0, 0, 0, 0, 18, 0, 24, 0, 0, 0, 0, 8, 0, 0, 5, 0, 0, 0, 0, 4, 13, 0, 0, 0, 0, 0, 0, 0, 0
|0, 0, 0, 0, 14, 0, 0, 38, 0, 0, 0, 0, 0, 0, 25, 0, 0, 0, 26, 0, 36, 39, 0, 0, 0, 0, 0, 0, 0, 0, 48, 24, 42, 0, 0, 30, 22, 13, 0, 11, 0, 40, 9, 28, 15, 20, 0, 49, 0
|0, 0, 0, 0, 0, 27, 0, 0, 0, 0, 36, 0, 0, 0, 0, 13, 0, 0, 46, 0, 12, 20, 0, 0, 0, 0, 0, 0, 0, 0, 16, 28, 0, 0, 0, 0, 0, 0, 0, 0, 0, 0, 34, 0, 0, 0, 0, 0, 0
|0, 0, 0, 31, 18, 0, 0, 0, 21, 0, 0, 0, 0, 0, 0, 0, 0, 0, 0, 0, 0, 0, 28, 10, 0, 0, 0, 0, 0, 0, 0, 0, 0, 0, 0, 0, 0, 3, 0, 0, 0, 43, 26, 0, 0, 0, 14, 23, 0
|0, 0, 0, 0, 0, 0, 45, 0, 0, 5, 0, 20, 0, 28, 18, 0, 0, 0, 0, 0, 0, 0, 25, 0, 0, 0, 0, 17, 0, 41, 0, 0, 0, 2, 4, 0, 31, 0, 16, 0, 0, 0, 0, 0, 0, 0, 0, 6, 0
|0, 0, 0, 0, 0, 0, 0, 0, 0, 0, 19, 0, 13, 0, 0, 0, 0, 0, 3, 10, 0, 0, 0, 0, 0, 0, 0, 16, 0, 0, 0, 0, 31, 0, 0, 0, 0, 0, 25, 14, 0, 9, 0, 0, 0, 38, 0, 0, 0
|3, 0, 0, 0, 30, 35, 11, 0, 47, 16, 0, 0, 10, 17, 0, 0, 14, 0, 0, 0, 0, 0, 27, 0, 0, 0, 0, 0, 0, 0, 13, 0, 0, 49, 0, 7, 0, 0, 0, 0, 33, 32, 0, 0, 0, 0, 0, 0, 0
|0, 0, 0, 0, 0, 25, 0, 26, 0, 22, 0, 12, 0, 0, 4, 0, 0, 17, 0, 0, 0, 0, 0, 38, 0, 0, 0, 0, 47, 0, 0, 11, 0, 0, 0, 0, 0, 0, 18, 48, 0, 0, 44, 7, 0, 33, 0, 0, 27
|0, 25, 0, 45, 0, 0, 0, 0, 0, 0, 0, 23, 0, 0, 0, 0, 6, 1, 0, 0, 0, 12, 21, 0, 0, 3, 0, 0, 0, 8, 0, 0, 40, 48, 0, 0, 33, 0, 17, 44, 0, 0, 0, 13, 0, 0, 0, 0, 0
|0, 0, 0, 46, 0, 28, 0, 0, 0, 0, 0, 32, 27, 49, 9, 43, 42, 0, 0, 0, 0, 0, 38, 22, 10, 0, 14, 0, 0, 0, 30, 0, 0, 0, 0, 0, 0, 0, 0, 0, 0, 0, 0, 0, 0, 0, 0, 0, 0
|0, 0, 0, 0, 0, 0, 0, 0, 0, 0, 1, 0, 39, 0, 0, 0, 12, 0, 0, 0, 24, 0, 0, 0, 29, 0, 27, 19, 22, 0, 0, 0, 2, 0, 0, 0, 8, 43, 0, 0, 0, 0, 0, 6, 41, 0, 46, 33, 48
|0, 17, 39, 8, 0, 0, 19, 21, 0, 0, 0, 0, 9, 0, 0, 46, 0, 0, 0, 0, 0, 47, 30, 0, 0, 0, 40, 0, 7, 32, 0, 23, 0, 0, 29, 10, 28, 0, 0, 0, 0, 0, 3, 0, 0, 0, 0, 0, 18
|9, 0, 0, 13, 47, 0, 40, 0, 48, 12, 0, 17, 0, 0, 39, 23, 0, 0, 36, 21, 0, 0, 0, 0, 0, 0, 0, 15, 3, 38, 0, 5, 10, 0, 43, 41, 1, 14, 0, 30, 0, 29, 0, 20, 0, 0, 22, 0, 0
|2, 0, 0, 0, 24, 0, 0, 0, 18, 0, 47, 22, 44, 26, 3, 0, 0, 41, 0, 29, 0, 25, 0, 0, 37, 0, 8, 0, 0, 0, 0, 0, 0, 0, 42, 0, 0, 0, 11, 0, 0, 7, 1, 0, 23, 32, 21, 28, 30
|0, 15, 0, 0, 0, 0, 0, 0, 0, 0, 29, 5, 0, 0, 0, 14, 0, 0, 7, 0, 0, 0, 0, 0, 0, 6, 0, 0, 33, 0, 0, 0, 0, 0, 0, 0, 0, 40, 23, 0, 0, 19, 0, 27, 0, 0, 0, 0, 25
|15, 0, 0, 7, 35, 0, 0, 30, 0, 0, 9, 1, 0, 0, 43, 0, 11, 0, 0, 0, 0, 45, 0, 0, 0, 49, 2, 0, 31, 39, 0, 0, 0, 0, 0, 0, 23, 16, 0, 0, 0, 0, 0, 0, 0, 0, 0, 0, 34
|0, 0, 0, 0, 0, 18, 32, 0, 31, 0, 0, 0, 0, 0, 0, 0, 0, 0, 2, 0, 46, 0, 29, 0, 0, 0, 0, 0, 30, 0, 0, 0, 13, 0, 0, 0, 0, 17, 3, 0, 0, 0, 0, 0, 19, 0, 7, 0, 0
|0, 0, 0, 0, 0, 40, 0, 0, 0, 0, 0, 25, 0, 0, 0, 0, 8, 0, 16, 34, 0, 0, 48, 0, 4, 0, 0, 35, 0, 0, 0, 0, 0, 0, 0, 0, 47, 0, 0, 46, 0, 0, 39, 0, 0, 1, 0, 0, 0
|0, 43, 27, 37, 0, 30, 0, 0, 0, 48, 0, 0, 34, 4, 0, 0, 0, 23, 0, 0, 0, 0, 0, 1, 0, 22, 0, 0, 0, 0, 0, 0, 3, 0, 0, 0, 32, 0, 26, 0, 0, 0, 0, 0, 0, 31, 0, 0, 41
|0, 11, 31, 0, 0, 0, 0, 0, 44, 0, 32, 2, 0, 0, 21, 41, 0, 0, 27, 4, 0, 0, 0, 19, 0, 0, 0, 0, 0, 0, 0, 1, 0, 0, 0, 43, 0, 0, 0, 36, 0, 0, 29, 0, 0, 16, 37, 0, 0
|4, 0, 6, 0, 0, 0, 47, 40, 0, 0, 0, 39, 0, 0, 0, 0, 30, 20, 0, 17, 0, 27, 0, 0, 25, 7, 0, 24, 0, 0, 0, 43, 19, 0, 0, 18, 0, 0, 0, 0, 0, 11, 0, 0, 0, 0, 0, 32, 0
|0, 0, 0, 0, 9, 0, 0, 0, 0, 0, 0, 0, 35, 10, 0, 0, 0, 0, 33, 0, 25, 23, 0, 43, 0, 0, 0, 0, 11, 0, 49, 0, 0, 0, 7, 0, 29, 0, 0, 0, 30, 4, 40, 14, 0, 0, 0, 36, 0
|39, 0, 0, 27, 0, 0, 0, 17, 0, 9, 48, 0, 0, 0, 37, 0, 0, 0, 0, 0, 0, 0, 0, 0, 0, 0, 15, 5, 0, 31, 0, 0, 0, 30, 0, 0, 0, 38, 0, 0, 4, 0, 0, 19, 0, 0, 0, 0, 0
|0, 0, 0, 0, 0, 38, 0, 10, 23, 0, 0, 0, 0, 21, 34, 0, 0, 0, 0, 0, 0, 7, 0, 0, 0, 0, 0, 0, 0, 0, 24, 3, 4, 0, 0, 0, 0, 29, 0, 0, 0, 0, 0, 36, 0, 43, 0, 0, 0
|32, 13, 0, 1, 0, 3, 0, 0, 0, 15, 0, 41, 18, 0, 0, 0, 0, 0, 0, 0, 0, 0, 31, 46, 19, 0, 16, 29, 0, 0, 0, 0, 44, 42, 0, 0, 26, 0, 24, 0, 0, 0, 0, 0, 0, 6, 40, 0, 9
|0, 31, 0, 21, 17, 11, 0, 13, 0, 0, 0, 43, 7, 0, 0, 0, 0, 0, 0, 45, 0, 4, 0, 0, 27, 0, 0, 25, 0, 0, 14, 26, 0, 0, 38, 0, 0, 0, 0, 0, 0, 0, 0, 0, 0, 0, 0, 0, 0
|0, 2, 0, 0, 0, 0, 0, 44, 0, 32, 0, 24, 0, 0, 0, 20, 0, 0, 0, 19, 0, 0, 0, 0, 0, 0, 0, 0, 1, 28, 33, 0, 0, 0, 0, 0, 0, 0, 0, 31, 0, 0, 0, 0, 0, 13, 0, 0, 0
|0, 0, 5, 12, 0, 0, 0, 0, 0, 0, 0, 0, 0, 16, 0, 0, 0, 0, 0, 0, 0, 0, 0, 0, 28, 44, 0, 6, 23, 0, 0, 18, 0, 13, 49, 32, 0, 0, 0, 0, 0, 0, 0, 37, 0, 0, 30, 38, 8
|0, 23, 15, 0, 0, 0, 0, 0, 1, 0, 0, 0, 0, 0, 46, 0, 0, 40, 0, 0, 0, 0, 18, 48, 8, 0, 0, 0, 0, 0, 21, 0, 0, 7, 0, 0, 0, 0, 19, 0, 0, 22, 0, 0, 0, 0, 0, 0, 0
|12, 0, 3, 33, 0, 13, 0, 0, 0, 26, 37, 0, 0, 0, 0, 0, 43, 7, 5, 14, 23, 0, 0, 0, 0, 0, 31, 0, 0, 0, 0, 0, 20, 0, 0, 0, 0, 48, 0, 0, 0, 0, 0, 0, 0, 40, 0, 0, 49
|0, 0, 0, 0, 0, 0, 0, 15, 0, 0, 0, 0, 36, 0, 0, 0, 0, 0, 0, 0, 0, 41, 13, 0, 0, 0, 0, 0, 0, 0, 0, 16, 47, 17, 0, 0, 0, 0, 0, 9, 46, 0, 0, 0, 1, 44, 29, 0, 0
|0, 0, 0, 0, 0, 0, 35, 23, 0, 0, 0, 0, 0, 0, 0, 0, 9, 0, 21, 0, 0, 0, 19, 8, 0, 46, 0, 0, 4, 7, 0, 0, 0, 0, 0, 29, 13, 0, 0, 0, 0, 0, 0, 41, 17, 28, 0, 0, 33
|0, 0, 0, 41, 0, 0, 0, 1, 0, 0, 42, 29, 0, 0, 0, 0, 0, 13, 0, 12, 0, 0, 0, 14, 0, 0, 47, 0, 0, 49, 0, 0, 35, 24, 0, 0, 0, 34, 38, 0, 15, 0, 0, 0, 0, 0, 0, 0, 0
|0, 0, 0, 0, 0, 47, 0, 0, 5, 17, 0, 0, 0, 14, 0, 0, 0, 0, 0, 0, 0, 0, 0, 0, 49, 0, 0, 0, 0, 0, 0, 0, 0, 12, 0, 0, 11, 19, 0, 7, 43, 0, 0, 0, 6, 21, 9, 26, 0
|0, 0, 0, 0, 28, 15, 18, 0, 38, 0, 0, 0, 0, 0, 0, 0, 0, 0, 0, 0, 47, 0, 0, 0, 0, 0, 0, 7, 0, 0, 0, 29, 0, 0, 37, 0, 0, 41, 0, 0, 0, 0, 0, 0, 27, 0, 0, 0, 23
|0, 0, 0, 0, 0, 0, 21, 0, 0, 18, 0, 0, 0, 0, 22, 0, 0, 46, 0, 0, 0, 1, 0, 29, 0, 10, 26, 0, 14, 0, 0, 0, 0, 0, 15, 0, 0, 35, 0, 0, 0, 0, 47, 0, 0, 39, 0, 0, 0
|20, 5, 0, 0, 0, 0, 14, 19, 0, 0, 18, 0, 0, 0, 0, 0, 0, 0, 0, 0, 28, 0, 0, 7, 0, 0, 0, 47, 0, 0, 43, 0, 0, 23, 0, 0, 0, 0, 0, 0, 0, 0, 0, 1, 0, 49, 0, 45, 2
|0, 24, 0, 0, 37, 0, 0, 0, 0, 0, 0, 0, 0, 0, 35, 0, 0, 0, 0, 0, 0, 22, 43, 6, 0, 0, 0, 0, 46, 3, 0, 0, 0, 0, 0, 19, 0, 0, 0, 0, 17, 27, 0, 0, 30, 0, 12, 0, 44
|0, 0, 0, 0, 0, 0, 12, 6, 0, 0, 0, 0, 0, 0, 0, 0, 19, 0, 15, 3, 0, 0, 40, 0, 0, 0, 0, 21, 38, 0, 4, 0, 17, 41, 39, 0, 46, 8, 35, 0, 0, 0, 0, 16, 0, 0, 0, 0, 0
|0, 0, 0, 0, 0, 0, 15, 0, 8, 24, 0, 0, 0, 43, 0, 0, 36, 0, 0, 20, 0, 38, 0, 49, 0, 0, 19, 0, 0, 0, 0, 0, 28, 0, 0, 0, 16, 0, 0, 37, 12, 0, 0, 0, 0, 0, 6, 0, 39
|0, 0, 0, 0, 13, 0, 3, 0, 0, 0, 20, 0, 23, 0, 0, 0, 37, 49, 0, 8, 6, 0, 17, 31, 44, 0, 0, 0, 0, 0, 0, 30, 0, 0, 0, 0, 0, 0, 28, 0, 0, 5, 0, 0, 0, 0, 0, 0, 0
|0, 0, 0, 0, 0, 0, 0, 0, 46, 0, 3, 0, 0, 22, 0, 0, 0, 0, 0, 0, 0, 0, 12, 0, 0, 0, 0, 0, 16, 42, 19, 49, 0, 0, 0, 0, 7, 45, 0, 43, 0, 0, 18, 0, 0, 0, 0, 0, 11
|19, 30, 0, 0, 38, 1, 17, 0, 0, 0, 0, 0, 0, 35, 0, 0, 0, 0, 0, 0, 0, 0, 0, 0, 45, 42, 5, 0, 44, 0, 0, 31, 0, 0, 0, 0, 15, 0, 20, 0, 41, 0, 0, 9, 0, 0, 0, 0, 0|];