order = 7;
grid = [|48, 0, 0, 0, 0, 35, 20, 0, 0, 27, 0, 0, 0, 0, 9, 26, 0, 0, 0, 0, 0, 0, 0, 0, 0, 24, 36, 0, 47, 0, 0, 3, 0, 0, 0, 0, 0, 0, 0, 38, 0, 0, 0, 0, 0, 0, 0, 0, 0
|0, 0, 0, 15, 0, 0, 41, 0, 0, 0, 0, 0, 0, 8, 0, 0, 0, 17, 36, 0, 0, 28, 18, 0, 0, 0, 0, 0, 0, 0, 5, 0, 0, 0, 0, 37, 0, 0, 0, 39, 0, 0, 29, 0, 0, 9, 0, 19, 44
|0, 0, 42, 0, 0, 0, 0, 0, 49, 0, 0, 34, 0, 26, 0, 0, 0, 0, 0, 0, 11, 0, 0, 0, 0, 0, 41, 17, 0, 0, 0, 27, 0, 0, 7, 10, 9, 0, 44, 0, 0, 0, 0, 0, 0, 0, 24, 0, 0
|1, 0, 0, 0, 43, 2, 0, 0, 0, 0, 0, 0, 0, 0, 0, 0, 0, 0, 0, 0, 0, 11, 0, 45, 0, 0, 0, 0, 0, 19, 49, 0, 0, 0, 0, 0, 0, 0, 0, 0, 0, 15, 0, 0, 0, 0, 0, 0, 6
|0, 26, 0, 0, 44, 0, 0, 0, 0, 0, 23, 0, 0, 0, 41, 0, 3, 0, 0, 0, 0, 33, 0, 0, 0, 0, 0, 0, 0, 0, 0, 9, 0, 0, 17, 0, 0, 0, 0, 0, 0, 0, 0, 0, 0, 0, 48, 0, 0
|0, 0, 0, 0, 0, 0, 0, 0, 0, 6, 15, 0, 0, 0, 0, 16, 0, 21, 0, 5, 0, 0, 27, 0, 0, 0, 0, 0, 0, 0, 0, 46, 0, 0, 0, 0, 0, 0, 41, 0, 0, 0, 2, 0, 0, 0, 36, 0, 0
|0, 0, 0, 17, 0, 34, 27, 0, 0, 42, 9, 35, 0, 0, 0, 0, 49, 0, 12, 0, 0, 0, 0, 0, 0, 0, 0, 44, 0, 14, 0, 8, 0, 0, 0, 0, 0, 0, 48, 0, 0, 24, 0, 0, 0, 1, 0, 0, 0
|0, 0, 0, 0, 0, 0, 0, 0, 0, 0, 0, 0, 0, 4, 0, 0, 0, 0, 3, 0, 0, 0, 7, 0, 0, 0, 0, 37, 0, 0, 0, 0, 0, 0, 0, 0, 0, 47, 0, 42, 0, 9, 0, 11, 0, 0, 0, 1, 22
|0, 0, 0, 0, 0, 0, 0, 0, 17, 0, 0, 10, 0, 0, 22, 45, 0, 0, 0, 0, 2, 0, 0, 0, 0, 0, 0, 0, 0, 0, 34, 0, 0, 0, 0, 0, 0, 0, 39, 0, 0, 6, 0, 43, 0, 25, 0, 48, 0
|0, 0, 24, 0, 0, 6, 0, 2, 0, 0, 1, 0, 0, 0, 39, 0, 40, 0, 15, 0, 0, 0, 0, 0, 0, 0, 0, 0, 0, 0, 21, 0, 0, 0, 0, 0, 0, 48, 0, 0, 0, 35, 0, 0, 0, 0, 45, 0, 0
|31, 28, 19, 4, 0, 0, 33, 0, 0, 0, 0, 0, 0, 0, 0, 7, 26, 36, 0, 49, 0, 34, 0, 0, 0, 0, 23, 0, 0, 0, 38, 0, 0, 20, 0, 0, 0, 0, 12, 43, 2, 0, 0, 0, 0, 0, 0, 0, 0
|0, 0, 9, 0, 0, 0, 26, 0, 0, 0, 43, 0, 0, 0, 12, 0, 24, 0, 0, 0, 0, 0, 0, 0, 0, 0, 0, 0, 0, 18, 0, 2, 0, 0, 0, 0, 0, 0, 0, 0, 0, 0, 0, 16, 0, 0, 0, 0, 20
|0, 0, 0, 0, 0, 0, 0, 0, 0, 3, 0, 0, 0, 0, 0, 0, 0, 14, 20, 0, 0, 0, 0, 24, 0, 0, 39, 0, 22, 0, 0, 0, 41, 0, 12, 28, 32, 0, 0, 36, 0, 17, 0, 0, 0, 0, 0, 0, 0
|3, 0, 0, 0, 34, 0, 0, 0, 0, 0, 0, 0, 0, 38, 0, 35, 0, 0, 0, 25, 0, 0, 0, 49, 0, 14, 1, 0, 11, 0, 0, 0, 0, 0, 8, 0, 5, 0, 0, 0, 40, 0, 0, 0, 0, 17, 0, 36, 0
|0, 32, 0, 34, 0, 0, 22, 0, 0, 0, 0, 0, 0, 0, 0, 9, 0, 0, 40, 0, 0, 18, 0, 0, 0, 0, 43, 0, 0, 0, 20, 29, 0, 0, 5, 0, 6, 35, 46, 0, 0, 0, 0, 0, 17, 0, 0, 0, 36
|0, 0, 0, 0, 0, 47, 46, 3, 0, 0, 0, 0, 0, 0, 0, 49, 0, 0, 16, 2, 0, 0, 0, 0, 0, 40, 0, 0, 0, 0, 0, 39, 0, 0, 0, 15, 0, 0, 0, 0, 0, 31, 0, 25, 8, 32, 42, 0, 0
|49, 0, 0, 0, 0, 0, 39, 0, 0, 0, 0, 0, 5, 46, 0, 0, 0, 0, 27, 0, 43, 6, 13, 30, 0, 17, 20, 14, 9, 0, 0, 25, 0, 35, 0, 16, 0, 0, 0, 23, 47, 0, 0, 0, 0, 4, 0, 0, 0
|20, 0, 0, 45, 0, 0, 10, 0, 0, 15, 0, 0, 0, 0, 0, 0, 0, 0, 0, 0, 14, 0, 0, 0, 0, 1, 11, 0, 46, 0, 0, 48, 0, 24, 0, 17, 33, 0, 0, 0, 27, 41, 0, 0, 0, 7, 0, 0, 0
|0, 15, 0, 48, 17, 0, 0, 44, 0, 0, 0, 0, 0, 0, 46, 20, 0, 0, 4, 0, 29, 38, 16, 42, 0, 0, 0, 0, 0, 0, 3, 0, 0, 0, 32, 0, 0, 0, 7, 26, 0, 49, 0, 0, 0, 0, 0, 21, 0
|0, 0, 0, 42, 0, 0, 0, 0, 0, 0, 0, 0, 0, 28, 0, 18, 5, 0, 0, 15, 10, 0, 37, 4, 0, 0, 0, 0, 0, 0, 0, 44, 0, 30, 0, 0, 0, 12, 32, 14, 0, 39, 0, 0, 2, 0, 0, 0, 0
|0, 37, 7, 0, 3, 31, 0, 0, 0, 0, 0, 0, 43, 0, 0, 24, 0, 0, 0, 0, 0, 39, 0, 0, 0, 0, 0, 29, 15, 0, 0, 0, 0, 0, 40, 9, 0, 0, 0, 19, 42, 0, 0, 0, 16, 0, 0, 35, 0
|0, 0, 49, 0, 36, 0, 37, 25, 11, 0, 26, 0, 0, 1, 0, 8, 27, 2, 0, 0, 0, 42, 0, 0, 0, 0, 0, 18, 31, 0, 46, 0, 0, 0, 0, 0, 0, 0, 0, 0, 0, 0, 0, 45, 0, 0, 0, 0, 0
|0, 0, 0, 8, 0, 38, 0, 0, 37, 0, 0, 0, 0, 34, 0, 5, 0, 35, 24, 0, 0, 46, 4, 0, 10, 0, 0, 0, 0, 13, 0, 0, 0, 0, 0, 12, 0, 44, 0, 0, 0, 28, 0, 0, 0, 0, 0, 0, 11
|0, 20, 0, 0, 0, 0, 0, 0, 0, 0, 0, 0, 0, 0, 0, 0, 0, 0, 10, 37, 0, 0, 0, 0, 0, 0, 0, 0, 0, 42, 0, 0, 27, 0, 0, 0, 0, 32, 25, 0, 48, 0, 0, 0, 0, 0, 0, 0, 0
|0, 0, 0, 0, 0, 11, 9, 39, 0, 0, 0, 6, 0, 0, 40, 12, 23, 0, 0, 3, 0, 0, 38, 21, 0, 0, 22, 0, 25, 0, 28, 0, 0, 0, 15, 14, 0, 18, 0, 0, 0, 0, 0, 0, 0, 0, 0, 0, 1
|0, 0, 0, 0, 0, 0, 0, 0, 0, 0, 0, 0, 0, 12, 0, 17, 0, 0, 44, 0, 0, 0, 0, 0, 26, 0, 24, 0, 1, 0, 0, 0, 0, 0, 22, 0, 40, 0, 23, 0, 0, 0, 39, 0, 0, 0, 0, 0, 0
|0, 0, 0, 0, 0, 0, 0, 0, 28, 0, 0, 40, 27, 0, 0, 0, 14, 30, 0, 0, 33, 36, 32, 0, 34, 0, 2, 0, 0, 0, 7, 0, 6, 49, 35, 0, 0, 0, 0, 0, 0, 37, 0, 0, 9, 47, 0, 0, 0
|0, 0, 0, 0, 0, 0, 0, 46, 7, 0, 0, 0, 0, 0, 49, 0, 36, 0, 42, 0, 4, 0, 44, 25, 33, 27, 45, 41, 0, 0, 0, 0, 0, 14, 19, 0, 3, 0, 10, 21, 0, 0, 0, 22, 0, 0, 30, 26, 40
|0, 0, 3, 0, 0, 0, 0, 33, 0, 43, 0, 48, 0, 0, 0, 0, 0, 0, 0, 0, 0, 0, 0, 0, 0, 0, 15, 2, 36, 5, 0, 11, 0, 0, 0, 0, 25, 0, 0, 4, 6, 10, 0, 0, 0, 27, 0, 45, 0
|0, 0, 39, 30, 0, 7, 0, 12, 3, 11, 29, 0, 0, 32, 27, 0, 44, 0, 0, 0, 0, 37, 0, 0, 0, 0, 0, 0, 0, 43, 16, 0, 0, 26, 45, 0, 48, 0, 0, 0, 0, 0, 0, 9, 6, 0, 49, 17, 23
|0, 16, 0, 0, 0, 0, 23, 0, 0, 0, 0, 0, 0, 0, 43, 0, 0, 10, 0, 0, 0, 30, 0, 0, 0, 0, 0, 47, 0, 0, 0, 12, 0, 44, 0, 0, 0, 0, 0, 0, 0, 38, 19, 34, 0, 0, 0, 0, 0
|0, 0, 0, 0, 0, 0, 0, 30, 0, 0, 0, 38, 44, 0, 0, 23, 17, 0, 0, 0, 0, 10, 39, 0, 48, 45, 16, 0, 0, 35, 0, 0, 0, 0, 0, 19, 36, 0, 43, 0, 0, 0, 0, 0, 4, 18, 0, 41, 0
|37, 0, 0, 24, 0, 10, 0, 0, 2, 0, 0, 0, 0, 0, 45, 25, 0, 9, 0, 0, 49, 0, 0, 0, 6, 8, 0, 22, 0, 0, 48, 0, 0, 0, 0, 11, 0, 0, 0, 0, 0, 0, 43, 38, 39, 35, 28, 0, 7
|13, 38, 0, 0, 0, 49, 0, 0, 0, 28, 37, 0, 0, 0, 3, 0, 39, 0, 0, 0, 16, 0, 35, 0, 0, 0, 0, 0, 0, 20, 22, 0, 0, 0, 0, 44, 0, 0, 0, 0, 0, 23, 0, 0, 0, 0, 0, 0, 0
|0, 0, 43, 0, 0, 0, 0, 0, 0, 0, 22, 0, 21, 0, 0, 0, 20, 0, 2, 0, 0, 9, 0, 0, 17, 0, 0, 19, 0, 38, 0, 33, 0, 10, 0, 35, 0, 0, 0, 41, 29, 7, 0, 0, 0, 0, 0, 0, 0
|0, 42, 16, 13, 18, 0, 0, 0, 0, 0, 48, 0, 1, 5, 0, 40, 0, 0, 0, 0, 0, 0, 0, 0, 7, 0, 0, 0, 0, 12, 0, 0, 0, 0, 0, 0, 0, 0, 0, 0, 46, 0, 0, 49, 0, 21, 0, 0, 0
|19, 0, 45, 0, 0, 0, 0, 41, 0, 0, 0, 0, 30, 6, 24, 33, 0, 0, 34, 0, 0, 0, 0, 37, 0, 0, 0, 0, 0, 0, 0, 32, 0, 0, 0, 0, 0, 0, 0, 15, 36, 0, 28, 0, 0, 5, 0, 0, 0
|0, 0, 21, 0, 0, 40, 44, 0, 43, 0, 0, 0, 0, 0, 0, 0, 15, 0, 0, 0, 23, 0, 34, 0, 0, 0, 0, 0, 0, 45, 0, 1, 5, 0, 0, 0, 0, 0, 28, 6, 37, 0, 0, 0, 0, 3, 22, 24, 0
|0, 24, 0, 0, 31, 0, 0, 32, 0, 0, 0, 0, 10, 0, 0, 0, 46, 0, 0, 0, 0, 0, 0, 0, 16, 0, 3, 0, 0, 26, 0, 30, 42, 0, 6, 47, 0, 0, 45, 0, 0, 18, 44, 0, 0, 0, 12, 0, 0
|0, 4, 0, 7, 0, 0, 43, 29, 0, 0, 34, 0, 0, 37, 0, 0, 0, 0, 0, 0, 0, 0, 0, 44, 40, 0, 0, 0, 0, 0, 0, 19, 15, 0, 0, 0, 12, 0, 0, 0, 11, 0, 23, 0, 0, 0, 0, 18, 0
|0, 0, 0, 22, 33, 0, 38, 0, 19, 0, 0, 0, 31, 0, 0, 0, 1, 18, 0, 0, 0, 23, 0, 0, 0, 0, 4, 0, 0, 36, 0, 17, 0, 21, 46, 0, 0, 39, 0, 0, 14, 0, 0, 0, 0, 0, 6, 0, 0
|0, 12, 41, 0, 0, 39, 0, 0, 13, 0, 27, 0, 7, 0, 38, 48, 0, 0, 0, 0, 26, 0, 0, 0, 0, 5, 0, 0, 0, 28, 29, 0, 20, 8, 34, 0, 42, 23, 0, 0, 0, 0, 0, 0, 31, 0, 0, 0, 0
|0, 14, 0, 31, 0, 0, 0, 0, 0, 0, 0, 0, 0, 9, 0, 0, 29, 0, 0, 24, 0, 25, 0, 0, 0, 0, 0, 0, 0, 39, 0, 0, 0, 0, 0, 0, 0, 41, 26, 48, 0, 0, 0, 0, 0, 0, 0, 37, 0
|36, 45, 0, 16, 0, 0, 0, 0, 0, 0, 0, 0, 0, 24, 0, 0, 0, 27, 0, 0, 41, 0, 11, 0, 0, 10, 0, 0, 0, 0, 0, 0, 34, 0, 0, 0, 0, 15, 35, 46, 1, 0, 0, 0, 0, 0, 0, 0, 0
|0, 17, 0, 0, 0, 42, 11, 0, 45, 16, 8, 0, 0, 0, 36, 0, 0, 0, 0, 0, 7, 44, 0, 0, 0, 0, 0, 34, 41, 0, 0, 14, 0, 0, 0, 39, 19, 0, 0, 22, 0, 0, 35, 0, 0, 26, 15, 0, 9
|40, 0, 0, 0, 38, 0, 3, 0, 0, 10, 0, 0, 0, 0, 42, 11, 0, 0, 8, 0, 0, 0, 0, 0, 0, 0, 0, 0, 0, 0, 0, 0, 22, 25, 16, 5, 0, 2, 0, 0, 23, 0, 0, 0, 41, 0, 0, 0, 0
|0, 0, 0, 0, 0, 0, 0, 0, 4, 39, 44, 0, 0, 11, 0, 30, 28, 0, 0, 0, 0, 16, 0, 0, 0, 18, 35, 0, 0, 0, 0, 0, 21, 5, 26, 0, 10, 0, 24, 0, 0, 0, 48, 0, 22, 0, 43, 0, 0
|0, 0, 28, 0, 30, 0, 0, 0, 0, 0, 3, 0, 49, 0, 0, 0, 16, 37, 22, 0, 5, 0, 0, 0, 0, 0, 0, 0, 0, 15, 10, 0, 19, 0, 11, 33, 0, 0, 0, 0, 0, 0, 7, 0, 0, 0, 0, 0, 0
|0, 8, 2, 0, 0, 0, 0, 0, 23, 0, 20, 41, 0, 0, 10, 0, 0, 0, 0, 40, 0, 0, 0, 28, 0, 0, 0, 15, 0, 0, 17, 35, 0, 1, 42, 0, 0, 0, 0, 0, 0, 36, 0, 0, 0, 0, 0, 5, 0|];