order = 7;
grid = [|0, 0, 0, 22, 0, 6, 0, 0, 15, 0, 0, 0, 0, 0, 29, 41, 0, 0, 23, 0, 12, 40, 0, 0, 0, 0, 0, 0, 0, 0, 0, 18, 19, 0, 20, 0, 24, 5, 1, 3, 0, 8, 0, 0, 0, 0, 49, 30, 0
|16, 0, 0, 19, 0, 0, 15, 23, 8, 0, 0, 0, 0, 0, 0, 0, 0, 0, 0, 0, 0, 24, 7, 0, 0, 0, 0, 0, 13, 0, 0, 11, 0, 27, 30, 14, 0, 0, 0, 0, 0, 0, 22, 0, 0, 0, 0, 0, 0
|0, 12, 0, 0, 40, 0, 0, 49, 5, 42, 41, 32, 0, 29, 0, 0, 0, 0, 0, 0, 0, 17, 0, 0, 14, 0, 0, 43, 22, 0, 21, 0, 0, 16, 26, 20, 0, 0, 7, 0, 0, 28, 0, 38, 45, 6, 0, 0, 0
|18, 13, 0, 32, 0, 7, 30, 0, 0, 0, 0, 0, 0, 0, 5, 0, 0, 16, 0, 0, 6, 8, 0, 0, 0, 0, 0, 0, 0, 49, 0, 0, 0, 0, 0, 0, 0, 0, 0, 11, 0, 38, 0, 0, 29, 0, 0, 0, 0
|0, 0, 0, 0, 0, 0, 45, 30, 20, 0, 0, 40, 0, 0, 49, 31, 0, 0, 28, 43, 0, 0, 0, 0, 0, 34, 5, 22, 36, 0, 0, 0, 37, 33, 38, 0, 0, 32, 27, 15, 16, 0, 18, 0, 0, 3, 0, 0, 0
|0, 5, 0, 0, 0, 43, 0, 14, 1, 0, 6, 0, 0, 0, 0, 40, 0, 0, 0, 0, 0, 0, 0, 0, 0, 30, 0, 0, 0, 0, 0, 0, 0, 4, 0, 0, 9, 0, 0, 17, 36, 0, 0, 31, 41, 7, 0, 0, 0
|0, 28, 38, 0, 0, 0, 0, 0, 25, 0, 0, 0, 0, 0, 0, 46, 0, 0, 19, 0, 11, 16, 0, 0, 0, 0, 0, 0, 0, 35, 48, 5, 43, 9, 17, 0, 0, 40, 39, 0, 0, 0, 0, 0, 32, 26, 0, 47, 20
|42, 0, 39, 30, 11, 0, 0, 0, 0, 0, 0, 0, 0, 17, 0, 0, 0, 47, 0, 0, 1, 0, 46, 4, 0, 36, 0, 0, 26, 0, 0, 0, 3, 0, 0, 0, 0, 2, 40, 0, 0, 0, 19, 0, 0, 0, 41, 0, 8
|0, 0, 16, 0, 0, 34, 0, 0, 0, 29, 3, 25, 0, 45, 30, 0, 0, 0, 0, 0, 0, 0, 23, 0, 0, 0, 0, 19, 0, 0, 44, 0, 0, 0, 4, 0, 0, 0, 0, 26, 0, 0, 10, 0, 0, 0, 0, 15, 0
|44, 0, 0, 0, 0, 0, 0, 0, 0, 0, 0, 28, 0, 0, 0, 0, 0, 0, 0, 0, 0, 0, 43, 9, 0, 0, 0, 0, 17, 0, 0, 0, 0, 41, 0, 0, 29, 25, 0, 27, 0, 0, 0, 0, 0, 0, 4, 16, 46
|0, 0, 0, 46, 0, 0, 0, 22, 0, 19, 13, 0, 0, 0, 33, 0, 0, 0, 0, 29, 0, 0, 0, 10, 0, 0, 27, 0, 0, 12, 0, 39, 0, 25, 0, 31, 28, 0, 0, 0, 0, 49, 0, 0, 0, 0, 0, 0, 0
|0, 0, 0, 0, 0, 0, 20, 0, 0, 0, 43, 38, 30, 10, 0, 18, 0, 0, 24, 17, 49, 0, 0, 11, 0, 8, 0, 6, 0, 13, 0, 0, 0, 0, 0, 0, 0, 0, 0, 0, 0, 0, 0, 0, 0, 0, 0, 0, 0
|0, 0, 0, 0, 5, 0, 0, 16, 0, 0, 0, 0, 0, 18, 0, 0, 4, 26, 12, 45, 0, 0, 0, 48, 0, 21, 0, 0, 0, 0, 0, 0, 0, 0, 49, 0, 36, 0, 0, 0, 0, 0, 0, 0, 0, 0, 0, 0, 0
|6, 0, 0, 0, 33, 0, 0, 31, 46, 15, 0, 36, 0, 11, 0, 25, 41, 21, 20, 5, 0, 0, 0, 29, 0, 22, 0, 39, 38, 2, 42, 27, 0, 24, 0, 0, 0, 48, 0, 0, 12, 0, 0, 0, 13, 0, 0, 0, 0
|0, 15, 10, 6, 0, 29, 0, 0, 0, 0, 0, 0, 0, 0, 0, 5, 0, 0, 0, 0, 0, 0, 0, 0, 0, 0, 0, 13, 0, 16, 0, 43, 0, 0, 2, 17, 0, 0, 30, 0, 0, 0, 25, 0, 0, 0, 0, 0, 0
|3, 0, 0, 0, 44, 0, 26, 0, 0, 0, 0, 0, 0, 1, 43, 24, 0, 31, 0, 14, 10, 4, 0, 0, 46, 27, 20, 0, 0, 0, 8, 0, 0, 11, 39, 0, 0, 15, 0, 0, 0, 0, 30, 18, 0, 0, 33, 5, 0
|0, 49, 0, 0, 0, 42, 23, 0, 13, 0, 20, 0, 0, 0, 45, 0, 0, 0, 0, 0, 0, 0, 16, 30, 0, 24, 41, 0, 0, 15, 40, 25, 5, 0, 33, 0, 0, 44, 0, 0, 0, 0, 0, 0, 0, 0, 0, 0, 0
|0, 46, 0, 40, 0, 0, 0, 0, 28, 0, 0, 0, 0, 0, 0, 33, 17, 0, 0, 0, 20, 15, 0, 0, 0, 42, 0, 0, 27, 9, 0, 0, 23, 0, 0, 13, 0, 31, 0, 0, 0, 0, 41, 0, 0, 39, 0, 0, 0
|47, 0, 0, 0, 0, 0, 41, 0, 37, 0, 0, 0, 38, 0, 0, 0, 39, 2, 1, 0, 0, 0, 18, 0, 0, 0, 0, 0, 7, 0, 0, 0, 0, 0, 0, 12, 0, 0, 0, 0, 0, 0, 0, 0, 49, 0, 0, 0, 0
|0, 0, 0, 21, 0, 24, 0, 0, 0, 31, 0, 35, 0, 43, 0, 0, 0, 0, 0, 36, 16, 0, 0, 0, 0, 0, 0, 23, 0, 3, 13, 42, 0, 0, 0, 0, 0, 0, 0, 0, 0, 29, 0, 34, 20, 0, 14, 0, 0
|0, 0, 0, 0, 0, 0, 13, 0, 14, 23, 0, 0, 0, 0, 0, 0, 0, 0, 0, 0, 0, 0, 5, 0, 0, 17, 0, 0, 30, 0, 0, 24, 29, 0, 0, 0, 16, 0, 0, 40, 0, 3, 0, 0, 0, 48, 42, 0, 0
|0, 7, 0, 13, 23, 0, 0, 0, 0, 25, 0, 0, 29, 0, 24, 0, 32, 0, 0, 0, 4, 0, 0, 0, 0, 0, 44, 15, 0, 0, 0, 0, 0, 5, 0, 0, 0, 0, 0, 41, 0, 0, 2, 0, 0, 0, 9, 0, 0
|0, 14, 0, 0, 0, 0, 0, 46, 0, 21, 48, 7, 0, 0, 0, 15, 0, 0, 0, 0, 28, 0, 0, 18, 0, 0, 0, 0, 0, 0, 0, 0, 0, 32, 0, 0, 0, 0, 44, 0, 0, 45, 0, 0, 0, 0, 0, 0, 30
|0, 0, 0, 0, 0, 0, 6, 0, 0, 0, 0, 24, 45, 0, 0, 0, 0, 0, 0, 0, 0, 0, 0, 0, 9, 0, 0, 0, 4, 25, 0, 0, 0, 0, 0, 0, 0, 0, 0, 5, 0, 2, 13, 0, 0, 0, 0, 1, 11
|0, 0, 0, 0, 0, 0, 0, 0, 0, 40, 0, 0, 0, 0, 0, 0, 47, 17, 22, 0, 0, 27, 30, 0, 36, 0, 0, 0, 0, 45, 41, 10, 0, 0, 0, 25, 19, 0, 0, 0, 0, 0, 0, 0, 24, 0, 0, 20, 29
|0, 0, 0, 0, 0, 8, 0, 0, 6, 0, 0, 0, 0, 0, 0, 0, 0, 0, 42, 0, 0, 0, 32, 0, 41, 0, 0, 0, 0, 0, 0, 37, 0, 0, 0, 40, 0, 0, 0, 0, 24, 43, 0, 0, 0, 25, 7, 0, 0
|0, 0, 24, 0, 47, 0, 49, 0, 0, 0, 0, 0, 0, 0, 0, 0, 0, 33, 0, 0, 0, 3, 0, 0, 0, 0, 0, 0, 44, 0, 0, 46, 0, 0, 21, 0, 12, 14, 0, 0, 0, 0, 5, 0, 0, 0, 0, 35, 0
|11, 0, 4, 0, 0, 0, 0, 0, 32, 0, 0, 0, 49, 15, 0, 43, 5, 0, 0, 41, 0, 21, 33, 0, 0, 0, 0, 0, 28, 0, 0, 0, 0, 0, 0, 0, 37, 30, 0, 0, 47, 0, 0, 40, 0, 16, 0, 0, 17
|0, 0, 0, 0, 0, 0, 0, 28, 0, 0, 15, 0, 0, 48, 0, 0, 9, 0, 6, 31, 0, 0, 41, 0, 0, 0, 4, 0, 0, 0, 39, 2, 0, 0, 0, 21, 25, 0, 0, 0, 0, 0, 0, 32, 0, 0, 0, 0, 0
|0, 0, 44, 0, 0, 0, 42, 0, 0, 47, 0, 0, 0, 0, 0, 0, 3, 46, 0, 0, 0, 11, 0, 0, 24, 0, 17, 0, 23, 0, 38, 0, 0, 31, 15, 0, 0, 0, 0, 30, 14, 0, 0, 0, 37, 12, 0, 0, 0
|10, 0, 0, 0, 29, 5, 0, 0, 44, 0, 0, 0, 39, 0, 0, 8, 0, 0, 0, 0, 22, 0, 34, 0, 0, 2, 0, 0, 0, 0, 0, 0, 16, 46, 0, 1, 0, 0, 0, 0, 0, 0, 0, 0, 38, 0, 0, 0, 0
|0, 0, 0, 0, 0, 0, 0, 0, 0, 32, 0, 0, 0, 38, 0, 0, 0, 0, 0, 2, 0, 0, 0, 0, 23, 0, 0, 0, 49, 0, 29, 0, 0, 0, 43, 0, 0, 0, 0, 0, 31, 0, 39, 0, 0, 0, 0, 26, 28
|0, 23, 43, 0, 8, 0, 0, 0, 0, 0, 0, 0, 0, 5, 0, 0, 0, 0, 0, 15, 0, 12, 0, 3, 44, 0, 0, 0, 33, 0, 0, 21, 27, 0, 0, 24, 0, 0, 0, 16, 0, 20, 1, 0, 0, 0, 10, 0, 0
|0, 0, 0, 0, 0, 0, 0, 0, 0, 2, 0, 0, 25, 0, 0, 0, 0, 0, 0, 0, 23, 0, 0, 49, 0, 0, 0, 18, 0, 0, 0, 48, 26, 42, 0, 0, 40, 29, 45, 0, 19, 0, 0, 24, 0, 0, 0, 0, 0
|0, 6, 0, 0, 0, 26, 28, 10, 40, 0, 0, 0, 0, 0, 7, 0, 0, 0, 0, 16, 0, 20, 0, 0, 22, 0, 43, 0, 0, 0, 47, 0, 0, 17, 0, 9, 49, 0, 0, 0, 18, 0, 0, 0, 0, 0, 0, 0, 0
|22, 21, 9, 23, 0, 0, 0, 0, 0, 0, 0, 5, 0, 0, 35, 0, 24, 39, 0, 0, 34, 0, 0, 45, 0, 0, 0, 0, 0, 0, 0, 0, 15, 0, 0, 0, 0, 46, 0, 37, 0, 0, 0, 25, 16, 47, 0, 0, 0
|13, 0, 0, 27, 10, 0, 37, 0, 0, 0, 11, 0, 0, 0, 0, 16, 0, 45, 0, 0, 43, 0, 0, 0, 0, 6, 0, 0, 0, 0, 0, 0, 0, 0, 0, 44, 2, 0, 0, 0, 0, 0, 0, 0, 0, 0, 0, 0, 0
|29, 41, 0, 44, 25, 0, 8, 0, 18, 0, 12, 46, 0, 0, 26, 0, 0, 40, 0, 0, 0, 0, 0, 0, 0, 0, 0, 0, 6, 0, 28, 19, 20, 0, 9, 0, 0, 0, 0, 0, 27, 0, 0, 0, 0, 0, 0, 0, 1
|0, 0, 0, 0, 0, 45, 5, 0, 7, 0, 0, 0, 0, 0, 0, 0, 0, 0, 0, 0, 0, 26, 0, 0, 0, 0, 0, 0, 0, 0, 0, 0, 0, 8, 34, 0, 3, 35, 0, 0, 0, 0, 0, 0, 0, 0, 43, 24, 41
|36, 33, 0, 0, 0, 49, 0, 0, 0, 30, 35, 9, 0, 0, 4, 11, 0, 0, 0, 0, 0, 0, 27, 0, 0, 10, 0, 0, 16, 0, 26, 47, 0, 0, 0, 0, 0, 0, 0, 0, 0, 0, 0, 0, 0, 0, 45, 0, 12
|0, 34, 0, 0, 24, 0, 39, 15, 38, 16, 17, 0, 0, 41, 0, 0, 37, 48, 0, 0, 0, 0, 49, 0, 0, 14, 0, 9, 43, 44, 0, 0, 21, 45, 0, 23, 0, 0, 13, 33, 0, 30, 36, 0, 0, 0, 11, 0, 0
|0, 42, 0, 47, 0, 38, 0, 0, 0, 45, 0, 0, 0, 0, 0, 0, 0, 23, 0, 0, 21, 0, 0, 0, 0, 25, 0, 5, 39, 29, 0, 14, 48, 0, 0, 43, 0, 0, 0, 0, 0, 1, 0, 0, 0, 22, 30, 0, 0
|0, 0, 2, 0, 6, 0, 0, 42, 31, 0, 22, 0, 32, 0, 0, 0, 0, 5, 0, 0, 0, 39, 0, 0, 0, 0, 45, 0, 0, 0, 0, 0, 0, 19, 0, 16, 0, 33, 0, 0, 0, 0, 0, 0, 0, 29, 0, 41, 43
|0, 0, 0, 0, 0, 3, 0, 1, 10, 49, 0, 0, 8, 47, 0, 13, 0, 0, 0, 0, 0, 0, 0, 0, 19, 11, 35, 0, 9, 27, 0, 44, 0, 0, 0, 2, 26, 38, 21, 0, 0, 12, 28, 42, 0, 0, 23, 0, 0
|0, 0, 0, 0, 0, 0, 0, 0, 41, 0, 19, 39, 37, 4, 0, 2, 12, 11, 0, 25, 0, 0, 0, 46, 0, 0, 0, 8, 0, 0, 30, 23, 7, 0, 0, 0, 0, 18, 0, 0, 3, 0, 0, 0, 0, 0, 0, 0, 0
|0, 0, 0, 0, 37, 16, 0, 0, 11, 0, 0, 0, 0, 0, 0, 28, 15, 0, 0, 38, 0, 10, 0, 43, 0, 44, 0, 0, 0, 0, 0, 0, 0, 0, 0, 0, 0, 0, 0, 0, 0, 0, 0, 0, 17, 32, 0, 39, 0
|0, 39, 0, 0, 41, 0, 10, 27, 0, 0, 0, 44, 28, 0, 0, 0, 0, 0, 0, 0, 36, 0, 0, 0, 30, 0, 0, 14, 0, 0, 0, 0, 0, 0, 16, 0, 7, 6, 43, 0, 0, 0, 0, 0, 0, 0, 0, 33, 49
|0, 0, 0, 0, 20, 0, 0, 0, 0, 0, 0, 6, 43, 35, 0, 0, 0, 0, 0, 0, 0, 0, 0, 0, 16, 0, 0, 0, 29, 0, 0, 0, 33, 0, 0, 5, 0, 4, 10, 0, 0, 37, 0, 0, 0, 0, 0, 0, 22
|5, 35, 0, 42, 0, 0, 0, 0, 21, 24, 0, 0, 0, 0, 0, 0, 22, 3, 0, 18, 33, 0, 0, 0, 0, 0, 0, 32, 2, 0, 10, 26, 0, 0, 0, 0, 27, 0, 0, 13, 0, 0, 0, 0, 0, 0, 6, 0, 0|];