order = 7;
grid = [|7, 0, 0, 0, 0, 0, 37, 15, 0, 20, 0, 0, 0, 0, 0, 24, 0, 0, 0, 0, 0, 0, 0, 0, 0, 0, 0, 0, 0, 26, 5, 0, 0, 0, 0, 0, 19, 0, 0, 0, 0, 0, 0, 0, 0, 35, 0, 0, 0
|35, 0, 30, 0, 0, 0, 0, 0, 17, 11, 0, 12, 0, 0, 0, 44, 0, 0, 0, 29, 0, 27, 0, 46, 0, 0, 25, 0, 8, 10, 0, 0, 0, 0, 0, 22, 0, 31, 0, 0, 0, 0, 0, 0, 0, 0, 0, 0, 0
|0, 0, 12, 0, 0, 8, 0, 32, 18, 0, 44, 27, 0, 0, 0, 0, 10, 0, 1, 0, 4, 0, 0, 0, 38, 17, 0, 0, 0, 0, 0, 0, 35, 0, 0, 0, 0, 30, 0, 0, 0, 0, 0, 0, 0, 22, 28, 0, 0
|10, 0, 0, 0, 0, 0, 0, 0, 0, 1, 40, 0, 0, 37, 3, 0, 0, 0, 43, 0, 0, 0, 0, 5, 0, 0, 0, 0, 0, 0, 22, 17, 21, 0, 0, 0, 25, 47, 35, 0, 32, 0, 0, 0, 0, 0, 0, 44, 11
|0, 0, 0, 27, 0, 0, 0, 0, 0, 39, 25, 0, 19, 46, 11, 0, 0, 0, 0, 0, 0, 32, 47, 12, 0, 0, 0, 0, 0, 0, 0, 2, 0, 0, 30, 8, 45, 0, 7, 0, 0, 0, 0, 0, 0, 0, 4, 0, 48
|0, 39, 29, 0, 25, 0, 0, 0, 24, 0, 5, 0, 0, 0, 0, 0, 46, 0, 0, 0, 0, 0, 0, 6, 28, 7, 0, 0, 3, 38, 0, 0, 43, 42, 0, 0, 0, 0, 0, 0, 17, 0, 0, 0, 13, 37, 8, 0, 0
|43, 0, 0, 0, 0, 0, 0, 0, 0, 0, 0, 0, 0, 0, 32, 0, 37, 17, 0, 0, 9, 0, 0, 0, 0, 10, 8, 0, 0, 0, 0, 0, 0, 11, 19, 0, 0, 29, 12, 0, 0, 0, 25, 0, 42, 0, 31, 39, 0
|0, 0, 0, 7, 0, 0, 0, 0, 0, 0, 0, 30, 0, 3, 0, 48, 0, 0, 0, 0, 0, 41, 0, 0, 0, 0, 0, 0, 0, 0, 19, 49, 0, 0, 33, 0, 0, 26, 9, 0, 0, 0, 0, 0, 47, 0, 34, 0, 0
|0, 0, 3, 0, 0, 0, 2, 27, 39, 0, 0, 0, 0, 0, 18, 0, 0, 0, 15, 0, 11, 0, 44, 0, 0, 0, 0, 0, 0, 43, 0, 0, 0, 0, 0, 0, 0, 0, 0, 0, 0, 0, 0, 0, 0, 0, 0, 31, 0
|0, 0, 20, 0, 0, 0, 0, 13, 0, 0, 0, 0, 0, 0, 7, 0, 0, 0, 34, 0, 0, 0, 0, 0, 0, 0, 1, 12, 21, 46, 0, 0, 0, 0, 38, 0, 0, 0, 0, 3, 27, 32, 0, 28, 22, 0, 0, 0, 35
|0, 0, 0, 40, 0, 0, 0, 0, 0, 7, 0, 0, 0, 0, 1, 0, 0, 0, 37, 0, 0, 0, 0, 24, 0, 0, 26, 0, 0, 0, 0, 12, 0, 29, 42, 0, 0, 43, 0, 38, 0, 11, 0, 0, 0, 0, 0, 23, 10
|18, 0, 26, 0, 12, 11, 46, 0, 0, 0, 0, 0, 0, 32, 0, 0, 0, 0, 0, 0, 20, 0, 0, 33, 14, 0, 0, 0, 0, 0, 16, 0, 47, 0, 13, 0, 0, 0, 36, 0, 0, 0, 2, 0, 0, 0, 0, 0, 0
|21, 45, 0, 0, 0, 39, 0, 0, 0, 0, 0, 0, 0, 12, 0, 40, 0, 0, 0, 0, 33, 2, 0, 0, 0, 0, 49, 0, 0, 28, 0, 0, 0, 0, 3, 18, 0, 0, 0, 0, 0, 0, 0, 0, 0, 32, 0, 0, 19
|29, 0, 32, 28, 0, 0, 27, 0, 0, 0, 42, 0, 0, 0, 13, 0, 0, 19, 0, 0, 0, 0, 0, 0, 0, 0, 0, 0, 11, 0, 0, 0, 45, 0, 0, 0, 0, 0, 0, 12, 0, 0, 0, 0, 0, 0, 0, 0, 6
|0, 0, 5, 0, 0, 0, 0, 9, 0, 0, 0, 0, 0, 0, 0, 0, 0, 0, 0, 0, 0, 0, 0, 0, 0, 0, 0, 0, 0, 47, 0, 0, 0, 0, 16, 19, 0, 2, 0, 0, 21, 0, 0, 36, 33, 31, 0, 32, 0
|25, 0, 0, 0, 49, 0, 30, 0, 0, 0, 0, 0, 0, 0, 0, 0, 39, 0, 38, 9, 0, 0, 34, 0, 0, 0, 0, 0, 0, 0, 0, 0, 0, 0, 21, 41, 48, 17, 0, 0, 0, 0, 4, 0, 0, 0, 0, 0, 1
|0, 0, 0, 0, 37, 10, 0, 0, 0, 0, 4, 13, 0, 0, 0, 0, 0, 0, 0, 0, 0, 7, 0, 0, 0, 23, 22, 19, 0, 0, 31, 0, 0, 0, 36, 0, 46, 0, 43, 0, 0, 0, 0, 0, 0, 0, 0, 0, 26
|23, 0, 0, 0, 15, 0, 0, 12, 0, 0, 0, 0, 0, 0, 0, 0, 0, 0, 0, 33, 0, 43, 32, 0, 0, 0, 0, 0, 26, 48, 2, 8, 0, 0, 0, 0, 7, 0, 0, 49, 6, 0, 0, 0, 30, 0, 0, 0, 24
|0, 0, 0, 0, 0, 0, 43, 41, 0, 24, 34, 31, 36, 0, 0, 0, 0, 21, 19, 37, 12, 0, 0, 3, 0, 48, 11, 0, 0, 0, 0, 0, 0, 7, 0, 0, 0, 0, 0, 13, 0, 0, 27, 23, 49, 0, 0, 18, 0
|0, 0, 2, 0, 0, 0, 0, 0, 28, 0, 0, 0, 0, 29, 0, 0, 0, 30, 0, 7, 0, 0, 0, 47, 0, 0, 0, 0, 15, 0, 46, 0, 0, 17, 0, 0, 32, 0, 0, 1, 26, 0, 0, 0, 0, 0, 0, 0, 43
|48, 0, 0, 0, 7, 0, 0, 0, 45, 0, 32, 0, 0, 0, 0, 31, 0, 1, 0, 49, 0, 17, 38, 0, 0, 0, 0, 21, 0, 19, 20, 0, 0, 0, 0, 0, 0, 0, 0, 0, 0, 0, 0, 0, 15, 0, 0, 0, 0
|0, 0, 0, 20, 0, 43, 0, 0, 0, 0, 45, 0, 23, 0, 0, 0, 7, 0, 0, 0, 2, 3, 0, 0, 39, 0, 0, 22, 0, 16, 0, 0, 0, 47, 0, 0, 0, 0, 0, 17, 34, 0, 37, 44, 0, 0, 38, 0, 0
|0, 11, 0, 0, 0, 40, 0, 14, 0, 0, 1, 0, 0, 0, 16, 0, 0, 0, 0, 45, 0, 48, 7, 0, 0, 0, 0, 0, 0, 27, 37, 0, 12, 0, 0, 0, 0, 0, 0, 29, 0, 0, 0, 30, 0, 0, 0, 15, 0
|0, 0, 0, 0, 0, 0, 0, 24, 0, 9, 0, 0, 0, 27, 0, 37, 43, 48, 0, 0, 42, 18, 19, 30, 0, 0, 0, 0, 0, 8, 0, 21, 10, 0, 40, 0, 12, 0, 0, 0, 0, 0, 34, 0, 0, 0, 0, 0, 0
|0, 0, 0, 6, 0, 0, 0, 0, 0, 28, 0, 0, 0, 0, 0, 47, 0, 0, 0, 12, 0, 0, 0, 14, 0, 0, 0, 4, 49, 0, 0, 0, 34, 0, 0, 16, 0, 0, 0, 0, 0, 0, 0, 0, 0, 0, 0, 0, 29
|4, 0, 0, 0, 0, 0, 0, 0, 37, 0, 0, 0, 0, 0, 49, 0, 0, 34, 0, 1, 0, 20, 0, 0, 0, 0, 38, 0, 6, 0, 0, 43, 0, 0, 0, 0, 26, 0, 0, 0, 35, 0, 28, 0, 0, 0, 0, 0, 0
|0, 0, 18, 1, 34, 0, 0, 0, 0, 0, 0, 4, 20, 0, 0, 0, 33, 0, 0, 0, 0, 9, 0, 0, 43, 37, 0, 0, 0, 0, 0, 0, 2, 0, 0, 0, 0, 7, 23, 0, 36, 0, 16, 47, 0, 0, 0, 0, 0
|47, 49, 0, 21, 0, 0, 3, 0, 0, 0, 2, 0, 0, 0, 0, 0, 0, 39, 32, 0, 17, 0, 0, 28, 0, 0, 0, 0, 0, 0, 0, 0, 0, 0, 0, 15, 0, 0, 0, 0, 33, 0, 42, 0, 0, 0, 14, 0, 12
|19, 0, 0, 0, 0, 20, 0, 0, 38, 0, 0, 0, 0, 0, 0, 0, 2, 13, 0, 0, 0, 0, 0, 0, 0, 0, 0, 0, 0, 0, 0, 16, 0, 0, 0, 0, 0, 25, 0, 0, 0, 36, 0, 5, 0, 0, 0, 0, 4
|0, 0, 0, 0, 31, 0, 0, 0, 4, 0, 0, 10, 0, 0, 0, 0, 0, 12, 0, 0, 0, 0, 37, 0, 0, 0, 0, 0, 0, 14, 0, 45, 0, 0, 0, 0, 0, 0, 0, 0, 0, 0, 0, 38, 0, 24, 0, 0, 0
|0, 0, 0, 8, 0, 42, 47, 0, 0, 0, 0, 0, 3, 17, 37, 0, 0, 0, 35, 0, 0, 0, 6, 0, 0, 49, 0, 0, 24, 0, 0, 0, 0, 0, 0, 0, 0, 0, 0, 43, 31, 0, 0, 0, 0, 1, 0, 45, 0
|0, 0, 0, 12, 0, 0, 0, 0, 0, 0, 0, 0, 0, 0, 0, 14, 24, 0, 0, 0, 47, 0, 0, 0, 0, 0, 30, 0, 0, 0, 0, 0, 46, 8, 0, 0, 0, 22, 0, 10, 0, 0, 18, 0, 40, 0, 0, 0, 49
|11, 0, 4, 0, 46, 0, 0, 0, 0, 0, 20, 0, 0, 0, 40, 0, 0, 0, 0, 0, 0, 0, 0, 0, 32, 13, 0, 0, 0, 0, 0, 0, 0, 0, 0, 0, 0, 5, 44, 0, 0, 24, 17, 0, 0, 16, 0, 0, 0
|27, 3, 38, 16, 0, 37, 7, 0, 29, 0, 0, 48, 11, 24, 0, 0, 0, 33, 0, 32, 22, 0, 0, 40, 0, 0, 0, 0, 0, 13, 0, 44, 36, 0, 6, 0, 0, 39, 0, 0, 0, 0, 0, 0, 0, 0, 0, 0, 0
|0, 0, 0, 0, 45, 0, 0, 0, 0, 0, 0, 0, 0, 0, 0, 0, 0, 20, 39, 46, 0, 0, 0, 0, 0, 0, 0, 0, 12, 21, 0, 25, 0, 28, 0, 0, 17, 14, 0, 0, 0, 0, 43, 13, 37, 0, 0, 0, 0
|0, 0, 0, 0, 0, 0, 0, 35, 0, 37, 21, 18, 0, 33, 0, 0, 0, 0, 0, 2, 0, 0, 0, 0, 0, 0, 0, 0, 46, 41, 0, 0, 0, 0, 29, 0, 0, 0, 0, 0, 0, 0, 0, 17, 0, 0, 0, 0, 0
|0, 0, 0, 0, 0, 23, 0, 45, 0, 32, 17, 0, 0, 26, 0, 7, 18, 29, 0, 0, 0, 38, 0, 0, 0, 0, 3, 0, 0, 0, 0, 15, 0, 0, 0, 0, 0, 0, 0, 0, 0, 0, 0, 0, 0, 30, 36, 0, 46
|36, 0, 0, 46, 0, 18, 0, 0, 0, 19, 0, 14, 0, 0, 20, 0, 0, 0, 0, 24, 1, 0, 0, 0, 12, 0, 0, 6, 0, 7, 49, 0, 0, 0, 0, 0, 0, 0, 4, 0, 8, 0, 0, 0, 0, 0, 40, 22, 39
|0, 2, 0, 0, 0, 0, 0, 0, 0, 0, 0, 0, 0, 0, 0, 46, 0, 0, 6, 0, 0, 0, 0, 0, 0, 21, 0, 15, 0, 12, 11, 22, 20, 0, 0, 0, 18, 36, 0, 0, 0, 40, 0, 0, 0, 34, 0, 27, 0
|0, 0, 0, 30, 0, 0, 0, 0, 0, 0, 0, 0, 0, 0, 0, 0, 11, 0, 0, 5, 39, 0, 0, 2, 47, 32, 0, 0, 0, 40, 44, 0, 0, 0, 37, 0, 22, 0, 0, 0, 0, 0, 0, 18, 0, 0, 0, 0, 7
|0, 0, 28, 0, 0, 0, 0, 0, 2, 0, 49, 0, 0, 0, 0, 33, 0, 0, 31, 0, 0, 40, 0, 43, 0, 35, 0, 0, 0, 0, 21, 0, 9, 0, 0, 0, 0, 11, 0, 0, 0, 3, 45, 0, 0, 0, 0, 20, 14
|0, 0, 0, 0, 0, 0, 0, 0, 0, 0, 0, 46, 0, 39, 0, 0, 0, 0, 0, 0, 0, 34, 0, 0, 22, 0, 41, 0, 0, 18, 0, 0, 0, 0, 0, 0, 29, 0, 49, 0, 0, 0, 0, 0, 0, 0, 32, 0, 0
|0, 6, 0, 0, 0, 45, 0, 19, 3, 0, 29, 0, 13, 0, 0, 0, 0, 0, 0, 0, 0, 24, 0, 0, 0, 0, 20, 0, 0, 0, 17, 0, 0, 0, 0, 0, 0, 0, 0, 0, 0, 0, 23, 0, 0, 0, 0, 0, 0
|0, 0, 47, 0, 0, 0, 22, 0, 0, 0, 0, 0, 0, 0, 0, 0, 13, 0, 0, 40, 37, 15, 0, 0, 3, 0, 0, 0, 19, 11, 0, 0, 0, 0, 0, 20, 34, 0, 0, 0, 0, 0, 0, 0, 0, 0, 25, 0, 0
|0, 0, 0, 0, 3, 0, 0, 0, 0, 0, 0, 0, 0, 31, 25, 0, 0, 2, 0, 42, 44, 0, 27, 38, 40, 0, 0, 0, 0, 34, 18, 0, 0, 0, 0, 0, 0, 0, 0, 0, 30, 41, 0, 0, 14, 0, 0, 0, 0
|0, 0, 0, 4, 13, 0, 20, 0, 12, 34, 0, 42, 0, 0, 0, 17, 0, 16, 0, 47, 0, 0, 43, 0, 0, 26, 0, 32, 0, 3, 0, 0, 29, 0, 0, 21, 33, 49, 22, 9, 24, 0, 6, 0, 0, 0, 0, 36, 0
|38, 43, 42, 0, 0, 0, 16, 0, 0, 0, 0, 41, 25, 0, 48, 0, 34, 0, 0, 0, 0, 0, 0, 13, 0, 6, 0, 14, 0, 0, 0, 0, 0, 0, 0, 0, 0, 0, 0, 36, 5, 0, 46, 3, 0, 0, 0, 0, 0
|39, 12, 21, 0, 0, 48, 0, 0, 0, 23, 0, 0, 0, 0, 22, 0, 6, 0, 0, 0, 26, 0, 0, 0, 31, 0, 33, 0, 0, 0, 27, 14, 13, 5, 0, 0, 3, 0, 0, 0, 0, 47, 24, 16, 0, 44, 0, 0, 0
|0, 10, 0, 24, 28, 41, 18, 0, 0, 22, 37, 0, 44, 45, 0, 19, 0, 46, 20, 11, 0, 0, 0, 0, 0, 0, 0, 47, 23, 30, 0, 0, 0, 12, 0, 25, 0, 0, 0, 0, 13, 43, 0, 35, 27, 0, 49, 0, 0|];