order = 7;
grid = [|46, 0, 0, 0, 32, 0, 0, 6, 0, 0, 0, 0, 0, 0, 47, 0, 0, 0, 27, 0, 0, 0, 0, 0, 0, 0, 7, 0, 0, 0, 45, 0, 0, 26, 0, 0, 11, 0, 0, 0, 2, 0, 0, 0, 0, 0, 21, 0, 0
|0, 0, 0, 38, 0, 0, 0, 27, 0, 43, 0, 24, 0, 0, 0, 34, 0, 0, 42, 0, 8, 19, 0, 0, 0, 23, 15, 0, 0, 0, 0, 0, 0, 0, 0, 45, 30, 0, 46, 7, 21, 0, 10, 41, 20, 0, 0, 0, 33
|0, 0, 19, 0, 0, 0, 0, 46, 0, 0, 3, 0, 0, 0, 0, 29, 0, 0, 9, 0, 33, 0, 0, 0, 0, 0, 48, 0, 0, 38, 0, 0, 0, 0, 0, 0, 25, 14, 0, 0, 0, 0, 13, 2, 44, 40, 42, 0, 0
|30, 0, 0, 0, 34, 0, 0, 0, 0, 19, 22, 0, 0, 0, 0, 16, 0, 40, 14, 0, 0, 0, 18, 13, 0, 17, 0, 0, 11, 2, 0, 28, 0, 10, 0, 48, 0, 20, 31, 0, 0, 33, 0, 0, 0, 37, 43, 3, 0
|22, 0, 24, 18, 0, 0, 0, 0, 0, 20, 0, 5, 0, 0, 4, 0, 0, 0, 30, 13, 0, 32, 16, 0, 0, 31, 0, 0, 27, 0, 34, 6, 48, 43, 14, 0, 0, 0, 0, 0, 12, 39, 35, 0, 0, 0, 0, 36, 46
|48, 0, 0, 16, 37, 43, 0, 0, 0, 36, 0, 0, 0, 0, 0, 0, 0, 24, 10, 0, 0, 0, 0, 0, 0, 0, 0, 0, 0, 0, 46, 0, 0, 0, 0, 0, 0, 0, 0, 9, 0, 34, 19, 0, 0, 0, 30, 0, 0
|13, 9, 0, 0, 0, 0, 2, 0, 0, 48, 0, 34, 0, 39, 0, 20, 41, 0, 0, 0, 0, 45, 49, 0, 30, 0, 0, 10, 0, 19, 36, 0, 0, 0, 0, 0, 38, 0, 0, 0, 0, 0, 0, 0, 0, 0, 0, 0, 47
|0, 0, 0, 29, 0, 34, 0, 28, 0, 0, 0, 0, 0, 0, 41, 22, 9, 3, 0, 0, 0, 30, 0, 31, 0, 0, 0, 13, 0, 0, 27, 0, 0, 0, 0, 0, 0, 6, 0, 0, 0, 0, 0, 14, 0, 0, 38, 0, 0
|0, 40, 0, 28, 31, 0, 13, 25, 0, 17, 0, 0, 3, 0, 32, 0, 0, 0, 0, 0, 0, 0, 0, 42, 33, 24, 0, 0, 15, 0, 0, 20, 0, 0, 0, 0, 10, 0, 0, 0, 0, 0, 0, 0, 0, 0, 0, 5, 0
|24, 0, 0, 0, 0, 0, 0, 0, 0, 6, 0, 26, 0, 0, 0, 0, 0, 0, 0, 46, 45, 0, 0, 0, 0, 0, 0, 0, 36, 0, 32, 0, 18, 0, 0, 0, 0, 0, 0, 0, 0, 0, 0, 0, 39, 0, 0, 0, 0
|0, 0, 9, 39, 12, 0, 0, 0, 0, 38, 0, 0, 5, 0, 0, 0, 24, 0, 0, 0, 0, 0, 48, 47, 0, 0, 26, 21, 25, 0, 22, 0, 30, 42, 0, 14, 0, 0, 0, 46, 0, 28, 0, 0, 0, 0, 16, 0, 0
|25, 46, 49, 0, 26, 36, 0, 0, 47, 0, 0, 0, 0, 0, 0, 0, 31, 0, 0, 0, 0, 0, 0, 0, 0, 32, 0, 37, 0, 0, 0, 0, 0, 0, 0, 0, 0, 0, 30, 0, 0, 0, 43, 10, 0, 19, 0, 0, 0
|20, 3, 37, 0, 45, 0, 41, 42, 30, 15, 0, 0, 0, 34, 0, 0, 35, 0, 25, 0, 0, 0, 7, 40, 0, 12, 0, 0, 0, 26, 6, 21, 43, 31, 23, 17, 0, 47, 13, 0, 22, 0, 0, 0, 0, 49, 9, 0, 0
|0, 0, 10, 0, 0, 44, 18, 0, 0, 0, 48, 0, 0, 9, 0, 0, 30, 0, 0, 6, 0, 43, 11, 0, 0, 0, 22, 25, 0, 0, 0, 24, 14, 0, 0, 0, 0, 0, 0, 38, 39, 0, 0, 0, 45, 0, 13, 29, 0
|0, 22, 0, 5, 27, 0, 0, 0, 0, 0, 0, 0, 6, 0, 0, 0, 28, 0, 0, 0, 0, 0, 0, 0, 32, 0, 0, 7, 0, 0, 0, 0, 0, 0, 0, 0, 0, 11, 0, 2, 0, 0, 0, 0, 0, 0, 0, 35, 0
|0, 0, 46, 0, 0, 0, 0, 0, 17, 0, 0, 0, 0, 0, 19, 0, 16, 31, 0, 47, 0, 0, 0, 30, 0, 0, 0, 0, 21, 0, 10, 14, 0, 0, 5, 0, 49, 0, 0, 0, 0, 12, 0, 0, 0, 43, 0, 0, 32
|0, 0, 0, 17, 0, 0, 28, 0, 0, 0, 0, 30, 26, 0, 0, 0, 34, 0, 0, 0, 44, 0, 0, 25, 0, 0, 0, 0, 0, 0, 43, 47, 0, 48, 18, 0, 0, 29, 0, 0, 0, 41, 0, 3, 13, 42, 36, 0, 0
|0, 0, 0, 3, 0, 0, 0, 0, 0, 39, 0, 12, 35, 0, 0, 0, 0, 0, 0, 30, 38, 47, 24, 0, 0, 0, 0, 0, 23, 22, 41, 0, 0, 0, 0, 0, 19, 0, 0, 0, 0, 37, 0, 0, 0, 0, 0, 0, 0
|0, 0, 0, 0, 0, 48, 0, 8, 0, 0, 19, 0, 0, 0, 0, 0, 0, 0, 0, 0, 0, 0, 13, 0, 0, 0, 0, 0, 0, 1, 2, 0, 0, 0, 31, 0, 0, 25, 0, 30, 0, 0, 0, 0, 0, 0, 0, 0, 0
|0, 0, 0, 40, 0, 0, 34, 0, 32, 0, 0, 38, 0, 0, 17, 0, 0, 1, 0, 0, 0, 0, 0, 0, 0, 0, 0, 0, 0, 0, 0, 0, 0, 28, 0, 0, 0, 0, 0, 0, 0, 0, 0, 31, 0, 0, 6, 0, 0
|0, 23, 0, 0, 0, 6, 0, 0, 0, 45, 0, 42, 0, 0, 24, 0, 0, 0, 0, 0, 0, 0, 4, 9, 0, 0, 5, 0, 0, 0, 35, 19, 0, 0, 0, 0, 0, 10, 0, 0, 0, 0, 0, 0, 26, 0, 0, 15, 28
|0, 15, 0, 0, 0, 0, 0, 0, 0, 0, 34, 0, 0, 26, 0, 0, 0, 0, 0, 0, 0, 0, 0, 0, 0, 0, 0, 38, 46, 0, 0, 0, 0, 0, 0, 32, 0, 0, 0, 6, 0, 0, 0, 0, 0, 0, 0, 0, 0
|26, 0, 0, 0, 0, 0, 10, 0, 0, 0, 41, 0, 0, 43, 0, 0, 0, 15, 0, 0, 0, 0, 0, 0, 47, 0, 0, 19, 0, 0, 0, 1, 31, 24, 7, 0, 46, 0, 42, 0, 0, 29, 0, 0, 40, 0, 28, 0, 0
|45, 0, 0, 0, 0, 0, 0, 33, 0, 0, 0, 19, 0, 28, 0, 0, 0, 0, 0, 0, 0, 34, 0, 0, 7, 0, 0, 0, 0, 0, 0, 0, 0, 0, 0, 38, 0, 0, 14, 0, 25, 20, 18, 0, 46, 0, 0, 0, 49
|0, 0, 0, 0, 0, 0, 0, 5, 0, 0, 27, 0, 0, 0, 0, 0, 0, 0, 22, 0, 0, 0, 0, 0, 45, 8, 0, 0, 0, 0, 0, 32, 0, 0, 47, 0, 2, 19, 0, 13, 0, 0, 21, 48, 0, 0, 0, 0, 0
|0, 18, 35, 0, 0, 0, 0, 3, 24, 0, 0, 25, 17, 0, 0, 0, 0, 27, 0, 0, 0, 0, 0, 0, 0, 0, 0, 28, 19, 0, 0, 0, 0, 0, 0, 0, 45, 0, 0, 0, 0, 0, 0, 0, 0, 0, 0, 14, 0
|0, 38, 0, 0, 0, 0, 0, 0, 0, 0, 0, 0, 15, 0, 40, 0, 1, 0, 17, 0, 0, 0, 37, 0, 29, 0, 0, 0, 28, 36, 0, 0, 33, 0, 0, 0, 0, 0, 22, 0, 9, 0, 0, 4, 0, 26, 0, 0, 0
|27, 39, 0, 0, 0, 4, 0, 0, 0, 32, 0, 0, 0, 0, 3, 46, 0, 0, 37, 29, 0, 0, 0, 0, 14, 0, 1, 44, 0, 0, 0, 0, 0, 0, 0, 0, 0, 0, 28, 17, 0, 0, 25, 0, 0, 2, 10, 0, 0
|16, 0, 28, 0, 49, 0, 0, 0, 0, 0, 0, 0, 0, 35, 8, 12, 15, 0, 0, 0, 0, 0, 29, 0, 0, 0, 0, 0, 0, 31, 0, 0, 0, 0, 46, 0, 13, 0, 0, 45, 0, 14, 0, 0, 48, 0, 0, 0, 0
|38, 0, 43, 0, 0, 0, 0, 0, 0, 41, 47, 0, 0, 0, 46, 42, 0, 0, 0, 0, 0, 0, 0, 0, 0, 0, 0, 0, 10, 0, 0, 22, 0, 0, 0, 12, 0, 3, 0, 0, 0, 0, 15, 0, 0, 36, 0, 0, 0
|18, 0, 0, 2, 0, 0, 0, 37, 10, 26, 21, 0, 0, 0, 0, 0, 17, 0, 0, 0, 3, 0, 0, 0, 0, 45, 0, 0, 0, 28, 0, 0, 0, 0, 0, 43, 6, 0, 15, 20, 0, 0, 0, 0, 0, 39, 0, 7, 0
|0, 0, 14, 13, 0, 0, 0, 0, 0, 27, 15, 28, 0, 0, 22, 0, 39, 26, 0, 0, 34, 0, 0, 0, 0, 0, 20, 0, 0, 7, 0, 30, 0, 0, 33, 0, 8, 0, 19, 0, 0, 32, 0, 0, 0, 0, 0, 0, 0
|34, 0, 0, 0, 23, 0, 48, 0, 0, 49, 0, 7, 0, 0, 0, 0, 0, 0, 13, 0, 31, 0, 0, 3, 27, 0, 0, 0, 0, 0, 15, 0, 0, 0, 0, 0, 0, 0, 0, 26, 0, 40, 0, 22, 0, 0, 37, 30, 0
|0, 0, 0, 0, 30, 0, 0, 0, 0, 5, 0, 0, 43, 20, 0, 0, 0, 0, 7, 0, 0, 0, 0, 0, 0, 22, 35, 15, 2, 0, 26, 0, 16, 0, 0, 18, 29, 0, 0, 0, 0, 38, 0, 0, 0, 17, 0, 0, 0
|0, 5, 26, 47, 3, 0, 0, 24, 0, 0, 30, 32, 0, 0, 27, 44, 0, 20, 23, 0, 0, 0, 0, 21, 0, 0, 0, 0, 43, 14, 37, 0, 11, 13, 0, 31, 0, 0, 9, 0, 0, 46, 0, 12, 0, 0, 0, 0, 0
|0, 0, 0, 0, 0, 0, 0, 0, 0, 9, 0, 39, 47, 17, 0, 0, 0, 0, 48, 15, 0, 0, 0, 0, 0, 27, 3, 0, 0, 0, 0, 0, 0, 0, 43, 0, 18, 0, 0, 0, 0, 44, 37, 0, 0, 41, 0, 11, 0
|33, 0, 42, 0, 5, 0, 27, 15, 0, 0, 0, 0, 0, 46, 0, 0, 0, 19, 0, 0, 0, 0, 22, 1, 0, 0, 18, 43, 0, 0, 0, 36, 0, 0, 0, 0, 9, 0, 0, 0, 0, 0, 39, 0, 0, 0, 0, 0, 0
|0, 0, 0, 0, 0, 0, 3, 0, 0, 0, 38, 0, 0, 0, 0, 0, 25, 11, 0, 0, 0, 5, 0, 0, 36, 46, 0, 0, 0, 10, 0, 0, 0, 0, 0, 0, 26, 0, 0, 0, 15, 30, 0, 0, 0, 0, 32, 0, 0
|0, 0, 0, 0, 0, 18, 0, 0, 0, 42, 49, 0, 0, 27, 21, 45, 0, 0, 26, 0, 0, 0, 32, 0, 0, 0, 0, 39, 0, 0, 13, 44, 0, 0, 0, 46, 0, 40, 0, 1, 10, 0, 0, 0, 0, 0, 0, 0, 0
|47, 0, 0, 15, 0, 14, 0, 20, 43, 0, 0, 0, 0, 0, 39, 0, 0, 10, 34, 38, 0, 0, 41, 0, 13, 0, 37, 12, 0, 0, 0, 0, 0, 18, 0, 33, 21, 0, 32, 0, 42, 0, 0, 0, 0, 0, 0, 0, 0
|0, 0, 17, 0, 0, 0, 0, 0, 0, 4, 0, 0, 0, 41, 0, 0, 0, 0, 0, 32, 0, 0, 30, 0, 0, 0, 33, 24, 0, 15, 0, 29, 0, 0, 38, 0, 34, 49, 11, 0, 0, 0, 3, 0, 9, 0, 0, 0, 0
|0, 0, 0, 11, 0, 16, 0, 48, 22, 40, 0, 0, 0, 0, 2, 23, 0, 0, 33, 0, 0, 0, 0, 0, 0, 0, 47, 0, 0, 0, 20, 34, 46, 0, 0, 0, 0, 36, 0, 0, 6, 0, 0, 0, 42, 29, 0, 0, 0
|17, 0, 0, 0, 0, 0, 0, 0, 0, 31, 0, 0, 46, 0, 0, 2, 0, 33, 0, 0, 0, 48, 0, 32, 21, 0, 41, 30, 0, 39, 3, 0, 0, 0, 11, 0, 0, 0, 0, 0, 0, 9, 0, 0, 0, 0, 0, 0, 0
|21, 0, 0, 0, 36, 0, 0, 0, 0, 0, 0, 0, 0, 0, 0, 0, 0, 0, 8, 9, 0, 27, 0, 0, 0, 0, 0, 0, 0, 0, 0, 43, 2, 29, 0, 0, 0, 32, 0, 0, 0, 0, 0, 0, 5, 48, 0, 0, 0
|0, 0, 0, 0, 0, 0, 0, 0, 0, 8, 0, 0, 0, 10, 0, 0, 0, 22, 0, 0, 15, 0, 0, 20, 0, 0, 46, 0, 0, 0, 33, 0, 0, 0, 0, 0, 0, 0, 0, 27, 0, 0, 0, 0, 0, 0, 0, 49, 0
|4, 0, 0, 33, 10, 0, 0, 0, 0, 0, 16, 0, 0, 0, 0, 48, 0, 7, 5, 24, 0, 31, 0, 0, 0, 0, 29, 35, 0, 0, 0, 0, 0, 9, 0, 0, 0, 0, 0, 0, 46, 0, 0, 0, 0, 0, 0, 0, 0
|0, 0, 7, 0, 0, 0, 0, 0, 0, 0, 0, 0, 0, 14, 0, 31, 0, 0, 0, 0, 0, 0, 2, 12, 0, 0, 0, 0, 44, 0, 19, 0, 0, 46, 0, 36, 0, 0, 0, 40, 20, 10, 0, 0, 16, 0, 26, 0, 0
|12, 16, 0, 0, 0, 0, 38, 34, 13, 0, 0, 27, 0, 32, 0, 0, 0, 0, 44, 0, 11, 33, 0, 45, 0, 0, 49, 0, 0, 0, 0, 0, 0, 0, 0, 42, 0, 0, 3, 0, 14, 0, 29, 0, 0, 0, 2, 21, 0
|2, 0, 0, 44, 0, 0, 0, 43, 49, 47, 0, 0, 0, 38, 0, 0, 10, 0, 0, 0, 0, 0, 9, 36, 28, 0, 0, 0, 0, 0, 0, 0, 0, 0, 0, 0, 0, 13, 0, 15, 0, 25, 40, 19, 0, 0, 18, 33, 0|];