order = 7;
grid = [|0, 0, 26, 0, 0, 0, 0, 0, 36, 45, 0, 0, 0, 0, 0, 0, 0, 0, 0, 34, 0, 15, 4, 0, 0, 0, 0, 0, 27, 41, 0, 0, 0, 35, 0, 2, 0, 0, 38, 48, 0, 0, 0, 0, 24, 0, 43, 0, 3
|0, 0, 4, 0, 23, 0, 0, 0, 6, 0, 38, 16, 0, 0, 0, 0, 31, 0, 14, 0, 0, 0, 0, 37, 39, 3, 0, 1, 20, 0, 0, 0, 0, 0, 0, 0, 0, 0, 0, 0, 47, 0, 0, 0, 11, 28, 0, 35, 0
|0, 32, 8, 0, 0, 47, 0, 0, 35, 0, 0, 0, 0, 7, 0, 26, 0, 0, 0, 0, 46, 0, 0, 0, 43, 0, 45, 48, 23, 28, 0, 0, 5, 0, 0, 0, 25, 0, 17, 21, 0, 0, 0, 0, 0, 0, 0, 31, 0
|0, 0, 0, 7, 0, 0, 43, 3, 0, 41, 10, 0, 0, 0, 0, 0, 0, 49, 0, 0, 37, 0, 0, 0, 0, 0, 0, 0, 0, 0, 16, 0, 0, 38, 24, 0, 0, 34, 0, 0, 0, 0, 47, 4, 0, 0, 0, 0, 0
|0, 0, 0, 0, 0, 0, 0, 0, 0, 0, 0, 24, 37, 0, 0, 0, 0, 30, 0, 0, 0, 12, 0, 0, 49, 0, 41, 0, 21, 0, 0, 0, 0, 0, 46, 0, 0, 0, 3, 0, 1, 0, 0, 6, 32, 0, 0, 0, 0
|0, 0, 0, 0, 0, 0, 0, 0, 0, 0, 0, 43, 11, 30, 0, 0, 0, 0, 3, 27, 0, 0, 18, 32, 20, 0, 36, 0, 0, 0, 9, 19, 0, 0, 0, 0, 0, 16, 0, 37, 0, 44, 0, 0, 29, 0, 0, 34, 2
|17, 0, 21, 0, 0, 2, 41, 0, 18, 0, 0, 0, 0, 0, 45, 19, 0, 0, 25, 0, 0, 0, 44, 0, 0, 0, 0, 40, 0, 0, 0, 0, 29, 0, 0, 0, 0, 0, 0, 0, 0, 15, 5, 36, 9, 13, 0, 0, 0
|0, 40, 25, 0, 12, 0, 0, 0, 0, 0, 0, 0, 0, 0, 0, 38, 5, 6, 0, 0, 0, 0, 0, 46, 7, 0, 0, 33, 0, 23, 0, 0, 0, 0, 0, 1, 0, 0, 43, 47, 0, 0, 0, 0, 0, 0, 0, 0, 34
|0, 6, 0, 0, 0, 0, 0, 0, 0, 0, 32, 27, 15, 48, 44, 0, 0, 0, 0, 42, 0, 34, 0, 22, 47, 19, 0, 21, 0, 0, 10, 0, 0, 0, 41, 30, 0, 0, 0, 0, 3, 0, 0, 43, 0, 0, 0, 0, 0
|0, 0, 49, 0, 16, 0, 0, 45, 38, 0, 0, 0, 33, 0, 0, 47, 36, 0, 0, 0, 0, 41, 0, 0, 0, 0, 0, 0, 0, 22, 0, 3, 0, 0, 0, 0, 24, 0, 0, 25, 0, 0, 0, 27, 0, 0, 17, 0, 46
|0, 18, 0, 0, 4, 14, 11, 17, 0, 0, 0, 0, 0, 0, 0, 0, 0, 2, 0, 22, 0, 0, 12, 0, 0, 0, 0, 0, 0, 16, 0, 0, 15, 21, 32, 42, 0, 0, 0, 7, 0, 0, 41, 0, 0, 0, 0, 0, 0
|47, 10, 0, 0, 34, 0, 0, 0, 39, 0, 0, 0, 0, 0, 0, 0, 0, 0, 0, 0, 0, 0, 38, 0, 0, 0, 0, 0, 7, 0, 0, 6, 46, 0, 0, 41, 15, 0, 0, 19, 0, 36, 0, 31, 0, 0, 0, 11, 0
|0, 0, 0, 48, 0, 0, 0, 0, 23, 0, 0, 21, 34, 12, 9, 0, 0, 0, 0, 45, 0, 0, 49, 31, 0, 1, 0, 0, 0, 0, 0, 33, 0, 37, 5, 0, 0, 26, 0, 6, 0, 0, 28, 0, 0, 0, 0, 0, 0
|1, 0, 29, 0, 0, 21, 0, 0, 41, 0, 0, 0, 0, 0, 26, 0, 0, 0, 0, 0, 0, 0, 0, 6, 0, 0, 0, 13, 0, 0, 49, 0, 0, 34, 31, 0, 0, 0, 48, 0, 0, 0, 0, 5, 8, 0, 15, 0, 0
|0, 0, 0, 0, 0, 36, 0, 0, 0, 0, 0, 41, 0, 37, 0, 44, 14, 46, 0, 0, 0, 0, 0, 11, 0, 15, 38, 29, 45, 0, 0, 8, 0, 49, 0, 0, 0, 35, 0, 9, 0, 48, 0, 0, 0, 31, 0, 0, 0
|0, 0, 0, 0, 0, 0, 17, 0, 0, 26, 0, 0, 0, 0, 0, 0, 0, 0, 37, 0, 0, 31, 0, 0, 0, 0, 48, 0, 29, 46, 0, 0, 40, 0, 21, 0, 11, 0, 0, 0, 0, 0, 0, 9, 1, 43, 0, 0, 0
|8, 43, 0, 34, 0, 18, 0, 0, 0, 39, 0, 0, 0, 3, 0, 28, 0, 40, 0, 0, 0, 0, 9, 21, 46, 23, 26, 0, 1, 0, 36, 42, 0, 0, 19, 44, 0, 0, 5, 0, 0, 0, 20, 32, 27, 0, 35, 0, 0
|0, 0, 0, 0, 19, 0, 0, 0, 0, 0, 0, 0, 16, 23, 0, 0, 35, 0, 5, 0, 0, 0, 0, 0, 42, 49, 0, 0, 10, 0, 0, 0, 0, 24, 43, 0, 0, 0, 30, 38, 0, 33, 0, 0, 0, 0, 0, 0, 40
|0, 0, 0, 0, 0, 0, 0, 0, 0, 7, 29, 0, 0, 0, 38, 0, 0, 0, 0, 15, 0, 0, 0, 0, 27, 0, 43, 0, 39, 0, 0, 0, 0, 0, 23, 25, 0, 0, 0, 0, 0, 0, 0, 0, 0, 36, 33, 45, 0
|0, 46, 0, 0, 21, 0, 0, 0, 0, 28, 0, 0, 0, 0, 0, 0, 0, 0, 0, 0, 4, 0, 3, 20, 0, 0, 0, 0, 0, 0, 0, 16, 0, 0, 0, 0, 0, 0, 7, 0, 43, 0, 0, 0, 0, 0, 0, 44, 38
|0, 0, 0, 0, 0, 0, 0, 0, 9, 19, 0, 0, 0, 0, 43, 0, 0, 0, 31, 0, 0, 0, 0, 0, 35, 0, 24, 0, 0, 0, 28, 0, 0, 0, 27, 0, 0, 0, 40, 36, 46, 0, 0, 0, 0, 0, 0, 0, 0
|0, 0, 0, 0, 5, 0, 13, 0, 4, 0, 47, 0, 0, 0, 32, 41, 0, 0, 46, 0, 0, 39, 0, 45, 0, 0, 15, 0, 0, 0, 27, 48, 28, 0, 35, 0, 0, 9, 0, 0, 0, 0, 0, 0, 0, 18, 0, 23, 0
|29, 0, 0, 6, 0, 0, 46, 24, 0, 0, 49, 0, 0, 0, 0, 0, 0, 43, 33, 48, 0, 0, 41, 0, 0, 0, 21, 0, 0, 0, 2, 0, 0, 0, 0, 0, 0, 0, 27, 32, 23, 45, 0, 0, 0, 0, 0, 0, 0
|0, 47, 0, 0, 0, 26, 0, 0, 0, 18, 0, 0, 30, 25, 19, 0, 0, 39, 0, 0, 14, 0, 0, 0, 0, 0, 0, 31, 42, 0, 0, 0, 0, 0, 40, 0, 38, 0, 13, 0, 0, 0, 49, 0, 0, 5, 0, 0, 7
|30, 36, 41, 17, 0, 0, 0, 0, 26, 0, 5, 0, 23, 28, 0, 0, 15, 0, 0, 0, 0, 49, 0, 43, 16, 0, 20, 9, 0, 0, 14, 0, 0, 0, 0, 0, 0, 39, 0, 0, 0, 0, 0, 0, 0, 48, 0, 0, 0
|35, 0, 0, 0, 48, 0, 0, 0, 0, 0, 0, 12, 0, 0, 0, 0, 0, 42, 0, 0, 0, 40, 0, 0, 0, 0, 0, 0, 31, 9, 15, 7, 0, 11, 0, 0, 0, 0, 0, 0, 10, 0, 0, 0, 3, 0, 0, 2, 0
|0, 0, 0, 0, 18, 0, 0, 0, 0, 0, 0, 0, 0, 41, 0, 0, 0, 0, 0, 7, 0, 30, 42, 0, 0, 0, 0, 0, 0, 0, 0, 0, 1, 0, 0, 15, 17, 0, 26, 29, 0, 43, 0, 0, 13, 33, 36, 0, 31
|0, 0, 0, 0, 0, 0, 27, 0, 42, 0, 0, 0, 0, 43, 0, 0, 0, 0, 0, 0, 0, 0, 0, 0, 1, 0, 0, 0, 0, 0, 46, 0, 0, 32, 0, 0, 0, 0, 0, 0, 33, 6, 15, 0, 0, 0, 29, 30, 0
|0, 0, 0, 10, 45, 8, 0, 0, 0, 0, 0, 0, 0, 0, 0, 4, 0, 29, 0, 0, 0, 47, 0, 3, 0, 0, 0, 6, 0, 0, 30, 34, 0, 0, 26, 0, 0, 0, 0, 0, 44, 0, 36, 0, 31, 0, 0, 0, 37
|0, 0, 0, 0, 0, 0, 32, 48, 44, 0, 0, 0, 0, 0, 0, 11, 0, 5, 0, 1, 0, 29, 35, 0, 0, 0, 0, 0, 0, 0, 40, 39, 17, 0, 0, 0, 0, 0, 0, 0, 0, 0, 45, 42, 18, 0, 0, 0, 43
|0, 0, 0, 0, 0, 0, 40, 0, 0, 24, 39, 45, 0, 10, 17, 0, 0, 0, 43, 0, 36, 0, 0, 0, 0, 0, 0, 0, 0, 0, 0, 47, 0, 0, 0, 0, 0, 7, 0, 0, 0, 0, 0, 0, 5, 0, 0, 0, 0
|0, 1, 0, 18, 0, 0, 0, 0, 0, 0, 0, 0, 5, 0, 0, 0, 0, 0, 0, 0, 23, 42, 19, 27, 0, 2, 31, 0, 0, 0, 37, 43, 0, 0, 14, 0, 0, 0, 0, 0, 0, 26, 0, 0, 0, 35, 0, 32, 10
|27, 0, 36, 47, 0, 7, 4, 0, 33, 0, 3, 0, 0, 0, 0, 31, 0, 0, 0, 0, 0, 0, 0, 0, 0, 9, 0, 0, 0, 0, 0, 0, 0, 0, 0, 0, 14, 0, 0, 1, 0, 0, 0, 8, 0, 0, 0, 0, 0
|0, 26, 0, 43, 0, 0, 0, 0, 20, 46, 0, 0, 0, 0, 0, 0, 2, 0, 0, 28, 0, 0, 0, 0, 45, 0, 40, 0, 44, 0, 0, 0, 0, 0, 0, 0, 48, 0, 32, 23, 0, 0, 0, 15, 4, 22, 0, 27, 0
|0, 24, 17, 46, 0, 0, 2, 0, 0, 47, 0, 0, 0, 0, 0, 14, 37, 0, 0, 0, 0, 0, 0, 0, 0, 0, 0, 0, 6, 0, 0, 0, 0, 0, 16, 27, 35, 0, 0, 0, 0, 0, 0, 7, 0, 0, 0, 0, 1
|0, 0, 0, 32, 0, 48, 0, 27, 0, 0, 0, 0, 0, 34, 21, 0, 0, 47, 0, 37, 0, 0, 0, 0, 0, 0, 0, 22, 0, 20, 23, 0, 0, 12, 0, 0, 39, 0, 0, 28, 35, 30, 0, 0, 49, 0, 1, 36, 11
|21, 0, 0, 4, 0, 22, 0, 0, 0, 0, 0, 0, 49, 0, 0, 0, 0, 36, 23, 29, 11, 0, 0, 48, 3, 0, 19, 0, 0, 24, 0, 0, 0, 25, 0, 0, 41, 0, 20, 0, 0, 17, 0, 0, 0, 44, 0, 0, 35
|0, 0, 0, 0, 0, 28, 0, 0, 11, 0, 17, 7, 0, 0, 35, 0, 0, 0, 0, 0, 0, 21, 0, 0, 0, 30, 39, 0, 0, 0, 0, 0, 0, 0, 0, 0, 0, 0, 0, 0, 0, 4, 0, 0, 2, 0, 45, 0, 0
|0, 0, 34, 0, 2, 0, 18, 44, 0, 0, 0, 0, 0, 0, 7, 0, 0, 0, 0, 0, 0, 0, 0, 0, 28, 46, 4, 0, 0, 0, 31, 0, 30, 0, 0, 0, 3, 0, 0, 26, 0, 22, 0, 10, 0, 0, 0, 0, 0
|31, 0, 0, 0, 0, 0, 0, 4, 0, 23, 0, 0, 0, 39, 0, 0, 0, 0, 0, 0, 26, 18, 0, 0, 0, 0, 0, 5, 0, 0, 21, 0, 0, 22, 0, 0, 0, 36, 44, 0, 25, 9, 0, 0, 0, 0, 12, 0, 48
|43, 0, 27, 0, 0, 0, 0, 0, 0, 0, 0, 0, 0, 0, 0, 24, 17, 45, 0, 46, 30, 0, 23, 0, 0, 0, 0, 0, 0, 0, 0, 0, 39, 26, 0, 47, 16, 0, 0, 34, 0, 0, 31, 28, 20, 0, 19, 3, 0
|7, 9, 0, 0, 15, 0, 0, 0, 0, 22, 0, 0, 35, 33, 0, 0, 0, 0, 0, 43, 20, 45, 0, 26, 0, 0, 0, 32, 0, 0, 0, 0, 0, 0, 0, 0, 0, 0, 24, 8, 14, 0, 0, 25, 0, 29, 0, 17, 0
|0, 0, 0, 0, 0, 44, 48, 0, 0, 35, 0, 0, 0, 6, 0, 0, 0, 0, 22, 0, 0, 10, 0, 0, 0, 0, 0, 0, 46, 0, 0, 0, 0, 0, 0, 0, 43, 0, 0, 0, 20, 0, 0, 34, 7, 0, 0, 0, 0
|0, 27, 0, 0, 0, 0, 47, 0, 0, 0, 7, 0, 39, 49, 0, 0, 0, 0, 0, 0, 0, 46, 21, 40, 0, 24, 0, 34, 0, 38, 0, 23, 0, 0, 0, 0, 0, 0, 0, 0, 0, 0, 0, 0, 0, 19, 0, 0, 0
|46, 0, 0, 0, 0, 0, 0, 0, 0, 0, 14, 0, 24, 11, 0, 0, 0, 0, 41, 0, 42, 0, 0, 0, 13, 0, 0, 45, 0, 0, 0, 0, 0, 6, 0, 0, 0, 0, 9, 18, 0, 47, 0, 0, 36, 12, 0, 0, 0
|0, 0, 0, 38, 0, 0, 20, 0, 0, 21, 23, 25, 0, 45, 0, 0, 0, 0, 0, 44, 0, 0, 0, 1, 0, 0, 3, 0, 28, 0, 0, 0, 0, 0, 0, 0, 0, 15, 0, 0, 0, 0, 42, 0, 43, 32, 0, 0, 0
|0, 0, 0, 0, 0, 0, 0, 16, 0, 17, 9, 0, 0, 40, 48, 0, 0, 23, 0, 25, 12, 8, 39, 0, 36, 20, 0, 35, 0, 43, 19, 41, 0, 31, 0, 5, 0, 0, 0, 0, 7, 38, 0, 0, 0, 0, 10, 0, 0
|28, 0, 0, 0, 0, 1, 0, 0, 0, 0, 0, 0, 0, 0, 0, 0, 0, 0, 0, 0, 0, 38, 22, 0, 0, 0, 0, 15, 0, 26, 0, 0, 0, 0, 37, 0, 0, 0, 0, 46, 39, 34, 25, 0, 33, 0, 44, 21, 14
|0, 0, 0, 0, 0, 0, 24, 8, 0, 36, 0, 33, 0, 0, 0, 34, 0, 0, 0, 18, 0, 0, 48, 0, 0, 0, 23, 0, 0, 25, 0, 17, 0, 0, 0, 0, 0, 0, 0, 0, 0, 10, 0, 0, 0, 0, 0, 9, 0|];