order = 7;
grid = [|38, 0, 0, 0, 44, 0, 17, 0, 0, 0, 0, 9, 16, 43, 34, 0, 11, 0, 0, 12, 0, 0, 49, 0, 26, 0, 0, 0, 0, 15, 36, 0, 0, 0, 0, 0, 0, 29, 41, 33, 25, 0, 28, 10, 47, 0, 0, 1, 0
|12, 10, 4, 0, 0, 0, 0, 22, 0, 0, 0, 0, 0, 15, 0, 16, 23, 0, 0, 39, 0, 0, 28, 0, 17, 0, 0, 29, 0, 0, 0, 48, 0, 0, 0, 21, 32, 0, 0, 0, 0, 26, 0, 11, 33, 0, 0, 0, 34
|33, 0, 0, 41, 0, 15, 0, 0, 0, 0, 0, 1, 23, 0, 0, 0, 0, 0, 0, 32, 5, 48, 0, 20, 0, 0, 0, 0, 0, 0, 0, 0, 26, 43, 0, 0, 40, 0, 0, 0, 24, 46, 0, 0, 0, 0, 31, 0, 0
|0, 0, 0, 23, 1, 0, 0, 0, 0, 0, 45, 0, 0, 0, 0, 0, 24, 0, 0, 0, 0, 0, 0, 0, 37, 31, 22, 0, 0, 0, 6, 0, 0, 0, 0, 0, 0, 0, 12, 49, 0, 9, 0, 0, 0, 29, 26, 3, 44
|0, 0, 0, 0, 0, 0, 0, 0, 0, 0, 28, 0, 0, 0, 0, 31, 0, 10, 14, 0, 3, 0, 25, 47, 0, 43, 0, 41, 0, 0, 8, 0, 0, 9, 0, 0, 0, 0, 0, 0, 16, 0, 0, 0, 0, 0, 0, 0, 0
|0, 0, 45, 29, 0, 26, 2, 0, 30, 33, 0, 0, 25, 0, 40, 0, 21, 0, 49, 0, 38, 12, 0, 0, 0, 0, 0, 0, 41, 0, 35, 39, 10, 32, 0, 0, 8, 0, 0, 0, 0, 27, 0, 0, 0, 18, 0, 0, 0
|0, 0, 0, 0, 0, 0, 0, 0, 4, 0, 29, 0, 38, 0, 26, 25, 0, 0, 0, 0, 6, 0, 45, 0, 0, 0, 0, 0, 31, 0, 14, 0, 0, 0, 0, 0, 0, 30, 0, 7, 0, 0, 0, 0, 0, 0, 0, 0, 0
|39, 0, 0, 0, 0, 0, 0, 0, 0, 0, 46, 0, 0, 0, 0, 0, 0, 0, 0, 0, 0, 45, 0, 0, 11, 0, 0, 0, 0, 2, 0, 0, 0, 25, 0, 0, 4, 0, 0, 0, 0, 0, 0, 0, 0, 0, 27, 0, 16
|0, 16, 0, 0, 6, 34, 0, 40, 0, 0, 0, 0, 15, 12, 0, 26, 46, 30, 47, 0, 0, 0, 13, 0, 0, 0, 42, 0, 0, 0, 0, 4, 0, 0, 48, 0, 45, 44, 0, 0, 0, 0, 43, 0, 0, 0, 39, 0, 0
|43, 4, 0, 0, 25, 36, 0, 0, 21, 0, 14, 0, 0, 0, 1, 20, 0, 0, 0, 0, 0, 0, 22, 23, 15, 28, 0, 0, 44, 0, 27, 9, 41, 0, 31, 48, 0, 0, 0, 0, 0, 0, 0, 0, 6, 10, 0, 0, 0
|11, 48, 0, 0, 0, 0, 0, 16, 8, 5, 4, 0, 0, 20, 0, 24, 17, 0, 0, 0, 0, 18, 0, 34, 0, 0, 9, 7, 0, 0, 0, 0, 47, 0, 28, 27, 0, 0, 36, 0, 0, 0, 0, 12, 0, 23, 0, 0, 0
|0, 0, 41, 0, 0, 10, 0, 0, 0, 0, 0, 18, 3, 0, 43, 0, 0, 5, 2, 0, 0, 0, 0, 0, 0, 27, 0, 0, 0, 38, 0, 19, 6, 0, 0, 0, 0, 33, 0, 0, 0, 0, 0, 0, 0, 0, 4, 0, 0
|0, 0, 15, 14, 0, 0, 0, 0, 0, 24, 26, 33, 47, 7, 4, 0, 0, 11, 18, 0, 0, 0, 46, 0, 0, 0, 0, 0, 0, 45, 39, 0, 37, 0, 23, 0, 34, 0, 0, 22, 0, 0, 25, 0, 0, 13, 0, 40, 0
|0, 0, 0, 46, 0, 0, 0, 0, 17, 39, 48, 27, 0, 9, 10, 0, 36, 23, 8, 0, 0, 2, 14, 31, 1, 0, 0, 0, 43, 0, 0, 0, 0, 0, 0, 28, 25, 3, 0, 16, 0, 0, 0, 32, 0, 0, 0, 0, 0
|0, 0, 0, 39, 0, 0, 27, 0, 0, 0, 0, 44, 0, 19, 0, 0, 0, 0, 0, 0, 7, 0, 0, 0, 0, 0, 0, 0, 0, 48, 0, 0, 0, 0, 0, 0, 0, 0, 0, 0, 0, 0, 0, 0, 0, 32, 47, 0, 0
|0, 0, 0, 0, 4, 17, 0, 0, 0, 0, 0, 0, 0, 0, 21, 0, 0, 25, 40, 0, 27, 0, 0, 0, 49, 2, 37, 0, 42, 0, 0, 0, 16, 0, 32, 0, 0, 0, 0, 0, 20, 0, 0, 0, 0, 0, 0, 7, 0
|0, 47, 0, 0, 0, 0, 48, 0, 0, 43, 0, 0, 0, 0, 32, 39, 0, 46, 23, 3, 0, 0, 29, 0, 34, 19, 31, 0, 0, 9, 0, 0, 22, 0, 0, 0, 0, 18, 0, 27, 0, 35, 0, 0, 0, 0, 49, 0, 0
|0, 0, 0, 0, 0, 0, 0, 0, 0, 2, 0, 0, 0, 47, 15, 38, 0, 0, 0, 0, 0, 0, 32, 7, 0, 0, 0, 45, 0, 6, 26, 0, 0, 0, 41, 0, 0, 0, 9, 0, 0, 0, 0, 0, 0, 0, 0, 0, 0
|0, 0, 0, 44, 0, 0, 0, 0, 0, 38, 0, 0, 0, 0, 0, 5, 0, 0, 1, 0, 0, 42, 24, 0, 0, 0, 0, 0, 28, 31, 0, 0, 0, 33, 39, 0, 0, 0, 0, 0, 0, 0, 0, 3, 0, 0, 8, 41, 0
|0, 0, 0, 0, 3, 0, 0, 0, 0, 0, 0, 0, 39, 0, 0, 22, 37, 8, 9, 43, 24, 0, 36, 0, 13, 18, 0, 0, 49, 0, 2, 0, 0, 10, 46, 0, 33, 0, 28, 0, 0, 0, 30, 0, 34, 0, 0, 0, 0
|0, 0, 0, 0, 0, 49, 0, 0, 0, 46, 0, 0, 34, 0, 47, 30, 0, 0, 19, 0, 0, 0, 38, 39, 0, 0, 0, 17, 4, 0, 0, 0, 0, 0, 0, 0, 41, 0, 48, 0, 0, 0, 2, 0, 42, 0, 0, 0, 0
|47, 0, 22, 0, 0, 12, 0, 0, 3, 0, 19, 0, 31, 0, 0, 45, 39, 0, 0, 0, 0, 6, 30, 0, 0, 0, 0, 0, 0, 27, 0, 0, 0, 0, 9, 0, 0, 0, 0, 0, 0, 0, 0, 0, 23, 0, 1, 32, 11
|0, 0, 0, 0, 0, 0, 1, 0, 20, 0, 0, 30, 0, 22, 0, 0, 26, 3, 0, 0, 0, 0, 10, 18, 14, 0, 0, 0, 0, 16, 0, 2, 0, 0, 0, 29, 0, 0, 0, 0, 13, 0, 24, 0, 0, 0, 0, 0, 0
|0, 0, 0, 0, 0, 0, 28, 0, 0, 0, 0, 0, 0, 0, 0, 0, 5, 0, 0, 0, 0, 0, 0, 0, 0, 48, 0, 1, 30, 43, 0, 0, 0, 0, 0, 0, 0, 0, 3, 0, 0, 0, 0, 27, 0, 0, 0, 0, 0
|0, 0, 0, 0, 0, 25, 24, 41, 0, 27, 38, 0, 0, 0, 0, 0, 0, 0, 10, 0, 0, 0, 0, 37, 0, 0, 7, 39, 0, 0, 0, 47, 0, 0, 0, 11, 0, 0, 42, 30, 36, 17, 22, 0, 0, 0, 0, 31, 15
|0, 0, 0, 0, 7, 31, 0, 0, 44, 0, 0, 0, 0, 42, 46, 0, 0, 12, 0, 0, 41, 0, 0, 0, 0, 9, 45, 0, 0, 32, 0, 0, 0, 0, 0, 0, 0, 0, 0, 0, 0, 0, 0, 5, 0, 0, 0, 0, 0
|46, 44, 0, 0, 0, 4, 35, 0, 0, 0, 0, 0, 0, 0, 11, 0, 0, 2, 0, 30, 0, 23, 0, 0, 0, 0, 0, 26, 0, 0, 0, 0, 17, 0, 0, 0, 0, 25, 0, 0, 0, 0, 9, 43, 0, 0, 0, 0, 29
|0, 0, 0, 0, 0, 20, 0, 45, 36, 35, 0, 0, 0, 0, 0, 0, 0, 19, 37, 0, 0, 0, 21, 0, 0, 24, 44, 49, 0, 0, 0, 41, 0, 0, 0, 0, 39, 0, 0, 46, 0, 40, 0, 0, 30, 0, 0, 0, 0
|0, 38, 0, 0, 0, 24, 29, 0, 10, 0, 0, 0, 0, 0, 7, 0, 0, 0, 0, 0, 2, 0, 0, 45, 0, 21, 0, 18, 0, 0, 0, 0, 20, 0, 5, 39, 0, 0, 0, 0, 0, 0, 23, 41, 37, 0, 0, 0, 0
|0, 0, 10, 28, 0, 0, 33, 0, 13, 32, 0, 45, 0, 44, 0, 27, 0, 26, 0, 0, 0, 0, 9, 0, 0, 0, 0, 0, 2, 0, 0, 0, 0, 0, 0, 0, 0, 0, 0, 0, 1, 0, 0, 0, 39, 0, 0, 16, 0
|0, 0, 0, 9, 36, 18, 0, 0, 0, 0, 0, 0, 1, 29, 19, 0, 0, 33, 39, 0, 0, 0, 0, 0, 35, 0, 27, 0, 38, 0, 0, 0, 21, 0, 0, 22, 0, 0, 0, 0, 0, 0, 0, 0, 0, 0, 0, 0, 0
|25, 0, 49, 0, 16, 0, 0, 0, 0, 0, 0, 0, 0, 0, 0, 0, 0, 0, 0, 0, 0, 0, 0, 8, 0, 36, 0, 0, 0, 0, 29, 0, 45, 19, 0, 0, 0, 41, 0, 0, 0, 0, 0, 0, 0, 0, 0, 0, 3
|0, 0, 0, 0, 5, 0, 0, 0, 38, 42, 0, 0, 40, 23, 13, 0, 0, 0, 28, 0, 0, 0, 12, 2, 0, 0, 0, 0, 37, 0, 0, 26, 39, 16, 0, 43, 0, 24, 27, 0, 45, 0, 0, 0, 0, 0, 0, 29, 0
|0, 0, 46, 21, 0, 27, 0, 4, 0, 0, 25, 0, 28, 18, 0, 1, 0, 0, 0, 0, 0, 7, 0, 0, 16, 0, 11, 0, 0, 0, 0, 10, 0, 41, 0, 0, 0, 47, 0, 0, 0, 0, 0, 0, 0, 43, 0, 0, 26
|0, 7, 0, 0, 0, 0, 15, 0, 0, 0, 0, 0, 0, 0, 0, 41, 0, 0, 21, 0, 0, 31, 1, 26, 0, 0, 0, 0, 14, 0, 0, 0, 0, 0, 0, 19, 0, 0, 0, 10, 0, 0, 0, 47, 0, 0, 25, 0, 18
|0, 24, 0, 0, 45, 0, 0, 0, 0, 0, 0, 0, 41, 0, 0, 29, 0, 15, 0, 0, 0, 0, 0, 10, 0, 0, 0, 0, 0, 28, 32, 18, 43, 0, 0, 13, 0, 7, 0, 0, 0, 0, 0, 0, 20, 16, 0, 0, 33
|0, 0, 0, 0, 17, 9, 4, 46, 0, 18, 0, 0, 35, 0, 37, 0, 31, 0, 3, 0, 19, 0, 0, 0, 38, 22, 0, 0, 0, 10, 0, 5, 0, 0, 0, 49, 48, 0, 33, 0, 0, 0, 0, 0, 0, 0, 0, 0, 0
|0, 39, 0, 0, 0, 0, 0, 0, 0, 0, 0, 0, 7, 0, 0, 46, 0, 0, 0, 0, 33, 14, 0, 0, 0, 0, 0, 0, 0, 0, 41, 3, 0, 0, 0, 0, 16, 0, 0, 0, 0, 0, 0, 0, 0, 0, 0, 30, 0
|0, 0, 0, 0, 0, 0, 0, 0, 0, 37, 0, 0, 44, 0, 0, 0, 7, 22, 0, 45, 0, 0, 0, 0, 0, 17, 19, 20, 0, 8, 0, 14, 31, 0, 26, 0, 0, 42, 0, 0, 3, 0, 0, 9, 29, 0, 35, 18, 0
|7, 20, 0, 0, 0, 1, 0, 0, 0, 0, 2, 0, 0, 0, 0, 0, 0, 0, 0, 0, 0, 0, 0, 0, 0, 0, 0, 0, 0, 0, 0, 0, 49, 48, 0, 23, 0, 0, 0, 0, 0, 0, 46, 0, 0, 0, 0, 10, 43
|0, 0, 0, 0, 0, 28, 0, 0, 0, 0, 32, 0, 0, 5, 30, 34, 0, 18, 0, 0, 0, 0, 7, 0, 0, 0, 33, 44, 23, 17, 15, 0, 12, 0, 13, 0, 0, 0, 8, 0, 0, 19, 0, 0, 0, 0, 11, 0, 0
|0, 0, 0, 0, 0, 6, 16, 0, 0, 0, 0, 43, 0, 0, 0, 32, 0, 0, 0, 10, 0, 0, 0, 0, 0, 45, 0, 0, 24, 0, 0, 0, 0, 0, 0, 0, 0, 31, 0, 0, 0, 0, 0, 0, 0, 0, 0, 0, 0
|0, 0, 30, 0, 0, 0, 0, 0, 25, 19, 7, 0, 0, 0, 0, 0, 0, 0, 15, 0, 0, 0, 31, 0, 20, 38, 0, 0, 0, 0, 5, 0, 28, 6, 22, 0, 0, 0, 0, 0, 0, 3, 0, 37, 0, 0, 0, 0, 0
|2, 0, 0, 0, 0, 0, 0, 0, 0, 0, 17, 41, 0, 0, 0, 0, 0, 24, 20, 0, 0, 0, 0, 0, 0, 0, 0, 16, 0, 0, 0, 0, 0, 0, 0, 8, 11, 0, 0, 0, 0, 0, 33, 30, 0, 0, 0, 39, 0
|0, 0, 0, 0, 0, 19, 0, 43, 0, 0, 0, 39, 0, 0, 0, 0, 0, 0, 32, 18, 0, 9, 0, 0, 3, 0, 14, 0, 16, 35, 0, 0, 0, 24, 49, 4, 42, 0, 0, 0, 0, 0, 0, 0, 0, 0, 0, 45, 0
|0, 37, 0, 0, 0, 0, 0, 0, 0, 0, 0, 0, 27, 11, 0, 3, 45, 0, 0, 0, 0, 49, 23, 0, 0, 0, 29, 2, 17, 0, 0, 15, 0, 0, 0, 41, 0, 0, 0, 0, 0, 0, 40, 26, 0, 19, 32, 0, 0
|0, 0, 0, 0, 0, 43, 0, 0, 24, 0, 0, 0, 45, 0, 16, 0, 0, 21, 4, 5, 0, 0, 11, 0, 0, 7, 0, 0, 26, 47, 0, 0, 0, 0, 0, 44, 31, 40, 0, 0, 0, 22, 0, 0, 0, 0, 10, 9, 0
|45, 0, 0, 0, 0, 0, 0, 0, 0, 16, 0, 0, 0, 0, 44, 0, 0, 27, 0, 0, 0, 0, 0, 0, 39, 0, 0, 0, 25, 0, 0, 29, 0, 36, 0, 0, 30, 48, 0, 0, 9, 2, 0, 0, 0, 0, 0, 0, 5
|4, 41, 0, 0, 0, 0, 32, 0, 47, 0, 0, 0, 0, 0, 0, 0, 34, 0, 0, 23, 0, 35, 48, 6, 0, 0, 0, 0, 0, 3, 0, 0, 9, 44, 0, 0, 0, 0, 49, 0, 0, 0, 0, 0, 0, 20, 0, 0, 0|];