order = 7;
grid = [|39, 0, 47, 0, 0, 0, 34, 0, 0, 0, 0, 45, 12, 0, 0, 0, 11, 40, 0, 5, 13, 0, 0, 0, 0, 0, 0, 0, 28, 19, 0, 31, 0, 3, 0, 41, 0, 2, 0, 0, 0, 0, 0, 0, 0, 46, 30, 8, 26
|31, 11, 0, 0, 38, 7, 41, 0, 0, 0, 0, 0, 0, 0, 20, 0, 0, 46, 0, 48, 0, 0, 0, 42, 27, 0, 0, 30, 21, 0, 0, 24, 2, 0, 0, 32, 0, 0, 0, 0, 0, 0, 0, 0, 0, 0, 0, 1, 12
|46, 14, 0, 0, 0, 0, 0, 0, 0, 0, 0, 0, 0, 0, 0, 0, 0, 0, 0, 34, 15, 0, 0, 0, 0, 0, 25, 0, 0, 5, 0, 0, 0, 0, 47, 0, 0, 0, 0, 0, 0, 0, 0, 0, 0, 0, 9, 0, 13
|0, 0, 33, 0, 9, 0, 0, 0, 0, 1, 8, 0, 0, 0, 2, 0, 0, 0, 0, 12, 22, 35, 0, 11, 0, 0, 0, 0, 0, 0, 0, 7, 32, 0, 0, 15, 4, 31, 0, 0, 0, 19, 0, 0, 0, 48, 0, 0, 42
|0, 0, 23, 0, 0, 12, 5, 0, 0, 0, 40, 0, 29, 7, 0, 0, 0, 0, 0, 0, 0, 19, 0, 0, 0, 34, 41, 0, 0, 0, 0, 0, 0, 0, 48, 0, 0, 46, 0, 22, 0, 0, 0, 0, 0, 0, 0, 0, 0
|0, 0, 0, 0, 0, 30, 13, 0, 0, 0, 9, 37, 44, 20, 0, 0, 7, 23, 33, 10, 0, 0, 0, 0, 32, 0, 0, 0, 0, 0, 45, 4, 8, 0, 0, 0, 48, 0, 12, 0, 0, 1, 0, 0, 31, 40, 28, 0, 0
|0, 0, 0, 0, 28, 0, 0, 33, 48, 0, 0, 6, 0, 0, 30, 0, 0, 0, 0, 0, 0, 0, 0, 0, 0, 0, 0, 26, 0, 0, 0, 0, 0, 0, 0, 14, 0, 0, 13, 45, 0, 0, 23, 0, 0, 44, 0, 0, 0
|0, 9, 25, 0, 35, 22, 0, 0, 18, 0, 36, 0, 0, 0, 8, 0, 0, 7, 0, 0, 43, 0, 0, 0, 0, 29, 0, 0, 1, 49, 30, 0, 46, 0, 44, 45, 0, 0, 0, 12, 0, 0, 0, 0, 0, 0, 31, 0, 0
|0, 0, 29, 24, 30, 0, 0, 0, 0, 38, 0, 0, 10, 1, 0, 0, 0, 45, 0, 4, 0, 33, 0, 21, 0, 15, 0, 0, 27, 0, 28, 0, 39, 0, 0, 43, 11, 34, 8, 0, 2, 0, 0, 0, 0, 7, 0, 0, 0
|0, 0, 0, 0, 0, 0, 17, 0, 0, 0, 0, 0, 0, 0, 0, 0, 33, 0, 24, 15, 0, 0, 28, 44, 42, 0, 49, 0, 13, 0, 0, 0, 0, 0, 0, 0, 0, 26, 0, 0, 0, 46, 39, 32, 0, 0, 2, 0, 25
|40, 0, 0, 0, 0, 0, 0, 16, 0, 0, 0, 24, 0, 0, 0, 28, 5, 0, 0, 23, 0, 0, 0, 0, 0, 0, 6, 0, 0, 0, 0, 0, 25, 4, 0, 0, 0, 36, 0, 0, 0, 0, 0, 0, 0, 49, 0, 45, 0
|0, 41, 39, 31, 0, 0, 0, 44, 0, 47, 0, 0, 11, 26, 0, 0, 0, 6, 46, 0, 0, 0, 16, 0, 0, 0, 0, 35, 0, 0, 0, 0, 0, 0, 0, 0, 19, 0, 0, 0, 20, 0, 28, 0, 0, 0, 0, 12, 0
|0, 0, 0, 0, 0, 0, 0, 0, 0, 0, 48, 28, 0, 0, 0, 0, 0, 0, 0, 0, 41, 0, 0, 0, 25, 0, 13, 0, 43, 40, 0, 0, 0, 14, 0, 0, 0, 0, 0, 0, 0, 0, 0, 27, 0, 15, 0, 37, 0
|20, 0, 0, 0, 3, 0, 0, 0, 0, 0, 0, 0, 0, 0, 0, 0, 0, 0, 0, 0, 39, 27, 0, 0, 0, 0, 0, 0, 0, 0, 0, 0, 0, 42, 0, 10, 0, 25, 0, 0, 0, 0, 0, 0, 0, 0, 44, 0, 17
|0, 0, 3, 0, 0, 0, 0, 0, 1, 0, 46, 0, 27, 0, 0, 39, 19, 0, 30, 0, 0, 0, 4, 0, 0, 0, 0, 0, 0, 0, 0, 0, 0, 0, 18, 34, 0, 10, 0, 0, 0, 0, 0, 0, 0, 0, 0, 23, 0
|0, 0, 0, 0, 0, 0, 45, 39, 9, 0, 0, 0, 42, 15, 0, 0, 38, 0, 0, 29, 0, 0, 0, 0, 0, 6, 0, 0, 0, 0, 40, 10, 0, 1, 0, 19, 0, 0, 33, 0, 47, 0, 0, 43, 0, 0, 0, 0, 20
|0, 0, 46, 0, 0, 0, 0, 8, 3, 40, 0, 0, 0, 0, 24, 0, 42, 0, 4, 0, 0, 0, 0, 17, 0, 0, 0, 0, 19, 0, 0, 0, 6, 0, 0, 0, 0, 0, 0, 0, 31, 0, 0, 0, 0, 0, 0, 0, 0
|28, 0, 0, 0, 0, 0, 0, 26, 30, 0, 4, 0, 37, 0, 0, 0, 10, 0, 0, 0, 0, 0, 0, 0, 0, 11, 0, 21, 35, 0, 46, 47, 0, 36, 31, 0, 0, 0, 0, 0, 43, 0, 13, 5, 49, 0, 0, 0, 0
|0, 0, 20, 0, 0, 0, 1, 0, 0, 10, 0, 0, 23, 0, 0, 8, 0, 0, 0, 0, 17, 0, 0, 0, 0, 0, 0, 0, 0, 0, 11, 0, 0, 25, 0, 0, 35, 0, 0, 0, 0, 0, 0, 0, 0, 0, 15, 21, 0
|0, 0, 0, 37, 36, 0, 12, 0, 7, 0, 0, 0, 0, 0, 0, 0, 16, 44, 0, 0, 0, 9, 0, 47, 0, 30, 0, 1, 32, 0, 0, 0, 0, 0, 4, 46, 0, 49, 0, 0, 0, 0, 0, 0, 0, 14, 39, 19, 2
|0, 0, 0, 0, 2, 0, 15, 29, 0, 0, 32, 0, 18, 0, 0, 0, 0, 0, 0, 0, 0, 3, 24, 0, 19, 0, 0, 41, 49, 0, 33, 0, 23, 0, 0, 28, 0, 0, 25, 0, 0, 8, 45, 0, 0, 0, 0, 0, 0
|0, 0, 0, 0, 0, 48, 19, 0, 0, 0, 0, 15, 0, 0, 26, 0, 0, 0, 25, 0, 38, 0, 0, 0, 0, 0, 0, 0, 0, 0, 0, 0, 49, 0, 5, 9, 0, 22, 0, 35, 0, 0, 0, 0, 0, 0, 14, 0, 0
|0, 0, 0, 0, 20, 35, 0, 0, 0, 0, 0, 0, 0, 0, 0, 34, 40, 0, 0, 0, 0, 44, 0, 7, 0, 0, 0, 0, 0, 0, 0, 14, 0, 0, 25, 0, 0, 0, 0, 0, 0, 30, 27, 19, 0, 0, 0, 0, 0
|0, 0, 0, 0, 0, 0, 39, 37, 0, 0, 47, 0, 0, 25, 1, 0, 49, 12, 20, 0, 0, 0, 0, 0, 0, 0, 4, 36, 0, 0, 0, 0, 0, 19, 0, 33, 0, 44, 0, 0, 0, 21, 26, 22, 32, 0, 0, 0, 0
|0, 47, 0, 3, 6, 0, 0, 0, 0, 0, 0, 0, 0, 33, 0, 0, 0, 22, 0, 0, 0, 0, 0, 0, 0, 0, 0, 16, 0, 35, 0, 37, 41, 46, 45, 0, 0, 0, 15, 10, 14, 0, 0, 25, 0, 0, 0, 0, 0
|0, 0, 14, 0, 0, 0, 43, 0, 0, 0, 0, 0, 0, 46, 0, 0, 3, 0, 0, 0, 45, 48, 0, 0, 31, 2, 8, 0, 0, 44, 0, 34, 0, 38, 0, 18, 0, 7, 0, 0, 0, 0, 0, 20, 0, 0, 0, 0, 0
|0, 0, 37, 25, 18, 0, 10, 24, 0, 0, 38, 0, 0, 36, 0, 0, 41, 28, 0, 0, 0, 0, 0, 49, 0, 0, 0, 5, 0, 48, 23, 0, 12, 0, 0, 0, 0, 0, 0, 19, 0, 0, 0, 9, 0, 0, 0, 0, 0
|0, 0, 7, 23, 33, 16, 0, 0, 0, 0, 0, 0, 0, 0, 0, 29, 0, 0, 0, 0, 4, 0, 0, 0, 12, 0, 0, 0, 0, 0, 0, 20, 0, 24, 0, 0, 0, 0, 0, 0, 0, 0, 0, 0, 10, 28, 0, 0, 31
|0, 0, 0, 48, 0, 31, 18, 0, 0, 0, 0, 0, 0, 0, 12, 0, 0, 0, 21, 0, 30, 0, 0, 0, 0, 0, 0, 0, 3, 0, 0, 0, 42, 32, 0, 0, 0, 0, 0, 0, 27, 0, 0, 0, 28, 36, 0, 6, 0
|0, 0, 0, 6, 0, 0, 0, 0, 0, 2, 41, 49, 0, 0, 0, 0, 44, 0, 0, 0, 0, 0, 0, 0, 0, 0, 0, 0, 0, 0, 0, 25, 20, 17, 1, 0, 0, 0, 0, 33, 0, 0, 0, 40, 0, 0, 0, 0, 3
|0, 1, 0, 0, 0, 39, 0, 35, 0, 0, 0, 0, 0, 40, 0, 0, 20, 0, 0, 0, 0, 0, 26, 0, 34, 14, 0, 0, 0, 31, 0, 48, 37, 0, 0, 16, 0, 0, 0, 0, 32, 0, 18, 0, 0, 0, 0, 0, 22
|0, 0, 0, 0, 22, 0, 0, 0, 21, 0, 0, 14, 9, 0, 0, 0, 0, 0, 0, 0, 0, 45, 0, 25, 5, 0, 0, 0, 0, 0, 0, 0, 0, 0, 38, 0, 43, 0, 18, 36, 1, 0, 0, 0, 0, 0, 10, 0, 0
|0, 0, 34, 0, 0, 0, 0, 6, 33, 0, 0, 0, 0, 0, 0, 13, 0, 0, 38, 28, 23, 40, 8, 0, 0, 0, 0, 22, 0, 0, 0, 0, 0, 47, 0, 0, 17, 0, 0, 0, 0, 0, 24, 16, 0, 0, 48, 49, 15
|8, 0, 0, 0, 21, 0, 0, 0, 0, 0, 0, 0, 0, 0, 0, 0, 45, 0, 0, 0, 0, 28, 0, 1, 23, 0, 0, 0, 0, 0, 0, 0, 0, 0, 0, 0, 0, 48, 14, 3, 12, 0, 32, 0, 0, 9, 19, 0, 47
|0, 13, 0, 0, 0, 0, 3, 0, 0, 0, 0, 10, 48, 0, 0, 0, 0, 2, 0, 0, 0, 0, 15, 0, 0, 0, 0, 0, 0, 0, 0, 0, 4, 0, 0, 0, 39, 0, 0, 0, 0, 0, 0, 31, 0, 0, 0, 42, 0
|0, 20, 0, 46, 25, 41, 0, 0, 2, 33, 0, 42, 36, 0, 0, 0, 0, 0, 0, 44, 0, 0, 22, 0, 21, 27, 5, 6, 0, 47, 0, 0, 0, 0, 0, 0, 0, 0, 0, 0, 0, 0, 0, 0, 0, 11, 0, 0, 37
|0, 0, 0, 9, 0, 47, 0, 0, 0, 0, 0, 0, 30, 37, 0, 0, 0, 0, 0, 0, 0, 24, 41, 0, 33, 0, 44, 3, 0, 0, 16, 0, 0, 0, 0, 0, 0, 0, 0, 0, 0, 0, 0, 0, 27, 20, 0, 0, 45
|0, 0, 0, 42, 0, 33, 0, 0, 0, 16, 0, 0, 0, 0, 0, 0, 0, 38, 43, 0, 0, 0, 36, 0, 11, 0, 0, 0, 0, 22, 0, 15, 0, 40, 12, 0, 0, 0, 0, 0, 0, 0, 5, 39, 0, 0, 0, 0, 0
|0, 0, 0, 0, 17, 0, 26, 0, 24, 28, 0, 0, 0, 0, 11, 0, 0, 0, 0, 16, 0, 20, 23, 31, 9, 0, 0, 0, 30, 4, 0, 0, 0, 0, 0, 0, 0, 0, 0, 0, 0, 0, 0, 0, 0, 0, 0, 3, 0
|0, 0, 0, 0, 0, 11, 0, 0, 47, 0, 0, 0, 0, 0, 28, 0, 0, 0, 15, 45, 0, 0, 0, 26, 35, 4, 30, 0, 0, 24, 14, 32, 0, 20, 0, 0, 0, 43, 0, 23, 0, 33, 0, 0, 0, 0, 25, 9, 7
|3, 0, 0, 44, 0, 45, 22, 0, 26, 0, 0, 41, 0, 0, 0, 20, 0, 33, 0, 0, 0, 34, 38, 0, 0, 0, 0, 0, 0, 0, 6, 23, 0, 49, 19, 36, 2, 37, 0, 9, 0, 14, 43, 0, 0, 0, 0, 31, 0
|0, 0, 0, 38, 34, 1, 0, 0, 0, 0, 0, 19, 0, 0, 0, 0, 0, 0, 0, 0, 0, 0, 49, 0, 0, 45, 0, 0, 41, 0, 8, 26, 0, 0, 35, 0, 0, 0, 0, 0, 48, 0, 0, 0, 44, 0, 22, 0, 0
|0, 0, 42, 0, 0, 0, 36, 0, 0, 0, 0, 11, 47, 0, 25, 0, 0, 16, 0, 17, 0, 23, 2, 28, 0, 0, 15, 0, 0, 0, 0, 0, 0, 8, 40, 7, 0, 0, 0, 34, 0, 37, 0, 0, 0, 0, 0, 48, 0
|0, 4, 1, 0, 0, 20, 0, 32, 0, 0, 23, 0, 33, 0, 34, 41, 0, 19, 0, 0, 0, 0, 0, 0, 0, 17, 0, 18, 0, 0, 0, 0, 0, 0, 0, 30, 0, 16, 0, 0, 5, 0, 0, 0, 0, 0, 0, 0, 0
|0, 0, 0, 0, 0, 40, 0, 0, 0, 0, 0, 39, 26, 0, 38, 0, 37, 0, 0, 42, 0, 0, 29, 36, 0, 0, 0, 0, 34, 17, 24, 0, 3, 0, 0, 0, 0, 0, 0, 2, 0, 0, 0, 0, 19, 0, 0, 11, 27
|0, 43, 0, 47, 0, 0, 0, 48, 0, 22, 44, 0, 1, 0, 0, 0, 0, 0, 39, 0, 0, 5, 35, 3, 0, 0, 45, 9, 37, 11, 31, 0, 0, 0, 0, 0, 40, 0, 0, 0, 0, 0, 6, 0, 0, 0, 13, 0, 4
|0, 0, 0, 27, 0, 0, 0, 0, 0, 0, 0, 0, 0, 0, 0, 0, 0, 0, 0, 0, 10, 49, 0, 33, 16, 0, 0, 34, 12, 0, 2, 0, 0, 0, 0, 0, 0, 0, 0, 14, 0, 0, 0, 0, 0, 0, 47, 38, 0
|0, 0, 0, 0, 39, 14, 0, 5, 0, 0, 0, 38, 0, 0, 0, 0, 0, 31, 28, 13, 0, 32, 0, 0, 0, 0, 0, 37, 0, 0, 0, 0, 0, 0, 0, 0, 9, 11, 0, 0, 0, 3, 0, 0, 30, 0, 0, 0, 43
|0, 0, 0, 0, 32, 2, 0, 0, 0, 0, 0, 0, 0, 0, 0, 0, 47, 0, 0, 14, 0, 0, 0, 13, 0, 0, 0, 0, 39, 0, 0, 0, 19, 0, 0, 38, 0, 0, 0, 8, 0, 15, 0, 0, 0, 0, 0, 0, 34|];