order = 7;
grid = [|0, 0, 0, 0, 0, 0, 0, 10, 0, 20, 0, 0, 0, 0, 0, 0, 0, 0, 0, 0, 0, 0, 0, 0, 18, 0, 0, 15, 36, 0, 0, 0, 28, 0, 0, 0, 44, 46, 0, 0, 40, 0, 0, 0, 0, 0, 35, 0, 7
|11, 0, 22, 0, 23, 4, 0, 0, 0, 0, 0, 29, 0, 0, 0, 0, 0, 0, 0, 0, 0, 0, 0, 0, 0, 0, 0, 0, 0, 13, 0, 40, 0, 49, 0, 0, 0, 3, 0, 1, 0, 0, 0, 6, 0, 0, 9, 0, 0
|26, 38, 48, 0, 0, 43, 25, 42, 0, 0, 0, 0, 0, 0, 35, 22, 0, 0, 0, 37, 0, 0, 0, 0, 0, 6, 0, 0, 46, 0, 12, 27, 0, 0, 0, 0, 0, 0, 0, 28, 0, 18, 0, 20, 0, 0, 3, 0, 14
|0, 0, 0, 36, 0, 0, 8, 0, 0, 0, 0, 0, 0, 0, 0, 2, 0, 13, 0, 0, 0, 0, 0, 0, 41, 0, 20, 0, 0, 0, 1, 0, 0, 0, 0, 0, 15, 0, 0, 0, 0, 0, 0, 0, 0, 0, 0, 23, 0
|0, 0, 0, 0, 0, 41, 24, 4, 0, 0, 3, 11, 7, 0, 0, 0, 0, 9, 0, 27, 0, 0, 19, 13, 0, 0, 0, 0, 0, 0, 0, 5, 0, 0, 0, 0, 0, 0, 0, 30, 0, 0, 0, 17, 45, 46, 48, 0, 38
|0, 10, 0, 0, 30, 0, 0, 48, 32, 15, 0, 0, 16, 0, 0, 0, 19, 0, 0, 0, 0, 0, 0, 39, 27, 0, 25, 1, 0, 0, 20, 0, 0, 0, 0, 47, 0, 0, 0, 0, 0, 0, 49, 0, 41, 0, 0, 0, 2
|0, 0, 0, 0, 0, 0, 0, 14, 0, 47, 0, 0, 43, 0, 41, 0, 0, 5, 0, 0, 6, 0, 48, 0, 0, 29, 30, 0, 0, 0, 0, 2, 0, 35, 38, 0, 0, 0, 0, 0, 0, 0, 0, 0, 0, 0, 0, 0, 0
|0, 30, 35, 0, 0, 0, 0, 0, 0, 26, 22, 0, 0, 43, 42, 16, 0, 0, 0, 0, 5, 28, 0, 0, 0, 1, 36, 0, 39, 0, 23, 0, 0, 40, 0, 0, 13, 4, 0, 0, 21, 0, 38, 0, 0, 2, 33, 32, 29
|0, 5, 0, 0, 0, 0, 0, 0, 0, 0, 0, 45, 38, 0, 0, 0, 37, 48, 29, 17, 0, 9, 40, 0, 22, 35, 19, 0, 26, 10, 33, 0, 41, 1, 0, 0, 0, 0, 0, 0, 49, 0, 0, 28, 0, 0, 0, 6, 0
|0, 31, 0, 0, 0, 0, 0, 0, 0, 0, 0, 0, 48, 0, 0, 3, 0, 0, 0, 0, 0, 0, 33, 0, 25, 32, 0, 0, 0, 0, 0, 34, 44, 13, 0, 0, 0, 0, 29, 18, 0, 0, 0, 0, 0, 0, 0, 46, 0
|0, 20, 0, 33, 0, 0, 0, 12, 0, 0, 0, 0, 0, 0, 0, 0, 38, 10, 0, 31, 0, 0, 0, 46, 24, 0, 0, 39, 2, 0, 49, 35, 0, 36, 6, 0, 3, 0, 0, 0, 0, 0, 13, 0, 26, 0, 0, 44, 0
|32, 1, 0, 0, 0, 0, 0, 0, 0, 0, 0, 0, 0, 0, 25, 0, 0, 0, 0, 0, 0, 0, 0, 43, 0, 0, 0, 0, 0, 0, 28, 0, 0, 0, 0, 27, 0, 22, 0, 8, 0, 0, 0, 35, 23, 0, 12, 20, 0
|13, 0, 0, 0, 0, 40, 0, 0, 0, 17, 0, 0, 0, 0, 0, 11, 0, 0, 0, 0, 9, 7, 0, 0, 0, 0, 0, 0, 0, 0, 0, 0, 22, 0, 0, 28, 0, 0, 0, 0, 0, 44, 0, 49, 0, 0, 45, 30, 0
|0, 0, 0, 0, 12, 9, 0, 0, 0, 0, 39, 0, 0, 0, 0, 0, 0, 0, 0, 26, 0, 0, 0, 0, 45, 0, 0, 0, 0, 0, 14, 32, 0, 0, 0, 0, 0, 0, 2, 0, 20, 33, 40, 0, 27, 0, 21, 0, 0
|0, 0, 16, 0, 0, 0, 0, 0, 0, 36, 18, 0, 0, 0, 0, 15, 40, 0, 0, 0, 46, 0, 49, 0, 0, 0, 0, 0, 45, 3, 0, 0, 0, 0, 12, 2, 29, 0, 0, 0, 0, 0, 0, 0, 0, 7, 37, 0, 0
|0, 2, 0, 3, 20, 0, 0, 35, 0, 24, 37, 0, 0, 0, 0, 33, 9, 0, 13, 0, 0, 0, 0, 0, 0, 0, 0, 0, 31, 0, 0, 15, 47, 0, 0, 19, 0, 27, 14, 0, 39, 0, 21, 0, 0, 0, 0, 34, 17
|0, 0, 0, 0, 0, 0, 7, 34, 47, 0, 43, 1, 31, 19, 21, 0, 0, 49, 0, 0, 0, 0, 0, 0, 0, 0, 33, 45, 38, 37, 0, 0, 0, 0, 0, 0, 0, 0, 0, 0, 0, 40, 0, 12, 0, 0, 0, 28, 10
|0, 0, 0, 26, 0, 48, 0, 8, 27, 0, 16, 0, 0, 10, 0, 0, 0, 0, 0, 0, 0, 0, 0, 0, 0, 0, 40, 0, 0, 2, 0, 0, 0, 0, 28, 0, 0, 0, 0, 0, 0, 0, 45, 0, 0, 18, 0, 0, 0
|41, 0, 0, 0, 49, 0, 0, 0, 20, 0, 0, 0, 0, 0, 3, 0, 0, 38, 44, 0, 0, 0, 0, 0, 0, 0, 0, 0, 27, 33, 0, 0, 0, 22, 0, 0, 0, 0, 0, 0, 9, 0, 0, 0, 0, 26, 0, 0, 0
|0, 19, 0, 0, 0, 0, 0, 0, 21, 0, 0, 49, 0, 0, 0, 0, 0, 0, 0, 12, 0, 0, 0, 26, 0, 0, 3, 0, 30, 0, 17, 0, 0, 0, 0, 16, 0, 0, 18, 0, 44, 0, 0, 0, 0, 0, 0, 2, 0
|40, 0, 43, 0, 0, 24, 0, 0, 48, 0, 0, 0, 0, 4, 17, 0, 0, 36, 0, 1, 0, 0, 39, 31, 0, 0, 0, 0, 0, 0, 0, 0, 18, 0, 0, 0, 0, 0, 0, 0, 0, 0, 0, 3, 0, 0, 0, 5, 0
|12, 0, 0, 0, 0, 0, 0, 0, 24, 0, 0, 0, 0, 0, 0, 5, 0, 26, 0, 0, 13, 0, 0, 0, 0, 0, 28, 29, 0, 21, 0, 0, 0, 10, 0, 0, 0, 0, 0, 0, 43, 0, 46, 0, 0, 0, 0, 1, 0
|47, 0, 0, 0, 3, 0, 41, 0, 0, 0, 34, 48, 0, 46, 0, 0, 0, 0, 11, 0, 0, 0, 27, 0, 0, 0, 24, 0, 17, 0, 0, 42, 0, 0, 0, 0, 0, 0, 49, 0, 0, 1, 0, 0, 6, 0, 8, 0, 0
|35, 0, 25, 0, 0, 0, 9, 0, 0, 0, 1, 0, 49, 39, 0, 47, 0, 31, 0, 0, 0, 26, 0, 0, 0, 0, 0, 0, 0, 0, 13, 0, 0, 0, 0, 0, 0, 0, 0, 0, 0, 0, 0, 0, 0, 0, 0, 29, 0
|28, 42, 0, 0, 0, 8, 0, 23, 0, 0, 0, 3, 20, 0, 0, 37, 0, 0, 0, 25, 0, 19, 0, 0, 0, 0, 0, 11, 33, 0, 0, 0, 0, 0, 0, 48, 0, 0, 44, 0, 0, 0, 0, 0, 0, 0, 0, 0, 0
|0, 0, 0, 0, 0, 0, 19, 0, 16, 0, 0, 0, 0, 0, 40, 45, 23, 20, 0, 0, 29, 42, 21, 8, 0, 0, 0, 37, 0, 43, 0, 0, 0, 47, 7, 12, 0, 39, 11, 26, 0, 0, 0, 0, 36, 0, 0, 49, 0
|29, 0, 26, 0, 0, 32, 30, 0, 0, 0, 44, 9, 21, 0, 34, 0, 0, 0, 0, 0, 0, 0, 0, 0, 0, 0, 31, 0, 0, 28, 41, 12, 24, 48, 0, 0, 0, 0, 0, 0, 5, 0, 23, 0, 0, 0, 0, 0, 0
|0, 34, 0, 20, 38, 0, 0, 5, 0, 0, 0, 42, 0, 0, 33, 0, 2, 0, 22, 0, 0, 0, 0, 30, 0, 10, 0, 0, 0, 36, 0, 0, 0, 0, 0, 45, 0, 7, 0, 0, 0, 41, 0, 15, 0, 0, 0, 37, 0
|0, 0, 0, 31, 0, 20, 0, 0, 0, 0, 0, 0, 0, 0, 9, 0, 0, 0, 0, 11, 0, 0, 0, 0, 0, 0, 0, 30, 0, 0, 0, 0, 0, 37, 0, 0, 46, 0, 34, 0, 0, 0, 0, 0, 3, 0, 13, 8, 19
|0, 16, 33, 0, 0, 0, 0, 0, 0, 0, 0, 0, 0, 7, 44, 0, 0, 0, 36, 2, 0, 0, 0, 37, 0, 3, 49, 41, 32, 0, 0, 0, 19, 27, 0, 0, 0, 42, 0, 0, 0, 0, 0, 0, 0, 0, 0, 0, 24
|0, 17, 0, 0, 0, 0, 0, 0, 0, 0, 0, 0, 23, 0, 43, 40, 0, 0, 27, 0, 0, 0, 26, 0, 0, 0, 0, 0, 6, 34, 0, 0, 20, 0, 0, 0, 49, 0, 13, 0, 0, 0, 0, 0, 0, 0, 0, 0, 0
|3, 0, 34, 0, 0, 0, 0, 13, 0, 0, 11, 0, 44, 0, 0, 0, 0, 0, 0, 23, 0, 0, 0, 15, 0, 0, 0, 0, 0, 0, 38, 0, 0, 41, 0, 20, 1, 0, 35, 0, 0, 0, 9, 42, 0, 0, 0, 0, 46
|0, 0, 0, 5, 0, 0, 0, 37, 49, 0, 17, 0, 0, 0, 0, 0, 0, 34, 0, 0, 25, 8, 0, 0, 0, 0, 7, 36, 0, 0, 0, 0, 16, 0, 0, 0, 0, 0, 0, 0, 27, 0, 33, 0, 0, 0, 39, 0, 0
|0, 0, 0, 44, 0, 27, 47, 0, 0, 32, 0, 0, 18, 0, 5, 0, 0, 0, 0, 21, 0, 25, 17, 45, 0, 0, 0, 34, 0, 14, 0, 0, 43, 0, 0, 0, 31, 0, 0, 37, 0, 0, 41, 23, 0, 6, 0, 15, 0
|45, 15, 32, 0, 35, 25, 0, 0, 0, 0, 0, 34, 0, 0, 19, 0, 30, 0, 0, 0, 0, 0, 0, 44, 0, 0, 0, 0, 12, 0, 0, 0, 0, 0, 0, 0, 14, 0, 0, 0, 22, 0, 0, 0, 0, 11, 49, 47, 37
|0, 0, 1, 32, 0, 39, 3, 0, 0, 0, 5, 0, 0, 24, 0, 0, 0, 29, 0, 13, 0, 0, 44, 47, 0, 0, 0, 0, 0, 0, 0, 9, 0, 0, 0, 0, 0, 0, 0, 36, 0, 0, 34, 14, 0, 0, 0, 0, 0
|23, 0, 0, 0, 0, 0, 26, 44, 0, 0, 20, 25, 0, 0, 0, 0, 0, 46, 0, 7, 0, 34, 0, 0, 0, 0, 0, 0, 0, 0, 5, 3, 38, 0, 0, 0, 0, 0, 0, 0, 0, 47, 18, 0, 11, 0, 0, 0, 0
|0, 48, 0, 0, 0, 0, 0, 43, 0, 0, 0, 4, 6, 0, 0, 0, 22, 8, 0, 0, 35, 0, 0, 20, 0, 0, 29, 0, 0, 32, 7, 0, 2, 21, 0, 0, 0, 18, 0, 0, 24, 0, 15, 47, 0, 0, 0, 0, 0
|0, 25, 0, 0, 0, 0, 42, 26, 0, 18, 29, 0, 33, 0, 0, 27, 0, 0, 0, 0, 0, 0, 0, 6, 0, 0, 0, 0, 0, 8, 47, 22, 31, 0, 4, 0, 9, 49, 0, 0, 0, 0, 0, 44, 0, 45, 36, 24, 0
|0, 0, 0, 49, 0, 47, 0, 0, 0, 21, 27, 0, 35, 3, 0, 0, 44, 0, 0, 24, 0, 0, 4, 1, 0, 8, 0, 22, 0, 0, 0, 36, 0, 0, 17, 14, 0, 0, 0, 0, 0, 0, 0, 0, 0, 41, 0, 0, 0
|0, 0, 14, 0, 0, 0, 0, 47, 7, 0, 0, 0, 0, 0, 0, 0, 0, 0, 9, 0, 33, 0, 46, 0, 0, 0, 0, 0, 0, 25, 0, 0, 35, 0, 0, 0, 0, 0, 0, 0, 2, 0, 0, 0, 32, 0, 0, 0, 21
|0, 0, 0, 0, 0, 0, 0, 0, 0, 0, 0, 40, 2, 9, 23, 0, 0, 0, 0, 47, 0, 0, 0, 41, 0, 0, 0, 0, 0, 27, 0, 6, 0, 14, 46, 42, 0, 12, 0, 21, 0, 10, 0, 0, 0, 0, 0, 0, 0
|0, 0, 31, 0, 28, 19, 27, 0, 0, 0, 42, 8, 0, 0, 0, 0, 32, 0, 7, 18, 0, 1, 0, 29, 16, 48, 12, 0, 0, 0, 0, 33, 0, 0, 0, 0, 0, 0, 0, 0, 36, 2, 0, 0, 14, 15, 30, 0, 0
|8, 0, 0, 7, 10, 30, 20, 19, 2, 0, 0, 27, 29, 0, 0, 0, 0, 25, 0, 0, 0, 0, 0, 0, 0, 33, 0, 0, 48, 0, 0, 0, 11, 0, 0, 49, 0, 0, 1, 42, 0, 0, 0, 0, 0, 0, 0, 0, 0
|0, 0, 47, 0, 16, 0, 0, 0, 36, 7, 0, 13, 0, 0, 24, 0, 3, 0, 21, 0, 0, 18, 0, 22, 8, 11, 0, 0, 0, 0, 0, 4, 40, 0, 0, 30, 0, 45, 0, 19, 23, 0, 20, 0, 0, 0, 0, 0, 0
|0, 24, 29, 0, 0, 0, 0, 28, 45, 41, 0, 0, 26, 0, 0, 0, 0, 0, 0, 22, 38, 0, 10, 21, 0, 0, 0, 0, 0, 0, 0, 0, 0, 0, 0, 6, 0, 48, 0, 11, 8, 0, 0, 0, 5, 0, 18, 3, 0
|0, 39, 0, 0, 15, 0, 0, 6, 0, 0, 0, 24, 34, 0, 47, 0, 0, 0, 0, 48, 0, 0, 25, 0, 0, 0, 46, 0, 35, 16, 10, 0, 26, 20, 0, 18, 0, 0, 7, 0, 0, 0, 0, 40, 38, 0, 0, 0, 0
|0, 0, 0, 0, 0, 0, 0, 21, 0, 16, 12, 0, 46, 0, 0, 0, 0, 0, 26, 0, 0, 0, 0, 0, 37, 0, 0, 0, 0, 0, 36, 0, 45, 0, 0, 0, 0, 5, 0, 0, 10, 28, 0, 0, 49, 24, 0, 11, 0
|0, 0, 0, 0, 9, 0, 0, 18, 10, 0, 0, 0, 0, 0, 0, 6, 0, 0, 0, 0, 0, 47, 0, 7, 0, 0, 0, 0, 29, 0, 39, 0, 12, 0, 0, 37, 27, 43, 16, 20, 0, 0, 0, 33, 46, 0, 0, 13, 0|];