order = 7;
grid = [|0, 0, 0, 49, 46, 0, 0, 22, 25, 26, 0, 27, 0, 23, 0, 8, 0, 0, 36, 0, 32, 0, 0, 0, 0, 17, 0, 0, 44, 0, 37, 0, 0, 0, 0, 0, 0, 0, 0, 0, 0, 0, 0, 0, 24, 45, 0, 0, 0
|0, 5, 0, 36, 0, 0, 0, 0, 0, 33, 0, 0, 0, 9, 0, 0, 0, 49, 4, 0, 0, 0, 10, 0, 0, 0, 40, 0, 17, 0, 0, 0, 0, 0, 0, 0, 37, 8, 24, 0, 29, 0, 0, 47, 15, 0, 0, 0, 0
|0, 0, 0, 0, 0, 0, 0, 8, 0, 36, 13, 3, 6, 0, 47, 0, 0, 0, 0, 0, 0, 0, 0, 0, 0, 0, 0, 0, 40, 0, 0, 1, 45, 49, 0, 0, 0, 0, 0, 0, 0, 9, 30, 0, 0, 22, 0, 20, 0
|40, 0, 0, 0, 0, 0, 38, 47, 0, 0, 0, 44, 0, 0, 0, 0, 15, 11, 0, 0, 45, 0, 4, 0, 0, 0, 46, 0, 48, 0, 32, 9, 0, 0, 0, 0, 0, 0, 0, 10, 0, 27, 5, 25, 0, 0, 0, 0, 0
|12, 3, 0, 0, 0, 23, 0, 0, 10, 0, 0, 0, 0, 0, 0, 43, 33, 35, 0, 29, 0, 0, 0, 0, 0, 0, 48, 5, 46, 0, 0, 8, 0, 0, 0, 0, 7, 0, 0, 0, 0, 13, 0, 27, 0, 0, 0, 0, 0
|0, 0, 0, 0, 0, 16, 4, 0, 5, 0, 0, 0, 0, 0, 0, 3, 9, 0, 0, 0, 0, 35, 0, 0, 0, 0, 0, 0, 0, 47, 0, 0, 27, 0, 34, 0, 0, 40, 30, 0, 0, 0, 0, 0, 0, 43, 0, 0, 14
|28, 47, 0, 0, 0, 22, 0, 40, 0, 0, 0, 0, 0, 0, 0, 0, 0, 0, 0, 0, 14, 0, 0, 0, 0, 0, 0, 8, 0, 0, 43, 0, 3, 0, 0, 0, 0, 0, 0, 42, 0, 0, 0, 0, 0, 0, 0, 1, 0
|0, 46, 13, 3, 2, 0, 10, 0, 0, 8, 0, 0, 33, 44, 0, 0, 0, 0, 0, 0, 0, 0, 39, 0, 5, 0, 0, 47, 35, 0, 0, 0, 0, 0, 21, 0, 0, 0, 0, 17, 36, 0, 42, 0, 0, 0, 28, 32, 37
|0, 0, 0, 0, 0, 0, 22, 12, 32, 0, 2, 0, 0, 0, 0, 0, 0, 0, 0, 0, 0, 0, 0, 9, 0, 0, 0, 0, 0, 0, 0, 37, 16, 45, 39, 0, 0, 23, 0, 0, 0, 0, 0, 0, 1, 0, 0, 0, 0
|0, 0, 0, 0, 32, 0, 0, 20, 0, 0, 0, 0, 0, 31, 0, 0, 38, 0, 16, 0, 42, 0, 23, 0, 0, 0, 0, 0, 0, 0, 0, 0, 0, 0, 0, 30, 22, 0, 0, 0, 0, 0, 0, 0, 0, 0, 27, 0, 0
|0, 0, 0, 0, 41, 36, 12, 0, 0, 0, 0, 4, 0, 0, 0, 0, 0, 0, 0, 0, 0, 45, 0, 40, 0, 0, 0, 28, 0, 0, 0, 0, 0, 0, 0, 0, 6, 0, 0, 37, 2, 0, 0, 16, 34, 0, 0, 5, 13
|0, 0, 0, 0, 0, 0, 39, 0, 0, 5, 0, 0, 0, 0, 31, 0, 0, 0, 8, 7, 0, 21, 0, 0, 25, 0, 0, 0, 0, 0, 0, 0, 46, 0, 0, 0, 0, 0, 11, 44, 0, 0, 0, 0, 6, 0, 0, 0, 2
|0, 0, 0, 0, 0, 0, 0, 0, 6, 0, 0, 35, 0, 38, 0, 20, 37, 0, 0, 0, 0, 7, 0, 8, 0, 0, 0, 0, 15, 0, 0, 0, 0, 0, 0, 0, 0, 0, 3, 0, 0, 0, 0, 0, 0, 0, 0, 0, 0
|0, 4, 0, 0, 0, 0, 7, 46, 0, 0, 17, 0, 0, 22, 0, 24, 41, 0, 0, 0, 0, 6, 0, 27, 37, 0, 0, 0, 23, 0, 0, 0, 8, 0, 44, 0, 1, 14, 0, 28, 0, 0, 18, 0, 0, 0, 0, 0, 11
|0, 14, 0, 27, 0, 0, 3, 0, 0, 6, 0, 0, 0, 0, 0, 36, 0, 0, 0, 0, 0, 0, 0, 0, 0, 24, 0, 0, 0, 0, 0, 4, 40, 0, 0, 0, 0, 0, 48, 0, 0, 0, 0, 8, 0, 0, 7, 0, 0
|0, 24, 0, 0, 0, 0, 2, 0, 0, 27, 22, 0, 0, 29, 0, 25, 0, 0, 33, 8, 0, 0, 0, 0, 0, 0, 43, 0, 0, 0, 0, 48, 0, 0, 19, 47, 0, 0, 0, 3, 0, 0, 0, 32, 0, 0, 0, 0, 0
|20, 36, 17, 0, 0, 0, 8, 2, 0, 15, 0, 0, 0, 0, 0, 9, 0, 0, 0, 45, 0, 0, 0, 28, 0, 0, 27, 0, 0, 0, 39, 0, 0, 0, 0, 0, 21, 0, 26, 22, 31, 0, 0, 11, 0, 4, 24, 0, 0
|0, 29, 0, 0, 0, 0, 0, 0, 0, 21, 0, 0, 0, 42, 0, 0, 0, 0, 0, 0, 0, 0, 22, 0, 0, 0, 41, 0, 32, 0, 35, 0, 0, 0, 2, 0, 0, 0, 12, 0, 0, 0, 0, 0, 0, 0, 45, 17, 0
|0, 0, 10, 0, 0, 0, 43, 0, 0, 0, 0, 0, 0, 0, 30, 34, 0, 0, 47, 0, 0, 0, 0, 16, 0, 0, 0, 0, 0, 0, 0, 0, 0, 0, 0, 0, 0, 0, 25, 0, 0, 0, 0, 0, 35, 0, 39, 0, 40
|22, 0, 0, 0, 19, 0, 0, 0, 0, 0, 0, 0, 0, 0, 14, 29, 24, 0, 0, 0, 0, 18, 12, 0, 0, 0, 37, 0, 38, 0, 0, 33, 0, 26, 0, 0, 0, 36, 0, 0, 0, 0, 0, 46, 20, 47, 0, 3, 0
|37, 0, 0, 0, 0, 18, 0, 0, 12, 0, 0, 0, 40, 0, 27, 0, 0, 39, 13, 0, 0, 0, 0, 0, 0, 0, 32, 0, 0, 0, 9, 0, 10, 0, 8, 0, 0, 7, 0, 0, 0, 24, 0, 0, 14, 1, 0, 26, 30
|0, 0, 0, 25, 0, 26, 42, 0, 23, 0, 46, 0, 0, 0, 0, 30, 0, 0, 0, 0, 0, 0, 33, 10, 0, 0, 0, 0, 13, 0, 0, 0, 0, 0, 0, 0, 0, 37, 0, 0, 0, 0, 0, 0, 0, 0, 0, 0, 0
|0, 0, 0, 0, 0, 0, 0, 0, 34, 0, 35, 20, 43, 0, 0, 0, 0, 0, 24, 0, 0, 0, 0, 0, 0, 0, 11, 0, 0, 0, 0, 29, 0, 30, 0, 12, 0, 0, 4, 0, 0, 0, 0, 0, 0, 0, 5, 46, 0
|32, 22, 19, 8, 0, 0, 0, 0, 0, 0, 0, 0, 30, 0, 0, 41, 0, 0, 0, 16, 0, 0, 0, 43, 31, 0, 0, 0, 0, 0, 0, 0, 0, 0, 0, 23, 0, 33, 0, 18, 0, 0, 0, 0, 28, 35, 0, 0, 0
|46, 0, 0, 0, 0, 0, 0, 0, 0, 14, 3, 15, 0, 0, 0, 11, 17, 0, 0, 47, 0, 0, 0, 0, 0, 0, 9, 0, 18, 0, 16, 0, 0, 0, 0, 28, 0, 0, 0, 0, 0, 0, 0, 0, 23, 0, 19, 0, 27
|0, 0, 0, 0, 21, 0, 0, 26, 0, 0, 33, 0, 0, 0, 10, 32, 0, 4, 0, 0, 0, 0, 0, 25, 0, 0, 49, 0, 0, 0, 0, 42, 0, 23, 0, 0, 0, 0, 0, 46, 27, 0, 0, 0, 0, 0, 0, 0, 0
|0, 0, 34, 0, 33, 14, 0, 0, 0, 45, 0, 18, 0, 10, 0, 0, 0, 0, 44, 0, 0, 0, 0, 0, 0, 28, 0, 0, 0, 0, 6, 0, 43, 5, 0, 7, 0, 29, 0, 0, 9, 0, 0, 0, 0, 0, 15, 0, 0
|10, 0, 0, 0, 0, 30, 5, 0, 0, 0, 0, 25, 0, 37, 0, 0, 0, 0, 39, 0, 0, 0, 0, 0, 0, 27, 0, 0, 0, 0, 0, 0, 0, 0, 0, 1, 0, 48, 6, 0, 0, 0, 0, 0, 0, 24, 16, 21, 0
|0, 0, 0, 0, 0, 0, 20, 0, 0, 0, 0, 0, 34, 47, 0, 0, 36, 0, 0, 37, 0, 5, 0, 49, 0, 46, 0, 0, 28, 0, 12, 0, 31, 0, 0, 0, 0, 0, 0, 1, 21, 0, 0, 33, 0, 0, 0, 0, 0
|0, 13, 0, 0, 0, 24, 47, 0, 0, 0, 0, 40, 0, 2, 0, 0, 0, 0, 0, 0, 20, 0, 0, 0, 11, 0, 0, 0, 0, 18, 0, 0, 0, 0, 36, 0, 0, 32, 0, 0, 0, 0, 0, 0, 0, 0, 14, 0, 0
|0, 38, 0, 0, 0, 46, 0, 0, 29, 0, 37, 9, 0, 30, 12, 0, 32, 0, 10, 3, 0, 0, 0, 0, 0, 0, 0, 0, 0, 39, 0, 0, 0, 0, 0, 20, 0, 0, 47, 0, 0, 34, 44, 0, 13, 19, 0, 28, 36
|0, 0, 0, 2, 0, 39, 0, 0, 0, 0, 0, 0, 0, 0, 0, 0, 0, 0, 30, 0, 0, 3, 0, 34, 0, 0, 0, 0, 0, 0, 0, 0, 0, 9, 42, 0, 0, 0, 0, 0, 0, 0, 0, 49, 0, 0, 0, 27, 0
|0, 8, 4, 41, 0, 0, 0, 0, 0, 0, 6, 0, 0, 0, 0, 0, 0, 0, 0, 0, 0, 0, 0, 0, 0, 23, 0, 0, 0, 0, 44, 0, 0, 29, 0, 0, 0, 42, 0, 0, 0, 0, 0, 39, 43, 34, 0, 0, 20
|0, 18, 0, 0, 48, 29, 28, 43, 0, 0, 0, 0, 0, 0, 11, 0, 26, 0, 27, 41, 0, 0, 35, 0, 40, 44, 0, 0, 0, 0, 0, 34, 0, 0, 0, 0, 0, 0, 0, 0, 0, 0, 0, 37, 0, 8, 0, 12, 0
|34, 19, 0, 0, 5, 10, 32, 0, 0, 4, 0, 0, 0, 0, 0, 35, 0, 0, 0, 22, 0, 42, 0, 0, 28, 0, 0, 36, 0, 0, 20, 0, 0, 0, 11, 0, 40, 0, 23, 0, 49, 0, 0, 0, 38, 0, 0, 15, 0
|0, 0, 15, 0, 0, 0, 0, 0, 0, 0, 0, 0, 0, 46, 0, 0, 27, 31, 0, 43, 6, 0, 3, 0, 1, 0, 0, 0, 42, 0, 38, 0, 0, 44, 0, 36, 8, 0, 0, 0, 0, 20, 0, 0, 21, 0, 12, 0, 0
|14, 0, 2, 0, 0, 20, 16, 19, 0, 0, 10, 0, 0, 0, 0, 0, 0, 0, 0, 0, 7, 31, 36, 37, 0, 0, 0, 0, 0, 0, 47, 0, 0, 0, 9, 0, 0, 49, 0, 0, 0, 0, 0, 15, 0, 44, 0, 0, 0
|43, 12, 0, 0, 6, 38, 19, 0, 0, 0, 0, 0, 0, 45, 0, 44, 0, 2, 0, 0, 0, 33, 0, 0, 0, 0, 0, 0, 0, 0, 0, 0, 0, 25, 37, 0, 31, 0, 9, 0, 0, 10, 0, 0, 0, 0, 0, 0, 0
|7, 32, 0, 0, 9, 0, 0, 0, 0, 0, 48, 26, 0, 0, 0, 18, 0, 20, 17, 12, 0, 0, 0, 0, 0, 0, 0, 38, 22, 0, 0, 0, 0, 0, 0, 0, 0, 0, 0, 0, 0, 0, 0, 0, 0, 0, 0, 0, 0
|0, 0, 36, 0, 0, 0, 0, 0, 39, 0, 21, 0, 38, 0, 0, 0, 0, 0, 0, 33, 0, 0, 0, 46, 44, 10, 16, 0, 0, 0, 0, 0, 0, 0, 29, 0, 0, 0, 0, 12, 0, 0, 0, 0, 9, 27, 0, 0, 0
|27, 0, 3, 42, 0, 33, 46, 0, 0, 22, 0, 0, 0, 0, 0, 10, 0, 0, 49, 0, 16, 9, 29, 0, 0, 0, 0, 40, 0, 0, 0, 21, 36, 0, 14, 0, 0, 47, 0, 0, 26, 0, 8, 0, 18, 0, 0, 0, 0
|0, 11, 0, 0, 39, 0, 0, 32, 33, 9, 0, 0, 0, 0, 0, 0, 0, 36, 28, 0, 0, 0, 0, 0, 0, 0, 45, 0, 0, 0, 0, 0, 0, 0, 0, 0, 0, 0, 0, 0, 0, 0, 0, 0, 26, 13, 43, 22, 46
|9, 27, 12, 0, 0, 2, 0, 48, 0, 28, 29, 16, 0, 0, 0, 5, 13, 0, 45, 0, 0, 0, 0, 0, 0, 0, 0, 0, 14, 0, 0, 0, 0, 19, 31, 0, 0, 0, 0, 0, 0, 0, 0, 21, 40, 0, 0, 8, 0
|0, 0, 0, 22, 10, 0, 0, 0, 0, 0, 0, 1, 39, 13, 25, 0, 12, 0, 0, 0, 24, 0, 27, 0, 9, 0, 0, 0, 0, 0, 7, 17, 0, 0, 30, 0, 26, 0, 32, 0, 28, 0, 0, 5, 31, 0, 0, 34, 42
|0, 0, 46, 17, 8, 0, 0, 0, 0, 0, 12, 0, 31, 25, 0, 0, 7, 38, 0, 0, 9, 26, 0, 22, 0, 29, 0, 35, 0, 0, 0, 0, 0, 0, 0, 0, 0, 0, 0, 0, 0, 1, 23, 0, 27, 0, 10, 0, 0
|33, 0, 42, 32, 0, 47, 0, 0, 0, 0, 0, 37, 19, 4, 0, 0, 0, 0, 6, 21, 0, 0, 0, 0, 0, 0, 0, 0, 0, 9, 29, 0, 0, 35, 0, 0, 0, 0, 0, 0, 25, 0, 0, 1, 0, 36, 0, 0, 0
|0, 0, 0, 0, 28, 0, 44, 0, 8, 0, 0, 46, 0, 21, 0, 0, 0, 19, 22, 17, 0, 0, 40, 0, 0, 0, 31, 0, 37, 0, 0, 0, 41, 16, 45, 38, 0, 24, 0, 0, 0, 12, 0, 0, 47, 0, 30, 0, 0
|4, 0, 0, 7, 0, 0, 0, 0, 24, 0, 36, 0, 9, 0, 0, 47, 0, 0, 0, 0, 0, 11, 0, 0, 0, 0, 0, 0, 0, 10, 0, 0, 0, 0, 0, 0, 0, 44, 0, 13, 46, 0, 0, 38, 0, 25, 0, 0, 0
|0, 0, 0, 24, 0, 0, 0, 17, 0, 0, 0, 0, 0, 0, 1, 0, 0, 0, 0, 0, 18, 0, 0, 0, 0, 0, 0, 0, 0, 44, 0, 0, 0, 0, 0, 0, 0, 21, 36, 0, 7, 5, 0, 9, 0, 0, 0, 48, 0|];