order = 7;
grid = [|4, 47, 0, 0, 2, 0, 0, 0, 0, 0, 0, 0, 0, 0, 43, 12, 0, 3, 0, 28, 0, 0, 0, 0, 0, 37, 0, 27, 0, 21, 0, 42, 6, 34, 9, 8, 0, 10, 0, 0, 0, 0, 0, 14, 0, 0, 48, 0, 0
|0, 0, 0, 28, 0, 0, 0, 0, 0, 0, 2, 0, 47, 0, 0, 0, 0, 0, 0, 0, 0, 0, 0, 0, 0, 0, 34, 0, 0, 0, 0, 10, 0, 24, 0, 0, 0, 0, 0, 0, 0, 0, 0, 0, 12, 0, 13, 0, 0
|0, 27, 33, 0, 0, 0, 0, 0, 0, 0, 43, 0, 0, 26, 37, 21, 41, 0, 0, 0, 35, 0, 28, 0, 0, 0, 0, 10, 0, 11, 0, 0, 3, 0, 0, 0, 12, 0, 0, 0, 24, 0, 30, 17, 0, 0, 0, 0, 49
|0, 0, 30, 21, 0, 0, 31, 0, 0, 42, 38, 0, 0, 0, 0, 0, 0, 0, 6, 0, 1, 0, 0, 0, 0, 0, 5, 48, 0, 0, 0, 0, 20, 0, 4, 0, 0, 11, 43, 34, 3, 0, 0, 0, 0, 0, 0, 0, 0
|42, 0, 0, 0, 26, 0, 0, 0, 3, 49, 0, 0, 21, 0, 0, 0, 0, 0, 22, 0, 0, 12, 0, 0, 0, 43, 0, 47, 0, 0, 38, 0, 0, 0, 0, 19, 31, 0, 0, 0, 1, 0, 35, 0, 0, 0, 2, 44, 37
|0, 0, 0, 0, 0, 0, 0, 0, 0, 0, 0, 0, 0, 0, 0, 0, 0, 0, 0, 0, 0, 0, 23, 0, 0, 0, 0, 0, 0, 0, 28, 0, 0, 0, 37, 0, 16, 0, 0, 0, 0, 0, 0, 38, 0, 0, 0, 0, 0
|37, 0, 0, 0, 0, 0, 0, 28, 0, 1, 0, 0, 9, 0, 0, 0, 0, 33, 0, 0, 26, 0, 42, 0, 0, 20, 0, 0, 0, 0, 0, 0, 48, 7, 0, 0, 0, 0, 0, 13, 0, 0, 0, 0, 0, 0, 0, 0, 23
|0, 0, 0, 37, 0, 44, 0, 2, 0, 0, 0, 13, 0, 0, 0, 0, 0, 0, 11, 0, 0, 20, 0, 0, 0, 9, 0, 0, 0, 8, 0, 34, 25, 0, 0, 15, 0, 0, 24, 0, 0, 49, 0, 21, 0, 4, 0, 14, 29
|0, 0, 0, 0, 46, 0, 0, 33, 40, 0, 0, 43, 42, 0, 0, 0, 0, 0, 0, 0, 0, 0, 0, 0, 0, 0, 0, 0, 47, 49, 0, 0, 0, 27, 0, 0, 0, 0, 0, 0, 9, 10, 0, 26, 0, 44, 0, 24, 0
|0, 0, 38, 0, 48, 0, 35, 9, 0, 0, 25, 0, 0, 0, 0, 0, 0, 0, 0, 0, 47, 0, 0, 32, 0, 0, 0, 0, 0, 5, 0, 17, 0, 0, 0, 0, 0, 20, 0, 1, 0, 4, 0, 27, 49, 0, 0, 41, 0
|20, 17, 0, 0, 0, 0, 18, 0, 0, 0, 29, 0, 8, 32, 0, 0, 40, 24, 21, 42, 0, 10, 0, 5, 0, 41, 27, 0, 0, 37, 0, 0, 13, 0, 0, 0, 0, 0, 31, 0, 0, 25, 22, 36, 0, 0, 0, 33, 0
|0, 6, 0, 49, 22, 0, 0, 0, 0, 20, 0, 0, 0, 0, 0, 0, 0, 0, 29, 30, 0, 13, 25, 0, 0, 33, 16, 0, 0, 0, 0, 0, 0, 0, 0, 0, 21, 0, 38, 0, 0, 48, 40, 31, 0, 0, 0, 43, 0
|26, 0, 0, 29, 0, 0, 0, 0, 7, 22, 0, 0, 0, 0, 2, 44, 48, 32, 18, 0, 12, 0, 15, 11, 40, 19, 0, 43, 16, 0, 0, 14, 0, 0, 0, 0, 8, 0, 0, 45, 5, 0, 0, 0, 0, 0, 0, 0, 0
|0, 0, 0, 13, 0, 0, 9, 0, 10, 0, 0, 12, 0, 46, 0, 0, 0, 0, 15, 0, 0, 0, 0, 0, 0, 0, 42, 17, 0, 40, 0, 0, 0, 0, 33, 0, 0, 0, 0, 0, 0, 23, 20, 18, 0, 0, 37, 0, 0
|32, 37, 22, 0, 0, 0, 34, 0, 0, 0, 8, 0, 0, 0, 26, 46, 0, 0, 43, 0, 25, 0, 0, 0, 0, 0, 0, 0, 40, 0, 0, 0, 0, 0, 0, 0, 0, 14, 0, 0, 13, 0, 24, 9, 0, 0, 23, 17, 6
|0, 49, 3, 0, 0, 0, 0, 0, 0, 0, 0, 16, 22, 0, 0, 0, 34, 0, 0, 29, 0, 0, 0, 27, 0, 0, 0, 18, 0, 0, 0, 0, 0, 10, 46, 0, 0, 0, 47, 43, 17, 0, 4, 0, 20, 0, 0, 26, 21
|0, 35, 0, 9, 0, 0, 0, 0, 0, 0, 10, 41, 0, 0, 20, 0, 0, 0, 0, 0, 0, 2, 0, 42, 0, 16, 33, 5, 21, 15, 0, 0, 0, 0, 0, 28, 0, 0, 29, 0, 11, 0, 0, 0, 0, 0, 0, 0, 0
|24, 0, 0, 0, 0, 0, 14, 0, 0, 15, 0, 34, 0, 0, 28, 0, 39, 0, 0, 0, 36, 0, 0, 40, 13, 0, 0, 0, 0, 0, 16, 0, 0, 0, 0, 0, 0, 0, 0, 0, 0, 35, 43, 0, 2, 10, 5, 0, 22
|13, 38, 10, 0, 12, 0, 0, 0, 0, 0, 0, 0, 0, 44, 47, 0, 0, 0, 49, 0, 7, 0, 0, 0, 0, 0, 1, 0, 9, 0, 11, 39, 0, 8, 0, 0, 0, 0, 34, 2, 0, 0, 0, 0, 0, 0, 0, 0, 0
|0, 0, 0, 0, 42, 0, 0, 47, 0, 33, 0, 38, 2, 0, 0, 0, 10, 13, 0, 0, 0, 0, 0, 0, 30, 0, 41, 0, 0, 0, 0, 25, 0, 19, 0, 0, 0, 0, 0, 0, 32, 0, 0, 7, 0, 40, 14, 0, 45
|18, 0, 0, 0, 0, 11, 0, 0, 26, 39, 0, 0, 17, 36, 0, 24, 0, 14, 0, 0, 0, 43, 0, 0, 6, 0, 0, 9, 0, 48, 0, 0, 0, 0, 0, 21, 0, 0, 0, 46, 0, 0, 0, 0, 0, 0, 44, 31, 0
|0, 0, 0, 0, 0, 0, 22, 0, 0, 0, 0, 0, 0, 0, 0, 16, 0, 11, 0, 0, 0, 1, 35, 0, 0, 0, 0, 6, 0, 0, 0, 0, 24, 29, 0, 0, 0, 0, 0, 8, 0, 3, 0, 23, 0, 0, 0, 0, 0
|0, 0, 0, 0, 0, 0, 0, 0, 0, 0, 23, 0, 0, 0, 0, 0, 9, 47, 0, 0, 0, 0, 0, 0, 19, 0, 0, 0, 0, 13, 26, 8, 0, 0, 27, 0, 0, 0, 33, 30, 0, 17, 0, 0, 0, 0, 0, 0, 0
|30, 0, 0, 0, 0, 0, 0, 0, 0, 46, 0, 3, 39, 0, 0, 0, 0, 0, 0, 0, 43, 0, 13, 23, 34, 0, 4, 0, 32, 0, 0, 15, 44, 45, 0, 0, 48, 0, 0, 27, 0, 41, 1, 0, 0, 0, 20, 38, 9
|0, 0, 0, 0, 0, 0, 20, 0, 0, 0, 0, 44, 27, 18, 0, 37, 0, 19, 0, 0, 0, 0, 16, 0, 0, 22, 43, 0, 35, 10, 0, 0, 0, 0, 0, 0, 46, 40, 0, 0, 0, 0, 0, 48, 0, 32, 24, 0, 2
|0, 40, 0, 32, 29, 0, 0, 37, 0, 0, 30, 0, 15, 0, 0, 0, 0, 0, 0, 46, 13, 24, 0, 0, 0, 18, 0, 20, 31, 0, 6, 0, 0, 0, 0, 0, 9, 49, 0, 0, 0, 0, 0, 0, 0, 0, 0, 39, 19
|0, 5, 17, 0, 11, 0, 0, 32, 31, 0, 12, 0, 0, 0, 0, 0, 0, 41, 0, 0, 0, 0, 7, 0, 9, 0, 0, 0, 38, 0, 0, 0, 1, 46, 0, 0, 0, 0, 0, 0, 36, 0, 37, 0, 0, 0, 0, 0, 34
|25, 0, 0, 0, 0, 0, 0, 43, 17, 16, 22, 29, 10, 0, 33, 1, 0, 0, 0, 0, 20, 0, 0, 0, 0, 0, 0, 0, 0, 0, 0, 0, 0, 0, 0, 39, 0, 0, 14, 7, 18, 0, 41, 4, 42, 0, 11, 0, 0
|0, 0, 0, 33, 8, 0, 0, 0, 37, 0, 0, 0, 35, 0, 44, 0, 0, 6, 0, 0, 5, 0, 0, 0, 0, 0, 0, 0, 0, 0, 0, 0, 12, 0, 0, 0, 15, 0, 0, 42, 0, 0, 0, 0, 0, 0, 40, 0, 0
|0, 30, 0, 0, 0, 49, 0, 21, 0, 29, 0, 26, 0, 8, 0, 9, 0, 0, 27, 14, 0, 0, 0, 13, 0, 0, 0, 7, 0, 0, 0, 19, 0, 44, 1, 0, 24, 0, 0, 0, 0, 11, 0, 0, 0, 0, 0, 0, 25
|0, 0, 0, 0, 0, 0, 0, 0, 2, 0, 0, 31, 3, 19, 15, 0, 29, 0, 0, 0, 0, 0, 33, 16, 35, 0, 38, 0, 0, 0, 0, 26, 5, 0, 0, 0, 6, 0, 0, 41, 48, 0, 0, 30, 0, 43, 0, 0, 0
|16, 42, 0, 0, 0, 0, 21, 0, 0, 0, 20, 17, 0, 12, 0, 19, 45, 0, 2, 0, 0, 27, 0, 0, 0, 0, 37, 0, 43, 0, 0, 0, 41, 0, 24, 49, 29, 39, 0, 0, 0, 0, 0, 0, 0, 26, 0, 0, 0
|48, 44, 0, 0, 0, 0, 40, 18, 0, 0, 0, 0, 23, 0, 0, 0, 0, 0, 0, 0, 41, 26, 0, 0, 0, 0, 0, 0, 0, 33, 0, 30, 0, 15, 0, 0, 0, 0, 0, 0, 46, 34, 47, 0, 0, 0, 0, 21, 0
|0, 0, 28, 0, 0, 0, 0, 0, 0, 0, 42, 0, 0, 34, 0, 0, 0, 0, 0, 26, 0, 0, 41, 0, 44, 0, 0, 0, 6, 0, 0, 46, 14, 0, 0, 0, 5, 0, 36, 0, 25, 8, 11, 0, 39, 0, 0, 0, 0
|10, 0, 0, 24, 0, 0, 0, 0, 0, 7, 0, 0, 0, 0, 0, 0, 0, 28, 33, 21, 0, 0, 9, 20, 0, 0, 0, 32, 27, 39, 0, 0, 8, 18, 42, 0, 0, 22, 0, 0, 0, 43, 0, 0, 0, 0, 0, 23, 0
|0, 18, 0, 45, 25, 0, 12, 0, 22, 0, 0, 0, 0, 0, 0, 0, 21, 42, 0, 0, 0, 0, 0, 0, 27, 0, 0, 0, 0, 0, 0, 0, 0, 30, 44, 0, 0, 0, 0, 0, 0, 0, 0, 24, 17, 0, 0, 2, 0
|44, 0, 19, 0, 30, 0, 0, 0, 21, 0, 0, 0, 0, 0, 1, 18, 0, 0, 0, 16, 0, 0, 0, 0, 17, 0, 0, 0, 0, 0, 0, 45, 22, 0, 0, 40, 0, 0, 0, 0, 0, 0, 8, 0, 0, 0, 0, 20, 0
|0, 28, 0, 0, 0, 0, 0, 0, 0, 12, 0, 0, 0, 0, 0, 13, 0, 0, 0, 24, 14, 19, 0, 0, 31, 0, 0, 0, 42, 0, 48, 0, 39, 0, 0, 0, 0, 30, 16, 9, 10, 0, 0, 0, 0, 15, 0, 49, 0
|0, 32, 0, 0, 0, 0, 5, 7, 34, 0, 0, 0, 0, 0, 0, 0, 0, 0, 0, 0, 0, 41, 0, 0, 0, 35, 0, 0, 0, 18, 0, 9, 47, 11, 0, 0, 0, 0, 0, 0, 42, 36, 38, 0, 0, 13, 25, 0, 0
|0, 0, 0, 0, 0, 0, 41, 0, 0, 0, 0, 0, 33, 47, 0, 0, 0, 44, 0, 0, 29, 0, 0, 8, 0, 13, 0, 0, 15, 0, 0, 0, 0, 0, 0, 14, 7, 0, 0, 0, 0, 0, 27, 39, 0, 0, 26, 36, 0
|0, 0, 0, 0, 37, 0, 0, 0, 0, 0, 0, 0, 11, 42, 0, 0, 0, 0, 0, 4, 3, 0, 40, 0, 0, 10, 0, 30, 0, 0, 0, 0, 0, 0, 0, 0, 41, 33, 0, 0, 0, 31, 0, 1, 23, 6, 0, 0, 0
|0, 0, 46, 0, 0, 0, 10, 0, 0, 18, 19, 39, 0, 17, 0, 0, 0, 43, 0, 0, 0, 0, 0, 0, 33, 0, 0, 0, 3, 32, 41, 24, 21, 1, 0, 0, 0, 5, 12, 0, 4, 6, 0, 29, 0, 0, 0, 22, 0
|0, 0, 5, 0, 44, 0, 0, 0, 0, 13, 0, 0, 0, 0, 0, 0, 0, 36, 0, 0, 48, 0, 0, 0, 0, 0, 0, 24, 19, 0, 0, 0, 0, 0, 0, 0, 0, 12, 9, 0, 0, 0, 32, 0, 0, 0, 0, 0, 0
|0, 0, 0, 25, 40, 0, 0, 0, 6, 0, 0, 0, 0, 0, 19, 0, 0, 0, 0, 0, 0, 0, 5, 0, 0, 0, 0, 34, 0, 0, 2, 3, 0, 0, 21, 0, 30, 18, 0, 37, 0, 20, 0, 22, 0, 0, 28, 0, 26
|0, 0, 0, 0, 0, 0, 0, 0, 49, 0, 0, 0, 0, 0, 0, 0, 0, 7, 0, 0, 0, 0, 0, 0, 0, 0, 0, 41, 0, 30, 45, 5, 0, 0, 11, 36, 34, 0, 0, 40, 0, 16, 0, 0, 0, 38, 0, 0, 0
|15, 4, 49, 11, 0, 0, 0, 35, 38, 0, 0, 32, 0, 41, 0, 0, 22, 21, 0, 12, 0, 0, 26, 0, 0, 0, 40, 0, 0, 0, 13, 0, 0, 37, 0, 0, 0, 0, 0, 0, 0, 0, 46, 0, 0, 0, 8, 0, 0
|41, 12, 42, 20, 0, 0, 0, 0, 0, 0, 46, 0, 0, 0, 31, 30, 18, 0, 0, 0, 0, 0, 47, 0, 0, 0, 7, 0, 0, 0, 0, 22, 16, 0, 0, 0, 39, 0, 0, 0, 0, 0, 2, 5, 0, 0, 35, 19, 43
|29, 0, 0, 0, 21, 38, 0, 0, 0, 0, 0, 0, 7, 0, 0, 0, 0, 0, 0, 0, 0, 8, 0, 0, 0, 0, 0, 0, 0, 0, 0, 0, 0, 0, 40, 0, 0, 4, 22, 0, 2, 0, 3, 42, 0, 0, 0, 34, 0
|33, 9, 0, 35, 0, 0, 0, 0, 0, 0, 0, 1, 0, 0, 0, 0, 0, 0, 0, 20, 0, 22, 0, 4, 0, 0, 0, 0, 0, 14, 12, 43, 15, 0, 10, 0, 0, 0, 11, 31, 0, 0, 6, 13, 0, 0, 0, 7, 0|];