order = 7;
grid = [|20, 0, 15, 42, 0, 0, 0, 35, 0, 48, 0, 1, 0, 41, 0, 0, 0, 0, 0, 0, 0, 0, 0, 45, 0, 0, 0, 0, 0, 0, 0, 0, 0, 0, 0, 29, 0, 0, 0, 13, 0, 23, 4, 0, 36, 0, 0, 0, 33
|0, 17, 0, 0, 0, 0, 0, 0, 0, 5, 30, 0, 0, 0, 0, 0, 0, 16, 0, 0, 0, 0, 48, 11, 0, 0, 0, 0, 14, 0, 0, 0, 0, 0, 0, 45, 0, 0, 0, 0, 0, 0, 47, 0, 9, 0, 0, 0, 0
|0, 0, 46, 0, 0, 0, 0, 0, 0, 17, 0, 4, 47, 26, 0, 41, 0, 0, 0, 0, 0, 0, 0, 0, 0, 20, 3, 0, 0, 0, 0, 0, 0, 22, 0, 0, 0, 0, 19, 0, 0, 0, 0, 0, 0, 0, 1, 0, 0
|0, 18, 27, 0, 0, 0, 0, 16, 0, 40, 0, 0, 0, 0, 0, 0, 23, 0, 26, 0, 0, 0, 0, 0, 0, 5, 0, 21, 0, 33, 0, 1, 29, 0, 0, 0, 8, 0, 35, 24, 0, 0, 0, 22, 0, 0, 0, 6, 0
|0, 0, 0, 0, 0, 29, 41, 0, 0, 0, 0, 0, 0, 0, 0, 0, 20, 0, 0, 0, 0, 0, 13, 0, 0, 0, 0, 0, 0, 0, 48, 46, 0, 0, 21, 0, 0, 12, 0, 47, 37, 42, 0, 5, 30, 16, 0, 0, 0
|0, 0, 0, 40, 0, 0, 0, 0, 0, 0, 0, 0, 0, 0, 0, 0, 0, 0, 30, 0, 38, 35, 0, 0, 0, 0, 0, 0, 0, 0, 0, 0, 0, 0, 0, 0, 0, 10, 0, 22, 0, 0, 28, 0, 45, 0, 42, 0, 0
|22, 34, 0, 0, 8, 12, 28, 3, 0, 0, 0, 0, 0, 0, 0, 32, 36, 0, 0, 29, 10, 0, 0, 0, 0, 0, 14, 0, 0, 0, 15, 0, 0, 0, 0, 0, 5, 0, 0, 0, 0, 44, 48, 0, 40, 38, 18, 0, 0
|0, 0, 0, 12, 31, 0, 0, 0, 0, 3, 29, 0, 1, 0, 0, 36, 0, 0, 25, 0, 0, 0, 21, 0, 0, 0, 0, 0, 0, 44, 26, 0, 0, 0, 0, 0, 22, 16, 0, 0, 49, 0, 0, 35, 0, 0, 0, 18, 5
|0, 0, 0, 0, 0, 0, 0, 9, 0, 0, 0, 0, 0, 12, 22, 0, 0, 0, 23, 0, 28, 0, 0, 0, 0, 0, 33, 0, 0, 0, 0, 0, 8, 0, 0, 0, 18, 0, 0, 0, 0, 0, 17, 0, 0, 0, 41, 4, 0
|0, 0, 0, 0, 27, 0, 5, 8, 0, 0, 41, 0, 0, 0, 0, 11, 0, 0, 33, 0, 4, 0, 12, 0, 0, 0, 38, 0, 0, 0, 0, 0, 0, 0, 0, 0, 0, 0, 0, 0, 0, 0, 40, 48, 0, 0, 0, 24, 45
|0, 0, 35, 0, 0, 0, 0, 0, 0, 0, 27, 2, 0, 48, 0, 0, 0, 0, 0, 0, 0, 0, 32, 0, 0, 25, 0, 0, 6, 0, 0, 0, 24, 0, 37, 0, 23, 0, 4, 39, 9, 19, 12, 43, 0, 0, 0, 16, 28
|7, 0, 0, 0, 0, 0, 16, 39, 0, 0, 0, 0, 0, 0, 0, 0, 0, 0, 0, 18, 31, 0, 0, 8, 0, 0, 0, 0, 0, 32, 0, 0, 0, 0, 0, 0, 0, 0, 0, 0, 0, 0, 0, 46, 13, 0, 0, 0, 0
|6, 26, 0, 0, 18, 0, 0, 0, 0, 0, 15, 0, 42, 0, 0, 27, 0, 0, 0, 0, 0, 0, 0, 0, 0, 0, 22, 0, 11, 0, 21, 0, 0, 0, 35, 0, 0, 0, 0, 5, 0, 48, 14, 0, 0, 49, 0, 19, 0
|0, 0, 20, 0, 0, 0, 0, 17, 0, 0, 0, 49, 26, 0, 0, 0, 0, 0, 0, 32, 8, 44, 0, 0, 13, 47, 1, 0, 0, 12, 33, 36, 0, 0, 0, 27, 0, 45, 43, 40, 11, 0, 21, 37, 0, 6, 0, 0, 0
|42, 0, 0, 0, 0, 0, 0, 0, 0, 0, 43, 0, 0, 5, 0, 0, 45, 0, 24, 44, 39, 14, 19, 0, 0, 4, 0, 0, 13, 0, 0, 27, 0, 0, 0, 0, 0, 0, 0, 0, 0, 0, 0, 0, 0, 0, 47, 0, 38
|14, 0, 0, 20, 0, 39, 0, 18, 0, 2, 0, 21, 0, 0, 42, 9, 0, 0, 0, 0, 3, 0, 0, 0, 0, 0, 0, 12, 0, 43, 4, 0, 0, 0, 0, 0, 0, 0, 33, 0, 0, 0, 0, 0, 0, 41, 0, 0, 0
|0, 0, 0, 0, 0, 0, 0, 0, 45, 0, 0, 24, 0, 0, 5, 0, 22, 18, 0, 0, 17, 0, 0, 0, 0, 0, 0, 0, 3, 1, 34, 0, 0, 0, 39, 0, 0, 0, 47, 0, 0, 0, 0, 36, 42, 0, 0, 29, 0
|0, 0, 0, 0, 0, 26, 0, 0, 0, 0, 0, 0, 0, 8, 0, 0, 28, 0, 10, 0, 0, 5, 0, 0, 0, 0, 24, 0, 20, 23, 0, 0, 0, 36, 0, 0, 1, 0, 22, 0, 0, 0, 0, 0, 0, 0, 0, 0, 21
|0, 0, 0, 0, 0, 0, 0, 0, 0, 16, 0, 0, 30, 32, 48, 21, 0, 0, 41, 38, 29, 0, 0, 0, 6, 26, 34, 0, 0, 0, 0, 0, 0, 0, 47, 10, 0, 0, 0, 0, 0, 0, 18, 0, 0, 28, 0, 46, 0
|0, 0, 0, 4, 38, 0, 25, 0, 0, 0, 0, 0, 6, 0, 0, 0, 0, 0, 0, 27, 0, 0, 0, 0, 0, 0, 0, 0, 0, 19, 0, 18, 0, 0, 0, 3, 20, 0, 5, 0, 15, 0, 2, 0, 24, 0, 34, 0, 32
|0, 0, 49, 0, 44, 0, 8, 47, 0, 15, 0, 0, 0, 0, 19, 0, 0, 0, 0, 0, 0, 27, 20, 0, 0, 39, 0, 0, 0, 0, 0, 0, 26, 0, 0, 0, 0, 48, 0, 11, 45, 0, 0, 0, 0, 14, 13, 0, 35
|0, 9, 0, 0, 0, 0, 0, 38, 8, 0, 0, 0, 0, 4, 0, 0, 0, 0, 17, 5, 0, 0, 0, 0, 0, 30, 0, 0, 0, 0, 0, 0, 0, 0, 0, 0, 0, 0, 0, 0, 0, 0, 0, 0, 0, 0, 36, 0, 0
|0, 0, 0, 0, 0, 0, 24, 0, 43, 0, 33, 0, 16, 0, 0, 0, 40, 47, 44, 0, 42, 0, 0, 32, 0, 0, 0, 0, 8, 0, 18, 0, 0, 0, 4, 0, 7, 49, 20, 0, 0, 30, 23, 0, 10, 0, 35, 0, 0
|39, 0, 0, 27, 0, 0, 0, 0, 31, 0, 0, 0, 12, 0, 0, 0, 0, 0, 45, 0, 7, 0, 0, 28, 46, 18, 0, 0, 0, 0, 3, 26, 0, 0, 0, 36, 0, 0, 0, 0, 21, 0, 25, 0, 0, 0, 40, 0, 0
|41, 0, 0, 11, 0, 0, 0, 0, 0, 34, 0, 42, 29, 0, 0, 0, 0, 36, 1, 0, 0, 0, 0, 0, 0, 8, 26, 22, 2, 0, 0, 0, 0, 0, 48, 0, 0, 0, 0, 38, 0, 0, 0, 0, 3, 0, 0, 0, 0
|0, 0, 0, 0, 0, 0, 0, 0, 7, 10, 0, 0, 0, 0, 0, 0, 0, 0, 0, 0, 0, 0, 0, 0, 0, 0, 13, 0, 0, 0, 0, 47, 37, 0, 1, 0, 35, 28, 29, 0, 44, 0, 0, 0, 0, 0, 0, 33, 0
|0, 0, 0, 0, 0, 0, 0, 0, 0, 0, 36, 0, 25, 3, 0, 0, 0, 0, 0, 0, 0, 0, 0, 0, 0, 34, 35, 0, 31, 49, 0, 0, 0, 0, 40, 5, 0, 0, 0, 0, 0, 0, 0, 42, 0, 0, 0, 7, 0
|2, 0, 8, 46, 0, 18, 0, 0, 49, 0, 0, 0, 0, 30, 35, 0, 0, 0, 0, 0, 0, 33, 7, 0, 39, 40, 0, 10, 0, 0, 0, 45, 0, 0, 25, 0, 0, 0, 3, 0, 0, 0, 0, 0, 0, 0, 0, 0, 0
|0, 21, 19, 0, 39, 0, 0, 0, 14, 0, 47, 0, 0, 17, 0, 0, 0, 0, 0, 10, 0, 0, 0, 0, 0, 44, 0, 0, 0, 0, 0, 2, 38, 27, 0, 0, 0, 0, 0, 0, 0, 0, 45, 0, 41, 37, 0, 0, 0
|38, 0, 0, 26, 41, 0, 0, 0, 16, 0, 24, 43, 0, 0, 45, 0, 39, 0, 0, 8, 0, 0, 0, 0, 9, 27, 0, 1, 0, 0, 0, 0, 0, 0, 0, 0, 17, 44, 0, 30, 20, 0, 42, 0, 21, 33, 0, 32, 0
|0, 0, 13, 0, 0, 0, 4, 0, 0, 18, 0, 36, 0, 0, 0, 0, 31, 0, 0, 0, 0, 0, 0, 38, 0, 6, 0, 0, 24, 14, 32, 0, 39, 37, 0, 0, 26, 0, 12, 0, 0, 0, 0, 0, 0, 8, 0, 0, 0
|48, 0, 33, 0, 0, 27, 0, 0, 41, 22, 0, 31, 28, 0, 38, 0, 0, 0, 32, 0, 0, 0, 30, 0, 0, 0, 0, 24, 0, 25, 0, 0, 0, 0, 9, 19, 0, 0, 0, 0, 0, 0, 0, 0, 0, 0, 0, 47, 0
|0, 14, 2, 0, 0, 0, 0, 12, 0, 26, 10, 0, 0, 0, 46, 4, 0, 25, 0, 41, 0, 21, 0, 0, 0, 0, 0, 36, 0, 0, 0, 0, 0, 0, 31, 24, 0, 0, 49, 0, 0, 45, 44, 0, 0, 0, 0, 0, 0
|0, 0, 0, 22, 0, 0, 0, 0, 0, 0, 0, 0, 27, 0, 0, 0, 0, 23, 0, 0, 2, 0, 0, 0, 0, 0, 46, 4, 1, 0, 0, 0, 0, 44, 0, 0, 0, 0, 48, 0, 39, 0, 0, 0, 31, 0, 9, 0, 0
|0, 30, 0, 0, 0, 0, 0, 4, 38, 23, 0, 0, 0, 0, 0, 0, 0, 0, 0, 0, 0, 39, 0, 0, 0, 42, 0, 0, 0, 17, 6, 41, 11, 0, 33, 0, 0, 22, 0, 0, 0, 27, 1, 14, 0, 0, 0, 3, 0
|0, 0, 0, 0, 17, 0, 0, 34, 0, 0, 4, 0, 0, 1, 0, 10, 25, 0, 0, 23, 45, 0, 2, 40, 0, 22, 0, 0, 0, 0, 0, 0, 0, 26, 13, 0, 37, 0, 0, 0, 8, 0, 33, 0, 0, 0, 46, 0, 0
|0, 0, 0, 29, 0, 0, 0, 0, 0, 0, 0, 27, 43, 24, 0, 8, 0, 0, 31, 37, 0, 0, 0, 0, 0, 10, 0, 0, 28, 0, 0, 0, 22, 0, 0, 0, 0, 0, 0, 3, 0, 0, 11, 0, 0, 0, 0, 1, 0
|0, 5, 30, 0, 28, 22, 0, 0, 0, 0, 0, 0, 0, 0, 0, 0, 0, 12, 0, 9, 0, 0, 0, 27, 0, 0, 0, 0, 0, 0, 25, 8, 0, 17, 0, 11, 0, 0, 0, 0, 0, 0, 6, 2, 0, 0, 0, 48, 0
|37, 39, 0, 0, 12, 40, 1, 0, 0, 0, 6, 0, 0, 15, 0, 0, 0, 0, 0, 22, 0, 29, 0, 0, 0, 0, 16, 8, 0, 0, 0, 0, 0, 0, 34, 0, 0, 0, 9, 20, 0, 0, 0, 18, 23, 10, 0, 0, 0
|23, 0, 48, 45, 0, 0, 0, 0, 0, 8, 0, 40, 0, 0, 0, 49, 0, 7, 0, 0, 33, 0, 0, 46, 34, 0, 30, 0, 43, 16, 0, 0, 10, 38, 0, 0, 0, 18, 0, 0, 14, 24, 0, 0, 12, 35, 0, 0, 47
|36, 0, 0, 0, 0, 0, 0, 37, 0, 0, 0, 0, 0, 35, 0, 0, 0, 0, 3, 0, 0, 0, 0, 0, 0, 0, 0, 0, 40, 0, 0, 21, 0, 31, 29, 0, 0, 0, 0, 0, 0, 12, 0, 9, 0, 0, 0, 0, 4
|25, 43, 0, 0, 0, 0, 0, 33, 0, 0, 44, 12, 0, 0, 11, 0, 0, 0, 4, 0, 0, 1, 0, 0, 0, 0, 37, 14, 0, 0, 46, 0, 0, 32, 0, 0, 39, 0, 0, 0, 0, 0, 20, 15, 27, 0, 24, 0, 8
|15, 35, 0, 0, 0, 0, 0, 41, 0, 0, 0, 0, 20, 38, 17, 13, 0, 0, 0, 31, 0, 40, 0, 0, 16, 0, 0, 0, 30, 0, 0, 0, 49, 0, 0, 0, 4, 25, 0, 19, 0, 0, 0, 0, 0, 0, 0, 0, 0
|21, 0, 0, 37, 0, 0, 0, 0, 0, 0, 3, 0, 0, 0, 0, 0, 0, 15, 0, 0, 0, 0, 0, 24, 0, 17, 0, 0, 0, 31, 0, 0, 0, 0, 22, 34, 0, 11, 0, 0, 0, 0, 32, 38, 2, 23, 0, 27, 30
|0, 48, 0, 0, 0, 0, 32, 0, 0, 12, 0, 0, 0, 0, 27, 25, 0, 0, 0, 11, 0, 45, 35, 0, 42, 0, 0, 49, 0, 26, 0, 23, 3, 39, 14, 0, 6, 21, 0, 0, 22, 0, 0, 0, 0, 0, 0, 0, 18
|0, 8, 9, 0, 26, 0, 0, 0, 0, 0, 35, 0, 13, 0, 0, 22, 21, 0, 28, 0, 0, 0, 0, 43, 10, 0, 0, 0, 42, 20, 0, 0, 0, 0, 0, 0, 0, 15, 0, 0, 0, 0, 0, 0, 1, 0, 0, 36, 0
|0, 0, 0, 24, 0, 7, 11, 0, 0, 0, 0, 0, 0, 16, 1, 0, 0, 0, 19, 45, 49, 0, 0, 0, 23, 0, 0, 0, 17, 0, 0, 25, 15, 0, 46, 0, 0, 42, 13, 0, 0, 0, 0, 0, 6, 0, 31, 0, 10
|0, 0, 40, 0, 0, 49, 0, 0, 0, 0, 34, 0, 10, 0, 41, 20, 0, 0, 0, 30, 26, 0, 0, 0, 19, 0, 0, 0, 0, 0, 24, 32, 27, 13, 0, 0, 3, 0, 0, 0, 0, 5, 0, 0, 28, 0, 14, 0, 0
|0, 47, 0, 0, 46, 0, 14, 0, 17, 25, 0, 0, 0, 0, 0, 39, 0, 0, 0, 0, 0, 34, 0, 0, 0, 0, 0, 0, 0, 0, 0, 0, 0, 33, 0, 0, 0, 30, 0, 0, 24, 16, 0, 13, 35, 45, 7, 0, 0|];