order = 7;
grid = [|0, 0, 17, 0, 0, 0, 32, 4, 0, 0, 42, 0, 0, 0, 36, 49, 0, 1, 39, 0, 0, 0, 7, 0, 2, 11, 0, 0, 0, 0, 46, 16, 48, 0, 0, 30, 21, 0, 29, 10, 0, 38, 0, 0, 0, 0, 0, 0, 0
|0, 0, 0, 0, 0, 12, 0, 21, 0, 0, 0, 0, 0, 0, 0, 0, 25, 0, 7, 19, 0, 6, 0, 0, 0, 48, 0, 30, 0, 0, 0, 0, 0, 35, 0, 0, 32, 0, 0, 22, 0, 0, 0, 0, 0, 0, 0, 0, 0
|0, 0, 0, 0, 0, 0, 27, 0, 0, 19, 0, 0, 0, 7, 26, 0, 0, 0, 14, 0, 6, 0, 0, 0, 17, 0, 39, 5, 0, 0, 15, 0, 4, 2, 0, 0, 0, 0, 0, 46, 0, 0, 0, 10, 0, 0, 1, 38, 24
|0, 0, 0, 0, 0, 38, 0, 0, 0, 0, 0, 0, 0, 0, 0, 13, 9, 0, 0, 0, 0, 0, 0, 0, 0, 0, 0, 0, 7, 25, 39, 0, 0, 0, 0, 40, 0, 0, 0, 37, 23, 0, 0, 0, 0, 0, 0, 4, 0
|46, 0, 0, 0, 0, 0, 20, 0, 0, 0, 0, 0, 0, 0, 0, 34, 23, 0, 0, 0, 0, 0, 0, 0, 0, 38, 32, 4, 0, 0, 0, 27, 40, 0, 12, 31, 0, 44, 0, 0, 48, 16, 0, 11, 0, 0, 36, 0, 39
|0, 26, 0, 0, 0, 0, 0, 0, 0, 0, 38, 0, 0, 0, 17, 31, 0, 0, 46, 0, 0, 0, 0, 25, 0, 0, 0, 49, 0, 0, 23, 3, 0, 0, 0, 0, 0, 0, 0, 0, 0, 9, 0, 0, 0, 8, 43, 0, 0
|21, 15, 0, 0, 0, 0, 24, 0, 0, 0, 28, 41, 0, 0, 0, 0, 4, 0, 0, 0, 0, 0, 33, 0, 0, 0, 34, 0, 0, 0, 19, 0, 0, 0, 0, 0, 0, 3, 0, 0, 36, 0, 0, 0, 0, 23, 30, 0, 0
|0, 0, 0, 0, 0, 40, 4, 25, 31, 0, 0, 0, 0, 0, 0, 46, 0, 0, 22, 24, 21, 0, 0, 0, 29, 32, 0, 0, 45, 17, 5, 0, 0, 0, 0, 0, 0, 0, 0, 33, 0, 0, 0, 0, 38, 37, 0, 0, 0
|0, 0, 0, 0, 21, 47, 0, 8, 0, 0, 10, 0, 0, 39, 0, 0, 0, 0, 2, 0, 0, 45, 0, 0, 0, 0, 0, 0, 3, 0, 0, 0, 34, 38, 0, 0, 0, 0, 23, 0, 0, 43, 44, 0, 0, 0, 33, 32, 0
|39, 0, 0, 0, 0, 0, 0, 0, 0, 0, 16, 45, 38, 36, 28, 0, 29, 19, 0, 34, 20, 0, 0, 4, 0, 0, 0, 21, 31, 0, 0, 0, 0, 0, 0, 0, 13, 0, 0, 0, 0, 0, 0, 0, 0, 0, 0, 0, 0
|43, 0, 0, 0, 0, 0, 0, 0, 0, 0, 0, 0, 0, 0, 18, 0, 1, 12, 0, 0, 0, 20, 26, 0, 0, 16, 0, 0, 0, 15, 0, 0, 0, 27, 0, 17, 0, 14, 0, 34, 6, 0, 0, 42, 45, 29, 0, 40, 36
|0, 18, 0, 0, 0, 7, 0, 0, 0, 0, 0, 35, 0, 40, 0, 14, 0, 9, 0, 0, 0, 0, 0, 0, 0, 0, 0, 0, 0, 0, 0, 21, 0, 0, 0, 44, 0, 0, 0, 0, 0, 0, 0, 0, 0, 0, 34, 0, 30
|9, 0, 30, 0, 22, 0, 0, 0, 29, 0, 0, 0, 49, 0, 13, 0, 0, 0, 0, 17, 33, 0, 0, 0, 0, 0, 0, 0, 0, 0, 36, 0, 46, 0, 0, 26, 0, 0, 0, 0, 0, 0, 12, 0, 8, 0, 0, 0, 0
|0, 0, 0, 0, 31, 0, 10, 0, 18, 6, 0, 0, 0, 5, 32, 0, 0, 38, 0, 23, 0, 19, 0, 17, 0, 0, 33, 0, 11, 0, 0, 0, 26, 8, 24, 0, 0, 45, 0, 0, 0, 47, 0, 0, 39, 0, 0, 0, 13
|0, 0, 0, 0, 0, 0, 15, 0, 2, 0, 0, 0, 26, 0, 46, 44, 0, 25, 0, 39, 0, 0, 0, 42, 0, 0, 36, 38, 0, 0, 28, 12, 0, 0, 0, 29, 0, 0, 48, 0, 0, 0, 0, 0, 0, 0, 0, 0, 0
|26, 40, 0, 0, 0, 0, 47, 0, 0, 37, 7, 0, 9, 0, 4, 0, 22, 20, 0, 10, 0, 39, 0, 16, 25, 0, 0, 0, 0, 0, 32, 41, 0, 0, 0, 0, 42, 31, 49, 0, 13, 0, 0, 38, 0, 0, 0, 34, 1
|0, 0, 44, 13, 34, 0, 43, 0, 0, 0, 0, 0, 29, 0, 0, 0, 0, 26, 0, 0, 14, 0, 0, 0, 0, 0, 0, 0, 0, 38, 31, 0, 36, 0, 4, 2, 0, 0, 0, 0, 16, 23, 45, 0, 0, 0, 0, 22, 0
|0, 0, 0, 0, 18, 0, 33, 0, 0, 11, 15, 0, 0, 25, 0, 30, 0, 0, 0, 0, 0, 0, 0, 0, 0, 0, 4, 13, 43, 0, 0, 0, 22, 0, 0, 38, 47, 26, 0, 0, 0, 0, 0, 39, 0, 36, 0, 0, 49
|0, 4, 0, 0, 0, 0, 46, 0, 44, 38, 0, 0, 30, 0, 29, 0, 0, 6, 0, 41, 0, 28, 0, 0, 0, 15, 0, 0, 1, 0, 0, 0, 0, 7, 14, 0, 37, 0, 24, 39, 0, 0, 0, 0, 21, 0, 0, 0, 0
|0, 0, 0, 0, 3, 48, 0, 0, 0, 0, 0, 14, 0, 0, 0, 0, 42, 0, 0, 8, 0, 0, 0, 44, 0, 1, 0, 0, 2, 0, 0, 17, 0, 0, 0, 0, 0, 0, 0, 25, 27, 36, 29, 0, 0, 32, 28, 0, 0
|0, 25, 39, 31, 0, 0, 0, 42, 4, 35, 0, 48, 0, 28, 0, 0, 0, 33, 0, 0, 0, 32, 0, 49, 21, 27, 0, 23, 18, 0, 0, 0, 10, 0, 0, 0, 0, 0, 0, 0, 0, 0, 0, 24, 0, 26, 0, 30, 0
|0, 35, 0, 0, 0, 43, 0, 26, 3, 0, 25, 0, 23, 0, 0, 0, 0, 0, 0, 0, 0, 0, 0, 0, 0, 31, 0, 39, 0, 0, 0, 0, 0, 0, 0, 0, 0, 36, 0, 0, 0, 0, 0, 0, 47, 0, 18, 0, 0
|0, 0, 45, 0, 33, 11, 0, 0, 0, 0, 18, 29, 0, 0, 41, 0, 14, 0, 0, 47, 0, 42, 0, 0, 0, 0, 0, 24, 0, 0, 0, 46, 0, 17, 0, 0, 0, 35, 0, 0, 0, 48, 0, 0, 0, 0, 0, 0, 0
|15, 0, 0, 49, 48, 24, 0, 0, 0, 0, 0, 0, 0, 0, 0, 0, 0, 0, 0, 0, 44, 37, 0, 43, 0, 0, 0, 0, 0, 0, 41, 0, 1, 0, 0, 6, 9, 0, 0, 0, 29, 3, 27, 0, 0, 0, 23, 0, 26
|0, 0, 0, 0, 0, 0, 0, 40, 0, 17, 0, 0, 0, 41, 0, 25, 0, 4, 11, 9, 0, 0, 10, 0, 0, 0, 0, 0, 0, 36, 0, 0, 0, 0, 15, 42, 22, 0, 32, 0, 0, 0, 8, 33, 24, 38, 12, 0, 29
|41, 0, 0, 0, 0, 0, 0, 0, 42, 0, 21, 37, 24, 0, 0, 0, 0, 0, 0, 0, 36, 0, 30, 0, 0, 0, 8, 0, 44, 0, 0, 4, 0, 5, 23, 0, 0, 38, 0, 0, 10, 0, 0, 3, 31, 0, 14, 0, 0
|0, 46, 0, 0, 0, 37, 30, 0, 47, 0, 0, 0, 0, 0, 0, 0, 12, 21, 40, 5, 0, 0, 27, 0, 49, 0, 0, 0, 0, 0, 2, 0, 0, 0, 0, 0, 0, 0, 34, 0, 0, 0, 0, 0, 0, 0, 39, 0, 22
|0, 0, 42, 0, 0, 0, 0, 35, 0, 14, 0, 32, 0, 0, 0, 0, 0, 0, 0, 29, 0, 46, 0, 0, 0, 23, 0, 0, 0, 47, 3, 0, 0, 22, 0, 0, 0, 0, 0, 0, 0, 0, 11, 0, 0, 0, 0, 0, 0
|0, 0, 47, 0, 0, 0, 0, 22, 5, 0, 0, 0, 0, 0, 45, 0, 0, 0, 0, 13, 0, 0, 0, 20, 39, 9, 0, 0, 0, 44, 21, 0, 19, 23, 0, 25, 17, 42, 6, 0, 0, 40, 0, 0, 0, 35, 32, 48, 0
|0, 31, 0, 44, 0, 0, 9, 0, 41, 0, 0, 27, 0, 16, 2, 0, 0, 39, 25, 0, 0, 0, 0, 0, 0, 0, 0, 7, 0, 42, 0, 0, 11, 0, 32, 0, 0, 0, 0, 0, 0, 0, 0, 0, 0, 20, 17, 0, 0
|0, 0, 0, 0, 32, 0, 23, 0, 0, 24, 47, 40, 7, 0, 19, 21, 0, 0, 0, 0, 0, 0, 0, 34, 0, 0, 2, 0, 27, 30, 6, 0, 16, 0, 25, 13, 0, 4, 0, 15, 37, 0, 0, 0, 0, 0, 44, 36, 0
|45, 0, 0, 0, 0, 28, 0, 0, 9, 0, 0, 0, 36, 0, 0, 0, 0, 0, 0, 0, 0, 0, 0, 0, 0, 0, 0, 0, 0, 22, 0, 0, 0, 0, 26, 0, 0, 0, 0, 0, 0, 0, 0, 8, 0, 0, 0, 33, 0
|0, 0, 6, 0, 4, 42, 0, 0, 0, 0, 0, 0, 0, 14, 30, 0, 32, 0, 9, 0, 0, 0, 0, 0, 0, 0, 0, 0, 34, 0, 0, 0, 2, 0, 0, 0, 39, 11, 0, 0, 0, 0, 0, 0, 0, 0, 0, 0, 0
|0, 0, 0, 25, 13, 0, 0, 0, 0, 0, 48, 17, 0, 0, 0, 0, 37, 0, 0, 44, 0, 0, 38, 22, 0, 0, 0, 0, 0, 0, 0, 36, 0, 0, 0, 0, 23, 30, 0, 0, 0, 0, 47, 49, 0, 0, 0, 0, 0
|0, 0, 0, 21, 0, 46, 0, 34, 23, 42, 0, 25, 0, 0, 0, 0, 38, 0, 0, 22, 3, 0, 0, 0, 0, 0, 0, 36, 0, 43, 49, 0, 0, 4, 0, 0, 0, 8, 0, 0, 44, 0, 0, 0, 30, 0, 0, 1, 0
|0, 48, 0, 19, 0, 0, 0, 0, 0, 0, 0, 0, 0, 42, 0, 0, 0, 35, 0, 0, 0, 18, 0, 0, 0, 0, 16, 0, 29, 2, 22, 0, 12, 0, 36, 37, 38, 0, 0, 0, 0, 41, 0, 26, 28, 1, 0, 0, 0
|10, 0, 16, 46, 0, 41, 0, 44, 0, 0, 13, 0, 0, 15, 23, 0, 31, 0, 0, 0, 29, 0, 0, 0, 0, 40, 0, 28, 0, 11, 0, 0, 0, 0, 0, 19, 0, 0, 1, 0, 39, 0, 4, 0, 0, 34, 0, 0, 0
|11, 30, 36, 0, 43, 0, 6, 7, 0, 0, 0, 0, 0, 0, 9, 16, 41, 32, 0, 0, 25, 1, 0, 21, 0, 0, 0, 0, 14, 0, 0, 0, 39, 0, 31, 0, 0, 13, 3, 0, 0, 29, 42, 5, 0, 17, 0, 0, 10
|0, 0, 33, 0, 0, 39, 0, 0, 0, 29, 0, 0, 0, 0, 0, 0, 0, 0, 0, 0, 13, 0, 0, 41, 0, 0, 0, 0, 32, 19, 0, 0, 0, 0, 0, 0, 0, 0, 0, 40, 0, 0, 0, 20, 0, 2, 0, 0, 0
|0, 0, 0, 0, 0, 0, 18, 1, 0, 0, 0, 0, 2, 0, 0, 0, 0, 0, 20, 0, 0, 0, 0, 36, 0, 0, 22, 0, 0, 0, 0, 0, 0, 0, 0, 0, 10, 0, 0, 0, 0, 27, 0, 0, 0, 0, 0, 0, 0
|0, 0, 0, 0, 0, 0, 0, 0, 0, 28, 41, 9, 0, 0, 0, 26, 0, 30, 0, 0, 46, 0, 0, 13, 0, 0, 19, 0, 0, 0, 0, 0, 0, 34, 1, 36, 0, 0, 0, 31, 0, 33, 6, 0, 0, 0, 0, 0, 23
|0, 32, 13, 0, 0, 44, 0, 0, 0, 0, 0, 16, 0, 0, 0, 0, 0, 0, 0, 0, 0, 0, 25, 0, 0, 0, 0, 0, 0, 0, 0, 0, 0, 0, 41, 0, 0, 0, 0, 0, 17, 0, 0, 0, 0, 39, 0, 35, 0
|0, 0, 9, 0, 0, 0, 0, 0, 0, 0, 0, 0, 0, 2, 0, 45, 8, 0, 0, 0, 0, 47, 0, 0, 0, 41, 0, 0, 0, 6, 0, 33, 0, 0, 0, 0, 0, 0, 0, 0, 0, 0, 0, 0, 0, 7, 0, 0, 17
|13, 0, 0, 0, 0, 0, 45, 29, 0, 41, 0, 0, 0, 0, 10, 0, 33, 0, 0, 0, 37, 0, 0, 0, 43, 12, 0, 0, 0, 0, 0, 0, 0, 0, 5, 39, 0, 0, 22, 0, 0, 0, 38, 0, 0, 0, 26, 0, 40
|0, 0, 27, 20, 0, 21, 48, 0, 0, 0, 0, 0, 0, 8, 39, 0, 15, 17, 0, 0, 0, 0, 0, 37, 0, 0, 0, 19, 0, 10, 7, 24, 0, 26, 40, 0, 29, 2, 0, 0, 0, 0, 0, 35, 0, 0, 0, 0, 0
|0, 12, 0, 0, 0, 49, 14, 0, 0, 22, 0, 0, 4, 0, 43, 32, 0, 0, 36, 42, 0, 0, 0, 8, 24, 0, 0, 0, 0, 0, 0, 0, 0, 0, 11, 0, 0, 0, 0, 21, 47, 0, 0, 0, 48, 0, 9, 28, 25
|35, 0, 0, 0, 25, 0, 0, 0, 0, 0, 0, 36, 0, 0, 0, 3, 0, 46, 0, 20, 0, 0, 0, 7, 22, 0, 5, 10, 0, 0, 48, 0, 0, 0, 0, 0, 0, 9, 0, 38, 0, 0, 21, 45, 0, 0, 8, 0, 44
|0, 0, 0, 0, 40, 0, 0, 0, 0, 0, 27, 0, 0, 0, 14, 0, 2, 24, 0, 6, 0, 0, 39, 29, 0, 0, 15, 0, 38, 0, 0, 0, 0, 0, 0, 0, 0, 0, 0, 26, 49, 0, 0, 0, 0, 0, 10, 0, 0
|0, 42, 0, 0, 41, 0, 0, 43, 0, 0, 30, 34, 37, 0, 0, 0, 0, 40, 38, 0, 0, 2, 0, 0, 20, 33, 0, 0, 47, 12, 45, 0, 0, 0, 0, 0, 0, 27, 0, 0, 0, 0, 0, 0, 6, 0, 0, 0, 0|];