order = 7;
grid = [|0, 0, 33, 0, 43, 0, 0, 0, 0, 0, 39, 0, 0, 0, 0, 13, 0, 0, 0, 28, 0, 0, 0, 0, 0, 0, 0, 0, 46, 0, 2, 0, 24, 0, 9, 0, 0, 0, 14, 30, 0, 0, 0, 21, 20, 49, 0, 0, 19
|0, 0, 0, 0, 0, 0, 0, 1, 36, 0, 19, 0, 13, 0, 0, 41, 0, 0, 0, 39, 0, 0, 0, 0, 6, 0, 0, 49, 0, 0, 37, 32, 10, 12, 0, 0, 0, 0, 0, 0, 0, 0, 0, 0, 0, 0, 0, 0, 0
|0, 0, 0, 0, 0, 0, 40, 0, 0, 0, 0, 0, 0, 0, 0, 0, 0, 0, 0, 0, 7, 0, 0, 0, 0, 0, 1, 0, 18, 0, 11, 0, 0, 45, 0, 0, 44, 22, 0, 37, 0, 0, 0, 41, 0, 38, 0, 0, 0
|0, 0, 0, 0, 8, 30, 13, 0, 21, 0, 0, 0, 42, 20, 24, 0, 1, 0, 2, 18, 0, 0, 0, 0, 47, 0, 0, 28, 0, 33, 0, 39, 0, 0, 0, 0, 38, 29, 23, 0, 0, 0, 0, 0, 0, 46, 0, 0, 25
|0, 5, 0, 45, 0, 42, 0, 0, 0, 0, 0, 0, 0, 0, 44, 0, 47, 0, 0, 6, 29, 0, 20, 0, 0, 0, 0, 30, 0, 0, 0, 48, 0, 0, 0, 0, 0, 0, 0, 0, 0, 0, 1, 0, 31, 7, 14, 0, 0
|0, 0, 0, 0, 46, 0, 0, 0, 0, 0, 0, 24, 0, 2, 0, 0, 0, 0, 0, 0, 0, 15, 0, 0, 34, 13, 0, 4, 0, 0, 38, 47, 0, 0, 0, 0, 0, 0, 0, 39, 0, 0, 5, 0, 0, 28, 0, 0, 0
|38, 0, 0, 20, 27, 11, 28, 0, 0, 0, 0, 0, 0, 0, 0, 0, 0, 5, 0, 0, 0, 0, 23, 19, 43, 46, 0, 12, 0, 34, 14, 0, 36, 0, 0, 24, 0, 2, 49, 0, 0, 0, 29, 33, 0, 48, 0, 0, 0
|0, 38, 13, 0, 0, 0, 0, 0, 0, 0, 7, 47, 0, 0, 49, 0, 0, 3, 29, 20, 0, 0, 0, 15, 0, 45, 0, 0, 0, 0, 17, 0, 41, 28, 40, 0, 21, 0, 0, 0, 33, 0, 0, 0, 0, 0, 0, 0, 0
|34, 0, 23, 0, 0, 21, 0, 0, 0, 0, 35, 0, 0, 0, 0, 0, 0, 0, 0, 0, 0, 6, 0, 0, 0, 0, 7, 0, 0, 0, 44, 0, 0, 0, 0, 0, 0, 0, 5, 0, 0, 0, 40, 0, 0, 0, 0, 0, 0
|28, 0, 0, 8, 49, 0, 0, 0, 0, 0, 0, 11, 0, 0, 0, 7, 0, 0, 0, 23, 0, 0, 0, 0, 0, 0, 0, 0, 0, 19, 15, 0, 18, 0, 0, 0, 0, 0, 0, 0, 34, 0, 0, 0, 0, 0, 0, 0, 0
|0, 0, 37, 0, 45, 0, 30, 0, 0, 29, 25, 21, 17, 0, 46, 0, 0, 0, 0, 12, 47, 0, 2, 0, 0, 0, 0, 0, 38, 0, 35, 0, 26, 31, 0, 0, 0, 28, 0, 0, 10, 0, 0, 0, 0, 0, 0, 34, 41
|0, 46, 22, 0, 0, 0, 0, 0, 4, 0, 0, 0, 0, 0, 5, 0, 0, 0, 17, 0, 45, 0, 0, 0, 23, 21, 0, 0, 0, 0, 0, 7, 0, 0, 0, 0, 0, 0, 0, 0, 40, 0, 0, 0, 0, 0, 0, 29, 0
|0, 0, 0, 0, 0, 0, 0, 0, 27, 15, 0, 0, 0, 0, 34, 0, 11, 0, 35, 0, 0, 0, 0, 0, 41, 8, 38, 0, 0, 32, 0, 0, 0, 21, 0, 46, 0, 0, 0, 0, 0, 0, 0, 0, 0, 0, 30, 23, 0
|5, 0, 0, 0, 0, 0, 0, 0, 0, 0, 0, 0, 0, 0, 0, 0, 0, 0, 9, 0, 0, 0, 1, 0, 0, 0, 0, 0, 0, 0, 0, 0, 14, 0, 0, 0, 0, 0, 25, 23, 0, 0, 0, 0, 0, 11, 0, 0, 0
|0, 0, 38, 36, 0, 0, 0, 0, 26, 32, 42, 0, 0, 43, 0, 4, 0, 0, 39, 0, 0, 27, 0, 0, 0, 0, 3, 0, 0, 41, 25, 12, 0, 0, 45, 0, 1, 5, 0, 14, 21, 0, 0, 24, 0, 0, 0, 0, 0
|15, 4, 0, 46, 0, 0, 0, 5, 0, 0, 0, 0, 0, 0, 0, 2, 0, 0, 0, 25, 0, 37, 22, 0, 0, 0, 0, 0, 0, 0, 3, 0, 0, 0, 28, 0, 45, 42, 0, 0, 0, 38, 0, 0, 0, 0, 0, 0, 0
|25, 0, 0, 0, 0, 5, 0, 23, 1, 31, 0, 0, 4, 0, 0, 0, 0, 0, 0, 0, 11, 47, 0, 13, 0, 0, 0, 0, 0, 21, 0, 40, 0, 36, 0, 0, 0, 0, 0, 0, 0, 10, 37, 0, 0, 0, 0, 0, 0
|0, 0, 0, 0, 34, 45, 47, 0, 2, 0, 0, 48, 0, 0, 0, 0, 17, 29, 21, 0, 0, 0, 5, 0, 0, 0, 0, 0, 39, 0, 42, 0, 0, 0, 0, 0, 49, 0, 32, 0, 0, 0, 0, 0, 0, 0, 0, 0, 0
|0, 41, 0, 42, 0, 0, 0, 46, 0, 33, 17, 3, 0, 0, 0, 0, 0, 0, 0, 0, 0, 0, 14, 0, 0, 0, 0, 0, 0, 0, 26, 0, 0, 0, 0, 0, 0, 0, 0, 0, 0, 36, 0, 0, 0, 47, 0, 1, 0
|0, 0, 0, 32, 21, 0, 0, 9, 0, 14, 13, 0, 0, 7, 30, 0, 0, 0, 0, 0, 0, 0, 38, 0, 0, 0, 0, 0, 0, 6, 5, 0, 0, 0, 19, 0, 0, 8, 0, 12, 39, 43, 0, 0, 23, 0, 0, 0, 0
|0, 20, 14, 0, 11, 29, 35, 0, 0, 0, 0, 0, 0, 0, 0, 0, 0, 46, 0, 0, 41, 0, 30, 40, 48, 0, 39, 0, 0, 0, 31, 17, 44, 0, 1, 34, 26, 0, 0, 18, 0, 13, 0, 0, 0, 0, 0, 0, 12
|19, 28, 3, 0, 32, 14, 0, 0, 37, 0, 0, 27, 0, 25, 13, 0, 31, 23, 0, 48, 0, 0, 0, 5, 7, 36, 0, 21, 0, 0, 45, 0, 40, 17, 38, 12, 0, 0, 0, 0, 0, 44, 0, 30, 11, 0, 0, 0, 0
|0, 0, 0, 38, 0, 0, 49, 0, 20, 0, 0, 23, 0, 0, 21, 0, 0, 0, 44, 37, 33, 0, 45, 0, 15, 25, 0, 0, 0, 28, 0, 22, 0, 47, 14, 26, 0, 0, 0, 0, 0, 41, 0, 0, 29, 0, 0, 0, 0
|0, 22, 30, 25, 35, 0, 0, 40, 18, 4, 0, 13, 0, 0, 0, 0, 0, 0, 0, 19, 0, 10, 0, 0, 0, 0, 0, 0, 21, 0, 0, 0, 0, 0, 0, 0, 0, 0, 0, 0, 0, 0, 38, 34, 33, 0, 0, 48, 37
|0, 0, 0, 0, 4, 44, 0, 0, 33, 0, 0, 0, 0, 0, 16, 0, 0, 47, 34, 0, 0, 32, 37, 0, 28, 18, 0, 0, 0, 0, 0, 0, 11, 0, 0, 0, 0, 0, 29, 22, 0, 0, 0, 0, 25, 0, 45, 0, 0
|9, 21, 0, 2, 1, 0, 12, 0, 15, 0, 0, 44, 0, 49, 41, 0, 0, 0, 5, 22, 0, 0, 0, 0, 11, 0, 0, 26, 0, 29, 0, 0, 0, 7, 0, 4, 0, 0, 3, 13, 0, 0, 24, 39, 0, 23, 0, 0, 0
|48, 0, 0, 0, 0, 27, 0, 36, 0, 0, 0, 0, 28, 3, 0, 32, 24, 0, 0, 0, 0, 17, 0, 39, 13, 0, 0, 19, 0, 0, 12, 0, 33, 0, 0, 0, 40, 23, 31, 0, 0, 0, 26, 0, 8, 0, 0, 0, 0
|0, 0, 0, 0, 39, 0, 0, 0, 0, 0, 0, 12, 0, 41, 27, 0, 0, 36, 38, 0, 46, 0, 0, 0, 0, 0, 0, 40, 0, 0, 0, 0, 0, 0, 0, 0, 0, 0, 35, 0, 0, 24, 0, 0, 0, 0, 28, 44, 0
|42, 0, 0, 0, 22, 0, 0, 25, 0, 0, 0, 0, 0, 0, 0, 0, 0, 0, 30, 34, 0, 0, 0, 0, 0, 0, 23, 0, 0, 47, 0, 0, 0, 49, 0, 10, 0, 0, 13, 0, 0, 0, 0, 11, 0, 0, 0, 0, 0
|0, 0, 10, 18, 17, 16, 48, 39, 13, 0, 0, 32, 31, 36, 40, 0, 0, 24, 0, 41, 0, 0, 0, 0, 0, 0, 0, 0, 0, 0, 21, 45, 0, 0, 0, 47, 0, 0, 0, 0, 38, 0, 0, 0, 0, 0, 29, 37, 0
|0, 0, 0, 0, 0, 0, 23, 0, 0, 0, 0, 26, 0, 0, 0, 42, 0, 0, 0, 45, 31, 0, 0, 0, 0, 47, 0, 0, 0, 0, 0, 10, 0, 0, 0, 0, 12, 0, 15, 0, 0, 0, 0, 9, 0, 33, 25, 0, 0
|0, 0, 0, 0, 0, 0, 0, 0, 14, 0, 0, 0, 0, 0, 0, 0, 0, 0, 10, 0, 0, 0, 0, 0, 32, 0, 33, 0, 0, 0, 0, 0, 0, 40, 0, 0, 0, 0, 0, 0, 0, 7, 0, 5, 0, 0, 13, 0, 0
|41, 0, 49, 0, 14, 0, 0, 19, 0, 3, 2, 33, 0, 0, 22, 0, 0, 0, 0, 0, 0, 0, 9, 0, 0, 0, 0, 0, 0, 0, 28, 0, 0, 0, 18, 0, 20, 0, 0, 0, 0, 0, 0, 45, 12, 0, 0, 0, 0
|0, 33, 0, 0, 25, 37, 0, 0, 0, 42, 0, 0, 0, 10, 0, 0, 44, 0, 0, 0, 0, 0, 13, 24, 39, 0, 45, 0, 0, 0, 0, 0, 0, 3, 0, 0, 0, 0, 16, 0, 0, 0, 0, 0, 15, 8, 0, 36, 0
|20, 0, 0, 0, 0, 0, 0, 45, 0, 0, 0, 15, 0, 0, 0, 0, 0, 4, 47, 0, 37, 0, 0, 0, 30, 10, 0, 34, 0, 7, 41, 0, 0, 43, 0, 0, 0, 44, 0, 0, 0, 26, 0, 14, 0, 0, 0, 0, 0
|0, 0, 0, 39, 0, 0, 22, 0, 0, 0, 41, 0, 0, 0, 38, 0, 12, 0, 27, 44, 0, 49, 0, 0, 0, 31, 0, 0, 0, 0, 0, 29, 0, 1, 0, 0, 0, 0, 0, 0, 0, 30, 0, 47, 14, 18, 0, 0, 48
|0, 30, 0, 0, 0, 26, 0, 0, 0, 0, 40, 0, 0, 0, 0, 0, 0, 28, 0, 0, 0, 0, 0, 0, 0, 0, 0, 0, 17, 0, 0, 0, 0, 0, 0, 0, 0, 0, 0, 31, 0, 0, 35, 0, 0, 0, 0, 0, 0
|0, 0, 0, 23, 0, 28, 0, 0, 0, 11, 0, 0, 0, 0, 10, 0, 0, 0, 0, 0, 0, 0, 0, 0, 0, 0, 0, 0, 0, 0, 0, 0, 34, 0, 6, 19, 0, 0, 0, 0, 0, 42, 0, 0, 0, 0, 0, 0, 0
|8, 0, 0, 0, 0, 0, 0, 0, 0, 25, 37, 1, 0, 0, 3, 0, 40, 6, 26, 0, 0, 0, 0, 0, 0, 0, 0, 23, 0, 0, 0, 0, 0, 0, 0, 18, 0, 0, 21, 0, 0, 47, 9, 0, 41, 13, 0, 39, 0
|0, 0, 19, 44, 40, 0, 0, 0, 28, 0, 4, 20, 10, 0, 0, 25, 0, 0, 0, 0, 17, 0, 26, 41, 0, 0, 0, 0, 9, 0, 0, 0, 0, 0, 0, 0, 0, 35, 0, 0, 0, 0, 0, 0, 34, 0, 0, 0, 0
|0, 0, 0, 0, 0, 0, 11, 0, 0, 0, 0, 49, 0, 31, 0, 0, 14, 0, 0, 0, 0, 0, 0, 7, 42, 39, 0, 0, 0, 0, 40, 41, 0, 0, 5, 0, 0, 38, 0, 9, 0, 37, 0, 0, 0, 0, 0, 0, 46
|0, 0, 0, 0, 0, 0, 20, 0, 45, 0, 0, 7, 0, 44, 0, 11, 0, 0, 0, 29, 0, 0, 0, 0, 36, 28, 32, 0, 33, 0, 0, 0, 47, 0, 0, 0, 14, 0, 0, 2, 0, 0, 0, 0, 0, 0, 0, 25, 0
|17, 25, 0, 0, 0, 34, 3, 24, 29, 0, 6, 0, 0, 0, 0, 0, 4, 0, 0, 0, 16, 0, 0, 0, 0, 40, 19, 0, 0, 30, 0, 0, 7, 0, 0, 0, 0, 0, 27, 0, 26, 33, 23, 20, 0, 0, 0, 5, 0
|0, 0, 0, 10, 0, 46, 38, 0, 25, 0, 32, 35, 18, 0, 15, 0, 39, 19, 0, 0, 40, 0, 0, 0, 0, 0, 24, 2, 44, 23, 0, 0, 0, 0, 0, 6, 0, 0, 0, 0, 0, 0, 0, 0, 0, 41, 0, 0, 0
|0, 0, 0, 0, 0, 0, 0, 41, 0, 0, 0, 0, 0, 0, 0, 34, 0, 0, 0, 0, 0, 0, 0, 0, 3, 44, 0, 0, 0, 0, 0, 0, 12, 0, 0, 0, 0, 0, 0, 1, 0, 0, 0, 15, 0, 0, 11, 14, 27
|30, 0, 0, 0, 9, 0, 0, 0, 0, 49, 0, 0, 0, 46, 0, 0, 0, 0, 42, 0, 0, 20, 0, 34, 0, 0, 0, 0, 41, 0, 0, 16, 0, 2, 0, 0, 0, 0, 0, 0, 0, 0, 12, 0, 0, 0, 0, 0, 0
|0, 0, 0, 0, 0, 0, 0, 0, 0, 0, 0, 16, 0, 0, 0, 0, 5, 0, 0, 0, 49, 0, 17, 0, 0, 0, 46, 0, 14, 0, 0, 0, 15, 0, 8, 0, 32, 0, 0, 0, 0, 0, 0, 0, 0, 0, 26, 13, 0
|0, 0, 0, 0, 0, 35, 16, 7, 47, 0, 1, 2, 0, 0, 0, 0, 0, 30, 0, 38, 32, 13, 41, 0, 0, 0, 0, 0, 0, 5, 0, 0, 0, 34, 21, 0, 23, 0, 0, 15, 0, 0, 46, 17, 0, 0, 0, 42, 0
|0, 27, 0, 0, 0, 33, 0, 34, 0, 5, 0, 0, 0, 0, 0, 1, 0, 0, 0, 10, 0, 0, 0, 0, 0, 4, 0, 0, 0, 0, 6, 28, 0, 0, 46, 0, 0, 0, 0, 38, 0, 0, 0, 0, 2, 0, 0, 0, 0|];