order = 7;
grid = [|0, 0, 0, 2, 0, 0, 36, 37, 0, 0, 39, 0, 23, 0, 0, 0, 9, 0, 16, 0, 28, 0, 31, 33, 0, 0, 0, 8, 0, 0, 0, 0, 0, 35, 13, 0, 0, 30, 0, 0, 0, 0, 0, 0, 42, 15, 0, 0, 0
|0, 0, 0, 11, 0, 0, 0, 0, 0, 0, 0, 0, 0, 0, 35, 1, 0, 0, 0, 0, 8, 49, 21, 0, 41, 0, 0, 37, 0, 0, 0, 26, 0, 15, 24, 0, 0, 0, 0, 0, 0, 0, 0, 0, 0, 0, 0, 0, 7
|33, 17, 0, 5, 18, 0, 35, 15, 25, 16, 0, 13, 0, 0, 0, 0, 46, 0, 0, 0, 0, 28, 23, 0, 0, 0, 0, 0, 0, 0, 0, 0, 0, 49, 0, 0, 0, 0, 42, 41, 0, 0, 27, 2, 0, 44, 0, 0, 0
|12, 3, 28, 0, 0, 0, 32, 0, 26, 0, 0, 0, 0, 10, 0, 0, 0, 0, 0, 0, 23, 0, 5, 0, 0, 0, 0, 0, 6, 0, 0, 31, 0, 0, 0, 8, 0, 0, 0, 0, 0, 0, 0, 0, 43, 0, 0, 0, 47
|40, 0, 0, 0, 0, 29, 0, 28, 27, 42, 0, 0, 0, 11, 0, 14, 0, 0, 0, 0, 47, 0, 0, 45, 0, 0, 0, 0, 20, 0, 37, 0, 0, 19, 0, 31, 0, 0, 0, 0, 0, 0, 0, 0, 9, 0, 0, 0, 0
|0, 0, 0, 0, 0, 0, 39, 0, 0, 0, 0, 0, 0, 0, 0, 38, 17, 0, 29, 0, 0, 0, 0, 0, 0, 0, 0, 0, 0, 0, 0, 0, 0, 0, 27, 37, 0, 19, 0, 0, 40, 0, 0, 0, 0, 49, 0, 0, 0
|8, 0, 0, 0, 0, 0, 0, 40, 21, 29, 0, 32, 2, 38, 0, 0, 27, 0, 4, 0, 0, 0, 0, 0, 0, 0, 0, 44, 0, 0, 36, 0, 0, 0, 30, 0, 15, 0, 14, 20, 0, 0, 16, 17, 31, 0, 0, 28, 0
|24, 0, 5, 25, 0, 11, 0, 0, 0, 0, 0, 44, 0, 27, 0, 0, 40, 0, 0, 0, 18, 14, 0, 0, 13, 36, 0, 0, 0, 0, 0, 0, 10, 0, 0, 0, 0, 0, 0, 0, 0, 0, 0, 0, 0, 0, 49, 0, 0
|15, 35, 0, 27, 0, 0, 37, 0, 0, 17, 14, 7, 0, 0, 49, 0, 0, 33, 23, 0, 9, 0, 0, 0, 39, 47, 41, 0, 5, 0, 0, 36, 0, 28, 0, 24, 0, 0, 0, 11, 0, 0, 21, 38, 0, 25, 0, 8, 16
|0, 19, 0, 47, 0, 32, 0, 0, 10, 31, 0, 0, 0, 0, 0, 0, 24, 0, 20, 0, 0, 3, 0, 0, 0, 0, 35, 48, 0, 0, 11, 18, 0, 0, 0, 14, 23, 0, 0, 0, 0, 0, 5, 37, 0, 2, 0, 0, 0
|0, 0, 0, 0, 0, 17, 0, 0, 46, 0, 0, 4, 0, 12, 0, 0, 0, 0, 1, 15, 0, 26, 2, 49, 5, 42, 0, 0, 0, 27, 0, 16, 0, 7, 0, 0, 0, 0, 38, 10, 29, 37, 0, 0, 30, 0, 0, 0, 0
|0, 0, 38, 0, 0, 0, 0, 0, 0, 41, 0, 0, 0, 2, 0, 0, 0, 0, 0, 0, 0, 0, 0, 0, 0, 0, 0, 0, 39, 49, 25, 0, 0, 1, 32, 17, 0, 0, 0, 9, 0, 0, 0, 48, 0, 29, 0, 0, 0
|0, 0, 0, 0, 0, 0, 0, 0, 45, 8, 0, 47, 30, 0, 0, 27, 0, 0, 0, 0, 13, 0, 0, 0, 1, 0, 4, 31, 0, 0, 0, 0, 0, 0, 0, 0, 12, 49, 2, 44, 5, 0, 0, 42, 10, 0, 24, 0, 23
|0, 29, 26, 0, 0, 0, 10, 33, 0, 21, 0, 40, 0, 0, 0, 0, 0, 0, 0, 0, 0, 0, 0, 0, 9, 0, 0, 0, 0, 0, 0, 0, 44, 0, 0, 0, 0, 20, 0, 25, 0, 18, 13, 0, 36, 0, 0, 0, 28
|0, 0, 0, 17, 11, 0, 24, 0, 0, 0, 0, 0, 0, 0, 0, 0, 39, 0, 0, 0, 48, 0, 0, 22, 0, 0, 19, 0, 36, 0, 0, 0, 13, 0, 38, 0, 0, 33, 0, 0, 0, 0, 0, 16, 46, 0, 0, 0, 35
|22, 0, 27, 0, 0, 0, 0, 0, 0, 0, 0, 8, 12, 14, 2, 0, 0, 0, 0, 0, 0, 48, 0, 0, 0, 0, 0, 0, 0, 0, 0, 0, 0, 0, 11, 0, 34, 0, 0, 0, 0, 39, 0, 0, 0, 0, 47, 0, 19
|0, 0, 0, 0, 0, 19, 41, 0, 0, 0, 0, 15, 4, 0, 3, 0, 0, 0, 0, 30, 0, 38, 0, 13, 0, 0, 0, 6, 0, 0, 17, 0, 0, 0, 25, 0, 2, 0, 43, 37, 12, 0, 26, 14, 11, 39, 0, 0, 0
|13, 0, 0, 39, 43, 0, 0, 0, 0, 0, 0, 0, 0, 0, 0, 20, 0, 5, 0, 1, 0, 0, 0, 41, 0, 4, 0, 0, 0, 45, 42, 0, 0, 47, 0, 0, 0, 0, 0, 0, 0, 0, 28, 0, 38, 0, 0, 0, 0
|0, 0, 3, 33, 0, 1, 0, 0, 0, 44, 26, 0, 37, 0, 43, 23, 0, 0, 0, 0, 0, 0, 0, 28, 0, 0, 0, 0, 14, 20, 0, 21, 0, 0, 16, 0, 0, 0, 17, 0, 0, 0, 0, 0, 0, 0, 0, 0, 0
|0, 0, 9, 0, 37, 2, 0, 0, 0, 0, 0, 0, 0, 0, 0, 29, 0, 25, 31, 0, 0, 0, 0, 0, 8, 0, 0, 21, 0, 33, 0, 49, 0, 0, 0, 0, 41, 0, 0, 0, 0, 40, 0, 0, 0, 0, 0, 1, 0
|0, 0, 25, 0, 40, 0, 0, 0, 0, 0, 1, 0, 0, 20, 0, 44, 0, 0, 14, 27, 0, 0, 39, 0, 0, 0, 49, 0, 0, 0, 0, 0, 0, 0, 3, 0, 9, 35, 13, 0, 0, 7, 48, 0, 0, 0, 0, 17, 0
|0, 30, 0, 0, 0, 48, 47, 0, 11, 0, 0, 0, 33, 0, 38, 0, 0, 37, 0, 0, 40, 5, 0, 0, 49, 28, 0, 0, 0, 0, 0, 9, 0, 25, 0, 0, 44, 0, 36, 0, 15, 0, 43, 0, 0, 31, 0, 0, 10
|0, 0, 12, 0, 34, 0, 3, 20, 0, 0, 0, 41, 0, 0, 0, 0, 0, 0, 0, 0, 0, 44, 0, 0, 23, 0, 0, 0, 0, 0, 0, 0, 0, 0, 18, 0, 24, 38, 5, 0, 0, 0, 0, 49, 32, 28, 0, 14, 0
|0, 0, 0, 0, 0, 28, 0, 0, 0, 0, 0, 0, 49, 43, 0, 0, 22, 0, 0, 25, 0, 16, 12, 0, 0, 1, 29, 0, 0, 2, 48, 20, 0, 0, 0, 11, 0, 0, 6, 0, 0, 0, 0, 0, 0, 17, 0, 0, 0
|11, 33, 0, 10, 19, 0, 0, 7, 0, 0, 0, 0, 0, 0, 0, 5, 4, 0, 0, 0, 0, 42, 0, 34, 0, 0, 0, 0, 0, 0, 28, 0, 0, 0, 0, 0, 0, 23, 0, 0, 0, 0, 9, 0, 41, 18, 0, 35, 0
|9, 7, 46, 0, 0, 41, 0, 0, 0, 0, 0, 0, 0, 39, 0, 0, 0, 0, 12, 0, 42, 0, 0, 0, 37, 27, 0, 14, 0, 0, 0, 0, 0, 0, 5, 0, 29, 0, 25, 28, 0, 0, 0, 6, 0, 0, 0, 0, 3
|0, 0, 2, 0, 0, 0, 0, 0, 0, 0, 0, 6, 0, 0, 28, 0, 0, 0, 0, 0, 0, 0, 0, 0, 0, 0, 46, 4, 11, 0, 34, 0, 47, 36, 14, 0, 0, 0, 0, 13, 35, 0, 0, 0, 0, 0, 22, 0, 0
|0, 0, 0, 0, 14, 0, 29, 0, 0, 28, 0, 0, 31, 32, 0, 33, 35, 0, 44, 0, 0, 45, 0, 0, 0, 7, 0, 0, 4, 0, 0, 42, 0, 8, 0, 0, 0, 0, 0, 0, 0, 0, 0, 46, 2, 0, 16, 5, 0
|0, 0, 31, 0, 38, 0, 0, 0, 34, 0, 0, 18, 16, 0, 46, 0, 26, 0, 28, 0, 20, 0, 0, 0, 0, 0, 13, 0, 40, 39, 0, 44, 0, 0, 0, 0, 36, 0, 32, 43, 10, 0, 1, 0, 35, 0, 0, 0, 2
|0, 10, 24, 0, 0, 8, 30, 0, 13, 39, 0, 3, 0, 0, 0, 43, 0, 29, 0, 0, 0, 0, 0, 27, 0, 20, 9, 0, 0, 0, 0, 47, 0, 0, 1, 0, 37, 0, 0, 0, 2, 0, 0, 0, 0, 0, 23, 16, 0
|25, 0, 0, 0, 0, 0, 0, 0, 0, 0, 0, 0, 47, 0, 0, 3, 0, 13, 0, 0, 15, 0, 0, 38, 0, 0, 16, 0, 0, 10, 0, 0, 5, 2, 31, 0, 0, 17, 0, 0, 0, 0, 0, 0, 22, 0, 0, 0, 0
|0, 0, 0, 0, 21, 0, 0, 0, 0, 0, 0, 11, 0, 0, 17, 0, 0, 0, 0, 0, 10, 0, 0, 0, 45, 0, 0, 0, 0, 25, 0, 0, 0, 0, 0, 0, 0, 0, 0, 0, 30, 13, 0, 0, 20, 0, 0, 0, 0
|18, 0, 0, 0, 0, 0, 0, 0, 0, 0, 0, 0, 0, 0, 21, 0, 19, 0, 0, 0, 0, 0, 0, 0, 0, 0, 0, 39, 0, 0, 0, 0, 36, 0, 20, 23, 0, 0, 0, 0, 38, 31, 0, 0, 0, 48, 0, 0, 0
|0, 0, 0, 0, 9, 0, 0, 0, 23, 25, 40, 0, 0, 30, 0, 42, 0, 0, 0, 37, 1, 0, 22, 0, 0, 46, 0, 0, 0, 0, 0, 0, 0, 0, 17, 0, 0, 0, 20, 0, 0, 16, 0, 31, 29, 0, 15, 41, 13
|0, 48, 0, 19, 0, 0, 0, 0, 31, 0, 7, 0, 0, 0, 22, 0, 0, 0, 34, 9, 0, 0, 37, 0, 0, 0, 0, 0, 0, 35, 13, 45, 16, 0, 23, 0, 33, 0, 0, 21, 6, 0, 0, 11, 0, 0, 0, 0, 44
|0, 0, 1, 0, 0, 0, 0, 35, 0, 0, 0, 0, 0, 0, 0, 48, 0, 0, 0, 0, 0, 15, 4, 0, 0, 41, 0, 40, 0, 0, 24, 0, 45, 13, 12, 0, 0, 0, 0, 0, 0, 11, 0, 20, 49, 0, 34, 0, 0
|0, 0, 0, 0, 0, 10, 0, 0, 0, 0, 44, 17, 0, 0, 32, 0, 0, 22, 0, 0, 0, 7, 0, 0, 0, 49, 27, 0, 0, 0, 0, 0, 37, 39, 0, 0, 28, 26, 24, 29, 1, 0, 11, 0, 14, 0, 30, 0, 0
|0, 0, 18, 0, 24, 0, 0, 43, 7, 0, 37, 0, 0, 0, 0, 0, 25, 0, 0, 46, 0, 0, 0, 0, 0, 0, 0, 0, 0, 29, 0, 0, 0, 0, 0, 0, 0, 0, 0, 0, 0, 0, 0, 0, 15, 4, 0, 0, 0
|0, 0, 0, 0, 0, 0, 0, 10, 6, 0, 13, 24, 0, 0, 0, 0, 14, 0, 5, 0, 4, 0, 1, 0, 25, 0, 0, 30, 0, 0, 0, 46, 0, 0, 0, 0, 42, 16, 7, 0, 0, 47, 44, 40, 0, 0, 0, 0, 33
|0, 0, 39, 3, 0, 0, 25, 0, 14, 0, 48, 2, 26, 4, 0, 0, 0, 27, 0, 0, 29, 0, 42, 0, 0, 19, 0, 0, 0, 0, 0, 0, 0, 0, 0, 0, 18, 43, 0, 0, 0, 0, 0, 0, 0, 0, 0, 0, 37
|21, 0, 34, 0, 0, 0, 0, 41, 0, 20, 0, 0, 0, 0, 0, 0, 0, 0, 0, 0, 2, 29, 36, 0, 0, 0, 0, 0, 26, 0, 18, 0, 0, 0, 47, 0, 0, 0, 0, 0, 0, 0, 0, 0, 0, 0, 45, 42, 8
|0, 0, 11, 0, 0, 0, 0, 34, 0, 0, 0, 0, 0, 0, 0, 0, 0, 43, 41, 0, 0, 0, 0, 0, 0, 0, 0, 0, 0, 0, 23, 0, 0, 40, 0, 0, 32, 12, 0, 0, 0, 45, 29, 0, 0, 0, 17, 0, 36
|16, 0, 0, 0, 0, 0, 31, 0, 17, 15, 0, 0, 7, 45, 0, 39, 0, 48, 42, 0, 0, 0, 28, 0, 0, 24, 0, 0, 0, 0, 4, 23, 38, 0, 0, 0, 0, 0, 0, 0, 0, 25, 0, 0, 0, 0, 0, 43, 0
|4, 0, 0, 0, 35, 5, 9, 0, 0, 36, 0, 29, 19, 0, 23, 13, 0, 2, 0, 0, 0, 0, 45, 0, 46, 0, 37, 27, 0, 31, 0, 0, 0, 0, 7, 0, 0, 0, 0, 0, 0, 0, 0, 0, 0, 0, 0, 0, 0
|0, 25, 0, 48, 28, 34, 0, 47, 0, 43, 0, 0, 0, 8, 30, 10, 0, 0, 0, 0, 0, 0, 15, 0, 0, 0, 6, 1, 0, 0, 0, 39, 0, 37, 36, 29, 0, 0, 0, 0, 0, 0, 0, 0, 0, 41, 0, 11, 0
|0, 0, 32, 13, 3, 36, 0, 0, 22, 0, 0, 0, 39, 0, 0, 19, 0, 0, 0, 20, 0, 0, 0, 25, 0, 35, 0, 0, 0, 0, 0, 0, 0, 0, 28, 0, 0, 45, 0, 0, 0, 0, 4, 0, 7, 0, 0, 0, 0
|45, 0, 0, 0, 0, 0, 0, 0, 0, 10, 0, 0, 0, 0, 0, 7, 0, 0, 0, 0, 6, 39, 0, 0, 38, 34, 0, 43, 0, 0, 0, 0, 25, 0, 0, 0, 20, 15, 0, 46, 0, 0, 33, 0, 0, 0, 35, 19, 0
|0, 39, 0, 0, 0, 30, 0, 0, 0, 0, 12, 27, 13, 25, 33, 0, 0, 0, 38, 0, 44, 0, 0, 0, 0, 0, 48, 5, 0, 43, 0, 0, 0, 0, 0, 0, 0, 0, 31, 0, 0, 0, 0, 0, 28, 0, 0, 0, 0
|44, 0, 14, 0, 10, 0, 20, 38, 0, 32, 0, 0, 0, 35, 9, 0, 16, 0, 0, 0, 34, 0, 40, 0, 0, 0, 0, 0, 0, 0, 0, 0, 0, 0, 2, 43, 0, 0, 48, 23, 24, 0, 42, 0, 0, 36, 0, 0, 17|];