order = 7;
grid = [|0, 26, 0, 0, 0, 0, 0, 0, 17, 0, 0, 0, 10, 0, 20, 6, 0, 0, 0, 0, 0, 0, 0, 0, 42, 0, 0, 0, 4, 0, 30, 0, 0, 0, 40, 0, 0, 3, 48, 0, 49, 0, 36, 0, 0, 0, 46, 19, 0
|0, 0, 0, 0, 0, 6, 0, 0, 25, 0, 33, 0, 0, 0, 0, 29, 0, 0, 0, 0, 0, 0, 0, 0, 0, 0, 23, 43, 0, 0, 41, 0, 0, 0, 0, 15, 0, 0, 0, 0, 20, 0, 42, 48, 0, 30, 18, 47, 0
|0, 3, 0, 8, 0, 0, 0, 12, 0, 0, 0, 0, 0, 0, 0, 33, 45, 0, 0, 0, 0, 0, 0, 0, 0, 0, 0, 29, 17, 0, 0, 0, 0, 25, 0, 0, 0, 46, 0, 0, 0, 0, 32, 0, 0, 6, 0, 0, 0
|2, 0, 0, 28, 0, 0, 42, 0, 0, 44, 27, 11, 38, 0, 0, 0, 0, 48, 37, 0, 0, 0, 0, 0, 0, 6, 0, 0, 0, 0, 0, 14, 47, 0, 31, 0, 0, 0, 22, 0, 0, 18, 16, 0, 17, 0, 0, 1, 0
|18, 0, 0, 0, 0, 0, 17, 0, 0, 20, 0, 0, 0, 0, 13, 2, 0, 0, 0, 5, 0, 0, 0, 0, 0, 14, 48, 0, 15, 1, 0, 0, 0, 0, 0, 0, 0, 0, 0, 0, 0, 0, 0, 0, 0, 0, 22, 29, 41
|0, 41, 0, 0, 0, 0, 15, 0, 0, 0, 0, 0, 0, 0, 0, 0, 25, 0, 36, 0, 12, 33, 0, 0, 0, 0, 32, 22, 0, 6, 0, 0, 26, 3, 0, 0, 24, 0, 0, 0, 5, 0, 0, 14, 27, 7, 0, 0, 23
|0, 0, 7, 0, 0, 0, 0, 0, 0, 0, 22, 0, 0, 0, 32, 0, 43, 4, 0, 0, 0, 0, 12, 0, 0, 0, 0, 0, 13, 0, 0, 0, 0, 42, 0, 26, 2, 23, 0, 0, 0, 0, 0, 0, 0, 0, 0, 0, 0
|0, 35, 0, 31, 0, 0, 34, 0, 30, 0, 0, 0, 0, 0, 9, 20, 12, 11, 25, 36, 0, 0, 0, 0, 28, 0, 0, 0, 0, 5, 0, 0, 0, 0, 46, 0, 0, 0, 17, 0, 47, 0, 44, 0, 0, 1, 29, 0, 0
|26, 4, 9, 0, 0, 0, 0, 0, 0, 0, 0, 0, 0, 0, 0, 0, 0, 0, 0, 0, 0, 39, 0, 0, 0, 1, 0, 0, 44, 0, 0, 27, 0, 0, 0, 0, 18, 49, 32, 0, 0, 0, 46, 0, 0, 0, 0, 43, 14
|0, 0, 0, 0, 20, 0, 0, 2, 28, 0, 13, 0, 0, 0, 45, 0, 0, 0, 0, 3, 47, 43, 0, 0, 0, 23, 0, 41, 0, 48, 33, 39, 0, 0, 0, 0, 0, 0, 0, 0, 0, 36, 18, 0, 0, 25, 11, 32, 4
|0, 40, 15, 30, 0, 0, 0, 0, 0, 0, 0, 0, 0, 0, 0, 21, 16, 0, 0, 0, 0, 0, 46, 0, 0, 0, 11, 32, 0, 0, 17, 0, 0, 0, 0, 6, 0, 1, 38, 0, 0, 0, 0, 7, 23, 0, 41, 0, 0
|0, 0, 47, 0, 0, 0, 0, 3, 0, 0, 0, 8, 0, 0, 0, 0, 13, 0, 0, 31, 0, 19, 0, 0, 0, 0, 0, 0, 0, 0, 0, 0, 0, 0, 0, 12, 0, 0, 46, 0, 0, 9, 0, 30, 20, 16, 0, 0, 0
|0, 0, 0, 0, 0, 27, 0, 0, 0, 38, 0, 0, 0, 15, 0, 0, 0, 0, 0, 0, 0, 16, 0, 0, 0, 0, 13, 0, 0, 0, 0, 0, 0, 0, 0, 24, 0, 0, 19, 42, 0, 0, 47, 0, 0, 0, 0, 0, 17
|0, 42, 0, 18, 0, 0, 0, 0, 0, 0, 0, 0, 45, 0, 0, 0, 0, 28, 15, 0, 37, 17, 0, 0, 35, 0, 0, 0, 0, 25, 0, 0, 13, 0, 0, 16, 0, 0, 0, 0, 0, 0, 0, 10, 0, 48, 0, 0, 49
|0, 0, 0, 0, 32, 0, 0, 19, 0, 0, 0, 46, 0, 47, 0, 0, 0, 0, 0, 0, 0, 0, 0, 6, 3, 0, 27, 23, 0, 0, 0, 0, 0, 1, 42, 0, 0, 0, 0, 0, 0, 0, 21, 0, 5, 0, 0, 0, 0
|0, 45, 0, 0, 0, 0, 0, 0, 0, 0, 0, 0, 36, 3, 0, 0, 11, 0, 0, 0, 0, 0, 10, 0, 0, 16, 0, 0, 0, 26, 0, 0, 33, 0, 0, 0, 0, 9, 21, 0, 31, 0, 0, 22, 0, 0, 0, 0, 7
|0, 0, 0, 15, 0, 0, 0, 0, 21, 48, 4, 1, 9, 38, 24, 0, 0, 0, 0, 0, 0, 0, 0, 0, 0, 0, 0, 39, 3, 29, 14, 0, 0, 31, 0, 0, 0, 0, 36, 0, 0, 0, 0, 0, 0, 37, 49, 0, 0
|0, 21, 0, 5, 0, 34, 0, 0, 0, 42, 15, 0, 0, 0, 16, 0, 3, 0, 0, 0, 0, 0, 0, 0, 0, 0, 29, 0, 0, 0, 6, 0, 0, 0, 0, 0, 0, 0, 0, 0, 0, 0, 0, 0, 0, 0, 0, 0, 0
|0, 19, 0, 11, 0, 26, 0, 29, 10, 0, 0, 0, 0, 0, 0, 32, 27, 12, 0, 0, 0, 0, 4, 0, 33, 0, 0, 0, 0, 2, 0, 17, 16, 0, 47, 0, 0, 0, 0, 0, 7, 48, 0, 0, 0, 0, 0, 0, 0
|0, 0, 0, 0, 0, 0, 0, 27, 0, 31, 0, 0, 0, 0, 0, 36, 35, 0, 0, 0, 17, 0, 0, 0, 0, 8, 0, 0, 34, 0, 28, 0, 0, 0, 0, 0, 11, 0, 13, 10, 46, 0, 0, 0, 0, 0, 19, 0, 9
|7, 0, 48, 0, 31, 0, 0, 0, 11, 0, 0, 0, 0, 0, 19, 0, 0, 0, 0, 0, 0, 0, 0, 38, 0, 9, 0, 0, 0, 0, 37, 0, 0, 0, 0, 0, 0, 0, 4, 0, 0, 0, 0, 0, 43, 0, 0, 0, 33
|0, 0, 0, 0, 0, 25, 49, 0, 0, 0, 0, 0, 0, 0, 35, 0, 0, 8, 30, 19, 42, 0, 0, 0, 0, 0, 0, 0, 0, 0, 0, 45, 9, 0, 0, 0, 0, 0, 14, 0, 0, 0, 0, 0, 0, 0, 38, 0, 0
|48, 0, 0, 20, 28, 1, 30, 0, 0, 0, 0, 2, 0, 0, 27, 0, 0, 0, 10, 21, 0, 0, 8, 0, 17, 29, 37, 0, 5, 0, 38, 0, 0, 0, 0, 0, 0, 0, 0, 0, 0, 34, 13, 36, 0, 46, 0, 0, 0
|0, 0, 0, 0, 0, 0, 0, 0, 0, 0, 1, 0, 0, 0, 0, 39, 0, 45, 0, 7, 0, 0, 0, 0, 30, 0, 0, 0, 0, 43, 21, 0, 0, 0, 0, 0, 3, 0, 26, 0, 0, 0, 8, 0, 0, 0, 0, 0, 0
|0, 0, 21, 23, 35, 0, 0, 0, 0, 0, 0, 38, 0, 0, 49, 17, 0, 37, 4, 11, 0, 0, 0, 0, 12, 0, 0, 0, 0, 16, 0, 0, 34, 24, 0, 27, 0, 18, 0, 33, 0, 0, 0, 0, 0, 0, 0, 0, 0
|0, 0, 0, 0, 0, 0, 0, 0, 20, 0, 0, 0, 0, 0, 0, 0, 0, 0, 0, 0, 1, 0, 42, 0, 23, 0, 40, 0, 46, 0, 0, 0, 0, 22, 37, 8, 0, 0, 0, 0, 0, 0, 0, 17, 0, 0, 0, 0, 0
|0, 24, 0, 34, 0, 13, 26, 41, 7, 0, 31, 0, 0, 0, 33, 0, 0, 32, 0, 29, 0, 38, 0, 0, 27, 0, 0, 45, 0, 0, 0, 0, 0, 0, 2, 0, 0, 17, 0, 0, 4, 0, 0, 43, 0, 0, 0, 0, 0
|8, 0, 0, 45, 0, 0, 2, 4, 9, 46, 0, 0, 0, 0, 0, 38, 0, 0, 0, 0, 36, 0, 0, 11, 0, 0, 0, 0, 0, 47, 0, 0, 0, 0, 0, 0, 0, 39, 0, 0, 35, 0, 0, 12, 0, 0, 0, 10, 0
|0, 0, 0, 0, 0, 0, 6, 46, 2, 0, 0, 15, 0, 14, 0, 0, 41, 0, 0, 0, 29, 0, 44, 0, 0, 0, 0, 0, 0, 0, 0, 8, 38, 0, 0, 0, 0, 48, 20, 0, 0, 0, 0, 19, 0, 0, 0, 0, 0
|0, 0, 3, 0, 0, 0, 0, 40, 18, 0, 0, 0, 0, 12, 0, 0, 0, 0, 0, 0, 0, 0, 33, 47, 0, 45, 0, 0, 0, 0, 0, 5, 0, 0, 48, 0, 0, 0, 0, 0, 17, 44, 0, 0, 2, 0, 0, 0, 0
|20, 18, 0, 0, 38, 0, 45, 0, 0, 37, 21, 27, 0, 8, 48, 0, 42, 0, 0, 2, 46, 0, 6, 15, 0, 0, 0, 17, 40, 32, 0, 0, 0, 39, 16, 0, 12, 0, 0, 0, 0, 4, 34, 49, 36, 0, 0, 0, 1
|0, 34, 19, 0, 0, 43, 0, 44, 0, 0, 16, 0, 42, 0, 0, 0, 0, 0, 0, 0, 27, 0, 0, 0, 0, 0, 0, 0, 0, 0, 0, 0, 0, 0, 0, 46, 22, 32, 41, 0, 0, 5, 23, 0, 0, 28, 48, 0, 0
|0, 0, 0, 0, 7, 17, 0, 38, 0, 41, 0, 0, 23, 20, 0, 0, 0, 0, 0, 18, 0, 0, 0, 0, 0, 0, 0, 0, 0, 45, 44, 33, 0, 0, 15, 0, 0, 40, 0, 16, 0, 0, 26, 0, 37, 29, 32, 0, 0
|25, 0, 28, 0, 0, 31, 29, 0, 0, 0, 10, 0, 0, 33, 0, 0, 34, 0, 0, 0, 0, 46, 0, 0, 38, 22, 0, 35, 21, 0, 0, 4, 41, 0, 0, 0, 0, 0, 43, 39, 0, 2, 0, 0, 0, 0, 0, 0, 0
|23, 0, 2, 32, 0, 0, 0, 0, 0, 0, 0, 48, 0, 0, 14, 0, 0, 39, 0, 26, 6, 0, 0, 0, 4, 42, 0, 19, 0, 12, 11, 0, 1, 0, 0, 0, 31, 0, 3, 0, 10, 0, 0, 40, 0, 5, 0, 0, 8
|49, 7, 23, 0, 0, 0, 0, 14, 26, 15, 0, 0, 0, 36, 0, 42, 0, 17, 24, 0, 39, 0, 0, 0, 0, 0, 0, 0, 0, 0, 0, 0, 0, 0, 0, 2, 20, 47, 0, 0, 0, 0, 0, 0, 0, 35, 0, 0, 11
|0, 30, 18, 0, 0, 5, 39, 0, 0, 0, 3, 0, 0, 0, 0, 0, 7, 0, 0, 0, 0, 0, 0, 0, 0, 0, 9, 0, 23, 0, 0, 0, 19, 0, 0, 0, 0, 0, 0, 0, 0, 43, 0, 0, 0, 0, 37, 0, 0
|0, 0, 0, 10, 8, 4, 0, 0, 27, 0, 0, 0, 0, 0, 28, 0, 0, 40, 0, 16, 35, 0, 0, 0, 34, 0, 15, 0, 26, 0, 0, 0, 0, 0, 0, 0, 21, 37, 5, 0, 22, 32, 7, 0, 0, 0, 30, 0, 13
|0, 0, 11, 0, 34, 0, 14, 0, 0, 0, 0, 0, 0, 42, 21, 0, 0, 0, 0, 0, 0, 45, 0, 0, 20, 33, 43, 24, 47, 0, 25, 0, 37, 44, 0, 36, 0, 0, 0, 0, 0, 10, 0, 0, 0, 38, 23, 49, 0
|0, 0, 45, 35, 0, 0, 3, 0, 0, 0, 0, 0, 0, 0, 0, 0, 0, 0, 0, 12, 33, 49, 0, 40, 25, 0, 0, 0, 0, 0, 0, 0, 0, 10, 0, 29, 0, 0, 0, 0, 0, 0, 14, 0, 0, 0, 42, 0, 0
|0, 22, 0, 0, 47, 20, 0, 0, 0, 0, 25, 0, 0, 0, 36, 0, 0, 34, 0, 0, 0, 0, 41, 0, 0, 0, 0, 0, 0, 7, 0, 0, 0, 0, 0, 0, 0, 0, 28, 15, 0, 8, 0, 44, 0, 0, 3, 0, 0
|0, 0, 0, 43, 0, 0, 0, 5, 0, 0, 0, 0, 0, 0, 44, 27, 0, 0, 0, 15, 0, 0, 0, 7, 26, 0, 0, 0, 0, 0, 0, 0, 3, 0, 0, 0, 0, 19, 0, 30, 0, 0, 0, 29, 0, 10, 40, 0, 0
|0, 0, 0, 13, 19, 0, 18, 0, 0, 0, 0, 40, 0, 26, 0, 12, 0, 44, 0, 0, 22, 0, 0, 0, 0, 0, 0, 0, 0, 0, 32, 0, 48, 8, 0, 49, 0, 0, 0, 20, 0, 0, 0, 0, 1, 0, 0, 0, 0
|39, 23, 0, 0, 0, 15, 32, 0, 0, 0, 46, 0, 0, 0, 0, 0, 0, 0, 0, 0, 0, 0, 11, 0, 0, 0, 22, 0, 0, 0, 27, 0, 0, 0, 0, 0, 35, 0, 0, 0, 19, 1, 38, 42, 0, 33, 0, 30, 0
|0, 0, 0, 0, 0, 24, 0, 0, 3, 4, 38, 0, 0, 0, 0, 11, 46, 14, 35, 0, 0, 0, 0, 0, 0, 0, 8, 27, 0, 30, 0, 0, 0, 0, 0, 0, 41, 0, 16, 25, 0, 0, 5, 6, 40, 0, 43, 0, 0
|44, 38, 0, 0, 0, 0, 0, 0, 0, 0, 0, 0, 0, 19, 4, 0, 0, 0, 0, 1, 0, 0, 0, 32, 0, 0, 0, 0, 0, 0, 0, 0, 0, 0, 0, 0, 0, 0, 0, 36, 0, 0, 0, 0, 0, 31, 0, 0, 0
|0, 0, 0, 0, 0, 0, 5, 49, 32, 0, 9, 0, 0, 30, 0, 23, 0, 0, 0, 0, 8, 0, 0, 48, 0, 0, 0, 0, 0, 14, 35, 0, 0, 0, 0, 43, 17, 7, 0, 11, 0, 42, 0, 13, 34, 0, 10, 0, 0
|0, 0, 0, 0, 0, 0, 0, 13, 0, 39, 0, 0, 25, 6, 29, 0, 37, 19, 0, 0, 0, 0, 0, 0, 0, 47, 35, 0, 33, 0, 0, 0, 0, 0, 0, 0, 46, 12, 0, 0, 30, 22, 0, 4, 0, 9, 0, 0, 2
|0, 0, 0, 0, 0, 0, 0, 0, 29, 0, 0, 16, 0, 0, 0, 0, 33, 41, 0, 25, 0, 2, 13, 0, 0, 21, 0, 0, 0, 46, 0, 0, 5, 0, 0, 0, 0, 0, 8, 37, 0, 0, 49, 23, 0, 0, 0, 0, 19|];