order = 7;
grid = [|18, 0, 0, 20, 0, 0, 46, 13, 0, 0, 34, 0, 0, 0, 21, 42, 0, 0, 9, 0, 0, 39, 0, 0, 0, 4, 0, 0, 0, 7, 16, 0, 0, 0, 0, 0, 0, 41, 0, 0, 0, 0, 0, 38, 29, 6, 8, 0, 10
|21, 0, 0, 0, 29, 0, 0, 43, 15, 23, 0, 0, 0, 0, 20, 0, 0, 0, 0, 44, 0, 0, 0, 13, 0, 0, 0, 0, 0, 0, 0, 3, 30, 33, 0, 0, 0, 0, 9, 0, 0, 32, 0, 0, 0, 0, 0, 0, 0
|43, 0, 0, 0, 0, 0, 0, 29, 0, 0, 0, 0, 0, 0, 0, 37, 18, 16, 0, 0, 0, 0, 38, 0, 0, 0, 0, 0, 45, 0, 0, 24, 21, 0, 0, 0, 0, 10, 0, 0, 13, 0, 0, 0, 19, 27, 0, 0, 33
|0, 37, 0, 19, 15, 0, 1, 0, 0, 0, 0, 0, 0, 0, 46, 22, 0, 0, 43, 0, 13, 0, 0, 0, 0, 21, 0, 0, 0, 11, 10, 31, 36, 0, 0, 0, 0, 0, 20, 16, 7, 0, 39, 0, 0, 48, 0, 47, 0
|0, 0, 0, 0, 0, 0, 0, 0, 0, 42, 6, 0, 41, 0, 0, 0, 0, 4, 49, 48, 29, 0, 16, 17, 28, 0, 0, 3, 0, 0, 0, 46, 0, 0, 0, 21, 0, 0, 0, 24, 0, 15, 0, 0, 0, 0, 0, 0, 43
|0, 41, 0, 11, 24, 0, 42, 0, 0, 21, 26, 0, 33, 7, 0, 0, 0, 0, 30, 40, 0, 0, 0, 0, 0, 0, 0, 25, 32, 0, 17, 38, 0, 0, 0, 5, 0, 39, 0, 0, 3, 49, 0, 13, 0, 0, 0, 0, 0
|0, 7, 0, 23, 0, 9, 0, 0, 16, 0, 0, 0, 38, 0, 0, 0, 0, 26, 0, 0, 28, 0, 0, 0, 0, 0, 0, 0, 0, 0, 13, 0, 0, 37, 0, 0, 0, 0, 0, 45, 0, 18, 0, 0, 0, 5, 0, 0, 0
|2, 33, 0, 0, 0, 0, 41, 27, 0, 0, 1, 19, 0, 0, 0, 0, 0, 0, 21, 0, 0, 11, 0, 0, 0, 0, 18, 0, 26, 0, 47, 4, 24, 0, 0, 0, 0, 0, 0, 0, 12, 0, 0, 39, 0, 0, 0, 0, 0
|0, 0, 47, 38, 0, 0, 34, 0, 0, 0, 0, 0, 8, 0, 0, 0, 0, 0, 3, 0, 14, 15, 0, 39, 17, 0, 0, 0, 0, 12, 19, 0, 0, 18, 0, 0, 0, 0, 0, 0, 24, 5, 11, 33, 0, 0, 0, 41, 0
|3, 0, 0, 0, 0, 0, 0, 14, 24, 0, 0, 0, 0, 38, 33, 0, 0, 0, 29, 0, 18, 0, 26, 46, 0, 25, 0, 0, 16, 0, 41, 0, 0, 0, 0, 31, 0, 0, 0, 0, 0, 22, 0, 12, 0, 0, 0, 0, 0
|0, 0, 0, 0, 0, 0, 15, 40, 48, 0, 0, 41, 0, 0, 0, 0, 0, 0, 0, 12, 0, 47, 0, 20, 0, 23, 0, 19, 0, 0, 0, 21, 9, 0, 0, 0, 27, 0, 0, 0, 26, 0, 0, 0, 0, 0, 34, 0, 0
|0, 0, 0, 0, 0, 0, 28, 0, 0, 18, 0, 43, 0, 0, 5, 0, 23, 24, 0, 0, 0, 0, 0, 0, 12, 0, 0, 0, 0, 0, 1, 29, 0, 0, 17, 44, 0, 9, 0, 0, 21, 20, 0, 0, 0, 0, 0, 0, 0
|0, 0, 0, 24, 23, 0, 19, 0, 0, 0, 0, 37, 0, 2, 0, 0, 0, 0, 0, 0, 17, 0, 0, 0, 0, 0, 0, 0, 0, 0, 0, 0, 0, 0, 0, 0, 0, 0, 6, 0, 0, 0, 0, 0, 0, 0, 16, 0, 0
|12, 0, 0, 0, 0, 29, 0, 0, 22, 0, 44, 0, 0, 0, 0, 0, 0, 0, 7, 45, 0, 0, 0, 0, 0, 0, 1, 0, 0, 0, 0, 10, 0, 0, 0, 0, 0, 0, 0, 0, 0, 0, 0, 28, 0, 42, 0, 0, 0
|5, 24, 0, 25, 0, 13, 0, 0, 19, 0, 0, 26, 16, 4, 0, 0, 0, 0, 0, 0, 0, 0, 0, 0, 0, 0, 27, 0, 0, 0, 28, 0, 0, 0, 0, 0, 0, 0, 0, 0, 0, 0, 0, 44, 0, 33, 0, 9, 0
|0, 0, 27, 0, 2, 0, 29, 0, 0, 0, 0, 0, 0, 32, 1, 0, 0, 0, 26, 0, 0, 0, 0, 0, 0, 0, 0, 0, 0, 24, 0, 11, 0, 0, 0, 0, 0, 0, 0, 3, 0, 0, 0, 0, 0, 0, 0, 0, 0
|22, 0, 23, 0, 48, 0, 0, 37, 3, 27, 0, 6, 0, 0, 0, 0, 0, 0, 38, 31, 0, 12, 19, 0, 0, 0, 0, 47, 0, 21, 0, 0, 0, 0, 40, 0, 0, 0, 0, 0, 0, 0, 0, 16, 18, 0, 0, 7, 0
|0, 6, 0, 0, 46, 0, 0, 0, 0, 0, 22, 0, 30, 0, 37, 0, 0, 0, 27, 3, 0, 0, 0, 0, 0, 0, 2, 20, 9, 38, 0, 0, 13, 0, 12, 0, 0, 0, 24, 0, 0, 0, 17, 0, 1, 36, 21, 0, 0
|0, 0, 43, 40, 0, 0, 0, 0, 33, 13, 0, 42, 0, 0, 0, 21, 0, 0, 0, 29, 0, 44, 0, 0, 16, 0, 0, 0, 0, 23, 34, 26, 0, 22, 48, 0, 7, 45, 2, 20, 37, 0, 15, 6, 0, 0, 32, 46, 0
|0, 0, 0, 0, 16, 21, 0, 0, 0, 2, 29, 0, 36, 34, 0, 25, 0, 49, 28, 0, 0, 23, 0, 35, 11, 0, 38, 0, 0, 45, 0, 0, 0, 0, 0, 15, 5, 0, 0, 0, 0, 0, 24, 0, 12, 0, 19, 0, 0
|35, 45, 0, 0, 0, 0, 0, 0, 0, 0, 28, 0, 0, 0, 0, 16, 11, 6, 13, 30, 0, 0, 0, 0, 0, 0, 0, 0, 0, 49, 0, 0, 18, 0, 0, 1, 8, 23, 0, 0, 0, 0, 0, 41, 31, 0, 27, 0, 0
|36, 0, 0, 0, 21, 0, 0, 0, 0, 0, 0, 0, 0, 16, 0, 6, 0, 0, 19, 0, 0, 0, 0, 0, 47, 0, 4, 0, 0, 0, 0, 9, 0, 0, 0, 0, 0, 0, 0, 0, 0, 0, 20, 0, 0, 0, 0, 0, 0
|0, 0, 0, 46, 19, 0, 44, 26, 0, 0, 0, 0, 0, 0, 0, 18, 0, 36, 0, 0, 0, 43, 42, 0, 0, 0, 0, 0, 29, 20, 33, 0, 0, 0, 0, 0, 0, 30, 0, 11, 0, 24, 12, 4, 23, 0, 48, 0, 0
|0, 0, 0, 0, 0, 0, 35, 0, 31, 0, 19, 15, 0, 0, 0, 11, 0, 23, 0, 0, 0, 14, 0, 0, 0, 0, 34, 0, 0, 0, 0, 0, 0, 1, 26, 0, 44, 47, 0, 0, 0, 0, 0, 0, 3, 39, 0, 0, 2
|0, 5, 0, 22, 0, 0, 45, 38, 0, 0, 0, 0, 13, 0, 0, 40, 0, 29, 42, 0, 0, 0, 0, 23, 0, 0, 0, 0, 11, 0, 36, 34, 0, 0, 43, 0, 0, 26, 0, 0, 0, 0, 0, 0, 0, 37, 0, 0, 44
|0, 0, 0, 0, 6, 0, 20, 0, 0, 0, 0, 0, 18, 0, 0, 0, 0, 0, 0, 0, 0, 0, 35, 0, 13, 0, 0, 11, 23, 0, 12, 0, 0, 0, 25, 0, 0, 27, 0, 0, 36, 19, 32, 0, 0, 0, 0, 29, 0
|47, 0, 39, 0, 0, 0, 0, 0, 0, 0, 0, 23, 11, 36, 0, 13, 46, 0, 0, 41, 0, 20, 0, 0, 26, 10, 0, 0, 0, 3, 0, 0, 0, 28, 0, 0, 0, 0, 0, 5, 15, 7, 45, 43, 30, 0, 35, 0, 16
|0, 0, 0, 0, 0, 23, 0, 0, 20, 17, 21, 0, 0, 0, 0, 0, 0, 35, 0, 0, 0, 0, 0, 0, 0, 24, 15, 0, 13, 0, 0, 0, 4, 40, 27, 0, 14, 0, 0, 1, 0, 0, 18, 49, 0, 0, 0, 36, 34
|28, 0, 4, 0, 36, 0, 0, 45, 0, 0, 46, 9, 22, 0, 49, 47, 0, 0, 0, 5, 0, 13, 0, 0, 19, 33, 25, 0, 0, 39, 0, 0, 0, 0, 0, 0, 0, 20, 0, 18, 0, 0, 48, 0, 0, 0, 0, 34, 0
|0, 29, 0, 21, 8, 0, 33, 0, 0, 0, 0, 0, 12, 42, 0, 0, 0, 0, 16, 0, 0, 46, 7, 0, 20, 0, 0, 0, 28, 0, 24, 0, 0, 35, 0, 0, 0, 5, 0, 0, 0, 0, 0, 0, 0, 10, 0, 0, 0
|0, 0, 35, 0, 0, 0, 0, 0, 34, 15, 0, 0, 0, 0, 0, 0, 0, 0, 0, 0, 0, 0, 9, 0, 0, 0, 0, 0, 46, 0, 0, 0, 0, 0, 3, 0, 38, 0, 0, 29, 14, 36, 0, 0, 0, 0, 0, 16, 0
|0, 0, 11, 48, 0, 0, 0, 0, 8, 0, 0, 35, 37, 0, 0, 0, 0, 0, 0, 46, 0, 0, 12, 0, 18, 0, 21, 0, 0, 13, 30, 0, 0, 43, 0, 34, 0, 0, 0, 47, 9, 3, 40, 20, 0, 0, 0, 0, 49
|25, 0, 0, 0, 14, 0, 0, 0, 0, 0, 0, 0, 0, 0, 0, 0, 20, 0, 0, 0, 0, 0, 0, 0, 0, 0, 0, 22, 0, 0, 29, 0, 0, 0, 0, 0, 2, 0, 41, 42, 46, 0, 37, 32, 0, 0, 13, 0, 0
|0, 0, 0, 0, 34, 0, 49, 25, 0, 0, 0, 18, 0, 0, 0, 48, 7, 0, 0, 0, 0, 0, 0, 0, 0, 0, 29, 28, 0, 0, 0, 27, 26, 0, 0, 13, 0, 8, 11, 0, 0, 0, 0, 36, 35, 0, 0, 33, 0
|0, 0, 24, 0, 0, 0, 0, 4, 0, 0, 0, 0, 2, 0, 0, 0, 0, 0, 37, 0, 0, 35, 0, 0, 0, 0, 0, 0, 0, 0, 0, 0, 0, 0, 0, 6, 0, 0, 49, 0, 23, 0, 19, 0, 0, 0, 0, 0, 27
|0, 0, 46, 0, 35, 0, 0, 0, 30, 0, 0, 29, 43, 0, 0, 31, 0, 0, 0, 42, 6, 17, 33, 0, 0, 0, 40, 0, 0, 0, 3, 0, 22, 49, 0, 24, 0, 18, 0, 0, 0, 0, 0, 0, 0, 0, 0, 0, 0
|0, 0, 0, 0, 0, 7, 4, 0, 12, 14, 0, 0, 39, 0, 0, 24, 0, 0, 0, 0, 0, 34, 10, 0, 0, 0, 43, 0, 0, 0, 0, 0, 0, 0, 0, 17, 0, 0, 0, 0, 0, 8, 0, 0, 0, 0, 0, 45, 19
|0, 0, 0, 0, 0, 28, 0, 0, 40, 35, 0, 36, 48, 23, 12, 0, 0, 0, 34, 0, 0, 0, 0, 4, 0, 39, 0, 0, 14, 0, 0, 0, 17, 0, 13, 0, 16, 0, 0, 38, 0, 0, 21, 0, 0, 0, 0, 20, 0
|0, 12, 0, 47, 0, 0, 0, 0, 44, 33, 0, 0, 0, 0, 0, 0, 0, 0, 0, 0, 2, 0, 20, 5, 0, 0, 0, 35, 0, 0, 0, 0, 0, 21, 32, 43, 0, 0, 0, 0, 0, 0, 0, 0, 0, 0, 1, 0, 0
|0, 0, 0, 15, 31, 44, 16, 5, 0, 0, 0, 0, 0, 45, 14, 0, 26, 40, 25, 0, 0, 0, 30, 0, 0, 0, 47, 38, 0, 0, 0, 0, 0, 0, 36, 0, 0, 46, 0, 12, 49, 0, 0, 0, 0, 0, 18, 0, 17
|42, 0, 0, 0, 0, 39, 21, 0, 37, 49, 0, 0, 4, 0, 0, 0, 28, 0, 18, 0, 0, 0, 0, 7, 0, 0, 16, 0, 12, 47, 0, 41, 0, 24, 46, 0, 35, 0, 0, 0, 0, 0, 14, 0, 36, 0, 0, 11, 0
|14, 0, 0, 17, 0, 0, 18, 3, 0, 0, 0, 0, 0, 0, 19, 0, 0, 0, 22, 0, 0, 48, 25, 1, 0, 0, 44, 0, 35, 0, 0, 45, 0, 2, 0, 0, 28, 0, 0, 0, 0, 0, 0, 15, 41, 0, 0, 0, 0
|0, 0, 0, 0, 0, 0, 38, 0, 0, 0, 0, 0, 0, 0, 3, 0, 44, 0, 0, 0, 12, 19, 0, 0, 0, 0, 0, 36, 0, 0, 0, 28, 0, 0, 11, 29, 1, 35, 0, 0, 0, 0, 0, 0, 14, 9, 0, 0, 0
|0, 0, 0, 18, 0, 0, 23, 35, 42, 22, 0, 0, 0, 0, 16, 26, 0, 19, 33, 0, 0, 0, 47, 44, 0, 0, 13, 0, 34, 0, 0, 12, 0, 4, 0, 30, 0, 0, 25, 0, 0, 0, 0, 7, 0, 29, 0, 0, 0
|0, 32, 45, 2, 20, 37, 0, 0, 18, 0, 3, 0, 0, 33, 0, 0, 0, 41, 0, 0, 9, 21, 0, 0, 42, 0, 31, 0, 25, 0, 0, 0, 0, 0, 0, 0, 0, 12, 0, 0, 0, 0, 0, 0, 0, 0, 0, 0, 0
|0, 0, 0, 0, 10, 0, 25, 0, 0, 0, 0, 0, 0, 6, 0, 0, 0, 18, 0, 13, 0, 22, 0, 0, 0, 0, 17, 0, 0, 0, 0, 0, 0, 0, 0, 3, 45, 0, 0, 0, 0, 0, 16, 0, 0, 0, 0, 0, 0
|0, 0, 33, 0, 0, 0, 0, 44, 26, 36, 0, 0, 0, 1, 0, 0, 0, 0, 0, 0, 0, 0, 0, 0, 0, 0, 0, 0, 0, 0, 20, 0, 0, 3, 42, 0, 0, 0, 0, 0, 0, 0, 38, 0, 0, 0, 31, 12, 0
|0, 0, 0, 0, 0, 48, 39, 49, 23, 0, 0, 0, 0, 0, 0, 0, 0, 22, 0, 8, 0, 29, 5, 0, 35, 0, 0, 0, 0, 0, 26, 0, 0, 0, 0, 0, 18, 24, 0, 9, 0, 0, 0, 11, 0, 4, 0, 3, 0
|30, 15, 6, 44, 42, 0, 3, 0, 0, 0, 0, 0, 0, 10, 0, 0, 0, 0, 0, 0, 27, 0, 0, 0, 0, 11, 0, 18, 0, 0, 0, 43, 0, 0, 16, 19, 0, 0, 0, 0, 0, 0, 0, 17, 46, 0, 0, 37, 22|];