order = 7;
grid = [|0, 0, 0, 0, 0, 48, 0, 17, 33, 0, 0, 28, 0, 20, 0, 0, 0, 0, 0, 36, 11, 0, 38, 0, 30, 0, 0, 0, 0, 24, 0, 0, 0, 0, 31, 0, 0, 0, 0, 22, 0, 40, 8, 0, 42, 0, 0, 0, 0
|6, 0, 0, 0, 0, 29, 11, 0, 0, 0, 46, 42, 0, 39, 0, 0, 13, 0, 0, 14, 0, 0, 0, 0, 0, 0, 0, 0, 32, 0, 0, 0, 0, 0, 9, 0, 0, 30, 38, 5, 0, 15, 41, 0, 0, 22, 4, 0, 7
|0, 0, 19, 0, 0, 0, 0, 0, 0, 0, 49, 0, 0, 0, 22, 15, 0, 0, 0, 0, 0, 0, 37, 0, 0, 0, 0, 4, 0, 0, 25, 0, 38, 6, 0, 0, 0, 0, 0, 0, 0, 0, 1, 0, 47, 20, 0, 0, 0
|0, 0, 0, 4, 32, 40, 2, 0, 0, 7, 23, 24, 0, 29, 16, 0, 0, 0, 0, 0, 19, 0, 42, 0, 34, 0, 8, 0, 0, 0, 10, 0, 26, 0, 49, 0, 0, 20, 39, 33, 46, 0, 38, 0, 0, 5, 0, 25, 35
|0, 0, 0, 0, 0, 7, 0, 0, 34, 38, 6, 0, 26, 45, 0, 0, 46, 29, 23, 0, 3, 35, 0, 0, 0, 11, 0, 0, 0, 0, 0, 0, 41, 0, 0, 0, 0, 0, 0, 0, 0, 0, 0, 0, 0, 0, 33, 0, 0
|42, 0, 0, 1, 0, 25, 0, 0, 0, 0, 0, 0, 0, 0, 0, 0, 0, 20, 0, 24, 0, 19, 0, 0, 0, 14, 26, 0, 11, 0, 0, 0, 28, 0, 0, 0, 0, 0, 0, 0, 0, 0, 0, 10, 0, 44, 39, 0, 0
|15, 0, 9, 0, 0, 0, 38, 0, 0, 0, 0, 35, 0, 0, 10, 0, 0, 37, 42, 44, 0, 0, 25, 0, 20, 45, 6, 5, 0, 0, 0, 34, 0, 0, 0, 0, 0, 0, 47, 29, 0, 0, 2, 0, 0, 0, 0, 0, 0
|0, 0, 18, 3, 0, 0, 0, 0, 0, 0, 0, 0, 0, 0, 0, 0, 0, 0, 0, 47, 0, 0, 0, 13, 15, 0, 0, 0, 0, 0, 0, 0, 0, 33, 0, 48, 0, 0, 0, 0, 0, 35, 43, 0, 0, 0, 0, 0, 41
|11, 0, 0, 0, 0, 0, 0, 0, 16, 22, 48, 46, 0, 0, 0, 0, 0, 6, 0, 5, 0, 12, 0, 0, 8, 24, 0, 0, 0, 34, 0, 0, 0, 0, 0, 0, 2, 7, 0, 0, 0, 3, 0, 0, 0, 1, 0, 42, 25
|40, 17, 0, 0, 0, 0, 22, 0, 0, 0, 29, 0, 0, 0, 18, 43, 0, 0, 0, 0, 0, 0, 0, 9, 38, 0, 0, 49, 6, 0, 0, 44, 0, 0, 13, 46, 25, 23, 0, 0, 0, 0, 0, 0, 11, 4, 0, 0, 0
|0, 0, 0, 26, 0, 47, 0, 33, 0, 0, 0, 0, 0, 0, 0, 27, 0, 19, 22, 0, 0, 0, 7, 0, 0, 0, 0, 0, 0, 29, 0, 0, 1, 0, 0, 0, 0, 0, 0, 0, 0, 0, 0, 0, 0, 0, 0, 35, 49
|0, 0, 0, 0, 0, 0, 15, 35, 0, 0, 0, 0, 49, 34, 0, 0, 0, 0, 0, 0, 0, 27, 28, 0, 0, 0, 45, 1, 0, 0, 0, 47, 0, 0, 20, 0, 41, 10, 0, 0, 0, 0, 0, 0, 0, 0, 0, 39, 0
|0, 0, 0, 0, 30, 0, 0, 0, 0, 0, 7, 0, 0, 11, 0, 0, 40, 36, 0, 17, 0, 0, 0, 33, 0, 0, 0, 10, 0, 0, 0, 9, 0, 0, 0, 0, 15, 45, 20, 0, 0, 0, 0, 0, 37, 24, 0, 29, 28
|0, 4, 10, 0, 0, 0, 43, 31, 23, 19, 0, 3, 20, 0, 0, 0, 0, 0, 0, 0, 0, 0, 21, 0, 36, 0, 0, 0, 0, 0, 48, 0, 0, 11, 28, 0, 0, 24, 0, 0, 0, 0, 0, 0, 17, 0, 8, 0, 0
|18, 12, 0, 0, 11, 0, 0, 0, 0, 0, 0, 43, 0, 0, 0, 45, 14, 0, 0, 0, 0, 0, 0, 0, 37, 38, 0, 0, 28, 0, 0, 0, 0, 4, 23, 0, 0, 0, 0, 0, 0, 0, 0, 0, 0, 31, 0, 0, 0
|0, 0, 0, 0, 0, 0, 0, 0, 0, 0, 0, 0, 0, 26, 29, 33, 0, 0, 0, 0, 0, 0, 0, 22, 0, 0, 0, 0, 39, 47, 0, 0, 0, 0, 44, 0, 0, 0, 4, 0, 0, 0, 0, 8, 0, 0, 9, 23, 0
|0, 0, 0, 0, 45, 0, 21, 0, 3, 9, 0, 0, 0, 8, 0, 12, 0, 0, 0, 0, 0, 0, 0, 0, 0, 16, 0, 24, 0, 0, 0, 49, 25, 29, 0, 0, 0, 0, 0, 47, 0, 0, 0, 0, 0, 0, 0, 0, 0
|0, 8, 0, 0, 35, 39, 0, 34, 0, 11, 0, 0, 0, 0, 0, 0, 22, 0, 0, 0, 0, 0, 0, 0, 0, 0, 23, 0, 38, 0, 0, 0, 0, 0, 0, 0, 46, 0, 0, 0, 0, 26, 0, 47, 0, 0, 0, 0, 5
|0, 0, 24, 0, 0, 0, 23, 0, 0, 0, 0, 0, 0, 0, 0, 0, 0, 30, 0, 0, 38, 29, 0, 3, 10, 0, 0, 0, 5, 0, 0, 33, 0, 0, 0, 0, 0, 0, 0, 9, 0, 0, 0, 6, 32, 0, 0, 0, 0
|0, 0, 0, 0, 0, 0, 0, 0, 38, 42, 0, 0, 0, 0, 0, 49, 0, 39, 44, 0, 0, 40, 0, 1, 0, 46, 0, 25, 0, 0, 0, 0, 17, 0, 0, 23, 24, 0, 0, 0, 0, 28, 0, 19, 0, 0, 0, 11, 0
|43, 0, 0, 19, 0, 0, 0, 0, 0, 0, 0, 0, 0, 10, 24, 4, 0, 1, 18, 15, 0, 0, 0, 0, 28, 0, 0, 0, 0, 0, 0, 0, 0, 0, 14, 7, 33, 0, 36, 0, 0, 0, 0, 26, 0, 0, 0, 0, 0
|0, 0, 0, 42, 0, 0, 14, 0, 0, 0, 0, 0, 0, 0, 0, 0, 0, 0, 0, 0, 0, 0, 0, 0, 24, 49, 35, 26, 9, 0, 0, 0, 29, 44, 0, 0, 0, 0, 0, 0, 0, 8, 0, 46, 0, 0, 0, 33, 0
|0, 35, 23, 0, 5, 0, 0, 0, 0, 0, 0, 0, 0, 37, 0, 0, 0, 0, 0, 0, 0, 10, 0, 0, 0, 0, 16, 17, 19, 30, 0, 7, 0, 0, 0, 0, 0, 3, 0, 28, 18, 11, 0, 0, 15, 0, 0, 41, 6
|0, 0, 0, 0, 8, 0, 0, 0, 0, 0, 0, 0, 24, 0, 9, 28, 0, 0, 0, 0, 49, 0, 0, 0, 0, 19, 0, 0, 0, 0, 38, 42, 11, 0, 1, 0, 5, 0, 30, 0, 17, 16, 0, 0, 29, 0, 0, 0, 40
|0, 0, 21, 30, 0, 0, 16, 0, 0, 0, 38, 22, 0, 0, 0, 0, 0, 0, 0, 0, 0, 0, 0, 0, 0, 23, 0, 0, 0, 0, 0, 0, 0, 0, 0, 42, 0, 0, 0, 0, 0, 0, 0, 9, 0, 0, 0, 12, 0
|49, 0, 36, 0, 0, 0, 0, 0, 0, 0, 0, 0, 0, 0, 42, 0, 47, 18, 0, 0, 0, 0, 0, 0, 0, 0, 20, 0, 0, 0, 13, 8, 0, 22, 0, 0, 0, 0, 0, 14, 0, 19, 0, 0, 0, 0, 0, 0, 0
|0, 0, 12, 0, 0, 18, 0, 41, 0, 0, 0, 0, 0, 0, 0, 0, 0, 0, 0, 30, 23, 0, 0, 4, 0, 0, 0, 14, 16, 0, 0, 0, 0, 0, 6, 0, 0, 0, 0, 0, 38, 0, 0, 0, 21, 36, 1, 0, 0
|0, 0, 0, 32, 37, 0, 17, 0, 0, 10, 0, 34, 0, 47, 38, 0, 33, 0, 12, 0, 41, 0, 0, 0, 44, 0, 0, 42, 0, 40, 0, 35, 0, 0, 36, 0, 0, 2, 0, 24, 23, 31, 0, 0, 0, 7, 22, 0, 0
|32, 0, 0, 7, 47, 17, 40, 0, 0, 28, 39, 36, 2, 21, 0, 0, 44, 0, 0, 16, 0, 0, 12, 0, 18, 0, 49, 0, 0, 0, 0, 0, 0, 0, 0, 25, 23, 0, 0, 0, 0, 0, 0, 0, 0, 0, 0, 0, 0
|0, 0, 49, 0, 0, 0, 0, 6, 0, 0, 0, 18, 0, 15, 1, 29, 0, 45, 0, 0, 0, 17, 0, 0, 43, 8, 19, 0, 0, 0, 0, 0, 0, 0, 24, 0, 0, 0, 0, 31, 34, 0, 0, 0, 25, 0, 37, 0, 0
|48, 22, 0, 0, 0, 14, 0, 0, 1, 0, 4, 0, 0, 0, 0, 32, 0, 0, 0, 13, 36, 0, 0, 31, 0, 0, 46, 0, 0, 0, 0, 5, 9, 0, 0, 0, 49, 0, 0, 16, 0, 0, 0, 23, 0, 0, 40, 0, 0
|0, 0, 41, 0, 0, 31, 0, 8, 37, 0, 0, 0, 42, 0, 0, 14, 0, 0, 49, 28, 0, 0, 0, 0, 0, 0, 0, 0, 0, 0, 0, 0, 0, 0, 0, 0, 0, 5, 0, 0, 0, 24, 0, 0, 12, 33, 0, 0, 0
|0, 0, 0, 39, 0, 0, 0, 0, 24, 0, 0, 0, 0, 0, 0, 0, 23, 0, 0, 12, 0, 36, 0, 5, 0, 0, 7, 0, 0, 0, 0, 37, 0, 0, 0, 0, 0, 0, 40, 0, 0, 0, 28, 2, 0, 0, 0, 4, 43
|24, 10, 0, 0, 0, 15, 0, 0, 27, 0, 0, 0, 46, 0, 0, 0, 0, 0, 0, 0, 0, 0, 6, 0, 0, 28, 0, 0, 0, 0, 0, 19, 0, 0, 21, 0, 0, 0, 45, 0, 0, 0, 36, 0, 0, 0, 0, 0, 32
|0, 23, 0, 21, 43, 0, 6, 9, 26, 0, 0, 0, 0, 0, 0, 17, 0, 0, 0, 0, 20, 0, 0, 0, 0, 0, 1, 0, 0, 0, 0, 11, 0, 0, 0, 10, 0, 0, 41, 0, 0, 0, 0, 35, 0, 0, 5, 0, 47
|14, 6, 39, 0, 42, 0, 0, 0, 0, 49, 0, 0, 30, 0, 0, 22, 0, 0, 0, 38, 0, 45, 0, 0, 0, 26, 44, 0, 35, 0, 0, 31, 0, 0, 0, 34, 0, 41, 0, 0, 0, 0, 19, 0, 0, 0, 0, 0, 1
|23, 0, 0, 9, 0, 8, 10, 0, 0, 0, 0, 0, 0, 0, 34, 47, 30, 28, 0, 0, 0, 14, 0, 49, 0, 29, 36, 33, 0, 0, 26, 0, 0, 0, 0, 0, 48, 0, 21, 0, 5, 0, 0, 0, 35, 0, 0, 27, 12
|47, 0, 0, 0, 0, 0, 0, 0, 0, 0, 0, 0, 0, 22, 0, 0, 0, 0, 0, 0, 0, 0, 0, 0, 39, 0, 0, 40, 48, 0, 17, 0, 0, 0, 0, 0, 0, 9, 19, 0, 0, 0, 16, 24, 43, 25, 0, 5, 0
|0, 0, 30, 0, 19, 0, 0, 4, 29, 0, 0, 0, 0, 0, 26, 0, 8, 0, 0, 23, 0, 0, 0, 0, 0, 0, 48, 0, 0, 46, 0, 0, 0, 37, 0, 40, 0, 22, 0, 0, 42, 45, 0, 0, 0, 0, 0, 0, 0
|22, 0, 32, 0, 0, 44, 12, 0, 35, 0, 43, 0, 0, 0, 0, 0, 0, 0, 0, 0, 6, 20, 0, 0, 0, 0, 0, 0, 0, 0, 0, 0, 0, 34, 39, 18, 10, 0, 0, 26, 14, 0, 0, 0, 0, 0, 0, 0, 9
|0, 0, 28, 0, 0, 0, 0, 0, 0, 39, 0, 0, 0, 0, 41, 0, 0, 0, 17, 25, 0, 18, 34, 0, 0, 0, 0, 0, 0, 0, 0, 14, 5, 0, 10, 0, 0, 6, 0, 0, 3, 0, 0, 33, 0, 0, 0, 0, 0
|26, 0, 0, 2, 0, 1, 0, 0, 44, 0, 0, 0, 34, 24, 0, 36, 0, 0, 37, 18, 39, 0, 43, 10, 0, 0, 0, 6, 0, 0, 0, 28, 7, 0, 8, 0, 0, 0, 0, 0, 25, 0, 0, 3, 0, 0, 17, 14, 38
|39, 0, 0, 0, 0, 0, 0, 0, 0, 0, 0, 47, 0, 0, 0, 2, 6, 0, 0, 0, 0, 0, 0, 0, 0, 4, 29, 30, 31, 14, 49, 41, 0, 0, 0, 28, 16, 0, 0, 0, 35, 0, 0, 0, 0, 0, 0, 0, 0
|0, 0, 0, 0, 28, 27, 7, 24, 4, 0, 44, 0, 0, 31, 0, 0, 10, 0, 0, 0, 0, 47, 0, 0, 0, 0, 34, 18, 12, 0, 9, 0, 42, 0, 0, 0, 0, 0, 0, 0, 0, 0, 46, 0, 0, 35, 2, 0, 0
|0, 0, 0, 0, 14, 0, 29, 42, 0, 0, 34, 0, 6, 0, 0, 0, 0, 0, 0, 0, 0, 0, 0, 17, 0, 5, 0, 0, 26, 0, 23, 0, 35, 0, 0, 0, 19, 0, 31, 0, 0, 10, 49, 0, 0, 0, 0, 0, 0
|0, 0, 0, 0, 26, 0, 0, 18, 0, 0, 0, 0, 0, 0, 0, 0, 0, 27, 0, 0, 0, 0, 24, 40, 0, 0, 0, 2, 3, 5, 0, 36, 0, 16, 0, 0, 47, 0, 6, 0, 0, 43, 0, 0, 39, 9, 0, 0, 0
|0, 21, 0, 0, 46, 0, 0, 0, 0, 0, 0, 0, 0, 33, 30, 44, 0, 0, 41, 0, 0, 0, 22, 12, 0, 0, 38, 0, 0, 0, 0, 0, 0, 0, 0, 0, 0, 0, 0, 25, 24, 0, 0, 0, 0, 0, 0, 17, 0
|0, 0, 0, 0, 0, 0, 0, 0, 0, 0, 32, 12, 17, 0, 0, 34, 0, 0, 16, 0, 13, 3, 0, 0, 0, 6, 9, 0, 45, 37, 46, 0, 0, 0, 0, 0, 0, 0, 27, 20, 39, 18, 40, 11, 0, 26, 0, 0, 0
|0, 0, 0, 0, 0, 12, 0, 5, 0, 0, 11, 0, 0, 0, 14, 0, 35, 0, 43, 0, 0, 0, 0, 0, 0, 0, 0, 0, 24, 0, 33, 0, 39, 0, 0, 41, 0, 0, 0, 0, 0, 0, 32, 0, 0, 13, 0, 0, 0|];