order = 7;
grid = [|48, 37, 0, 0, 8, 15, 0, 0, 0, 0, 0, 0, 33, 0, 0, 12, 0, 0, 23, 0, 0, 36, 0, 0, 0, 0, 0, 0, 0, 0, 45, 0, 0, 0, 0, 0, 30, 0, 22, 27, 0, 0, 0, 0, 0, 16, 0, 0, 0
|39, 0, 0, 6, 0, 0, 32, 0, 27, 0, 18, 0, 0, 0, 25, 0, 21, 0, 0, 0, 22, 0, 0, 0, 0, 10, 0, 0, 0, 0, 0, 0, 30, 35, 0, 0, 0, 0, 0, 0, 0, 0, 0, 0, 33, 0, 13, 41, 0
|0, 0, 0, 0, 38, 0, 0, 10, 6, 20, 28, 0, 34, 0, 0, 41, 0, 0, 40, 0, 0, 0, 29, 0, 5, 0, 0, 0, 0, 0, 0, 0, 8, 0, 19, 46, 0, 0, 47, 9, 26, 44, 0, 4, 0, 17, 32, 0, 0
|41, 0, 9, 0, 0, 0, 0, 0, 0, 0, 26, 24, 36, 0, 45, 0, 0, 16, 0, 0, 19, 0, 15, 4, 0, 0, 0, 0, 0, 0, 0, 0, 37, 0, 0, 0, 0, 49, 23, 0, 0, 43, 0, 0, 0, 0, 25, 0, 0
|0, 46, 0, 0, 28, 0, 0, 0, 0, 0, 38, 0, 0, 0, 0, 8, 0, 0, 9, 0, 0, 0, 2, 0, 26, 0, 0, 0, 0, 16, 0, 0, 31, 0, 0, 0, 24, 35, 12, 0, 0, 14, 0, 39, 19, 0, 20, 0, 0
|26, 22, 0, 0, 31, 0, 0, 0, 23, 0, 15, 29, 12, 37, 48, 14, 0, 0, 0, 0, 0, 38, 33, 0, 0, 45, 0, 0, 17, 0, 0, 0, 0, 0, 41, 0, 0, 0, 28, 0, 0, 32, 0, 46, 0, 0, 0, 27, 42
|0, 0, 0, 0, 0, 0, 0, 0, 30, 0, 40, 0, 0, 0, 37, 15, 0, 0, 0, 0, 0, 0, 0, 0, 0, 0, 28, 0, 0, 0, 0, 0, 0, 0, 0, 0, 0, 0, 33, 13, 16, 25, 0, 0, 0, 0, 0, 8, 45
|10, 0, 0, 0, 13, 0, 0, 0, 0, 0, 0, 0, 0, 35, 36, 0, 0, 0, 0, 0, 0, 0, 0, 0, 16, 0, 37, 0, 0, 12, 0, 0, 0, 0, 7, 0, 0, 42, 15, 0, 0, 0, 0, 29, 0, 0, 44, 0, 0
|0, 0, 11, 0, 17, 0, 0, 13, 0, 0, 0, 0, 0, 0, 38, 0, 0, 0, 0, 0, 0, 45, 24, 0, 0, 0, 22, 0, 0, 0, 15, 41, 0, 0, 0, 0, 0, 33, 0, 43, 0, 0, 0, 0, 0, 0, 0, 0, 0
|0, 27, 0, 0, 0, 24, 43, 0, 0, 0, 8, 47, 0, 10, 0, 0, 0, 21, 0, 15, 0, 0, 0, 0, 14, 0, 0, 0, 6, 0, 0, 0, 0, 0, 0, 0, 37, 0, 0, 0, 0, 0, 0, 0, 0, 0, 0, 0, 0
|40, 0, 42, 0, 48, 0, 0, 0, 46, 0, 0, 0, 0, 0, 12, 0, 18, 0, 0, 39, 6, 0, 0, 0, 0, 17, 0, 13, 0, 36, 0, 0, 0, 0, 0, 0, 0, 0, 11, 0, 28, 10, 1, 0, 0, 0, 0, 0, 0
|33, 0, 7, 0, 0, 0, 0, 4, 20, 0, 0, 0, 0, 0, 10, 5, 0, 0, 0, 0, 29, 8, 0, 6, 41, 0, 39, 42, 0, 0, 0, 0, 16, 0, 0, 0, 32, 40, 0, 30, 0, 36, 0, 2, 18, 11, 14, 37, 15
|0, 0, 4, 0, 0, 22, 0, 0, 0, 0, 0, 0, 15, 0, 0, 0, 0, 0, 0, 0, 0, 0, 0, 46, 0, 0, 33, 0, 0, 35, 13, 31, 0, 30, 0, 0, 23, 0, 0, 0, 48, 12, 43, 0, 0, 0, 0, 17, 26
|0, 0, 0, 0, 15, 0, 0, 0, 0, 0, 0, 0, 0, 0, 0, 0, 0, 0, 0, 37, 0, 19, 11, 0, 0, 31, 0, 0, 23, 0, 0, 0, 0, 0, 8, 0, 7, 0, 0, 0, 0, 0, 0, 16, 0, 33, 0, 20, 0
|20, 4, 0, 23, 33, 28, 5, 43, 0, 0, 47, 0, 37, 0, 31, 0, 14, 0, 0, 0, 0, 39, 44, 40, 0, 0, 0, 0, 0, 0, 22, 0, 0, 0, 0, 0, 0, 13, 41, 0, 0, 21, 45, 0, 24, 32, 27, 2, 0
|0, 0, 18, 0, 0, 27, 24, 0, 0, 33, 0, 49, 11, 0, 0, 0, 29, 0, 5, 4, 0, 0, 0, 0, 0, 0, 0, 16, 0, 0, 0, 21, 26, 0, 0, 0, 0, 31, 0, 0, 0, 0, 0, 37, 0, 0, 0, 0, 0
|0, 0, 34, 0, 0, 0, 0, 0, 17, 0, 0, 0, 0, 0, 0, 27, 0, 0, 0, 0, 45, 0, 12, 0, 0, 0, 0, 0, 28, 0, 30, 43, 0, 37, 0, 16, 0, 10, 0, 0, 0, 4, 33, 19, 0, 0, 7, 0, 0
|8, 44, 0, 0, 0, 0, 22, 0, 0, 0, 0, 0, 0, 0, 0, 0, 37, 0, 15, 38, 0, 0, 14, 0, 43, 47, 45, 0, 49, 0, 0, 42, 24, 0, 39, 11, 6, 0, 0, 0, 0, 34, 29, 35, 0, 12, 0, 0, 0
|0, 0, 0, 0, 0, 0, 0, 0, 0, 0, 0, 0, 22, 0, 0, 24, 0, 0, 39, 0, 0, 0, 28, 0, 0, 0, 15, 0, 0, 0, 0, 0, 6, 0, 0, 0, 0, 0, 25, 0, 0, 0, 0, 0, 0, 26, 0, 0, 0
|0, 0, 0, 0, 0, 19, 0, 23, 28, 0, 0, 0, 26, 0, 0, 0, 16, 41, 0, 0, 0, 25, 37, 27, 0, 0, 0, 0, 0, 45, 0, 0, 0, 0, 38, 0, 46, 0, 0, 32, 0, 0, 0, 0, 43, 0, 0, 48, 0
|16, 0, 49, 0, 0, 36, 0, 9, 0, 0, 0, 0, 0, 31, 8, 0, 34, 0, 0, 32, 23, 0, 0, 0, 0, 0, 0, 48, 0, 0, 0, 15, 20, 0, 0, 0, 0, 14, 0, 0, 0, 0, 0, 0, 0, 0, 0, 0, 46
|31, 0, 0, 0, 0, 8, 0, 0, 0, 0, 0, 0, 0, 0, 0, 20, 0, 0, 0, 0, 0, 0, 0, 0, 0, 0, 0, 0, 45, 0, 0, 38, 0, 0, 49, 0, 19, 0, 0, 0, 21, 0, 0, 0, 0, 13, 0, 0, 0
|19, 0, 29, 0, 0, 7, 16, 0, 0, 0, 0, 0, 0, 43, 0, 0, 46, 49, 42, 0, 39, 0, 0, 0, 13, 0, 38, 14, 0, 0, 0, 0, 0, 2, 0, 0, 8, 0, 0, 0, 0, 0, 0, 0, 0, 0, 0, 0, 0
|0, 0, 23, 0, 0, 0, 0, 31, 0, 0, 0, 11, 0, 0, 0, 0, 0, 0, 0, 29, 0, 0, 49, 30, 42, 0, 0, 0, 0, 0, 0, 0, 21, 0, 0, 0, 0, 25, 0, 0, 0, 0, 0, 33, 36, 0, 0, 0, 0
|0, 0, 0, 0, 0, 0, 0, 0, 0, 0, 0, 42, 28, 0, 0, 0, 0, 0, 32, 0, 0, 0, 21, 18, 10, 43, 9, 8, 0, 0, 0, 12, 0, 0, 0, 0, 0, 0, 0, 4, 49, 37, 2, 23, 0, 5, 0, 19, 31
|0, 0, 0, 49, 0, 0, 44, 0, 10, 0, 0, 0, 7, 0, 0, 0, 12, 0, 0, 0, 13, 0, 0, 32, 0, 0, 25, 0, 0, 23, 0, 0, 0, 39, 40, 14, 3, 0, 0, 36, 0, 1, 0, 0, 0, 0, 0, 0, 43
|1, 0, 12, 0, 14, 0, 0, 0, 49, 8, 13, 0, 0, 0, 0, 44, 33, 0, 36, 10, 43, 34, 39, 19, 45, 0, 0, 0, 0, 0, 0, 0, 0, 0, 0, 48, 0, 0, 0, 0, 0, 0, 0, 0, 0, 0, 0, 0, 11
|0, 0, 15, 0, 0, 34, 0, 0, 0, 0, 0, 30, 0, 0, 3, 0, 19, 14, 6, 0, 0, 24, 0, 0, 0, 0, 0, 2, 0, 0, 9, 0, 0, 0, 10, 0, 39, 0, 0, 0, 5, 0, 0, 0, 0, 20, 37, 0, 29
|5, 9, 6, 13, 22, 0, 0, 0, 0, 0, 11, 0, 0, 0, 0, 0, 0, 0, 0, 0, 27, 0, 0, 0, 0, 0, 32, 21, 0, 0, 0, 0, 0, 49, 0, 0, 44, 4, 0, 33, 0, 16, 0, 0, 0, 0, 0, 28, 37
|32, 0, 0, 0, 0, 0, 0, 0, 0, 29, 45, 40, 0, 0, 0, 0, 0, 0, 0, 0, 49, 0, 0, 0, 0, 0, 24, 0, 0, 15, 27, 0, 0, 17, 16, 26, 0, 0, 0, 31, 0, 0, 0, 5, 0, 21, 0, 11, 0
|0, 0, 0, 15, 27, 3, 0, 21, 0, 0, 0, 1, 0, 46, 0, 0, 25, 10, 0, 0, 0, 0, 0, 0, 0, 0, 0, 0, 0, 0, 11, 0, 13, 0, 0, 0, 0, 0, 0, 0, 0, 0, 0, 0, 0, 0, 35, 0, 0
|11, 0, 0, 0, 0, 0, 0, 0, 13, 0, 0, 0, 0, 0, 0, 29, 0, 0, 0, 23, 0, 0, 0, 0, 0, 0, 0, 0, 25, 0, 0, 0, 0, 0, 0, 0, 0, 0, 0, 0, 0, 40, 0, 0, 0, 44, 2, 0, 0
|4, 0, 0, 0, 0, 43, 0, 0, 42, 0, 0, 0, 27, 14, 0, 0, 0, 0, 0, 31, 0, 40, 0, 0, 0, 44, 0, 0, 0, 32, 0, 45, 0, 0, 0, 30, 0, 0, 0, 0, 34, 0, 0, 6, 0, 0, 15, 0, 0
|0, 0, 17, 0, 0, 21, 0, 30, 0, 3, 5, 0, 0, 0, 0, 0, 24, 0, 44, 0, 0, 0, 0, 49, 19, 0, 0, 0, 0, 39, 0, 0, 0, 0, 0, 0, 0, 1, 0, 14, 13, 0, 47, 26, 0, 0, 0, 34, 0
|0, 0, 0, 0, 0, 0, 0, 0, 0, 37, 0, 33, 0, 0, 0, 0, 0, 12, 0, 0, 0, 0, 5, 0, 0, 0, 0, 0, 19, 0, 0, 0, 42, 0, 0, 0, 43, 0, 7, 0, 0, 0, 13, 0, 0, 0, 0, 32, 0
|24, 0, 0, 0, 0, 33, 42, 0, 0, 0, 0, 19, 0, 0, 18, 22, 0, 26, 0, 0, 20, 0, 7, 34, 27, 0, 0, 0, 0, 0, 4, 0, 15, 46, 5, 0, 25, 43, 0, 0, 35, 17, 0, 0, 0, 38, 0, 0, 0
|0, 0, 0, 44, 0, 0, 1, 0, 37, 0, 9, 0, 10, 0, 0, 2, 0, 0, 3, 25, 0, 0, 45, 0, 0, 0, 21, 0, 14, 6, 0, 0, 0, 0, 0, 38, 13, 0, 0, 42, 0, 0, 0, 0, 0, 27, 0, 0, 0
|0, 0, 19, 0, 0, 0, 0, 12, 26, 43, 0, 3, 0, 0, 0, 0, 0, 0, 0, 24, 0, 16, 31, 0, 0, 0, 0, 18, 0, 0, 0, 0, 23, 0, 32, 0, 0, 0, 0, 0, 0, 0, 36, 0, 47, 0, 0, 0, 0
|0, 0, 0, 0, 0, 17, 0, 18, 5, 0, 0, 0, 0, 45, 0, 0, 0, 38, 0, 0, 0, 11, 4, 37, 0, 0, 41, 24, 13, 0, 0, 0, 19, 42, 12, 0, 0, 0, 0, 0, 0, 48, 0, 0, 16, 0, 29, 0, 0
|15, 0, 0, 0, 0, 0, 0, 0, 0, 0, 0, 16, 0, 0, 23, 32, 28, 0, 0, 0, 0, 0, 10, 1, 0, 0, 5, 0, 27, 0, 0, 26, 0, 0, 0, 9, 22, 0, 0, 0, 0, 19, 0, 3, 0, 0, 21, 0, 12
|0, 28, 0, 0, 0, 0, 9, 29, 25, 22, 34, 0, 0, 15, 47, 46, 0, 0, 17, 0, 0, 0, 0, 38, 0, 35, 43, 0, 0, 0, 0, 0, 41, 0, 0, 18, 0, 0, 0, 0, 0, 0, 39, 0, 0, 0, 0, 0, 0
|0, 0, 32, 0, 0, 0, 11, 0, 0, 0, 42, 20, 4, 0, 0, 0, 0, 13, 0, 0, 0, 0, 8, 0, 0, 0, 0, 26, 0, 0, 49, 16, 0, 28, 0, 0, 0, 0, 0, 0, 24, 0, 0, 15, 0, 0, 0, 0, 0
|0, 18, 43, 0, 0, 44, 8, 0, 0, 0, 0, 0, 0, 0, 14, 1, 0, 0, 0, 0, 3, 35, 0, 0, 0, 0, 2, 0, 0, 0, 12, 0, 45, 48, 15, 0, 34, 7, 46, 0, 0, 0, 20, 0, 0, 0, 0, 0, 38
|0, 16, 22, 0, 0, 0, 14, 0, 0, 47, 0, 48, 44, 20, 2, 0, 26, 0, 0, 0, 0, 0, 0, 0, 49, 0, 0, 0, 11, 0, 5, 0, 0, 6, 0, 0, 0, 0, 0, 0, 0, 0, 46, 41, 0, 9, 0, 0, 0
|0, 49, 0, 0, 0, 45, 0, 0, 0, 0, 16, 15, 0, 0, 0, 13, 44, 24, 0, 36, 0, 0, 27, 0, 0, 26, 11, 0, 0, 0, 0, 0, 0, 0, 34, 0, 0, 0, 0, 0, 0, 9, 0, 0, 0, 43, 48, 21, 6
|0, 31, 0, 0, 26, 0, 48, 25, 0, 0, 0, 0, 9, 11, 33, 39, 43, 0, 0, 35, 0, 0, 0, 0, 7, 0, 0, 10, 0, 0, 42, 32, 0, 0, 13, 0, 0, 17, 0, 0, 40, 0, 0, 0, 0, 0, 0, 44, 24
|3, 25, 0, 0, 0, 0, 0, 0, 0, 0, 46, 0, 0, 0, 0, 0, 22, 0, 19, 0, 0, 29, 0, 0, 0, 0, 0, 0, 44, 0, 0, 23, 0, 0, 0, 0, 0, 0, 0, 39, 14, 0, 0, 0, 0, 0, 49, 47, 0
|34, 0, 0, 0, 0, 39, 15, 0, 0, 0, 0, 0, 43, 0, 20, 6, 0, 0, 0, 0, 17, 0, 22, 0, 0, 0, 0, 30, 0, 0, 14, 46, 0, 0, 25, 0, 0, 0, 31, 0, 1, 0, 0, 42, 0, 0, 26, 0, 0
|0, 0, 0, 27, 0, 0, 0, 0, 0, 13, 0, 38, 0, 0, 0, 0, 0, 0, 0, 0, 0, 0, 0, 0, 0, 46, 14, 0, 20, 24, 0, 0, 0, 0, 0, 0, 0, 44, 0, 22, 42, 0, 10, 45, 0, 0, 0, 0, 0|];