order = 7;
grid = [|0, 0, 0, 0, 0, 45, 0, 0, 0, 0, 0, 0, 28, 24, 0, 0, 0, 0, 0, 0, 0, 0, 29, 0, 0, 0, 0, 0, 0, 0, 0, 0, 0, 12, 0, 3, 0, 0, 0, 8, 0, 0, 0, 0, 0, 0, 0, 0, 0
|0, 0, 19, 0, 0, 0, 36, 0, 0, 0, 21, 0, 38, 0, 0, 0, 0, 0, 0, 0, 0, 0, 17, 0, 0, 0, 0, 0, 42, 44, 0, 0, 0, 0, 0, 0, 0, 0, 10, 0, 0, 24, 0, 13, 0, 30, 0, 0, 0
|0, 0, 0, 23, 0, 0, 33, 0, 0, 0, 0, 0, 0, 19, 0, 0, 0, 0, 0, 0, 0, 14, 0, 0, 0, 0, 0, 0, 39, 21, 10, 18, 0, 0, 41, 0, 9, 43, 7, 0, 0, 0, 0, 0, 0, 26, 0, 0, 0
|0, 0, 0, 37, 0, 4, 0, 0, 0, 0, 0, 0, 0, 0, 22, 30, 0, 0, 17, 0, 0, 10, 0, 46, 0, 0, 0, 0, 0, 35, 5, 0, 25, 0, 3, 0, 0, 0, 13, 0, 0, 0, 0, 24, 0, 29, 43, 0, 0
|0, 0, 0, 0, 0, 24, 0, 0, 0, 0, 0, 0, 0, 0, 19, 0, 0, 0, 0, 0, 0, 0, 0, 20, 0, 0, 0, 0, 0, 0, 0, 43, 36, 0, 0, 0, 0, 4, 0, 0, 0, 0, 0, 0, 0, 0, 0, 41, 0
|0, 0, 0, 0, 32, 0, 0, 0, 27, 0, 0, 0, 0, 0, 0, 41, 0, 0, 0, 25, 0, 0, 0, 0, 0, 0, 0, 5, 46, 0, 38, 4, 29, 0, 30, 17, 0, 0, 0, 0, 39, 21, 0, 0, 0, 15, 0, 0, 0
|0, 0, 0, 0, 0, 39, 0, 0, 0, 0, 0, 0, 0, 0, 0, 1, 10, 0, 0, 0, 0, 0, 0, 0, 0, 0, 0, 0, 48, 0, 0, 0, 0, 6, 19, 44, 35, 0, 0, 0, 11, 0, 0, 0, 0, 0, 0, 0, 36
|37, 0, 0, 0, 45, 36, 0, 0, 2, 8, 0, 0, 0, 0, 3, 0, 28, 24, 0, 0, 19, 4, 0, 0, 0, 0, 0, 20, 22, 0, 27, 31, 34, 0, 0, 0, 0, 15, 30, 0, 0, 0, 26, 0, 0, 25, 0, 0, 0
|0, 19, 0, 0, 0, 0, 0, 0, 0, 39, 0, 0, 10, 36, 0, 0, 0, 8, 0, 0, 0, 31, 42, 0, 13, 21, 0, 7, 28, 0, 0, 0, 41, 37, 16, 0, 0, 0, 20, 22, 27, 0, 0, 0, 0, 24, 47, 0, 32
|0, 16, 0, 0, 24, 0, 0, 19, 0, 0, 49, 0, 0, 0, 0, 0, 33, 0, 4, 0, 0, 0, 0, 0, 0, 0, 0, 0, 0, 0, 0, 35, 0, 0, 0, 0, 0, 10, 0, 0, 0, 0, 45, 0, 0, 0, 48, 0, 0
|0, 0, 21, 0, 0, 3, 7, 0, 0, 0, 0, 33, 0, 0, 0, 38, 22, 0, 0, 10, 2, 0, 35, 23, 0, 0, 0, 0, 0, 0, 19, 12, 0, 44, 0, 0, 0, 0, 46, 0, 0, 0, 0, 49, 0, 0, 15, 0, 0
|0, 0, 0, 0, 0, 0, 0, 0, 0, 0, 24, 0, 0, 0, 0, 0, 46, 0, 12, 0, 0, 0, 0, 43, 0, 0, 37, 0, 0, 0, 0, 5, 0, 15, 0, 0, 3, 0, 0, 0, 28, 31, 7, 0, 0, 0, 0, 0, 0
|0, 0, 48, 15, 0, 0, 0, 44, 45, 34, 0, 0, 0, 0, 0, 0, 0, 0, 39, 35, 0, 0, 26, 0, 0, 0, 0, 2, 21, 0, 0, 0, 23, 0, 0, 0, 0, 0, 41, 19, 12, 7, 0, 0, 0, 16, 0, 0, 0
|43, 0, 0, 0, 31, 0, 40, 0, 0, 22, 42, 0, 0, 0, 0, 0, 5, 0, 0, 36, 11, 0, 33, 0, 0, 0, 0, 0, 13, 0, 0, 45, 0, 10, 0, 0, 0, 0, 49, 0, 0, 25, 23, 0, 0, 38, 0, 0, 0
|0, 0, 0, 0, 22, 0, 0, 0, 0, 25, 0, 15, 24, 0, 18, 6, 35, 0, 0, 0, 0, 46, 0, 0, 41, 0, 30, 37, 0, 0, 36, 0, 0, 0, 0, 0, 0, 0, 0, 9, 10, 33, 4, 0, 0, 47, 13, 0, 0
|0, 0, 0, 0, 30, 0, 10, 0, 0, 49, 0, 12, 31, 23, 0, 17, 0, 0, 0, 19, 0, 0, 2, 0, 0, 0, 0, 0, 0, 46, 0, 0, 0, 0, 0, 0, 0, 45, 29, 40, 14, 0, 0, 33, 0, 0, 39, 0, 0
|0, 0, 0, 49, 0, 0, 0, 0, 0, 0, 0, 16, 19, 0, 0, 0, 0, 0, 0, 0, 0, 0, 44, 0, 28, 0, 1, 0, 0, 0, 14, 10, 0, 25, 35, 34, 0, 3, 0, 0, 0, 0, 0, 32, 40, 0, 0, 0, 0
|0, 0, 0, 0, 13, 23, 0, 0, 11, 0, 0, 0, 0, 0, 30, 0, 0, 40, 38, 0, 0, 0, 0, 16, 29, 0, 33, 0, 12, 28, 43, 0, 17, 0, 0, 0, 0, 0, 4, 0, 7, 0, 0, 0, 0, 0, 0, 10, 0
|0, 26, 0, 34, 0, 0, 27, 0, 30, 0, 0, 14, 0, 0, 10, 33, 0, 0, 0, 0, 24, 0, 0, 0, 0, 12, 0, 39, 0, 0, 0, 32, 0, 0, 40, 0, 0, 0, 0, 0, 31, 0, 0, 0, 46, 0, 44, 0, 0
|0, 0, 16, 19, 0, 21, 0, 42, 8, 0, 0, 0, 0, 0, 0, 0, 36, 0, 0, 0, 0, 0, 0, 34, 26, 31, 0, 0, 6, 0, 0, 0, 0, 0, 0, 23, 0, 0, 17, 0, 0, 46, 37, 0, 0, 22, 0, 49, 30
|0, 31, 2, 0, 0, 18, 0, 0, 37, 0, 10, 45, 36, 0, 46, 0, 0, 26, 0, 0, 8, 0, 19, 47, 17, 0, 43, 22, 0, 0, 0, 0, 9, 0, 0, 30, 0, 49, 0, 0, 0, 0, 0, 0, 0, 0, 0, 3, 0
|0, 0, 22, 0, 0, 32, 0, 34, 7, 0, 0, 24, 15, 21, 0, 0, 0, 0, 0, 0, 0, 0, 0, 0, 23, 0, 0, 0, 0, 0, 0, 0, 0, 0, 9, 0, 0, 0, 25, 0, 0, 0, 0, 0, 0, 3, 0, 0, 0
|16, 24, 38, 0, 0, 0, 0, 27, 0, 0, 0, 0, 37, 0, 0, 0, 0, 0, 0, 0, 0, 0, 0, 36, 0, 2, 45, 0, 0, 0, 23, 0, 0, 0, 0, 0, 6, 28, 40, 0, 0, 0, 0, 0, 0, 0, 0, 11, 25
|0, 0, 0, 0, 37, 0, 0, 0, 0, 18, 25, 39, 0, 3, 0, 0, 0, 0, 0, 0, 0, 21, 34, 0, 0, 0, 0, 0, 7, 0, 0, 0, 28, 0, 0, 9, 0, 0, 0, 0, 0, 0, 0, 0, 0, 33, 0, 0, 0
|2, 0, 0, 0, 0, 0, 30, 9, 1, 0, 13, 0, 0, 0, 0, 0, 0, 0, 0, 0, 0, 0, 39, 0, 0, 0, 17, 0, 24, 22, 0, 19, 0, 3, 0, 0, 0, 0, 0, 0, 21, 23, 0, 0, 0, 0, 0, 0, 20
|0, 0, 0, 8, 9, 7, 0, 0, 46, 0, 36, 44, 0, 0, 0, 0, 0, 0, 0, 0, 0, 0, 3, 0, 0, 0, 0, 19, 0, 0, 0, 0, 0, 0, 0, 0, 30, 0, 0, 0, 16, 0, 0, 0, 0, 0, 0, 0, 0
|40, 0, 0, 0, 0, 14, 48, 0, 0, 0, 20, 0, 0, 0, 23, 0, 0, 0, 0, 0, 29, 38, 0, 0, 0, 0, 22, 49, 17, 0, 0, 33, 0, 35, 44, 0, 34, 0, 0, 0, 0, 0, 30, 0, 0, 0, 45, 0, 6
|34, 0, 18, 11, 0, 0, 0, 23, 0, 0, 31, 0, 0, 42, 1, 0, 0, 0, 0, 0, 0, 0, 0, 0, 0, 7, 0, 0, 0, 0, 0, 0, 0, 36, 0, 0, 0, 20, 5, 0, 0, 37, 0, 0, 0, 2, 38, 0, 0
|0, 46, 0, 0, 0, 0, 0, 0, 0, 0, 0, 0, 0, 35, 0, 0, 0, 10, 16, 0, 28, 0, 0, 0, 0, 0, 0, 0, 0, 9, 0, 0, 4, 0, 0, 0, 0, 0, 0, 1, 0, 0, 0, 0, 0, 0, 0, 0, 49
|0, 0, 30, 48, 0, 0, 0, 0, 0, 0, 0, 0, 0, 45, 0, 11, 0, 0, 0, 4, 0, 0, 0, 10, 12, 0, 0, 0, 0, 14, 0, 16, 0, 0, 0, 21, 40, 0, 18, 0, 35, 0, 0, 0, 3, 0, 36, 0, 0
|0, 0, 0, 0, 0, 38, 0, 0, 0, 0, 0, 23, 8, 0, 0, 0, 13, 0, 0, 0, 0, 0, 18, 0, 31, 0, 0, 0, 35, 0, 0, 0, 0, 0, 47, 0, 0, 0, 0, 44, 0, 0, 27, 12, 5, 0, 34, 26, 0
|11, 39, 0, 0, 28, 42, 13, 6, 44, 0, 26, 0, 0, 0, 0, 34, 0, 0, 0, 0, 0, 0, 0, 0, 0, 0, 0, 35, 0, 38, 0, 0, 45, 5, 0, 0, 47, 16, 0, 14, 0, 0, 0, 0, 0, 0, 31, 0, 21
|0, 0, 0, 0, 0, 35, 2, 14, 0, 10, 0, 0, 0, 0, 0, 0, 0, 30, 0, 0, 21, 0, 0, 0, 0, 0, 0, 0, 0, 0, 37, 0, 0, 0, 12, 0, 0, 0, 0, 0, 0, 20, 6, 45, 47, 0, 0, 39, 0
|0, 0, 0, 0, 0, 0, 0, 0, 0, 0, 0, 0, 0, 0, 0, 29, 0, 0, 0, 0, 14, 0, 0, 0, 0, 0, 0, 0, 32, 0, 0, 0, 31, 2, 0, 0, 0, 0, 27, 0, 8, 0, 0, 0, 0, 0, 0, 0, 0
|25, 0, 0, 0, 0, 41, 0, 36, 0, 0, 0, 0, 0, 0, 0, 0, 0, 0, 3, 2, 31, 17, 9, 0, 0, 0, 0, 13, 49, 0, 0, 44, 6, 0, 18, 10, 0, 23, 0, 0, 0, 0, 0, 0, 0, 46, 0, 16, 8
|0, 30, 0, 0, 7, 0, 37, 0, 0, 4, 0, 21, 0, 34, 49, 0, 0, 29, 0, 0, 6, 0, 0, 0, 9, 0, 0, 17, 0, 0, 0, 0, 0, 40, 20, 0, 0, 14, 1, 33, 38, 47, 35, 5, 0, 0, 0, 0, 0
|0, 15, 0, 20, 0, 0, 45, 22, 0, 0, 18, 0, 0, 0, 25, 0, 0, 0, 0, 0, 0, 0, 0, 0, 0, 0, 39, 32, 0, 0, 0, 0, 0, 41, 0, 0, 0, 0, 0, 0, 46, 0, 0, 0, 0, 0, 0, 0, 11
|9, 48, 0, 0, 0, 0, 0, 0, 0, 0, 44, 0, 42, 0, 41, 0, 0, 0, 47, 0, 0, 0, 0, 21, 0, 0, 13, 0, 23, 0, 0, 11, 0, 0, 33, 28, 29, 0, 0, 0, 6, 0, 0, 30, 0, 0, 0, 38, 46
|18, 0, 5, 16, 0, 1, 0, 0, 0, 2, 0, 0, 0, 12, 0, 0, 40, 0, 0, 0, 0, 45, 15, 0, 0, 47, 23, 0, 3, 0, 0, 14, 0, 0, 13, 7, 10, 0, 21, 0, 0, 0, 9, 0, 34, 0, 0, 28, 0
|0, 0, 0, 0, 0, 0, 0, 0, 24, 14, 0, 0, 33, 0, 0, 0, 0, 0, 0, 30, 0, 0, 0, 48, 0, 0, 35, 0, 0, 12, 0, 0, 0, 0, 34, 0, 0, 0, 0, 0, 0, 0, 0, 0, 0, 20, 0, 0, 0
|0, 0, 24, 0, 0, 44, 35, 41, 13, 0, 0, 3, 0, 0, 0, 0, 0, 0, 0, 28, 1, 18, 0, 0, 7, 34, 0, 0, 0, 31, 0, 0, 0, 17, 0, 15, 48, 0, 0, 0, 4, 8, 0, 36, 0, 19, 0, 0, 0
|38, 0, 0, 0, 0, 2, 0, 0, 0, 0, 0, 0, 0, 1, 0, 0, 0, 0, 18, 0, 0, 0, 0, 0, 0, 0, 41, 36, 0, 0, 0, 6, 0, 27, 0, 0, 20, 0, 0, 0, 0, 0, 0, 44, 0, 0, 0, 45, 37
|0, 0, 13, 42, 34, 0, 0, 0, 16, 0, 0, 49, 44, 0, 0, 46, 39, 1, 0, 0, 0, 7, 43, 31, 0, 5, 0, 0, 4, 0, 0, 0, 3, 0, 0, 0, 0, 0, 37, 30, 36, 0, 0, 0, 23, 41, 0, 29, 0
|0, 0, 6, 0, 0, 28, 0, 0, 0, 0, 0, 0, 39, 0, 0, 0, 23, 0, 0, 0, 0, 16, 0, 0, 0, 0, 0, 0, 33, 0, 0, 0, 0, 0, 0, 5, 0, 2, 0, 0, 47, 0, 0, 0, 44, 0, 30, 35, 7
|0, 0, 25, 0, 12, 0, 0, 0, 0, 21, 0, 0, 0, 2, 0, 0, 0, 0, 0, 14, 0, 47, 24, 0, 39, 0, 0, 0, 0, 0, 0, 0, 0, 0, 0, 0, 0, 0, 6, 0, 0, 0, 0, 0, 0, 5, 4, 0, 0
|0, 49, 0, 0, 0, 16, 0, 0, 0, 0, 45, 0, 0, 0, 7, 27, 29, 0, 0, 0, 0, 0, 0, 0, 0, 0, 20, 0, 15, 0, 0, 0, 0, 0, 0, 0, 0, 21, 0, 31, 0, 4, 0, 0, 0, 0, 0, 0, 0
|15, 0, 0, 0, 0, 5, 0, 0, 23, 0, 0, 0, 47, 0, 13, 40, 0, 22, 0, 0, 0, 0, 0, 0, 0, 0, 0, 9, 19, 20, 0, 34, 0, 0, 0, 0, 0, 0, 0, 0, 0, 0, 0, 0, 0, 0, 0, 0, 0
|0, 35, 0, 0, 0, 27, 0, 4, 0, 37, 7, 18, 0, 8, 0, 0, 6, 0, 32, 0, 0, 0, 23, 0, 34, 0, 0, 0, 0, 30, 47, 0, 14, 0, 0, 0, 43, 0, 0, 0, 0, 10, 0, 1, 24, 0, 0, 9, 0
|0, 0, 0, 9, 0, 0, 23, 0, 0, 0, 0, 0, 0, 0, 8, 28, 2, 0, 31, 0, 0, 0, 0, 0, 0, 0, 0, 14, 0, 0, 45, 0, 46, 0, 43, 0, 0, 26, 0, 0, 0, 0, 0, 40, 10, 0, 0, 19, 12|];