order = 7;
grid = [|0, 0, 0, 5, 0, 0, 0, 0, 0, 0, 36, 0, 0, 0, 0, 0, 0, 0, 0, 0, 13, 0, 14, 0, 0, 0, 0, 0, 0, 0, 38, 4, 0, 0, 0, 0, 29, 0, 0, 0, 0, 0, 0, 0, 0, 0, 0, 26, 22
|16, 0, 47, 0, 0, 0, 0, 38, 0, 43, 0, 0, 44, 6, 0, 0, 17, 0, 0, 0, 1, 18, 23, 0, 0, 0, 35, 0, 33, 0, 31, 0, 5, 21, 0, 0, 12, 36, 0, 0, 20, 7, 0, 34, 0, 0, 0, 0, 0
|0, 0, 44, 0, 0, 0, 0, 48, 13, 0, 0, 0, 0, 25, 0, 30, 0, 0, 4, 31, 0, 0, 0, 0, 43, 0, 22, 42, 0, 0, 8, 0, 12, 0, 0, 0, 0, 0, 0, 0, 33, 18, 0, 0, 17, 0, 14, 0, 0
|0, 0, 46, 20, 31, 0, 40, 0, 0, 33, 0, 0, 0, 0, 0, 11, 34, 25, 10, 0, 0, 0, 0, 0, 13, 0, 6, 0, 0, 0, 16, 0, 0, 0, 1, 15, 0, 0, 0, 41, 0, 0, 0, 0, 5, 49, 0, 0, 36
|0, 0, 34, 0, 0, 2, 0, 37, 0, 20, 0, 0, 0, 0, 0, 0, 0, 0, 0, 0, 5, 28, 0, 0, 0, 0, 0, 0, 32, 0, 0, 19, 0, 0, 0, 0, 0, 0, 10, 0, 0, 0, 23, 47, 29, 0, 0, 0, 48
|0, 0, 0, 0, 1, 0, 42, 0, 49, 0, 0, 0, 15, 0, 0, 32, 0, 0, 0, 0, 0, 31, 10, 0, 33, 41, 0, 0, 39, 17, 44, 0, 0, 0, 11, 0, 38, 45, 0, 2, 0, 6, 0, 0, 0, 0, 0, 0, 21
|14, 0, 0, 3, 32, 36, 0, 21, 0, 0, 0, 8, 0, 0, 16, 0, 37, 0, 22, 2, 0, 20, 0, 0, 29, 47, 24, 0, 0, 0, 0, 0, 6, 0, 40, 46, 13, 0, 0, 28, 0, 0, 0, 0, 0, 0, 0, 0, 0
|0, 0, 23, 0, 5, 0, 0, 15, 0, 0, 0, 36, 0, 0, 0, 0, 0, 0, 0, 0, 11, 0, 0, 47, 0, 0, 0, 40, 0, 6, 0, 9, 0, 0, 0, 0, 0, 0, 0, 0, 0, 0, 0, 28, 44, 0, 0, 0, 32
|0, 37, 0, 0, 24, 28, 45, 0, 0, 0, 17, 0, 0, 0, 0, 0, 0, 5, 16, 36, 0, 0, 0, 33, 0, 0, 19, 0, 12, 0, 0, 21, 0, 49, 0, 0, 20, 0, 6, 32, 9, 0, 0, 0, 0, 14, 0, 15, 0
|0, 31, 0, 0, 0, 43, 0, 0, 0, 0, 0, 0, 0, 0, 0, 0, 33, 45, 0, 0, 0, 0, 0, 0, 0, 2, 0, 0, 0, 0, 0, 26, 0, 0, 0, 0, 0, 0, 0, 30, 0, 0, 0, 0, 0, 0, 36, 0, 0
|0, 0, 0, 38, 7, 0, 0, 0, 0, 0, 6, 29, 0, 28, 0, 25, 0, 0, 0, 0, 0, 0, 0, 0, 44, 0, 0, 36, 0, 0, 0, 0, 0, 0, 24, 0, 0, 0, 0, 0, 0, 0, 0, 0, 30, 0, 0, 2, 47
|0, 0, 9, 15, 36, 42, 25, 0, 3, 47, 0, 0, 0, 0, 31, 40, 0, 0, 17, 0, 0, 0, 0, 5, 0, 0, 43, 0, 0, 0, 33, 0, 0, 39, 0, 0, 37, 0, 21, 0, 0, 14, 7, 0, 0, 16, 0, 0, 0
|0, 0, 0, 0, 0, 18, 32, 0, 44, 39, 0, 0, 0, 12, 19, 0, 0, 34, 0, 0, 22, 14, 29, 30, 21, 0, 0, 15, 16, 5, 0, 3, 47, 0, 0, 0, 0, 0, 0, 0, 0, 0, 0, 0, 0, 0, 33, 37, 0
|0, 0, 26, 0, 0, 0, 0, 0, 48, 0, 33, 0, 0, 23, 0, 0, 0, 47, 0, 32, 0, 0, 0, 0, 0, 39, 0, 0, 0, 0, 0, 0, 40, 0, 0, 0, 0, 29, 0, 43, 24, 0, 0, 0, 0, 0, 3, 0, 0
|0, 36, 13, 26, 0, 8, 0, 0, 0, 19, 0, 0, 0, 7, 0, 49, 0, 21, 0, 0, 0, 0, 0, 0, 0, 25, 0, 46, 0, 0, 5, 0, 14, 3, 0, 0, 45, 0, 0, 0, 29, 2, 0, 0, 27, 4, 0, 0, 39
|0, 39, 0, 18, 0, 0, 0, 0, 0, 0, 0, 11, 0, 0, 9, 0, 8, 0, 0, 0, 0, 21, 0, 0, 0, 35, 0, 0, 0, 46, 0, 42, 20, 43, 0, 0, 0, 0, 0, 16, 0, 24, 25, 0, 0, 31, 0, 0, 7
|11, 0, 41, 42, 3, 0, 0, 35, 32, 0, 0, 0, 0, 0, 0, 0, 5, 0, 48, 0, 0, 0, 0, 0, 0, 0, 0, 0, 0, 0, 6, 0, 0, 0, 0, 0, 25, 0, 0, 0, 0, 38, 0, 0, 0, 0, 0, 0, 46
|4, 0, 20, 16, 30, 7, 0, 0, 39, 0, 0, 14, 27, 0, 0, 0, 0, 0, 0, 0, 0, 0, 11, 0, 0, 43, 0, 0, 0, 19, 0, 0, 0, 0, 0, 0, 0, 0, 0, 0, 26, 47, 36, 5, 37, 0, 0, 0, 0
|12, 25, 31, 40, 43, 0, 0, 3, 5, 0, 0, 9, 45, 15, 0, 17, 32, 28, 0, 41, 0, 0, 0, 0, 0, 0, 0, 37, 47, 49, 0, 0, 4, 0, 0, 19, 0, 0, 0, 22, 0, 30, 0, 0, 0, 0, 0, 0, 0
|1, 0, 0, 0, 0, 0, 29, 0, 0, 36, 0, 0, 0, 17, 0, 0, 39, 0, 0, 43, 0, 0, 0, 0, 0, 0, 4, 2, 0, 0, 13, 0, 0, 0, 0, 0, 0, 0, 0, 0, 21, 34, 0, 0, 16, 8, 6, 0, 0
|0, 0, 0, 0, 0, 9, 0, 0, 23, 0, 43, 0, 0, 0, 0, 0, 25, 0, 0, 0, 0, 1, 0, 0, 22, 0, 3, 49, 0, 0, 0, 0, 0, 11, 0, 0, 32, 0, 0, 44, 0, 0, 0, 17, 20, 28, 0, 45, 0
|0, 0, 0, 0, 0, 0, 0, 0, 0, 0, 0, 0, 0, 16, 0, 0, 0, 0, 0, 0, 0, 0, 0, 0, 6, 0, 0, 0, 11, 0, 0, 44, 0, 10, 20, 0, 0, 0, 0, 1, 0, 0, 0, 21, 0, 0, 0, 0, 33
|0, 0, 0, 23, 0, 40, 0, 0, 0, 0, 0, 25, 35, 0, 0, 16, 0, 8, 0, 0, 0, 0, 24, 2, 0, 0, 0, 48, 0, 42, 3, 0, 26, 0, 0, 0, 0, 0, 18, 33, 11, 0, 30, 0, 0, 0, 17, 38, 0
|0, 0, 25, 0, 0, 15, 0, 46, 0, 0, 0, 20, 0, 9, 18, 12, 0, 0, 0, 5, 0, 0, 34, 19, 41, 10, 0, 0, 43, 0, 37, 0, 0, 17, 0, 0, 40, 13, 0, 26, 0, 4, 45, 39, 32, 0, 8, 6, 0
|34, 0, 17, 45, 0, 0, 0, 0, 24, 0, 0, 48, 0, 36, 0, 0, 0, 0, 32, 0, 0, 0, 0, 0, 35, 30, 7, 0, 5, 0, 0, 1, 0, 0, 0, 28, 0, 0, 0, 0, 10, 0, 0, 0, 0, 0, 0, 0, 40
|8, 0, 0, 37, 0, 0, 48, 7, 0, 0, 10, 45, 40, 2, 0, 0, 0, 3, 0, 0, 0, 0, 0, 0, 11, 0, 0, 0, 0, 33, 0, 31, 39, 41, 0, 0, 0, 0, 0, 0, 36, 0, 0, 0, 0, 0, 0, 0, 0
|0, 30, 0, 0, 0, 41, 3, 5, 0, 0, 14, 0, 1, 0, 0, 0, 10, 0, 0, 0, 19, 0, 0, 0, 0, 0, 0, 0, 0, 0, 0, 0, 0, 0, 46, 0, 0, 31, 0, 0, 0, 0, 28, 0, 0, 0, 0, 0, 0
|36, 16, 0, 27, 0, 5, 0, 0, 0, 0, 0, 0, 0, 0, 0, 46, 0, 0, 0, 28, 0, 0, 37, 23, 0, 0, 0, 0, 0, 0, 0, 0, 0, 0, 0, 38, 0, 0, 0, 45, 0, 0, 4, 13, 19, 0, 10, 3, 0
|0, 0, 27, 0, 40, 25, 44, 0, 38, 0, 28, 0, 24, 0, 11, 0, 0, 16, 0, 0, 0, 0, 2, 22, 0, 0, 45, 0, 0, 4, 0, 0, 0, 0, 0, 0, 0, 0, 15, 0, 0, 0, 0, 0, 0, 6, 0, 0, 10
|0, 0, 24, 36, 14, 34, 21, 0, 0, 0, 0, 0, 4, 29, 0, 0, 0, 22, 0, 0, 46, 0, 0, 37, 0, 0, 0, 0, 35, 0, 0, 0, 0, 0, 0, 0, 8, 0, 0, 0, 32, 0, 0, 45, 0, 42, 0, 31, 0
|0, 0, 6, 0, 0, 22, 0, 0, 9, 15, 45, 0, 0, 0, 42, 0, 0, 0, 26, 10, 4, 29, 33, 0, 0, 18, 0, 0, 38, 31, 1, 0, 0, 0, 19, 0, 0, 0, 37, 0, 48, 13, 0, 41, 0, 0, 0, 30, 0
|0, 26, 3, 0, 0, 0, 0, 0, 0, 0, 0, 0, 0, 46, 0, 0, 19, 0, 39, 0, 0, 0, 0, 0, 0, 0, 0, 10, 6, 0, 0, 0, 0, 0, 0, 41, 47, 38, 0, 0, 0, 45, 0, 0, 0, 0, 0, 34, 0
|0, 45, 0, 0, 0, 46, 0, 0, 0, 0, 0, 13, 0, 0, 0, 33, 0, 0, 0, 0, 24, 0, 0, 0, 0, 38, 0, 0, 0, 28, 0, 34, 0, 0, 41, 29, 0, 0, 0, 0, 22, 0, 0, 0, 12, 0, 0, 0, 11
|0, 0, 0, 0, 29, 0, 5, 31, 0, 2, 32, 40, 0, 22, 0, 0, 41, 0, 0, 0, 0, 43, 0, 0, 0, 15, 0, 0, 0, 24, 0, 0, 0, 42, 26, 0, 0, 39, 0, 0, 0, 0, 0, 38, 33, 37, 0, 28, 0
|0, 0, 0, 0, 0, 0, 11, 0, 6, 0, 0, 0, 0, 0, 0, 0, 0, 0, 0, 0, 0, 0, 20, 0, 0, 42, 0, 0, 0, 0, 0, 5, 0, 0, 0, 0, 0, 43, 0, 0, 0, 0, 0, 0, 1, 0, 23, 0, 0
|0, 0, 0, 0, 0, 0, 9, 0, 0, 0, 49, 0, 0, 43, 0, 44, 0, 0, 0, 0, 0, 23, 0, 35, 0, 37, 42, 0, 41, 0, 0, 0, 45, 26, 36, 0, 0, 0, 24, 7, 0, 0, 0, 0, 0, 0, 0, 21, 0
|42, 0, 0, 0, 0, 0, 36, 0, 0, 0, 0, 0, 39, 47, 0, 48, 0, 0, 0, 0, 0, 0, 0, 16, 28, 0, 0, 0, 31, 0, 23, 7, 0, 0, 18, 0, 0, 15, 0, 0, 0, 0, 46, 0, 0, 33, 0, 0, 0
|0, 40, 0, 0, 0, 0, 0, 0, 36, 42, 22, 0, 0, 10, 27, 28, 0, 0, 31, 0, 0, 0, 43, 0, 0, 7, 0, 0, 0, 34, 0, 35, 0, 0, 0, 0, 14, 0, 48, 0, 0, 0, 32, 23, 0, 13, 19, 0, 0
|0, 19, 7, 0, 0, 0, 24, 0, 1, 0, 0, 30, 0, 0, 0, 10, 12, 35, 0, 0, 26, 0, 36, 0, 0, 0, 0, 0, 0, 38, 0, 0, 0, 0, 43, 0, 17, 47, 46, 13, 42, 0, 0, 0, 0, 0, 0, 0, 0
|0, 5, 0, 0, 0, 13, 0, 0, 0, 0, 25, 0, 0, 0, 0, 37, 0, 43, 0, 0, 0, 0, 0, 48, 0, 44, 0, 0, 0, 0, 0, 0, 0, 0, 0, 27, 0, 0, 0, 0, 18, 0, 0, 36, 0, 40, 0, 0, 0
|0, 0, 0, 14, 26, 0, 0, 33, 0, 40, 0, 5, 0, 0, 0, 23, 0, 0, 0, 38, 0, 0, 0, 0, 0, 0, 0, 0, 0, 11, 0, 47, 0, 0, 21, 0, 22, 0, 0, 0, 0, 0, 0, 0, 0, 0, 0, 0, 4
|25, 0, 0, 0, 0, 16, 0, 0, 0, 12, 0, 0, 0, 0, 0, 0, 0, 0, 8, 0, 0, 0, 0, 0, 0, 0, 0, 0, 49, 0, 0, 0, 0, 28, 0, 21, 0, 0, 0, 34, 0, 43, 2, 0, 0, 0, 0, 0, 30
|0, 0, 0, 0, 0, 0, 0, 0, 0, 0, 0, 10, 0, 30, 0, 0, 0, 0, 37, 8, 0, 15, 0, 0, 0, 0, 0, 0, 18, 0, 0, 0, 0, 2, 42, 0, 0, 35, 32, 0, 0, 0, 13, 0, 0, 0, 0, 0, 0
|15, 23, 0, 0, 0, 0, 0, 0, 0, 32, 0, 22, 0, 40, 0, 0, 49, 20, 0, 0, 10, 0, 0, 0, 0, 0, 0, 35, 0, 0, 0, 0, 0, 0, 0, 0, 0, 0, 0, 25, 45, 36, 11, 0, 0, 0, 0, 0, 0
|32, 0, 0, 0, 0, 0, 26, 0, 25, 0, 0, 0, 0, 0, 0, 36, 0, 2, 0, 0, 0, 0, 0, 13, 0, 0, 46, 14, 0, 0, 0, 41, 0, 0, 0, 0, 0, 0, 0, 0, 8, 0, 0, 0, 0, 21, 0, 0, 23
|31, 0, 0, 0, 0, 0, 20, 0, 0, 8, 0, 0, 0, 0, 0, 0, 0, 0, 0, 0, 0, 0, 0, 0, 0, 36, 12, 0, 0, 0, 0, 40, 0, 0, 0, 0, 43, 0, 0, 24, 0, 0, 0, 0, 6, 0, 22, 0, 0
|45, 0, 0, 25, 0, 24, 0, 0, 0, 9, 0, 23, 0, 0, 0, 6, 0, 0, 41, 0, 0, 0, 7, 0, 0, 0, 0, 0, 0, 36, 14, 0, 17, 0, 0, 0, 0, 0, 44, 0, 0, 0, 0, 0, 8, 47, 0, 0, 0
|0, 48, 36, 9, 0, 0, 0, 0, 26, 0, 7, 0, 0, 0, 0, 22, 15, 12, 19, 0, 30, 0, 8, 0, 25, 0, 0, 0, 34, 0, 0, 0, 0, 0, 23, 2, 0, 6, 47, 0, 0, 11, 0, 0, 0, 0, 0, 18, 0
|40, 0, 0, 0, 0, 0, 0, 36, 21, 0, 0, 0, 2, 45, 0, 0, 23, 0, 0, 9, 0, 0, 0, 0, 0, 0, 0, 0, 0, 0, 24, 0, 28, 0, 0, 0, 0, 0, 0, 37, 0, 0, 0, 0, 0, 0, 32, 20, 19|];