order = 7;
grid = [|0, 0, 0, 0, 0, 0, 38, 0, 0, 0, 0, 0, 0, 0, 0, 0, 35, 48, 0, 0, 24, 41, 0, 23, 8, 0, 17, 34, 0, 0, 22, 7, 0, 0, 33, 0, 0, 0, 2, 45, 0, 0, 0, 0, 0, 0, 0, 0, 0
|0, 0, 0, 0, 0, 0, 0, 9, 35, 0, 0, 0, 0, 0, 42, 0, 0, 0, 0, 0, 0, 0, 19, 0, 0, 0, 14, 22, 0, 0, 0, 0, 0, 0, 0, 33, 0, 16, 0, 0, 0, 28, 0, 0, 0, 0, 31, 0, 0
|0, 1, 0, 0, 24, 18, 0, 0, 37, 22, 0, 0, 28, 0, 15, 0, 38, 0, 0, 29, 0, 0, 0, 0, 0, 0, 0, 0, 5, 44, 0, 0, 32, 0, 0, 0, 0, 0, 0, 3, 0, 0, 0, 0, 0, 0, 0, 0, 0
|0, 0, 48, 0, 0, 0, 47, 0, 0, 0, 49, 0, 0, 0, 0, 0, 5, 4, 0, 0, 0, 0, 0, 7, 36, 0, 0, 11, 0, 0, 0, 0, 42, 0, 0, 0, 0, 24, 0, 0, 0, 0, 0, 1, 0, 0, 0, 0, 0
|0, 0, 0, 0, 0, 0, 11, 0, 31, 46, 0, 0, 0, 45, 0, 0, 28, 33, 14, 0, 0, 0, 0, 0, 0, 0, 0, 3, 0, 0, 0, 40, 0, 0, 0, 0, 10, 15, 0, 23, 47, 0, 0, 0, 0, 0, 9, 0, 0
|2, 40, 0, 15, 0, 0, 0, 0, 13, 0, 0, 0, 0, 0, 18, 0, 32, 0, 0, 11, 0, 0, 0, 0, 28, 0, 29, 0, 0, 38, 0, 36, 24, 0, 0, 49, 0, 0, 0, 0, 0, 0, 0, 0, 39, 0, 0, 0, 47
|28, 0, 0, 0, 0, 0, 14, 0, 5, 0, 43, 24, 2, 0, 1, 0, 0, 9, 49, 37, 0, 0, 0, 0, 6, 39, 0, 38, 23, 0, 29, 0, 4, 0, 30, 0, 0, 7, 46, 0, 0, 0, 0, 0, 0, 0, 0, 0, 0
|0, 0, 0, 0, 0, 0, 29, 0, 18, 0, 0, 0, 15, 0, 0, 0, 7, 41, 33, 39, 26, 0, 0, 16, 0, 17, 0, 48, 0, 20, 0, 0, 22, 38, 0, 0, 0, 0, 19, 0, 3, 0, 0, 31, 0, 0, 0, 0, 25
|0, 0, 13, 0, 0, 10, 0, 0, 0, 0, 0, 39, 0, 16, 9, 0, 0, 0, 18, 0, 0, 22, 0, 44, 0, 7, 0, 23, 0, 33, 11, 4, 0, 0, 0, 0, 0, 0, 0, 0, 24, 0, 0, 0, 0, 0, 34, 0, 49
|39, 0, 0, 8, 0, 0, 0, 24, 0, 0, 0, 0, 0, 9, 0, 48, 0, 0, 0, 20, 0, 0, 12, 0, 13, 0, 0, 0, 36, 0, 0, 0, 5, 0, 0, 0, 21, 0, 0, 0, 0, 7, 0, 45, 16, 0, 11, 0, 6
|0, 0, 37, 5, 0, 0, 0, 0, 32, 0, 8, 0, 0, 0, 0, 1, 16, 0, 0, 0, 0, 27, 11, 0, 0, 29, 0, 24, 49, 0, 0, 0, 23, 44, 0, 0, 0, 0, 0, 0, 0, 0, 0, 0, 0, 0, 0, 0, 0
|0, 0, 0, 0, 0, 0, 0, 0, 44, 0, 0, 0, 0, 0, 0, 0, 0, 0, 0, 0, 13, 6, 0, 0, 0, 0, 20, 5, 0, 0, 0, 24, 21, 0, 39, 0, 15, 0, 0, 2, 0, 43, 0, 0, 0, 0, 0, 7, 0
|33, 0, 0, 0, 0, 0, 0, 42, 0, 0, 0, 0, 0, 0, 0, 17, 0, 0, 5, 0, 0, 45, 0, 0, 0, 0, 0, 28, 13, 25, 2, 0, 48, 0, 0, 0, 6, 0, 22, 27, 0, 0, 0, 21, 0, 29, 0, 47, 0
|0, 0, 45, 0, 0, 0, 17, 0, 0, 0, 0, 0, 7, 0, 0, 0, 43, 22, 0, 24, 0, 0, 0, 0, 0, 0, 0, 0, 0, 0, 27, 47, 0, 0, 46, 0, 25, 41, 0, 0, 0, 0, 0, 4, 0, 0, 0, 0, 0
|0, 16, 0, 19, 0, 0, 0, 0, 0, 36, 0, 45, 0, 0, 0, 0, 0, 0, 0, 0, 48, 0, 0, 0, 0, 0, 25, 44, 0, 0, 0, 0, 13, 0, 0, 0, 0, 0, 0, 0, 0, 0, 0, 0, 6, 0, 0, 0, 0
|25, 0, 0, 0, 34, 12, 0, 0, 6, 0, 27, 3, 22, 0, 0, 0, 0, 0, 0, 43, 1, 16, 0, 0, 0, 0, 0, 40, 0, 0, 0, 0, 0, 0, 0, 0, 0, 38, 0, 4, 0, 0, 31, 0, 0, 0, 0, 32, 0
|0, 0, 0, 0, 0, 48, 41, 0, 0, 0, 13, 0, 0, 0, 0, 18, 0, 0, 29, 0, 31, 21, 0, 0, 1, 10, 27, 0, 0, 0, 6, 3, 0, 0, 0, 0, 0, 33, 0, 0, 0, 0, 38, 0, 0, 0, 42, 36, 24
|4, 0, 40, 33, 0, 0, 32, 0, 0, 10, 34, 47, 0, 1, 0, 24, 0, 0, 0, 0, 0, 31, 2, 0, 0, 23, 43, 37, 44, 17, 46, 20, 0, 45, 0, 0, 48, 0, 0, 0, 0, 9, 25, 35, 0, 28, 13, 41, 11
|0, 0, 8, 1, 0, 0, 0, 49, 0, 0, 16, 0, 0, 0, 10, 0, 0, 0, 0, 35, 28, 0, 0, 0, 15, 0, 0, 6, 0, 0, 47, 0, 0, 31, 0, 0, 0, 2, 0, 44, 0, 0, 0, 0, 0, 0, 3, 0, 0
|43, 0, 0, 0, 22, 49, 0, 0, 0, 0, 0, 0, 20, 2, 0, 46, 0, 0, 4, 42, 45, 18, 0, 0, 0, 13, 0, 0, 40, 0, 1, 28, 14, 0, 0, 0, 0, 0, 8, 21, 0, 0, 26, 0, 0, 47, 10, 0, 0
|0, 0, 3, 0, 0, 0, 0, 25, 0, 0, 42, 0, 0, 11, 0, 39, 17, 0, 0, 0, 0, 0, 22, 9, 0, 0, 0, 0, 0, 0, 0, 0, 36, 0, 0, 37, 13, 0, 7, 0, 0, 0, 4, 0, 0, 0, 0, 0, 0
|0, 0, 0, 0, 0, 0, 0, 0, 0, 9, 17, 0, 0, 0, 0, 29, 18, 0, 7, 0, 32, 0, 0, 0, 0, 0, 0, 0, 26, 0, 0, 0, 0, 28, 0, 0, 0, 0, 4, 38, 0, 1, 33, 43, 0, 0, 46, 0, 0
|0, 0, 0, 0, 0, 0, 0, 12, 0, 42, 0, 0, 0, 0, 2, 33, 41, 0, 0, 0, 0, 46, 3, 19, 18, 20, 0, 0, 0, 0, 0, 0, 0, 0, 0, 0, 0, 0, 0, 0, 31, 0, 0, 24, 0, 0, 0, 35, 0
|0, 0, 0, 0, 0, 0, 0, 0, 26, 0, 1, 0, 31, 0, 16, 0, 0, 0, 22, 0, 5, 0, 0, 0, 43, 0, 13, 0, 0, 0, 35, 29, 0, 0, 0, 0, 39, 0, 0, 15, 46, 2, 0, 0, 0, 0, 0, 0, 14
|0, 0, 34, 0, 40, 0, 0, 0, 0, 48, 0, 0, 0, 5, 0, 42, 0, 0, 0, 0, 0, 49, 29, 0, 0, 33, 0, 0, 0, 0, 0, 0, 0, 0, 27, 0, 47, 0, 44, 0, 0, 0, 0, 13, 0, 11, 21, 0, 0
|31, 0, 46, 32, 0, 0, 0, 0, 40, 0, 0, 0, 0, 0, 24, 0, 21, 0, 47, 0, 0, 0, 0, 0, 37, 0, 0, 0, 8, 0, 7, 49, 0, 0, 19, 35, 0, 0, 48, 0, 0, 0, 0, 0, 0, 0, 0, 0, 0
|0, 0, 0, 0, 0, 0, 0, 46, 0, 33, 18, 0, 21, 3, 0, 0, 0, 19, 0, 0, 0, 47, 14, 0, 0, 36, 0, 0, 0, 0, 0, 0, 0, 0, 22, 0, 0, 0, 0, 0, 0, 0, 32, 0, 0, 0, 0, 0, 0
|0, 0, 0, 13, 0, 5, 0, 0, 0, 0, 44, 0, 10, 0, 0, 0, 0, 0, 0, 0, 9, 0, 31, 0, 0, 0, 0, 0, 1, 47, 0, 23, 0, 0, 48, 0, 0, 0, 0, 0, 0, 0, 0, 0, 0, 0, 0, 2, 0
|0, 0, 23, 0, 0, 0, 49, 0, 0, 0, 0, 31, 0, 17, 0, 0, 0, 0, 0, 3, 0, 0, 0, 39, 0, 0, 0, 14, 0, 0, 0, 42, 7, 0, 0, 0, 0, 0, 0, 0, 0, 0, 0, 48, 0, 15, 35, 0, 40
|0, 0, 7, 38, 0, 42, 0, 0, 0, 0, 0, 0, 0, 0, 0, 0, 12, 0, 0, 0, 0, 0, 0, 0, 0, 0, 0, 18, 0, 49, 0, 35, 0, 0, 0, 0, 0, 44, 0, 0, 0, 0, 0, 0, 0, 41, 0, 0, 0
|8, 0, 0, 11, 0, 0, 0, 0, 0, 0, 0, 0, 3, 28, 41, 0, 0, 21, 0, 0, 0, 0, 0, 4, 0, 0, 0, 0, 6, 45, 0, 44, 0, 0, 40, 0, 0, 0, 0, 0, 0, 16, 0, 0, 0, 0, 17, 0, 38
|0, 0, 0, 25, 0, 0, 33, 0, 4, 0, 41, 0, 34, 0, 0, 0, 0, 0, 0, 0, 0, 0, 0, 0, 0, 0, 21, 32, 0, 0, 18, 0, 0, 0, 0, 7, 0, 23, 0, 0, 0, 0, 0, 0, 0, 0, 0, 29, 30
|0, 0, 0, 0, 0, 0, 0, 32, 0, 0, 0, 0, 0, 0, 0, 0, 0, 0, 0, 0, 17, 0, 0, 0, 0, 0, 0, 0, 0, 0, 0, 0, 0, 0, 0, 0, 0, 12, 0, 0, 0, 0, 7, 0, 18, 0, 0, 0, 0
|0, 0, 0, 0, 0, 0, 28, 0, 0, 30, 0, 0, 0, 0, 6, 0, 0, 0, 0, 0, 38, 43, 48, 0, 44, 0, 0, 0, 14, 0, 0, 0, 0, 22, 15, 0, 0, 0, 35, 9, 0, 0, 0, 36, 11, 0, 0, 10, 0
|1, 0, 36, 3, 0, 0, 16, 35, 39, 0, 15, 48, 0, 0, 0, 0, 0, 0, 0, 0, 0, 0, 23, 27, 0, 30, 0, 0, 38, 0, 0, 11, 0, 5, 0, 0, 0, 0, 0, 0, 0, 0, 0, 47, 0, 0, 0, 0, 0
|0, 0, 0, 0, 0, 0, 0, 0, 3, 0, 0, 0, 29, 0, 0, 0, 13, 0, 31, 0, 43, 0, 0, 0, 0, 0, 0, 0, 0, 0, 30, 19, 0, 1, 32, 0, 0, 0, 0, 22, 0, 11, 0, 0, 42, 0, 38, 0, 0
|0, 0, 0, 0, 38, 11, 0, 0, 0, 0, 0, 4, 0, 0, 0, 0, 0, 46, 0, 0, 0, 0, 15, 0, 21, 0, 0, 0, 0, 0, 0, 0, 0, 0, 37, 16, 0, 0, 25, 20, 0, 0, 0, 8, 0, 0, 0, 1, 35
|13, 0, 0, 0, 0, 0, 0, 0, 0, 0, 24, 40, 0, 0, 23, 0, 0, 29, 42, 0, 0, 0, 0, 0, 0, 0, 38, 0, 0, 7, 0, 0, 0, 14, 0, 0, 0, 0, 0, 0, 0, 8, 0, 0, 0, 0, 0, 33, 0
|0, 0, 31, 0, 36, 0, 3, 0, 0, 0, 37, 0, 0, 0, 0, 15, 0, 0, 0, 0, 0, 11, 7, 0, 25, 0, 0, 0, 28, 0, 0, 18, 0, 43, 0, 38, 42, 0, 0, 0, 0, 0, 0, 0, 48, 12, 0, 30, 0
|0, 0, 0, 0, 0, 2, 0, 0, 0, 0, 0, 9, 0, 0, 25, 0, 26, 11, 0, 8, 0, 0, 1, 0, 0, 0, 0, 0, 0, 0, 0, 0, 0, 29, 0, 0, 4, 14, 0, 0, 0, 0, 0, 0, 46, 21, 0, 0, 0
|0, 0, 0, 0, 18, 0, 0, 0, 0, 21, 0, 0, 0, 0, 20, 28, 0, 0, 36, 16, 41, 0, 0, 0, 0, 0, 0, 0, 42, 26, 8, 0, 45, 0, 0, 0, 2, 0, 0, 0, 0, 35, 0, 0, 0, 0, 0, 0, 27
|0, 0, 19, 0, 0, 0, 0, 0, 33, 41, 0, 30, 0, 35, 0, 0, 0, 0, 0, 0, 0, 0, 0, 24, 0, 0, 0, 0, 3, 0, 0, 0, 2, 0, 0, 0, 0, 0, 0, 0, 0, 0, 0, 28, 0, 31, 0, 20, 0
|0, 0, 21, 0, 4, 45, 0, 0, 0, 0, 39, 0, 0, 0, 0, 26, 0, 5, 0, 34, 2, 0, 0, 0, 0, 0, 0, 0, 0, 0, 0, 31, 0, 27, 0, 0, 33, 17, 0, 35, 0, 0, 20, 0, 0, 0, 0, 0, 0
|32, 0, 0, 31, 0, 41, 0, 0, 0, 18, 0, 0, 35, 0, 0, 9, 0, 43, 37, 0, 0, 19, 0, 0, 0, 0, 0, 0, 0, 0, 0, 0, 10, 7, 45, 0, 0, 0, 0, 0, 0, 0, 29, 0, 27, 0, 0, 0, 0
|0, 0, 9, 40, 0, 0, 0, 0, 0, 11, 22, 0, 0, 7, 0, 0, 39, 38, 0, 0, 0, 33, 0, 5, 0, 18, 0, 0, 0, 0, 0, 0, 0, 0, 0, 23, 0, 36, 0, 0, 2, 0, 0, 0, 0, 0, 0, 0, 4
|0, 0, 0, 0, 0, 6, 0, 43, 0, 0, 0, 42, 24, 0, 0, 0, 0, 0, 0, 0, 4, 35, 0, 0, 0, 0, 0, 29, 30, 0, 0, 1, 0, 48, 0, 0, 38, 40, 0, 0, 0, 0, 0, 0, 0, 0, 0, 0, 0
|0, 8, 15, 0, 0, 0, 0, 0, 2, 0, 46, 0, 0, 0, 0, 49, 1, 0, 20, 0, 0, 0, 4, 0, 0, 0, 0, 0, 0, 28, 0, 0, 34, 0, 0, 0, 0, 0, 0, 0, 25, 18, 0, 0, 0, 39, 0, 0, 21
|19, 33, 47, 0, 16, 0, 0, 0, 0, 0, 21, 0, 5, 29, 0, 0, 0, 0, 28, 32, 0, 0, 30, 0, 0, 22, 0, 0, 0, 0, 0, 0, 0, 0, 0, 0, 0, 0, 0, 34, 0, 0, 0, 3, 0, 0, 0, 0, 0
|0, 0, 0, 0, 0, 0, 20, 0, 47, 0, 0, 0, 33, 0, 13, 0, 10, 0, 0, 0, 12, 0, 0, 0, 41, 0, 48, 0, 35, 0, 32, 22, 16, 39, 0, 0, 19, 0, 0, 30, 0, 0, 0, 6, 24, 14, 0, 0, 0|];