order = 7;
grid = [|24, 0, 0, 18, 26, 17, 0, 0, 0, 0, 10, 32, 0, 0, 0, 0, 0, 0, 0, 0, 0, 0, 36, 0, 0, 0, 47, 0, 0, 0, 0, 0, 45, 0, 0, 23, 0, 0, 0, 0, 0, 0, 0, 37, 0, 33, 20, 19, 0
|0, 0, 0, 0, 0, 0, 0, 39, 0, 0, 0, 0, 0, 0, 0, 0, 7, 0, 0, 28, 0, 20, 0, 43, 0, 0, 0, 0, 0, 0, 0, 0, 0, 49, 0, 12, 0, 35, 18, 0, 0, 0, 8, 0, 0, 0, 5, 0, 0
|0, 0, 0, 32, 35, 0, 0, 0, 48, 0, 40, 0, 0, 0, 0, 0, 0, 0, 1, 0, 0, 0, 26, 0, 0, 0, 0, 0, 0, 0, 0, 0, 10, 0, 0, 0, 13, 0, 0, 0, 0, 0, 23, 0, 41, 44, 0, 0, 0
|0, 0, 0, 0, 3, 2, 0, 0, 0, 47, 29, 0, 0, 0, 0, 33, 0, 0, 34, 0, 0, 0, 0, 0, 0, 0, 0, 0, 19, 20, 40, 0, 8, 0, 38, 0, 0, 0, 0, 0, 0, 0, 0, 12, 0, 0, 11, 46, 43
|43, 46, 49, 0, 0, 23, 0, 0, 0, 0, 0, 0, 0, 3, 0, 38, 40, 37, 26, 0, 0, 17, 21, 0, 0, 41, 0, 11, 0, 0, 0, 0, 0, 34, 0, 0, 0, 0, 0, 48, 29, 0, 0, 0, 0, 0, 0, 0, 0
|20, 44, 0, 0, 42, 0, 1, 0, 0, 4, 0, 0, 0, 0, 25, 0, 0, 0, 22, 0, 0, 15, 0, 49, 0, 0, 28, 0, 0, 0, 35, 18, 0, 39, 26, 37, 0, 43, 8, 11, 0, 0, 0, 0, 0, 0, 0, 40, 16
|0, 0, 0, 0, 0, 0, 0, 0, 26, 0, 0, 0, 0, 41, 0, 24, 20, 0, 0, 0, 0, 16, 0, 0, 0, 0, 0, 0, 0, 13, 43, 0, 0, 22, 0, 0, 0, 0, 0, 0, 21, 0, 0, 0, 0, 0, 17, 0, 0
|0, 2, 0, 0, 0, 39, 36, 0, 0, 0, 0, 0, 0, 0, 35, 0, 0, 46, 0, 0, 0, 0, 0, 0, 0, 0, 41, 3, 0, 44, 0, 0, 0, 29, 0, 0, 21, 0, 17, 0, 0, 0, 0, 0, 18, 0, 0, 0, 0
|0, 0, 0, 0, 24, 0, 33, 0, 0, 42, 0, 48, 0, 0, 22, 0, 0, 0, 0, 0, 0, 0, 9, 27, 18, 0, 38, 0, 7, 0, 0, 0, 0, 16, 0, 13, 0, 0, 0, 0, 0, 0, 0, 0, 0, 0, 6, 0, 0
|42, 0, 0, 0, 30, 0, 0, 45, 31, 0, 7, 0, 0, 36, 0, 0, 0, 0, 37, 0, 0, 0, 44, 23, 48, 0, 0, 39, 0, 0, 0, 0, 0, 0, 46, 8, 14, 34, 29, 41, 0, 0, 0, 40, 0, 27, 0, 10, 0
|0, 0, 0, 0, 0, 0, 0, 0, 22, 0, 0, 46, 0, 0, 0, 0, 0, 18, 0, 0, 39, 0, 29, 0, 0, 0, 0, 0, 0, 0, 0, 35, 0, 0, 0, 3, 0, 0, 48, 0, 0, 24, 0, 0, 0, 0, 0, 47, 0
|40, 0, 0, 0, 0, 0, 48, 10, 20, 0, 0, 0, 17, 0, 0, 0, 0, 32, 27, 0, 0, 0, 15, 0, 36, 0, 5, 0, 0, 47, 0, 0, 0, 0, 23, 0, 26, 0, 0, 7, 0, 0, 33, 28, 1, 0, 0, 14, 0
|0, 0, 0, 0, 0, 0, 0, 0, 0, 0, 39, 0, 47, 0, 23, 0, 0, 0, 0, 15, 0, 45, 28, 0, 35, 0, 0, 46, 0, 9, 0, 0, 0, 0, 0, 0, 0, 0, 0, 12, 0, 0, 0, 0, 4, 0, 0, 34, 0
|9, 31, 0, 25, 23, 21, 41, 0, 11, 40, 0, 12, 0, 0, 0, 0, 0, 0, 0, 0, 0, 0, 0, 33, 24, 0, 0, 0, 0, 0, 45, 0, 0, 0, 0, 0, 0, 0, 39, 0, 0, 0, 44, 30, 35, 0, 46, 17, 0
|0, 0, 0, 0, 0, 0, 0, 0, 24, 45, 0, 0, 49, 0, 0, 0, 0, 0, 0, 20, 0, 0, 0, 0, 0, 0, 0, 6, 0, 7, 14, 0, 0, 0, 13, 0, 0, 0, 0, 0, 0, 0, 5, 0, 0, 36, 0, 9, 0
|31, 37, 0, 0, 0, 0, 0, 0, 25, 0, 0, 0, 0, 0, 0, 0, 4, 42, 0, 0, 0, 3, 0, 0, 0, 33, 0, 0, 0, 0, 0, 38, 28, 0, 0, 17, 19, 0, 0, 14, 2, 0, 46, 0, 0, 0, 45, 0, 0
|0, 0, 0, 42, 34, 0, 0, 0, 0, 0, 3, 0, 0, 0, 0, 0, 0, 0, 25, 0, 0, 0, 0, 0, 23, 0, 0, 0, 0, 0, 0, 0, 0, 0, 0, 5, 39, 12, 0, 0, 0, 0, 0, 0, 0, 0, 0, 0, 0
|0, 41, 0, 39, 0, 0, 0, 0, 0, 14, 0, 0, 0, 0, 0, 0, 0, 0, 0, 0, 34, 10, 46, 0, 0, 0, 0, 45, 37, 0, 0, 0, 0, 0, 0, 7, 0, 0, 0, 38, 33, 0, 0, 21, 0, 0, 35, 12, 0
|2, 0, 0, 38, 0, 3, 18, 0, 0, 0, 0, 9, 0, 0, 0, 0, 0, 0, 0, 0, 0, 43, 0, 0, 0, 0, 21, 0, 0, 24, 0, 0, 0, 0, 0, 0, 0, 0, 36, 25, 13, 0, 1, 19, 0, 0, 42, 0, 32
|0, 0, 0, 0, 47, 0, 19, 0, 0, 0, 4, 0, 0, 0, 0, 15, 0, 12, 0, 49, 0, 0, 0, 48, 0, 0, 0, 0, 0, 0, 0, 22, 0, 45, 0, 0, 0, 0, 30, 0, 0, 44, 41, 0, 0, 0, 0, 0, 0
|0, 0, 6, 14, 10, 28, 40, 5, 0, 31, 0, 20, 0, 0, 0, 0, 35, 0, 0, 44, 0, 0, 0, 7, 0, 38, 0, 0, 0, 29, 0, 16, 0, 0, 19, 0, 4, 0, 3, 0, 0, 0, 0, 0, 0, 37, 0, 0, 0
|0, 0, 0, 0, 0, 0, 0, 0, 0, 0, 13, 0, 0, 14, 0, 0, 0, 0, 39, 0, 0, 0, 0, 0, 0, 0, 0, 0, 0, 22, 41, 0, 7, 0, 0, 0, 25, 0, 0, 0, 8, 0, 0, 0, 0, 0, 0, 0, 44
|10, 0, 0, 0, 39, 47, 35, 0, 0, 0, 0, 29, 7, 0, 28, 0, 34, 0, 0, 0, 33, 0, 0, 0, 0, 13, 0, 17, 0, 0, 0, 0, 36, 12, 0, 0, 0, 0, 1, 45, 4, 0, 49, 0, 14, 46, 0, 41, 0
|0, 0, 0, 0, 8, 0, 2, 4, 45, 10, 0, 0, 0, 0, 0, 0, 43, 7, 0, 0, 35, 49, 0, 0, 27, 28, 0, 15, 0, 0, 0, 0, 14, 37, 0, 0, 0, 47, 0, 0, 0, 0, 0, 0, 0, 0, 31, 21, 29
|0, 0, 43, 0, 0, 0, 7, 0, 0, 41, 26, 0, 0, 0, 0, 0, 0, 0, 9, 0, 8, 0, 0, 0, 0, 0, 0, 40, 0, 0, 0, 0, 0, 0, 0, 0, 0, 0, 0, 24, 0, 0, 0, 20, 0, 1, 15, 4, 0
|44, 0, 0, 0, 0, 0, 0, 0, 0, 0, 0, 37, 0, 24, 47, 0, 0, 0, 0, 0, 26, 11, 0, 0, 0, 0, 32, 0, 0, 35, 3, 0, 0, 0, 15, 0, 33, 41, 14, 0, 0, 0, 0, 0, 0, 0, 10, 0, 28
|37, 0, 28, 0, 46, 0, 0, 0, 0, 25, 30, 0, 0, 0, 16, 0, 6, 0, 0, 0, 0, 0, 0, 0, 0, 0, 0, 14, 0, 31, 0, 0, 0, 0, 0, 38, 0, 0, 0, 0, 9, 0, 35, 17, 0, 0, 0, 0, 48
|0, 0, 0, 16, 0, 0, 0, 18, 0, 0, 0, 0, 46, 27, 0, 0, 0, 0, 0, 0, 37, 0, 43, 0, 29, 0, 8, 0, 20, 0, 0, 0, 0, 0, 0, 0, 0, 0, 0, 0, 0, 48, 0, 0, 0, 3, 0, 0, 0
|0, 0, 0, 0, 0, 0, 0, 0, 42, 0, 0, 0, 0, 0, 0, 0, 0, 0, 0, 0, 0, 0, 8, 0, 12, 0, 0, 36, 32, 37, 0, 0, 0, 35, 0, 0, 0, 0, 38, 0, 16, 0, 0, 18, 0, 0, 0, 0, 0
|3, 0, 0, 6, 0, 0, 49, 12, 0, 38, 43, 0, 0, 17, 5, 26, 0, 0, 21, 0, 0, 0, 0, 0, 16, 0, 0, 0, 0, 0, 0, 0, 0, 0, 0, 22, 30, 0, 9, 2, 0, 0, 0, 0, 0, 0, 0, 33, 0
|17, 0, 0, 0, 0, 0, 0, 0, 0, 0, 0, 0, 0, 29, 0, 0, 0, 0, 0, 0, 48, 0, 0, 0, 0, 0, 0, 31, 0, 0, 0, 0, 39, 0, 0, 0, 0, 33, 0, 6, 0, 0, 0, 0, 0, 20, 13, 0, 42
|0, 0, 2, 30, 0, 40, 0, 0, 0, 0, 0, 33, 16, 0, 32, 0, 28, 0, 0, 22, 0, 0, 0, 0, 0, 0, 0, 0, 0, 0, 0, 0, 43, 0, 0, 0, 0, 25, 0, 0, 0, 0, 0, 0, 0, 0, 0, 39, 0
|0, 0, 0, 0, 0, 0, 28, 0, 32, 0, 0, 0, 5, 0, 0, 0, 0, 0, 0, 0, 0, 0, 0, 44, 0, 0, 0, 43, 0, 0, 0, 14, 0, 38, 0, 0, 0, 0, 0, 0, 17, 0, 0, 45, 0, 31, 0, 0, 0
|41, 27, 0, 0, 21, 0, 32, 0, 0, 0, 0, 0, 0, 0, 0, 0, 0, 0, 0, 42, 10, 0, 0, 0, 49, 0, 0, 0, 0, 45, 0, 0, 0, 0, 0, 0, 0, 0, 0, 0, 0, 0, 0, 0, 0, 38, 16, 3, 7
|38, 0, 0, 36, 0, 0, 0, 0, 0, 0, 0, 0, 0, 0, 0, 41, 0, 0, 0, 0, 0, 33, 0, 20, 0, 0, 0, 0, 0, 0, 0, 0, 0, 13, 12, 0, 0, 0, 35, 4, 0, 14, 0, 0, 0, 0, 40, 0, 37
|0, 0, 0, 0, 36, 0, 42, 0, 7, 0, 0, 0, 15, 0, 0, 0, 0, 19, 41, 0, 0, 38, 48, 0, 0, 0, 0, 0, 0, 0, 0, 0, 0, 14, 31, 0, 0, 21, 43, 0, 0, 0, 0, 6, 0, 0, 0, 13, 0
|0, 13, 0, 0, 48, 9, 0, 25, 0, 0, 31, 0, 29, 0, 0, 0, 0, 23, 16, 0, 0, 0, 0, 0, 0, 0, 0, 0, 17, 1, 0, 0, 0, 36, 0, 40, 42, 14, 12, 0, 0, 37, 28, 26, 0, 0, 0, 0, 19
|0, 17, 0, 35, 0, 12, 0, 22, 14, 0, 0, 0, 0, 0, 0, 0, 0, 0, 0, 0, 0, 0, 0, 0, 0, 0, 0, 44, 45, 0, 42, 0, 20, 0, 0, 0, 0, 23, 0, 0, 0, 0, 0, 0, 0, 24, 0, 37, 0
|33, 0, 0, 0, 0, 0, 0, 40, 0, 0, 0, 0, 0, 47, 0, 0, 0, 0, 38, 0, 0, 0, 2, 0, 42, 0, 0, 0, 0, 27, 0, 0, 35, 0, 0, 0, 0, 0, 0, 0, 25, 29, 0, 0, 0, 0, 0, 16, 0
|0, 0, 27, 19, 0, 0, 25, 0, 0, 0, 34, 0, 21, 0, 0, 0, 44, 0, 14, 0, 42, 0, 0, 0, 3, 0, 0, 5, 0, 0, 0, 2, 0, 0, 28, 35, 8, 0, 0, 0, 0, 0, 47, 0, 32, 0, 0, 0, 0
|0, 1, 0, 0, 0, 0, 0, 0, 0, 0, 42, 0, 0, 0, 49, 25, 0, 0, 0, 0, 32, 0, 0, 0, 0, 0, 0, 22, 0, 0, 0, 0, 47, 0, 0, 0, 0, 0, 0, 0, 38, 13, 0, 0, 0, 0, 0, 7, 45
|7, 0, 14, 0, 38, 0, 0, 0, 0, 0, 20, 36, 13, 0, 0, 0, 0, 0, 10, 0, 1, 0, 0, 17, 28, 0, 0, 0, 0, 0, 12, 0, 25, 0, 40, 48, 0, 0, 0, 0, 0, 0, 0, 0, 0, 0, 44, 0, 15
|0, 0, 0, 46, 2, 0, 29, 28, 0, 17, 0, 19, 26, 9, 37, 7, 1, 49, 0, 0, 0, 6, 0, 0, 0, 0, 0, 0, 0, 0, 0, 45, 38, 31, 0, 44, 0, 0, 0, 13, 0, 0, 20, 0, 0, 23, 33, 0, 0
|0, 0, 0, 0, 0, 0, 0, 0, 40, 46, 0, 0, 0, 0, 0, 0, 45, 0, 0, 0, 0, 0, 7, 26, 0, 0, 0, 0, 22, 0, 0, 0, 0, 0, 43, 0, 0, 0, 2, 0, 0, 0, 13, 0, 21, 0, 19, 32, 0
|39, 0, 47, 0, 0, 1, 0, 0, 0, 3, 11, 0, 0, 0, 0, 19, 0, 0, 0, 0, 0, 0, 0, 29, 0, 0, 0, 0, 0, 26, 25, 0, 0, 20, 4, 0, 5, 0, 34, 0, 0, 0, 0, 0, 44, 0, 0, 0, 0
|0, 0, 17, 0, 0, 0, 0, 13, 0, 0, 0, 0, 0, 33, 0, 0, 0, 0, 42, 29, 0, 0, 0, 0, 20, 0, 0, 0, 0, 0, 0, 0, 0, 6, 0, 0, 0, 0, 37, 0, 0, 0, 0, 25, 0, 0, 0, 5, 12
|0, 26, 0, 0, 0, 0, 0, 0, 0, 0, 24, 0, 0, 0, 21, 9, 0, 0, 0, 0, 0, 48, 38, 0, 0, 34, 13, 0, 0, 0, 0, 0, 16, 17, 0, 0, 0, 49, 0, 35, 43, 0, 0, 1, 0, 0, 0, 36, 0
|36, 0, 0, 40, 19, 0, 0, 0, 37, 0, 25, 45, 1, 32, 0, 0, 0, 11, 0, 26, 0, 0, 17, 41, 47, 0, 0, 0, 0, 0, 0, 0, 0, 0, 0, 30, 0, 0, 0, 0, 0, 0, 0, 0, 0, 0, 3, 0, 24
|35, 0, 0, 13, 0, 0, 6, 21, 41, 43, 0, 0, 12, 44, 0, 0, 3, 0, 0, 0, 0, 28, 24, 0, 0, 31, 0, 0, 0, 0, 1, 0, 9, 0, 0, 0, 0, 0, 0, 0, 0, 17, 0, 0, 0, 14, 0, 0, 0|];