order = 7;
grid = [|0, 16, 0, 49, 0, 0, 0, 0, 37, 0, 0, 0, 0, 0, 0, 0, 29, 0, 0, 0, 47, 0, 0, 0, 0, 0, 38, 0, 0, 0, 0, 15, 0, 0, 0, 0, 28, 0, 0, 34, 0, 0, 0, 25, 0, 0, 17, 0, 4
|0, 0, 0, 0, 0, 30, 0, 0, 23, 0, 0, 13, 10, 0, 0, 0, 0, 0, 0, 0, 0, 0, 0, 0, 0, 0, 0, 0, 0, 0, 0, 0, 0, 0, 39, 26, 41, 0, 0, 5, 8, 0, 34, 18, 0, 0, 0, 0, 31
|0, 13, 0, 5, 34, 0, 0, 0, 48, 0, 0, 0, 18, 0, 0, 25, 0, 28, 0, 0, 0, 4, 0, 0, 17, 0, 0, 0, 0, 0, 49, 0, 11, 0, 0, 35, 0, 2, 0, 0, 0, 0, 10, 0, 0, 12, 0, 0, 3
|41, 0, 0, 32, 26, 0, 0, 0, 0, 39, 0, 0, 36, 0, 0, 0, 4, 0, 0, 0, 0, 0, 0, 0, 0, 0, 0, 0, 0, 0, 0, 0, 0, 27, 5, 0, 0, 0, 0, 0, 0, 0, 46, 0, 6, 0, 13, 0, 47
|0, 0, 0, 0, 0, 0, 25, 0, 22, 0, 28, 8, 0, 0, 0, 0, 0, 0, 0, 26, 0, 0, 0, 0, 45, 0, 0, 0, 0, 0, 0, 0, 0, 0, 0, 0, 0, 21, 37, 12, 0, 17, 29, 0, 39, 0, 0, 0, 0
|29, 28, 0, 38, 0, 0, 0, 21, 0, 0, 0, 49, 0, 0, 0, 0, 0, 35, 0, 0, 0, 0, 24, 0, 0, 0, 0, 47, 41, 0, 0, 1, 0, 36, 0, 0, 0, 0, 0, 45, 0, 0, 19, 40, 0, 0, 0, 11, 0
|0, 0, 21, 0, 0, 0, 8, 35, 5, 0, 2, 0, 25, 0, 24, 33, 0, 49, 0, 0, 15, 0, 0, 0, 43, 27, 0, 0, 0, 17, 0, 3, 0, 0, 0, 47, 13, 16, 10, 0, 0, 11, 0, 0, 0, 36, 0, 22, 28
|0, 0, 6, 0, 37, 40, 0, 22, 0, 0, 0, 0, 0, 49, 38, 39, 0, 0, 0, 0, 31, 0, 0, 28, 0, 24, 0, 35, 0, 0, 0, 0, 0, 0, 0, 9, 0, 0, 21, 0, 17, 0, 44, 0, 0, 5, 27, 0, 23
|16, 0, 34, 0, 0, 38, 0, 0, 0, 0, 0, 12, 37, 18, 32, 0, 0, 7, 0, 46, 11, 0, 17, 0, 0, 0, 0, 0, 0, 8, 0, 0, 0, 0, 0, 0, 43, 19, 0, 0, 6, 29, 0, 0, 10, 30, 0, 49, 15
|0, 22, 0, 41, 0, 0, 0, 0, 42, 0, 20, 27, 0, 47, 0, 35, 0, 6, 28, 0, 0, 36, 0, 0, 18, 0, 0, 0, 0, 0, 46, 14, 7, 0, 1, 0, 0, 0, 0, 0, 0, 0, 0, 0, 0, 0, 0, 13, 45
|44, 0, 0, 43, 47, 0, 0, 0, 34, 0, 6, 0, 48, 0, 0, 0, 37, 2, 27, 22, 0, 0, 0, 0, 38, 5, 13, 19, 30, 25, 20, 0, 0, 0, 0, 0, 10, 0, 0, 11, 0, 31, 40, 0, 7, 4, 0, 0, 0
|0, 0, 29, 0, 5, 0, 31, 0, 0, 0, 0, 0, 0, 0, 33, 0, 42, 0, 25, 0, 0, 0, 0, 0, 0, 46, 0, 0, 0, 27, 0, 0, 21, 0, 0, 0, 0, 0, 0, 18, 22, 0, 0, 43, 47, 0, 6, 14, 0
|0, 0, 0, 0, 18, 0, 0, 0, 0, 36, 1, 0, 0, 0, 0, 0, 44, 0, 23, 0, 21, 30, 0, 0, 0, 0, 0, 0, 32, 0, 2, 0, 0, 49, 0, 39, 46, 0, 0, 0, 0, 0, 0, 33, 22, 0, 0, 0, 0
|0, 0, 0, 0, 0, 24, 0, 0, 0, 0, 0, 25, 0, 0, 19, 0, 9, 0, 30, 0, 0, 0, 0, 0, 49, 0, 0, 0, 0, 6, 0, 18, 0, 47, 34, 0, 0, 0, 0, 0, 5, 16, 32, 2, 0, 21, 0, 0, 0
|0, 0, 0, 0, 11, 0, 0, 0, 18, 16, 5, 17, 0, 37, 39, 0, 36, 0, 24, 0, 0, 47, 41, 0, 4, 2, 0, 31, 0, 0, 0, 0, 25, 0, 10, 19, 0, 0, 0, 0, 0, 0, 0, 6, 0, 0, 0, 28, 0
|42, 0, 0, 48, 0, 0, 21, 0, 0, 0, 0, 23, 0, 0, 30, 0, 0, 44, 0, 0, 45, 14, 0, 49, 0, 0, 20, 5, 0, 28, 0, 0, 0, 43, 0, 0, 0, 0, 22, 0, 40, 0, 0, 0, 17, 0, 0, 7, 0
|49, 9, 0, 44, 0, 0, 0, 0, 0, 0, 12, 0, 45, 0, 0, 0, 0, 0, 1, 11, 41, 0, 23, 0, 0, 0, 0, 0, 3, 0, 0, 0, 20, 0, 46, 0, 8, 0, 6, 0, 0, 24, 0, 0, 0, 0, 0, 0, 0
|0, 0, 27, 0, 0, 0, 33, 48, 0, 3, 10, 0, 0, 4, 0, 0, 0, 0, 0, 49, 0, 13, 30, 46, 0, 0, 0, 0, 0, 0, 0, 0, 6, 0, 0, 0, 0, 0, 0, 25, 0, 5, 21, 0, 35, 0, 0, 0, 0
|0, 30, 12, 8, 29, 0, 17, 0, 1, 6, 32, 0, 0, 0, 0, 31, 0, 0, 0, 35, 23, 39, 0, 9, 0, 0, 7, 0, 0, 44, 0, 0, 5, 0, 0, 11, 0, 14, 0, 0, 18, 0, 0, 0, 0, 46, 19, 0, 0
|0, 0, 0, 0, 36, 0, 0, 0, 0, 47, 0, 0, 0, 0, 0, 0, 0, 0, 0, 0, 0, 0, 0, 0, 0, 48, 0, 0, 18, 0, 40, 0, 0, 0, 0, 0, 21, 9, 13, 0, 28, 0, 0, 0, 0, 0, 0, 12, 0
|0, 40, 0, 4, 0, 0, 0, 28, 49, 0, 46, 0, 0, 9, 25, 6, 0, 0, 18, 0, 0, 10, 0, 8, 0, 38, 0, 45, 0, 0, 0, 0, 32, 13, 0, 0, 0, 0, 0, 0, 0, 0, 0, 0, 0, 0, 0, 0, 0
|0, 0, 0, 0, 0, 39, 0, 36, 0, 0, 0, 0, 0, 14, 0, 0, 0, 32, 2, 0, 0, 0, 0, 0, 24, 8, 0, 22, 0, 0, 11, 0, 0, 1, 45, 0, 33, 0, 0, 0, 0, 18, 28, 0, 15, 0, 0, 0, 0
|0, 0, 0, 34, 0, 36, 0, 0, 0, 13, 0, 0, 0, 0, 0, 0, 0, 0, 0, 0, 0, 45, 0, 0, 0, 0, 0, 40, 0, 41, 44, 0, 0, 0, 0, 10, 0, 11, 0, 0, 0, 0, 0, 0, 0, 2, 0, 0, 0
|0, 0, 0, 0, 0, 21, 0, 11, 0, 0, 0, 32, 0, 48, 0, 14, 47, 0, 0, 0, 0, 0, 0, 0, 0, 0, 0, 0, 0, 0, 0, 0, 34, 15, 0, 0, 24, 0, 0, 0, 20, 0, 4, 0, 41, 0, 0, 43, 0
|0, 0, 38, 0, 1, 0, 0, 0, 0, 17, 27, 0, 0, 0, 0, 0, 0, 25, 0, 0, 0, 0, 0, 0, 0, 0, 0, 0, 33, 0, 8, 0, 0, 32, 0, 30, 0, 0, 0, 0, 43, 0, 35, 0, 13, 18, 47, 10, 19
|0, 0, 0, 0, 0, 0, 4, 0, 8, 0, 0, 0, 0, 19, 0, 0, 0, 27, 0, 0, 0, 0, 0, 0, 0, 36, 0, 0, 29, 0, 0, 10, 0, 0, 0, 0, 0, 22, 0, 0, 0, 15, 20, 34, 0, 11, 0, 0, 0
|0, 0, 49, 0, 0, 0, 45, 42, 0, 0, 0, 0, 0, 7, 1, 11, 0, 0, 0, 0, 0, 0, 28, 5, 0, 10, 0, 39, 0, 0, 0, 22, 0, 0, 0, 0, 0, 0, 0, 0, 0, 0, 0, 44, 46, 29, 32, 0, 0
|0, 37, 0, 42, 0, 0, 2, 0, 0, 4, 0, 33, 0, 35, 0, 0, 0, 23, 0, 17, 0, 0, 0, 0, 0, 0, 0, 32, 0, 0, 0, 16, 0, 0, 0, 0, 0, 0, 0, 0, 0, 0, 0, 0, 0, 1, 0, 30, 40
|0, 36, 0, 0, 0, 0, 0, 0, 32, 0, 0, 0, 41, 24, 13, 0, 0, 4, 0, 0, 0, 0, 29, 0, 27, 0, 15, 0, 0, 42, 6, 0, 30, 0, 0, 0, 0, 43, 0, 0, 0, 47, 0, 0, 49, 0, 0, 0, 33
|47, 3, 0, 0, 42, 5, 0, 19, 0, 0, 0, 0, 0, 21, 0, 27, 0, 0, 17, 0, 35, 0, 46, 18, 8, 0, 45, 0, 0, 0, 0, 0, 0, 33, 0, 0, 0, 20, 0, 0, 0, 0, 30, 0, 0, 0, 0, 4, 0
|0, 0, 0, 0, 0, 0, 0, 6, 0, 22, 0, 0, 0, 3, 43, 0, 5, 0, 38, 10, 0, 0, 0, 0, 0, 0, 0, 0, 0, 0, 45, 0, 29, 0, 0, 0, 0, 0, 8, 33, 0, 0, 0, 0, 0, 0, 0, 0, 18
|0, 0, 0, 0, 0, 0, 0, 0, 0, 34, 0, 0, 0, 0, 0, 40, 30, 0, 29, 0, 48, 0, 0, 0, 0, 0, 22, 0, 7, 0, 0, 5, 0, 0, 0, 0, 11, 0, 0, 0, 32, 0, 38, 0, 0, 0, 0, 0, 0
|0, 20, 0, 39, 0, 0, 0, 0, 0, 0, 0, 42, 46, 0, 31, 0, 41, 0, 0, 18, 0, 0, 0, 30, 0, 0, 0, 0, 27, 0, 25, 0, 0, 0, 0, 0, 0, 40, 0, 0, 0, 0, 0, 0, 32, 0, 0, 0, 0
|0, 18, 0, 24, 0, 0, 0, 10, 0, 0, 17, 0, 33, 0, 0, 0, 0, 0, 7, 0, 0, 0, 0, 2, 0, 13, 0, 16, 0, 0, 0, 12, 36, 35, 31, 3, 0, 0, 38, 28, 0, 34, 0, 0, 0, 14, 46, 0, 6
|0, 0, 0, 0, 14, 0, 0, 23, 0, 0, 0, 0, 5, 0, 36, 26, 1, 0, 37, 0, 0, 33, 0, 0, 0, 0, 0, 24, 2, 0, 18, 0, 0, 0, 48, 0, 0, 0, 42, 0, 0, 0, 0, 0, 0, 0, 0, 0, 0
|0, 0, 0, 0, 0, 32, 0, 0, 12, 0, 0, 0, 0, 0, 34, 23, 43, 0, 0, 0, 0, 0, 36, 0, 0, 0, 0, 48, 22, 0, 13, 0, 33, 0, 6, 0, 0, 0, 0, 0, 0, 0, 26, 0, 4, 17, 0, 2, 29
|0, 0, 0, 0, 0, 16, 5, 0, 11, 0, 0, 0, 24, 20, 0, 0, 7, 0, 0, 0, 0, 0, 10, 0, 0, 19, 0, 0, 0, 0, 0, 0, 0, 0, 27, 0, 0, 38, 0, 0, 0, 9, 0, 0, 0, 0, 0, 0, 0
|0, 8, 25, 0, 0, 0, 0, 0, 2, 0, 36, 0, 0, 0, 37, 15, 0, 0, 0, 0, 0, 40, 0, 0, 42, 43, 0, 0, 0, 0, 0, 0, 0, 0, 29, 0, 0, 0, 32, 0, 0, 3, 23, 0, 0, 6, 0, 34, 0
|18, 0, 0, 0, 0, 0, 0, 0, 0, 0, 0, 14, 0, 0, 0, 0, 0, 22, 0, 0, 27, 0, 0, 24, 0, 0, 0, 0, 0, 0, 0, 0, 0, 0, 0, 0, 0, 12, 0, 0, 0, 4, 0, 0, 0, 7, 0, 0, 44
|0, 0, 17, 0, 0, 7, 0, 0, 0, 0, 0, 0, 0, 0, 21, 0, 12, 0, 47, 0, 24, 0, 4, 0, 13, 0, 0, 41, 26, 0, 19, 0, 0, 0, 36, 0, 0, 0, 29, 0, 10, 0, 0, 0, 0, 0, 0, 18, 0
|20, 0, 0, 0, 0, 0, 0, 0, 47, 0, 0, 0, 0, 0, 18, 0, 0, 0, 0, 0, 0, 0, 14, 25, 0, 0, 46, 26, 0, 0, 0, 0, 0, 0, 0, 22, 0, 0, 0, 0, 0, 0, 39, 0, 0, 0, 0, 35, 10
|0, 12, 0, 36, 41, 27, 0, 0, 16, 0, 0, 0, 6, 44, 26, 0, 0, 8, 0, 9, 0, 2, 0, 47, 32, 1, 0, 0, 0, 0, 0, 35, 0, 0, 7, 0, 0, 0, 15, 0, 11, 0, 49, 31, 24, 0, 0, 0, 0
|31, 0, 0, 21, 0, 0, 0, 33, 0, 0, 0, 20, 0, 0, 0, 22, 0, 0, 0, 0, 0, 0, 16, 0, 0, 15, 0, 0, 0, 0, 0, 0, 0, 41, 0, 14, 0, 32, 0, 7, 47, 0, 0, 0, 0, 0, 0, 3, 0
|34, 43, 0, 23, 0, 0, 0, 0, 6, 0, 0, 0, 0, 10, 0, 0, 0, 0, 13, 28, 0, 3, 31, 0, 0, 0, 0, 0, 0, 0, 5, 0, 0, 0, 0, 0, 42, 0, 33, 0, 0, 0, 0, 22, 0, 0, 0, 0, 37
|0, 0, 0, 0, 0, 0, 48, 0, 36, 0, 0, 0, 0, 0, 47, 8, 0, 0, 0, 44, 0, 0, 9, 0, 0, 45, 0, 0, 0, 0, 0, 0, 18, 0, 0, 0, 3, 0, 0, 0, 35, 0, 0, 0, 12, 0, 39, 0, 2
|0, 5, 0, 47, 0, 0, 0, 8, 0, 0, 0, 0, 27, 0, 0, 0, 0, 20, 0, 0, 17, 24, 0, 0, 0, 42, 30, 0, 0, 0, 0, 0, 0, 0, 0, 0, 0, 28, 0, 0, 0, 13, 0, 0, 43, 0, 10, 0, 0
|0, 0, 0, 0, 0, 0, 0, 0, 0, 0, 0, 0, 0, 40, 7, 3, 0, 0, 0, 0, 0, 44, 12, 0, 0, 0, 0, 8, 0, 14, 0, 0, 42, 28, 22, 0, 5, 0, 0, 0, 0, 0, 11, 47, 0, 0, 4, 0, 0
|0, 14, 3, 0, 0, 0, 0, 37, 0, 0, 0, 0, 34, 0, 0, 0, 0, 0, 0, 0, 25, 0, 0, 0, 0, 0, 0, 0, 17, 0, 0, 0, 0, 0, 0, 45, 0, 0, 46, 0, 0, 0, 24, 0, 0, 27, 0, 0, 0
|45, 0, 0, 0, 0, 0, 0, 0, 0, 48, 0, 11, 0, 0, 49, 34, 46, 37, 0, 15, 2, 38, 0, 0, 47, 0, 0, 0, 0, 30, 0, 0, 0, 0, 0, 31, 0, 23, 0, 0, 29, 0, 0, 0, 0, 0, 0, 0, 0|];