order = 7;
grid = [|0, 33, 44, 43, 0, 45, 0, 0, 0, 42, 41, 0, 0, 0, 0, 0, 16, 20, 0, 0, 0, 0, 0, 0, 0, 0, 0, 0, 3, 14, 11, 0, 49, 34, 0, 0, 24, 0, 0, 0, 0, 0, 0, 10, 0, 0, 0, 0, 0
|0, 7, 3, 0, 0, 0, 0, 18, 0, 0, 16, 0, 0, 0, 0, 0, 0, 0, 0, 0, 11, 0, 0, 0, 0, 0, 26, 41, 0, 0, 0, 0, 0, 0, 8, 0, 0, 0, 15, 0, 21, 10, 0, 0, 5, 0, 0, 0, 0
|0, 0, 35, 0, 0, 0, 0, 13, 43, 0, 0, 0, 0, 10, 0, 0, 44, 40, 0, 0, 0, 0, 0, 0, 4, 15, 0, 0, 0, 9, 0, 29, 0, 0, 0, 0, 0, 48, 0, 0, 0, 17, 0, 0, 11, 0, 0, 33, 38
|0, 0, 0, 0, 17, 26, 0, 0, 0, 0, 0, 0, 31, 0, 0, 0, 0, 0, 0, 0, 34, 25, 45, 0, 0, 44, 42, 0, 0, 0, 0, 0, 39, 47, 0, 3, 8, 0, 43, 0, 38, 16, 0, 48, 0, 0, 0, 0, 0
|46, 0, 47, 11, 0, 8, 0, 2, 0, 0, 0, 0, 0, 0, 0, 0, 0, 0, 0, 12, 0, 10, 40, 43, 0, 48, 0, 0, 44, 24, 0, 17, 0, 0, 31, 0, 19, 0, 0, 0, 0, 25, 4, 0, 0, 0, 0, 0, 0
|0, 0, 0, 0, 0, 0, 0, 0, 7, 0, 0, 46, 0, 0, 21, 32, 0, 0, 0, 36, 0, 0, 0, 0, 0, 0, 37, 0, 0, 0, 45, 0, 2, 0, 48, 0, 4, 34, 0, 12, 35, 41, 23, 20, 22, 47, 3, 0, 30
|0, 0, 0, 0, 0, 16, 0, 0, 0, 22, 15, 44, 45, 0, 25, 0, 0, 0, 0, 0, 0, 0, 12, 0, 0, 0, 0, 0, 0, 41, 0, 10, 0, 0, 7, 39, 0, 0, 0, 0, 0, 0, 0, 0, 14, 43, 0, 0, 0
|0, 0, 23, 0, 21, 31, 11, 0, 0, 25, 29, 0, 0, 41, 0, 49, 38, 0, 0, 0, 17, 0, 0, 0, 0, 0, 0, 0, 0, 44, 20, 0, 0, 0, 32, 2, 0, 15, 0, 0, 0, 0, 0, 0, 0, 39, 0, 0, 0
|45, 0, 0, 0, 0, 0, 10, 40, 14, 0, 32, 0, 0, 0, 0, 29, 0, 2, 0, 0, 0, 49, 0, 0, 0, 37, 0, 0, 0, 0, 0, 5, 0, 8, 0, 0, 0, 0, 0, 0, 0, 0, 0, 42, 0, 19, 21, 13, 0
|0, 0, 0, 0, 22, 0, 0, 39, 46, 0, 0, 26, 0, 34, 0, 0, 0, 0, 31, 0, 0, 0, 0, 14, 0, 9, 0, 0, 19, 0, 0, 0, 0, 0, 0, 0, 0, 20, 0, 0, 0, 0, 0, 0, 0, 49, 0, 0, 0
|0, 0, 0, 18, 0, 0, 0, 0, 0, 49, 0, 17, 7, 9, 0, 0, 0, 0, 0, 0, 0, 0, 24, 6, 0, 2, 0, 0, 0, 0, 0, 41, 0, 0, 0, 28, 34, 0, 0, 0, 45, 0, 0, 22, 0, 0, 0, 0, 47
|0, 0, 0, 19, 0, 0, 0, 0, 0, 45, 0, 0, 0, 0, 0, 0, 0, 0, 0, 0, 0, 22, 0, 0, 30, 0, 17, 0, 0, 0, 31, 6, 3, 0, 27, 0, 47, 0, 0, 0, 0, 0, 0, 0, 0, 0, 0, 0, 0
|26, 0, 0, 16, 8, 0, 0, 0, 0, 36, 0, 0, 42, 0, 12, 0, 0, 0, 0, 0, 20, 5, 0, 0, 18, 0, 0, 39, 17, 0, 0, 25, 24, 45, 0, 0, 0, 23, 0, 0, 33, 0, 0, 31, 9, 29, 0, 0, 0
|9, 0, 0, 5, 0, 12, 0, 0, 8, 0, 0, 37, 0, 0, 0, 0, 0, 27, 0, 0, 0, 45, 0, 42, 0, 0, 44, 0, 0, 0, 4, 0, 13, 0, 0, 29, 0, 0, 0, 0, 0, 36, 0, 15, 0, 0, 0, 0, 0
|0, 38, 41, 0, 0, 42, 7, 0, 22, 0, 28, 14, 0, 0, 0, 0, 0, 17, 16, 0, 0, 12, 0, 0, 43, 0, 0, 0, 0, 0, 0, 0, 33, 0, 21, 0, 23, 0, 47, 0, 0, 46, 35, 0, 0, 0, 0, 27, 0
|27, 0, 22, 0, 30, 0, 0, 0, 41, 0, 42, 11, 47, 49, 0, 25, 31, 48, 14, 0, 0, 18, 0, 16, 0, 34, 0, 0, 0, 0, 0, 44, 0, 0, 0, 0, 13, 0, 29, 10, 0, 0, 8, 0, 0, 0, 0, 0, 36
|0, 0, 14, 0, 47, 21, 0, 31, 0, 18, 45, 0, 0, 0, 0, 41, 0, 44, 9, 0, 3, 11, 27, 0, 2, 0, 1, 42, 0, 0, 0, 0, 15, 0, 0, 19, 0, 0, 17, 0, 49, 0, 28, 0, 0, 0, 0, 29, 0
|1, 0, 0, 10, 0, 0, 0, 43, 0, 29, 0, 0, 19, 0, 0, 0, 0, 0, 0, 0, 0, 0, 48, 0, 0, 0, 0, 13, 0, 16, 25, 0, 0, 0, 0, 0, 0, 41, 0, 0, 32, 40, 0, 7, 18, 31, 15, 49, 0
|0, 0, 0, 0, 18, 0, 0, 0, 0, 0, 44, 7, 0, 0, 0, 0, 20, 15, 0, 22, 0, 26, 25, 0, 0, 0, 0, 0, 0, 0, 0, 34, 0, 35, 0, 0, 0, 31, 0, 0, 0, 0, 0, 0, 23, 0, 0, 0, 0
|0, 0, 0, 0, 0, 0, 19, 9, 0, 0, 0, 0, 2, 0, 0, 18, 0, 0, 24, 0, 6, 0, 0, 0, 29, 0, 23, 0, 0, 0, 32, 0, 0, 0, 0, 0, 43, 0, 0, 0, 0, 0, 0, 0, 0, 0, 0, 0, 22
|0, 0, 0, 0, 0, 0, 0, 27, 0, 0, 0, 0, 0, 0, 0, 0, 0, 0, 43, 0, 0, 0, 22, 0, 0, 0, 0, 0, 10, 0, 14, 0, 0, 0, 41, 0, 0, 0, 0, 9, 0, 0, 0, 0, 0, 0, 37, 0, 0
|24, 46, 0, 0, 19, 0, 0, 0, 0, 0, 0, 0, 0, 0, 0, 8, 0, 0, 0, 0, 0, 0, 0, 0, 48, 35, 0, 32, 2, 25, 0, 36, 0, 30, 0, 0, 42, 0, 12, 0, 0, 0, 31, 37, 4, 0, 0, 22, 26
|0, 11, 0, 0, 26, 0, 0, 22, 0, 0, 49, 2, 0, 0, 0, 0, 3, 32, 0, 0, 0, 0, 0, 4, 0, 0, 12, 0, 45, 0, 0, 0, 0, 0, 10, 0, 0, 0, 0, 0, 25, 0, 0, 0, 8, 0, 7, 43, 0
|0, 0, 0, 0, 7, 1, 0, 15, 0, 0, 0, 0, 0, 0, 0, 0, 0, 33, 0, 0, 0, 37, 0, 19, 0, 0, 0, 25, 0, 0, 0, 40, 0, 0, 0, 24, 0, 0, 0, 0, 0, 0, 0, 0, 0, 0, 0, 0, 27
|0, 17, 0, 0, 0, 22, 0, 0, 31, 0, 30, 0, 6, 14, 24, 0, 0, 35, 21, 16, 0, 0, 0, 0, 0, 20, 0, 0, 43, 0, 0, 27, 0, 7, 0, 0, 9, 26, 0, 34, 37, 0, 0, 0, 0, 0, 11, 25, 0
|0, 0, 2, 15, 0, 0, 44, 42, 0, 0, 48, 12, 0, 46, 28, 0, 0, 0, 0, 0, 45, 0, 0, 0, 21, 1, 6, 0, 11, 0, 0, 0, 0, 0, 19, 0, 0, 16, 0, 0, 0, 0, 0, 0, 0, 0, 33, 0, 29
|18, 23, 21, 0, 0, 0, 0, 25, 0, 0, 3, 0, 28, 36, 0, 19, 14, 13, 0, 0, 0, 44, 43, 0, 26, 0, 0, 0, 0, 32, 0, 0, 48, 0, 0, 1, 11, 0, 46, 0, 0, 7, 0, 0, 42, 34, 0, 0, 16
|0, 0, 48, 0, 0, 0, 0, 4, 13, 38, 0, 0, 0, 0, 36, 0, 0, 25, 0, 0, 7, 0, 0, 0, 0, 0, 0, 0, 0, 34, 0, 1, 0, 0, 0, 0, 0, 45, 0, 0, 19, 0, 0, 0, 0, 0, 0, 46, 0
|8, 0, 0, 44, 25, 0, 0, 11, 0, 0, 0, 0, 35, 0, 0, 0, 0, 0, 46, 0, 0, 0, 0, 0, 0, 0, 0, 0, 0, 0, 28, 0, 0, 0, 14, 0, 0, 0, 0, 16, 17, 0, 0, 40, 0, 0, 0, 0, 0
|0, 0, 43, 40, 20, 13, 15, 0, 0, 0, 0, 32, 0, 38, 0, 16, 0, 0, 0, 0, 0, 0, 0, 0, 14, 0, 0, 0, 0, 39, 0, 0, 0, 0, 0, 0, 0, 0, 25, 0, 29, 0, 34, 0, 0, 0, 0, 0, 0
|0, 22, 0, 0, 0, 32, 0, 0, 25, 0, 26, 28, 46, 0, 0, 0, 0, 0, 0, 0, 0, 0, 0, 13, 20, 0, 0, 0, 0, 0, 0, 0, 17, 0, 44, 0, 0, 0, 0, 0, 0, 0, 0, 0, 43, 27, 8, 0, 0
|21, 0, 0, 0, 2, 0, 0, 0, 4, 0, 5, 41, 17, 0, 32, 0, 0, 0, 0, 0, 40, 0, 3, 0, 0, 0, 0, 0, 0, 0, 0, 37, 0, 0, 46, 27, 0, 0, 23, 38, 24, 28, 13, 36, 0, 30, 0, 6, 0
|0, 0, 0, 0, 0, 0, 0, 0, 0, 31, 2, 0, 0, 0, 27, 43, 0, 19, 0, 20, 0, 0, 16, 44, 36, 0, 0, 5, 41, 0, 0, 0, 0, 0, 0, 0, 0, 37, 0, 0, 26, 0, 0, 28, 0, 0, 29, 0, 33
|0, 0, 0, 0, 41, 0, 45, 0, 29, 40, 0, 49, 0, 0, 17, 3, 0, 38, 0, 4, 0, 0, 47, 0, 0, 0, 0, 19, 42, 0, 0, 32, 20, 0, 6, 33, 35, 10, 0, 0, 0, 0, 7, 14, 0, 0, 0, 12, 0
|34, 37, 16, 0, 0, 0, 0, 0, 0, 0, 0, 0, 10, 0, 0, 0, 22, 31, 0, 25, 0, 41, 6, 0, 40, 33, 0, 0, 0, 0, 0, 0, 0, 48, 0, 0, 0, 0, 20, 43, 44, 0, 0, 23, 0, 0, 0, 0, 0
|0, 0, 0, 0, 0, 0, 0, 0, 0, 0, 0, 0, 0, 45, 0, 0, 0, 0, 0, 0, 0, 0, 0, 35, 0, 0, 0, 0, 0, 7, 8, 0, 0, 0, 0, 41, 0, 12, 0, 0, 0, 0, 0, 0, 0, 32, 20, 0, 48
|25, 0, 0, 1, 0, 0, 0, 0, 0, 0, 40, 0, 0, 0, 0, 6, 0, 49, 0, 7, 0, 36, 0, 26, 0, 8, 0, 0, 0, 15, 0, 0, 0, 0, 0, 0, 10, 0, 0, 0, 0, 0, 0, 33, 0, 0, 41, 14, 0
|0, 29, 0, 0, 0, 0, 0, 0, 0, 0, 0, 0, 41, 0, 0, 17, 26, 0, 0, 0, 0, 30, 0, 0, 0, 0, 0, 22, 21, 0, 13, 0, 0, 0, 0, 0, 0, 0, 0, 0, 47, 0, 0, 8, 46, 0, 0, 23, 10
|0, 0, 0, 0, 0, 0, 0, 0, 0, 0, 0, 30, 0, 0, 0, 0, 0, 39, 0, 0, 0, 0, 0, 0, 0, 0, 31, 0, 49, 1, 0, 0, 37, 0, 0, 0, 20, 0, 0, 0, 11, 8, 0, 0, 7, 17, 34, 0, 0
|0, 36, 0, 47, 0, 0, 0, 5, 0, 0, 24, 0, 16, 0, 0, 0, 0, 10, 0, 0, 23, 19, 0, 7, 0, 0, 34, 0, 0, 0, 0, 0, 0, 0, 0, 0, 46, 0, 0, 0, 0, 0, 0, 0, 25, 0, 13, 2, 0
|0, 0, 0, 0, 0, 0, 0, 0, 0, 0, 0, 0, 49, 0, 46, 0, 0, 16, 0, 42, 0, 0, 1, 0, 28, 0, 0, 0, 40, 0, 34, 0, 0, 0, 9, 18, 0, 0, 0, 0, 14, 0, 0, 0, 0, 0, 47, 0, 0
|0, 0, 0, 0, 0, 0, 0, 0, 28, 12, 0, 1, 32, 0, 0, 0, 24, 22, 34, 0, 0, 21, 2, 0, 0, 0, 0, 0, 0, 10, 0, 0, 0, 0, 3, 0, 31, 0, 0, 17, 0, 19, 0, 0, 6, 26, 0, 5, 44
|0, 31, 0, 0, 0, 0, 8, 0, 21, 0, 0, 0, 3, 0, 22, 0, 0, 0, 0, 19, 49, 0, 0, 37, 0, 0, 46, 0, 0, 0, 38, 0, 0, 0, 0, 0, 45, 0, 0, 0, 0, 13, 0, 47, 0, 0, 0, 0, 12
|0, 0, 45, 37, 0, 0, 0, 8, 0, 0, 0, 20, 0, 18, 0, 12, 0, 30, 0, 0, 0, 0, 0, 0, 0, 0, 16, 26, 0, 0, 5, 0, 0, 42, 0, 46, 0, 19, 0, 0, 0, 0, 0, 0, 0, 14, 0, 0, 0
|0, 0, 0, 35, 1, 0, 0, 0, 0, 0, 25, 42, 0, 0, 6, 0, 0, 0, 5, 28, 0, 0, 0, 0, 3, 32, 0, 0, 30, 12, 0, 0, 0, 0, 0, 0, 0, 43, 0, 0, 0, 0, 0, 0, 0, 0, 27, 0, 0
|0, 30, 0, 46, 0, 0, 3, 0, 0, 0, 0, 0, 0, 0, 13, 0, 0, 0, 33, 0, 18, 0, 0, 0, 0, 42, 0, 0, 20, 31, 0, 0, 25, 0, 0, 34, 0, 0, 0, 0, 0, 0, 43, 0, 17, 0, 0, 0, 0
|0, 0, 0, 0, 42, 11, 0, 28, 34, 0, 14, 0, 38, 0, 0, 0, 0, 0, 0, 0, 0, 0, 30, 0, 0, 0, 0, 0, 0, 0, 0, 46, 27, 41, 23, 17, 18, 29, 32, 20, 0, 5, 0, 0, 0, 22, 0, 0, 0
|0, 0, 12, 0, 0, 0, 0, 0, 49, 0, 0, 0, 0, 0, 0, 0, 0, 0, 0, 0, 14, 0, 11, 20, 38, 0, 0, 27, 0, 0, 0, 0, 0, 0, 0, 35, 48, 6, 0, 0, 30, 0, 3, 0, 16, 46, 0, 41, 28
|48, 0, 4, 0, 0, 27, 0, 7, 12, 0, 0, 0, 0, 0, 0, 0, 2, 0, 0, 38, 0, 0, 10, 0, 0, 0, 0, 15, 0, 0, 0, 0, 43, 0, 16, 44, 28, 0, 36, 1, 23, 31, 0, 30, 0, 25, 0, 0, 0|];