order = 7;
grid = [|0, 0, 0, 31, 0, 0, 7, 0, 0, 0, 0, 0, 45, 0, 0, 11, 0, 0, 0, 2, 0, 0, 0, 0, 24, 0, 0, 32, 42, 41, 0, 4, 0, 0, 43, 0, 0, 1, 0, 0, 0, 0, 0, 0, 0, 25, 0, 33, 0
|43, 0, 0, 0, 11, 5, 0, 37, 0, 0, 10, 0, 18, 12, 0, 39, 0, 0, 0, 0, 0, 7, 49, 48, 0, 0, 0, 0, 0, 0, 0, 27, 21, 23, 0, 0, 38, 6, 0, 9, 0, 0, 0, 0, 17, 0, 0, 0, 0
|0, 21, 14, 0, 27, 29, 0, 0, 0, 0, 38, 0, 0, 8, 0, 42, 0, 0, 35, 0, 0, 19, 0, 0, 0, 0, 0, 20, 0, 0, 0, 0, 0, 0, 0, 0, 0, 0, 16, 3, 0, 12, 0, 0, 0, 23, 0, 0, 15
|47, 0, 0, 0, 0, 0, 33, 5, 0, 15, 0, 11, 0, 0, 44, 0, 0, 0, 28, 0, 25, 42, 0, 0, 0, 0, 0, 23, 0, 0, 0, 0, 0, 0, 0, 34, 0, 0, 0, 31, 0, 0, 43, 0, 0, 7, 0, 0, 4
|0, 0, 0, 0, 0, 0, 0, 0, 0, 0, 0, 0, 0, 0, 0, 0, 18, 0, 0, 0, 0, 0, 35, 0, 0, 0, 4, 0, 0, 0, 0, 0, 0, 45, 0, 0, 0, 0, 0, 0, 0, 39, 0, 5, 0, 0, 0, 0, 21
|49, 0, 0, 0, 0, 0, 0, 0, 0, 0, 0, 0, 35, 0, 21, 32, 23, 0, 0, 12, 0, 0, 0, 0, 0, 0, 47, 0, 0, 0, 0, 0, 15, 0, 0, 0, 0, 0, 14, 0, 0, 36, 0, 10, 0, 0, 22, 0, 0
|0, 0, 3, 32, 8, 0, 0, 0, 0, 0, 27, 0, 0, 0, 0, 4, 0, 0, 6, 0, 0, 0, 0, 0, 33, 15, 14, 13, 0, 0, 0, 0, 0, 0, 0, 0, 17, 0, 25, 10, 0, 0, 0, 0, 29, 0, 0, 0, 0
|0, 0, 0, 0, 0, 0, 16, 17, 23, 11, 0, 0, 0, 0, 48, 0, 3, 0, 0, 0, 0, 0, 0, 0, 5, 0, 0, 0, 7, 0, 30, 0, 40, 0, 0, 45, 10, 0, 15, 46, 22, 13, 0, 0, 0, 0, 0, 0, 0
|27, 19, 20, 0, 0, 0, 0, 0, 0, 10, 34, 0, 0, 0, 0, 0, 0, 0, 7, 0, 31, 6, 24, 35, 0, 0, 0, 0, 16, 2, 0, 0, 4, 12, 0, 0, 0, 0, 0, 0, 0, 48, 0, 22, 0, 0, 0, 0, 17
|0, 0, 0, 0, 0, 17, 0, 22, 0, 37, 0, 0, 0, 0, 0, 35, 0, 34, 0, 0, 0, 0, 10, 0, 0, 0, 0, 0, 0, 0, 0, 0, 0, 0, 15, 0, 0, 0, 0, 0, 12, 38, 27, 16, 0, 0, 31, 0, 0
|0, 0, 8, 0, 0, 0, 0, 42, 0, 0, 7, 45, 38, 0, 5, 0, 0, 0, 0, 0, 23, 0, 0, 31, 2, 0, 3, 0, 0, 0, 0, 0, 0, 20, 25, 1, 0, 0, 0, 26, 0, 0, 0, 0, 0, 0, 10, 0, 0
|1, 0, 6, 0, 0, 0, 0, 9, 27, 0, 0, 0, 24, 0, 15, 0, 0, 12, 0, 10, 0, 0, 0, 0, 38, 0, 44, 0, 0, 0, 0, 0, 11, 0, 0, 0, 20, 0, 0, 0, 0, 0, 0, 0, 7, 47, 0, 0, 32
|0, 0, 0, 0, 0, 45, 0, 0, 41, 0, 0, 0, 0, 0, 0, 0, 33, 0, 0, 28, 27, 0, 0, 0, 22, 0, 42, 0, 0, 0, 43, 46, 0, 0, 0, 47, 0, 19, 0, 0, 0, 0, 34, 0, 15, 0, 35, 0, 0
|0, 0, 0, 0, 0, 0, 0, 0, 0, 0, 18, 6, 0, 25, 0, 21, 0, 0, 0, 0, 0, 45, 0, 0, 32, 46, 15, 0, 13, 0, 35, 0, 19, 0, 0, 0, 0, 0, 27, 14, 24, 0, 23, 0, 0, 0, 0, 0, 0
|0, 0, 2, 0, 13, 11, 0, 4, 25, 0, 42, 0, 0, 0, 0, 28, 0, 27, 0, 0, 0, 0, 0, 0, 0, 0, 0, 3, 0, 0, 0, 0, 1, 0, 23, 38, 0, 0, 0, 0, 36, 0, 30, 0, 5, 0, 29, 34, 0
|0, 0, 48, 0, 0, 0, 5, 39, 0, 43, 0, 3, 0, 0, 14, 19, 0, 0, 0, 23, 0, 0, 0, 36, 0, 33, 17, 42, 0, 45, 0, 0, 22, 26, 0, 0, 0, 0, 0, 2, 0, 0, 44, 41, 0, 11, 0, 0, 0
|44, 14, 30, 21, 0, 15, 0, 0, 6, 0, 11, 0, 46, 0, 0, 33, 0, 7, 0, 0, 0, 0, 25, 24, 0, 1, 0, 0, 0, 0, 0, 0, 0, 0, 0, 40, 0, 0, 12, 0, 0, 16, 0, 0, 0, 0, 0, 20, 0
|0, 0, 41, 23, 0, 19, 0, 0, 0, 0, 0, 0, 0, 2, 0, 0, 0, 42, 0, 0, 0, 20, 0, 9, 29, 6, 0, 0, 0, 0, 0, 12, 44, 14, 40, 24, 26, 0, 0, 0, 4, 0, 0, 0, 0, 31, 0, 49, 45
|0, 0, 0, 0, 0, 0, 0, 15, 22, 0, 0, 0, 28, 0, 0, 20, 0, 0, 0, 0, 0, 0, 0, 0, 0, 0, 40, 0, 6, 34, 0, 0, 0, 0, 0, 27, 0, 0, 0, 0, 0, 46, 3, 26, 0, 0, 0, 0, 0
|0, 31, 0, 33, 0, 0, 0, 0, 0, 9, 17, 0, 0, 0, 25, 10, 0, 0, 0, 0, 0, 0, 0, 0, 0, 0, 0, 0, 2, 5, 0, 0, 29, 0, 0, 0, 7, 0, 0, 0, 0, 0, 42, 24, 40, 4, 6, 0, 0
|0, 0, 0, 25, 0, 6, 0, 0, 0, 49, 0, 0, 0, 0, 0, 31, 0, 0, 22, 0, 0, 0, 48, 0, 0, 0, 0, 38, 20, 16, 0, 0, 0, 0, 0, 42, 41, 14, 0, 0, 44, 10, 0, 9, 0, 0, 0, 0, 2
|0, 0, 4, 49, 0, 0, 6, 0, 2, 33, 0, 14, 30, 0, 0, 7, 48, 0, 0, 24, 1, 47, 11, 18, 0, 0, 0, 0, 15, 0, 0, 0, 32, 0, 0, 0, 0, 0, 9, 0, 0, 0, 0, 0, 34, 20, 0, 16, 0
|3, 18, 0, 2, 34, 0, 0, 41, 7, 0, 0, 0, 29, 0, 0, 0, 0, 0, 33, 5, 0, 0, 0, 42, 0, 4, 0, 0, 0, 0, 0, 21, 0, 16, 46, 0, 0, 0, 0, 43, 0, 0, 0, 0, 13, 0, 11, 0, 28
|0, 0, 0, 0, 0, 0, 24, 0, 20, 0, 0, 0, 0, 0, 0, 0, 21, 0, 0, 0, 46, 0, 0, 0, 34, 0, 0, 0, 0, 44, 0, 0, 0, 0, 0, 17, 49, 0, 5, 38, 15, 0, 0, 0, 0, 36, 0, 0, 0
|0, 0, 0, 36, 10, 26, 20, 24, 0, 45, 0, 1, 0, 0, 0, 17, 0, 0, 0, 0, 0, 0, 0, 0, 0, 5, 0, 0, 0, 0, 31, 0, 25, 0, 0, 21, 0, 7, 42, 33, 0, 0, 0, 0, 30, 0, 0, 0, 0
|33, 1, 0, 0, 0, 0, 0, 0, 0, 0, 9, 0, 3, 0, 42, 0, 0, 0, 0, 20, 0, 0, 44, 0, 0, 0, 0, 0, 0, 0, 0, 0, 0, 40, 0, 0, 0, 30, 6, 0, 2, 0, 14, 43, 12, 5, 21, 0, 0
|0, 0, 0, 0, 0, 0, 0, 0, 0, 0, 0, 47, 0, 28, 0, 0, 2, 0, 0, 30, 14, 0, 27, 0, 0, 22, 20, 0, 0, 0, 0, 0, 0, 0, 0, 8, 0, 0, 0, 0, 0, 0, 0, 0, 0, 17, 18, 0, 35
|0, 0, 12, 0, 29, 0, 47, 0, 0, 0, 0, 0, 0, 0, 0, 27, 0, 0, 0, 0, 0, 0, 0, 0, 0, 45, 38, 0, 30, 0, 0, 0, 0, 0, 0, 0, 36, 18, 0, 0, 41, 0, 32, 4, 0, 0, 3, 0, 0
|0, 0, 0, 0, 0, 37, 0, 0, 0, 46, 0, 0, 0, 0, 0, 23, 0, 0, 0, 0, 0, 27, 0, 0, 0, 0, 0, 10, 40, 35, 48, 0, 16, 0, 0, 0, 0, 3, 0, 44, 6, 0, 1, 0, 0, 18, 0, 0, 0
|22, 0, 0, 45, 0, 0, 0, 38, 0, 2, 5, 26, 0, 0, 0, 43, 0, 0, 0, 0, 18, 0, 0, 0, 0, 3, 16, 0, 0, 0, 0, 0, 24, 4, 0, 0, 27, 0, 0, 30, 10, 0, 0, 0, 44, 0, 0, 0, 41
|0, 0, 0, 30, 0, 0, 41, 23, 0, 0, 0, 0, 0, 0, 46, 16, 0, 0, 45, 0, 3, 28, 1, 0, 0, 0, 0, 24, 0, 0, 0, 0, 0, 0, 29, 31, 0, 34, 0, 0, 0, 40, 0, 0, 0, 0, 0, 0, 0
|0, 0, 0, 12, 0, 43, 0, 29, 0, 0, 0, 0, 0, 0, 0, 22, 0, 0, 0, 35, 0, 0, 0, 47, 0, 0, 0, 0, 0, 0, 0, 0, 0, 2, 0, 0, 0, 0, 18, 0, 16, 0, 0, 0, 0, 46, 0, 30, 0
|31, 33, 40, 0, 0, 48, 21, 0, 0, 0, 0, 0, 0, 0, 0, 0, 29, 0, 0, 1, 0, 0, 37, 0, 18, 0, 8, 22, 38, 36, 0, 0, 0, 0, 0, 26, 0, 0, 0, 12, 0, 15, 0, 23, 0, 34, 0, 0, 0
|46, 0, 15, 0, 0, 0, 0, 0, 34, 0, 0, 8, 0, 0, 0, 0, 0, 0, 0, 0, 0, 0, 0, 2, 48, 36, 7, 0, 0, 0, 0, 0, 0, 18, 0, 23, 0, 0, 0, 0, 38, 43, 0, 0, 0, 16, 37, 0, 0
|0, 6, 36, 24, 0, 0, 35, 0, 13, 0, 0, 0, 0, 31, 0, 0, 0, 0, 0, 0, 17, 15, 38, 44, 0, 0, 45, 26, 0, 0, 0, 0, 0, 0, 0, 0, 0, 20, 0, 0, 0, 0, 0, 0, 0, 0, 0, 0, 0
|37, 7, 47, 0, 0, 0, 0, 0, 0, 0, 0, 0, 0, 0, 30, 0, 0, 0, 44, 0, 0, 10, 0, 0, 0, 0, 0, 33, 0, 0, 12, 35, 0, 0, 32, 0, 0, 9, 0, 18, 26, 0, 0, 0, 25, 0, 17, 0, 0
|11, 0, 49, 29, 0, 0, 0, 0, 0, 42, 0, 0, 0, 0, 0, 0, 10, 0, 0, 26, 0, 0, 40, 15, 28, 0, 37, 0, 0, 0, 0, 0, 18, 0, 0, 0, 0, 0, 24, 0, 0, 0, 0, 0, 0, 0, 0, 0, 0
|0, 36, 0, 0, 6, 0, 0, 0, 0, 0, 22, 10, 37, 0, 4, 0, 0, 0, 34, 0, 0, 0, 0, 0, 0, 0, 0, 43, 0, 0, 0, 0, 0, 47, 0, 0, 0, 0, 0, 49, 30, 0, 0, 0, 0, 0, 0, 0, 0
|0, 0, 0, 40, 44, 12, 0, 0, 0, 0, 0, 0, 9, 0, 0, 0, 0, 0, 0, 0, 21, 0, 0, 0, 11, 24, 0, 0, 0, 27, 0, 0, 36, 15, 0, 20, 0, 38, 0, 0, 0, 23, 37, 0, 0, 10, 0, 0, 0
|0, 0, 0, 0, 17, 0, 0, 18, 16, 7, 24, 2, 0, 11, 35, 37, 0, 15, 49, 0, 0, 38, 5, 1, 42, 0, 0, 0, 0, 20, 0, 0, 0, 0, 4, 14, 0, 0, 0, 0, 0, 33, 0, 31, 46, 0, 0, 0, 0
|0, 0, 0, 0, 0, 0, 0, 0, 0, 47, 0, 0, 0, 0, 0, 0, 0, 0, 0, 13, 0, 0, 0, 0, 21, 0, 0, 0, 0, 0, 0, 48, 33, 0, 0, 0, 34, 0, 0, 0, 37, 0, 0, 36, 0, 40, 0, 0, 0
|0, 0, 0, 0, 4, 33, 0, 0, 0, 0, 0, 0, 0, 13, 0, 18, 0, 0, 24, 0, 0, 0, 0, 0, 0, 0, 6, 0, 21, 0, 0, 0, 0, 0, 0, 0, 0, 45, 0, 0, 0, 0, 0, 0, 0, 0, 0, 0, 44
|0, 0, 0, 0, 0, 0, 0, 0, 0, 30, 39, 16, 0, 0, 0, 0, 0, 0, 0, 0, 4, 0, 0, 0, 0, 0, 0, 0, 0, 0, 33, 0, 0, 0, 0, 41, 42, 2, 40, 0, 21, 29, 0, 0, 36, 8, 34, 25, 0
|7, 0, 0, 0, 43, 0, 28, 0, 45, 12, 2, 0, 21, 0, 0, 0, 0, 0, 0, 0, 0, 0, 0, 0, 0, 0, 11, 0, 0, 47, 17, 0, 0, 27, 0, 0, 0, 0, 13, 0, 0, 31, 22, 0, 0, 0, 0, 15, 14
|0, 0, 0, 0, 31, 0, 22, 0, 0, 0, 0, 0, 0, 9, 0, 0, 0, 44, 0, 0, 48, 21, 43, 3, 10, 18, 0, 0, 0, 0, 0, 29, 0, 0, 0, 25, 12, 0, 0, 17, 0, 4, 0, 0, 2, 6, 41, 0, 26
|14, 40, 35, 1, 0, 0, 37, 3, 18, 0, 0, 0, 27, 0, 10, 0, 28, 0, 0, 22, 39, 0, 4, 45, 0, 0, 0, 0, 34, 42, 0, 43, 12, 0, 2, 0, 16, 0, 0, 23, 0, 0, 0, 47, 0, 0, 0, 0, 0
|34, 0, 0, 0, 0, 8, 0, 36, 0, 31, 0, 0, 0, 0, 0, 0, 0, 46, 0, 0, 0, 0, 0, 6, 0, 0, 0, 0, 25, 0, 0, 0, 37, 0, 0, 0, 0, 0, 0, 0, 1, 26, 28, 0, 0, 0, 0, 0, 0
|0, 0, 33, 0, 0, 36, 0, 40, 0, 0, 0, 0, 26, 0, 0, 0, 0, 1, 0, 0, 0, 0, 0, 13, 0, 16, 0, 0, 0, 24, 22, 0, 0, 28, 0, 37, 43, 0, 34, 0, 0, 0, 0, 0, 0, 0, 44, 5, 0
|0, 0, 0, 0, 0, 0, 0, 0, 15, 34, 47, 5, 8, 0, 0, 26, 0, 0, 18, 0, 32, 49, 31, 0, 0, 0, 0, 37, 11, 0, 0, 0, 23, 0, 0, 0, 0, 36, 0, 0, 9, 0, 0, 46, 39, 0, 12, 0, 0|];