order = 7;
grid = [|34, 31, 24, 0, 37, 0, 0, 0, 23, 0, 0, 41, 0, 0, 0, 19, 0, 44, 0, 49, 0, 0, 0, 17, 5, 10, 0, 0, 0, 25, 0, 0, 4, 0, 7, 22, 0, 0, 0, 0, 18, 2, 0, 0, 0, 0, 0, 38, 0
|7, 13, 0, 0, 0, 0, 32, 3, 0, 0, 0, 0, 0, 0, 0, 43, 0, 0, 0, 10, 0, 11, 8, 0, 0, 0, 22, 46, 0, 18, 0, 0, 0, 0, 45, 12, 0, 0, 44, 0, 6, 0, 0, 0, 20, 0, 0, 0, 33
|12, 0, 0, 0, 23, 0, 38, 0, 0, 39, 27, 0, 29, 4, 0, 0, 37, 0, 0, 20, 0, 0, 0, 15, 0, 0, 28, 0, 0, 0, 0, 0, 0, 0, 41, 0, 0, 11, 0, 0, 0, 36, 35, 0, 0, 0, 0, 0, 0
|44, 18, 0, 0, 9, 33, 0, 48, 2, 0, 0, 5, 0, 0, 0, 28, 0, 0, 0, 0, 8, 0, 0, 26, 0, 0, 25, 34, 0, 0, 0, 3, 0, 0, 0, 0, 0, 0, 1, 0, 7, 0, 0, 0, 0, 0, 0, 0, 21
|20, 0, 11, 0, 0, 48, 0, 0, 15, 44, 6, 0, 0, 0, 0, 0, 29, 0, 13, 0, 0, 0, 49, 0, 0, 0, 0, 0, 0, 0, 0, 0, 34, 0, 0, 0, 4, 0, 0, 32, 0, 0, 0, 12, 0, 0, 41, 26, 0
|41, 0, 0, 0, 0, 0, 0, 0, 0, 7, 0, 0, 0, 0, 0, 0, 0, 9, 0, 0, 0, 44, 0, 0, 0, 0, 0, 38, 0, 0, 0, 0, 0, 5, 0, 0, 0, 0, 48, 0, 37, 0, 0, 0, 29, 28, 0, 2, 0
|39, 0, 0, 0, 0, 0, 15, 0, 0, 45, 0, 46, 0, 0, 0, 22, 0, 0, 0, 0, 0, 21, 0, 0, 0, 43, 0, 41, 0, 0, 10, 26, 16, 0, 28, 33, 0, 5, 0, 0, 27, 17, 0, 1, 25, 0, 32, 0, 0
|0, 0, 12, 0, 2, 0, 0, 8, 20, 0, 0, 0, 19, 0, 0, 0, 0, 0, 45, 0, 10, 0, 39, 0, 0, 6, 0, 0, 4, 0, 0, 35, 0, 38, 48, 0, 0, 0, 0, 0, 0, 0, 0, 0, 15, 0, 1, 0, 0
|0, 0, 41, 0, 0, 0, 0, 0, 0, 0, 0, 6, 0, 0, 0, 0, 0, 0, 0, 19, 0, 0, 0, 34, 0, 0, 18, 0, 0, 0, 0, 0, 0, 0, 0, 0, 0, 0, 33, 0, 3, 26, 0, 0, 0, 0, 0, 22, 0
|0, 0, 0, 0, 26, 0, 3, 29, 31, 0, 0, 0, 15, 0, 0, 0, 20, 0, 0, 0, 0, 2, 44, 0, 0, 0, 0, 0, 0, 0, 14, 0, 10, 0, 21, 18, 0, 0, 34, 0, 48, 0, 0, 16, 32, 0, 0, 8, 0
|15, 0, 0, 18, 0, 0, 6, 0, 0, 0, 2, 0, 0, 45, 0, 0, 0, 0, 42, 0, 0, 0, 0, 0, 0, 0, 0, 49, 0, 0, 23, 0, 0, 0, 0, 0, 0, 0, 0, 0, 0, 0, 38, 0, 47, 0, 0, 0, 0
|0, 0, 27, 16, 0, 4, 0, 22, 0, 18, 0, 0, 35, 0, 0, 0, 3, 0, 0, 0, 0, 0, 42, 0, 0, 0, 0, 0, 0, 0, 0, 0, 0, 0, 0, 10, 19, 9, 8, 0, 24, 0, 0, 0, 36, 0, 0, 44, 12
|0, 0, 0, 0, 0, 30, 0, 0, 0, 0, 0, 14, 0, 0, 0, 0, 21, 0, 0, 11, 0, 0, 3, 0, 10, 0, 0, 0, 0, 0, 0, 0, 0, 45, 19, 6, 0, 0, 0, 0, 0, 0, 33, 2, 0, 0, 0, 31, 0
|0, 10, 38, 0, 0, 0, 0, 36, 0, 34, 0, 40, 0, 0, 0, 8, 27, 0, 0, 0, 0, 0, 1, 0, 0, 33, 0, 0, 0, 0, 3, 0, 0, 0, 0, 0, 0, 16, 2, 17, 41, 14, 0, 0, 30, 0, 0, 0, 39
|0, 0, 0, 0, 0, 0, 0, 0, 0, 0, 0, 30, 0, 0, 0, 23, 0, 43, 0, 0, 0, 39, 0, 0, 0, 0, 0, 0, 0, 0, 21, 31, 0, 0, 0, 0, 0, 0, 3, 0, 8, 0, 0, 0, 48, 0, 2, 0, 0
|0, 36, 19, 0, 4, 0, 47, 0, 0, 3, 0, 0, 48, 0, 0, 0, 34, 0, 17, 0, 6, 0, 0, 0, 0, 0, 0, 0, 0, 0, 0, 0, 0, 0, 0, 0, 0, 0, 0, 0, 0, 0, 0, 0, 0, 39, 8, 0, 0
|23, 49, 0, 0, 0, 0, 12, 0, 0, 16, 0, 0, 0, 0, 0, 0, 0, 0, 0, 0, 25, 0, 0, 7, 0, 0, 0, 0, 0, 0, 0, 0, 0, 0, 0, 0, 36, 0, 0, 0, 0, 0, 44, 0, 10, 0, 0, 11, 0
|18, 0, 0, 0, 0, 0, 0, 0, 0, 0, 0, 0, 34, 40, 0, 0, 0, 46, 0, 0, 0, 0, 10, 23, 0, 0, 0, 0, 0, 0, 8, 49, 0, 0, 0, 0, 41, 22, 0, 37, 17, 0, 0, 28, 0, 7, 0, 0, 0
|0, 29, 6, 21, 0, 40, 0, 43, 0, 0, 37, 49, 0, 23, 0, 10, 0, 0, 0, 0, 0, 0, 0, 0, 17, 0, 11, 22, 0, 28, 0, 1, 0, 0, 36, 0, 0, 0, 0, 0, 0, 0, 34, 30, 0, 0, 0, 5, 25
|0, 0, 0, 0, 10, 28, 9, 0, 0, 0, 0, 0, 0, 0, 42, 0, 0, 0, 0, 29, 36, 0, 0, 0, 0, 4, 0, 0, 0, 24, 0, 41, 0, 0, 0, 0, 0, 43, 49, 0, 25, 0, 0, 19, 0, 0, 0, 20, 14
|0, 0, 0, 5, 35, 0, 0, 10, 0, 0, 0, 0, 0, 0, 0, 0, 0, 0, 32, 0, 0, 0, 0, 0, 0, 0, 0, 0, 0, 0, 30, 15, 39, 0, 11, 27, 29, 0, 0, 21, 0, 24, 0, 41, 16, 0, 3, 0, 6
|8, 14, 0, 0, 29, 0, 36, 0, 0, 13, 0, 0, 16, 0, 0, 0, 0, 21, 0, 0, 0, 0, 47, 0, 0, 39, 0, 0, 0, 0, 17, 0, 0, 0, 0, 0, 0, 0, 0, 0, 0, 0, 40, 0, 22, 45, 0, 0, 1
|5, 0, 0, 3, 0, 0, 0, 0, 24, 0, 7, 27, 0, 0, 0, 0, 30, 32, 25, 0, 0, 0, 0, 49, 0, 9, 40, 0, 0, 0, 0, 0, 0, 0, 0, 0, 0, 6, 19, 0, 0, 0, 10, 0, 28, 0, 0, 36, 0
|0, 0, 37, 33, 45, 12, 31, 23, 35, 0, 0, 20, 0, 19, 0, 44, 42, 0, 38, 17, 16, 24, 0, 0, 28, 0, 0, 0, 48, 0, 0, 0, 41, 0, 0, 25, 30, 0, 27, 15, 0, 0, 46, 0, 0, 0, 0, 0, 0
|0, 30, 0, 0, 0, 41, 0, 0, 0, 0, 0, 10, 45, 2, 11, 0, 0, 22, 0, 0, 0, 0, 37, 0, 33, 0, 0, 0, 0, 0, 27, 0, 0, 0, 0, 0, 0, 34, 0, 39, 0, 32, 48, 0, 17, 0, 0, 0, 0
|46, 34, 0, 0, 32, 0, 0, 0, 0, 0, 40, 4, 0, 0, 0, 0, 0, 28, 0, 0, 0, 0, 22, 0, 0, 0, 0, 0, 0, 0, 0, 0, 0, 0, 0, 0, 24, 0, 21, 0, 36, 13, 0, 7, 0, 0, 0, 0, 0
|10, 0, 0, 0, 0, 7, 0, 33, 49, 0, 0, 0, 0, 0, 15, 0, 12, 0, 0, 0, 0, 0, 0, 0, 19, 0, 2, 6, 0, 22, 0, 0, 0, 0, 0, 0, 0, 0, 0, 0, 0, 0, 43, 0, 0, 0, 47, 21, 0
|0, 0, 23, 0, 0, 0, 0, 0, 0, 0, 0, 8, 0, 14, 0, 6, 0, 0, 0, 0, 49, 38, 0, 0, 0, 0, 12, 0, 0, 34, 0, 0, 0, 0, 0, 0, 10, 0, 0, 0, 33, 45, 0, 0, 0, 30, 0, 41, 2
|0, 0, 32, 6, 0, 0, 39, 34, 0, 12, 29, 0, 0, 0, 46, 0, 44, 3, 0, 0, 0, 0, 40, 0, 0, 0, 0, 36, 0, 0, 41, 0, 35, 13, 2, 0, 0, 24, 0, 23, 0, 0, 0, 0, 38, 0, 10, 47, 0
|0, 47, 0, 0, 0, 0, 0, 0, 0, 0, 30, 2, 0, 48, 45, 33, 10, 0, 0, 16, 0, 0, 0, 29, 43, 19, 37, 27, 38, 0, 0, 0, 0, 11, 0, 17, 0, 0, 0, 1, 15, 0, 22, 0, 0, 36, 0, 42, 0
|0, 37, 35, 2, 0, 27, 0, 0, 0, 28, 0, 0, 8, 0, 19, 49, 6, 26, 15, 0, 0, 33, 0, 0, 0, 0, 32, 0, 0, 16, 20, 0, 1, 0, 0, 0, 0, 36, 0, 0, 0, 0, 0, 0, 11, 14, 0, 7, 31
|0, 0, 0, 22, 0, 45, 11, 0, 19, 0, 23, 24, 0, 0, 0, 47, 0, 0, 0, 0, 5, 0, 13, 0, 44, 0, 39, 0, 33, 0, 0, 0, 36, 18, 0, 0, 8, 0, 37, 0, 0, 10, 0, 0, 35, 12, 34, 17, 0
|0, 0, 21, 0, 0, 0, 0, 0, 0, 5, 0, 43, 0, 0, 0, 0, 0, 0, 0, 0, 0, 28, 0, 0, 0, 0, 0, 0, 7, 0, 0, 0, 0, 0, 0, 44, 16, 0, 0, 0, 0, 0, 0, 6, 1, 0, 0, 0, 0
|17, 0, 43, 7, 0, 1, 0, 0, 0, 0, 22, 0, 14, 0, 0, 0, 0, 24, 0, 0, 0, 20, 0, 0, 0, 0, 0, 15, 25, 0, 0, 34, 0, 3, 10, 0, 0, 0, 0, 0, 0, 41, 21, 0, 37, 2, 19, 0, 26
|0, 0, 0, 26, 0, 16, 0, 27, 7, 0, 0, 0, 0, 1, 35, 0, 22, 0, 21, 0, 0, 0, 46, 0, 0, 0, 0, 0, 0, 0, 0, 0, 0, 28, 0, 0, 0, 20, 47, 0, 0, 25, 0, 33, 0, 0, 0, 43, 0
|0, 0, 39, 38, 0, 0, 0, 0, 0, 0, 0, 19, 0, 7, 0, 0, 0, 0, 16, 0, 0, 0, 0, 47, 0, 0, 0, 0, 0, 10, 0, 0, 0, 0, 0, 0, 0, 0, 0, 0, 5, 0, 12, 0, 0, 0, 0, 0, 30
|0, 1, 44, 0, 0, 49, 0, 42, 3, 0, 0, 45, 0, 0, 0, 0, 0, 0, 10, 0, 0, 23, 0, 0, 29, 0, 36, 0, 0, 0, 0, 27, 0, 0, 31, 41, 39, 37, 0, 25, 22, 0, 0, 47, 0, 24, 13, 6, 0
|0, 0, 0, 14, 0, 0, 2, 0, 0, 0, 0, 0, 0, 0, 24, 39, 0, 29, 19, 0, 0, 37, 0, 0, 0, 0, 10, 0, 0, 0, 0, 0, 0, 0, 0, 0, 21, 0, 0, 18, 0, 0, 0, 0, 0, 0, 0, 0, 0
|0, 0, 0, 0, 0, 10, 37, 0, 0, 0, 0, 0, 0, 25, 14, 0, 0, 0, 0, 32, 43, 49, 0, 0, 0, 21, 5, 0, 0, 0, 0, 8, 3, 6, 0, 47, 0, 38, 0, 0, 0, 35, 0, 11, 0, 0, 0, 45, 34
|0, 0, 0, 0, 0, 0, 18, 0, 0, 0, 47, 0, 0, 43, 0, 0, 13, 0, 0, 0, 0, 0, 0, 0, 0, 0, 46, 0, 0, 1, 7, 33, 0, 0, 0, 45, 6, 0, 0, 0, 0, 0, 0, 0, 0, 0, 44, 0, 0
|0, 0, 0, 0, 0, 29, 0, 0, 27, 0, 0, 0, 0, 0, 0, 0, 0, 0, 0, 0, 0, 0, 7, 0, 0, 44, 14, 39, 0, 0, 0, 0, 19, 15, 0, 0, 2, 0, 16, 0, 1, 0, 0, 0, 0, 33, 0, 0, 0
|0, 0, 0, 45, 0, 0, 0, 21, 28, 29, 0, 0, 0, 22, 0, 0, 31, 0, 0, 0, 0, 16, 0, 0, 0, 3, 0, 0, 0, 39, 0, 0, 0, 24, 0, 0, 49, 0, 0, 36, 0, 7, 0, 10, 0, 0, 0, 1, 8
|0, 0, 0, 30, 0, 0, 0, 0, 0, 0, 0, 0, 0, 0, 0, 0, 39, 10, 0, 0, 0, 0, 35, 0, 0, 27, 31, 0, 0, 0, 34, 20, 15, 0, 0, 0, 0, 4, 0, 44, 0, 16, 0, 0, 0, 22, 0, 0, 24
|47, 2, 29, 0, 0, 0, 0, 0, 11, 0, 0, 0, 0, 0, 0, 9, 0, 0, 0, 21, 0, 0, 0, 0, 32, 0, 38, 42, 36, 0, 5, 0, 0, 4, 0, 0, 40, 0, 0, 8, 0, 0, 0, 0, 3, 35, 6, 0, 0
|0, 0, 15, 0, 0, 0, 0, 0, 0, 0, 0, 44, 6, 0, 0, 2, 0, 0, 0, 0, 40, 0, 0, 0, 49, 0, 0, 3, 0, 0, 0, 0, 0, 42, 39, 0, 25, 0, 0, 0, 0, 0, 29, 0, 31, 0, 0, 0, 0
|49, 0, 0, 0, 42, 26, 0, 19, 0, 0, 0, 0, 0, 27, 0, 0, 16, 0, 0, 3, 0, 47, 0, 4, 0, 0, 43, 10, 8, 0, 0, 0, 24, 0, 0, 0, 0, 0, 6, 0, 0, 5, 0, 21, 12, 0, 0, 28, 0
|0, 0, 0, 27, 21, 0, 0, 0, 14, 0, 0, 48, 0, 29, 20, 0, 0, 0, 0, 22, 0, 9, 0, 0, 0, 0, 0, 28, 0, 0, 19, 0, 0, 0, 0, 0, 0, 0, 0, 0, 10, 0, 0, 0, 0, 0, 42, 0, 0
|0, 0, 0, 12, 6, 0, 0, 24, 40, 0, 0, 0, 23, 0, 0, 0, 0, 0, 49, 5, 0, 0, 2, 48, 37, 0, 0, 0, 0, 0, 0, 0, 38, 25, 0, 0, 0, 0, 0, 0, 0, 33, 0, 4, 9, 0, 0, 15, 0
|0, 0, 20, 0, 0, 0, 0, 0, 41, 0, 0, 0, 22, 0, 6, 38, 0, 0, 0, 0, 0, 0, 0, 0, 0, 0, 0, 0, 0, 0, 0, 16, 0, 0, 0, 3, 0, 15, 0, 19, 0, 0, 0, 0, 0, 37, 0, 0, 0|];