order = 7;
grid = [|33, 0, 0, 0, 0, 0, 0, 6, 0, 0, 29, 0, 3, 0, 0, 9, 0, 0, 32, 0, 0, 7, 0, 0, 2, 0, 12, 0, 0, 0, 0, 0, 0, 49, 0, 0, 0, 0, 0, 5, 0, 0, 0, 0, 0, 0, 0, 0, 0
|44, 2, 0, 0, 0, 0, 0, 0, 19, 26, 0, 0, 0, 12, 0, 0, 0, 0, 0, 0, 0, 0, 0, 0, 0, 11, 6, 0, 0, 0, 0, 0, 0, 8, 0, 0, 0, 0, 0, 0, 0, 0, 0, 37, 0, 0, 0, 0, 34
|42, 5, 0, 0, 0, 0, 13, 0, 0, 0, 0, 22, 37, 0, 36, 20, 0, 0, 2, 0, 17, 0, 32, 34, 0, 0, 0, 0, 39, 0, 11, 6, 0, 0, 0, 1, 3, 0, 0, 0, 0, 0, 0, 0, 0, 0, 0, 0, 33
|0, 21, 3, 0, 22, 0, 49, 0, 14, 46, 0, 0, 0, 0, 41, 40, 0, 16, 0, 19, 0, 13, 0, 43, 0, 26, 9, 0, 47, 0, 0, 0, 0, 0, 0, 0, 11, 0, 0, 7, 0, 29, 0, 0, 0, 0, 0, 2, 0
|0, 0, 0, 0, 0, 0, 0, 8, 0, 35, 13, 32, 2, 10, 11, 0, 0, 0, 30, 0, 0, 0, 0, 0, 5, 37, 3, 0, 0, 0, 0, 0, 0, 0, 4, 34, 0, 0, 33, 0, 24, 0, 0, 6, 26, 0, 9, 0, 0
|0, 0, 0, 0, 0, 0, 0, 0, 0, 0, 0, 47, 0, 0, 0, 0, 43, 0, 0, 0, 0, 0, 27, 42, 0, 39, 0, 0, 0, 2, 0, 0, 0, 0, 0, 0, 0, 36, 49, 9, 0, 0, 0, 0, 0, 0, 10, 32, 0
|0, 47, 0, 23, 38, 0, 11, 18, 0, 0, 0, 40, 0, 25, 0, 34, 14, 0, 0, 24, 7, 0, 0, 0, 0, 46, 0, 0, 31, 13, 0, 12, 33, 0, 0, 0, 15, 0, 0, 0, 0, 0, 0, 42, 5, 0, 0, 3, 0
|0, 0, 0, 0, 24, 0, 0, 0, 0, 48, 0, 0, 0, 0, 0, 43, 0, 0, 17, 25, 0, 0, 0, 0, 0, 47, 34, 27, 0, 30, 0, 49, 0, 0, 46, 0, 0, 0, 0, 0, 0, 0, 28, 0, 8, 0, 0, 0, 0
|16, 0, 11, 0, 0, 0, 0, 0, 0, 8, 45, 0, 0, 2, 4, 0, 0, 0, 5, 0, 24, 0, 0, 0, 0, 40, 0, 0, 0, 37, 0, 0, 28, 0, 0, 0, 0, 0, 0, 0, 0, 0, 0, 0, 39, 0, 21, 0, 13
|0, 8, 0, 0, 0, 0, 2, 0, 27, 10, 0, 0, 0, 0, 0, 0, 0, 1, 0, 0, 0, 0, 0, 0, 22, 0, 0, 0, 0, 0, 0, 0, 12, 0, 0, 0, 0, 0, 41, 0, 0, 0, 36, 0, 0, 0, 0, 0, 0
|0, 15, 0, 0, 0, 0, 0, 13, 40, 0, 0, 0, 28, 0, 0, 0, 12, 0, 0, 0, 0, 10, 0, 26, 24, 0, 8, 0, 0, 0, 31, 44, 0, 0, 0, 0, 38, 0, 0, 25, 0, 0, 0, 0, 0, 0, 0, 0, 0
|22, 0, 0, 34, 0, 0, 31, 0, 0, 0, 0, 0, 0, 7, 0, 15, 35, 0, 36, 0, 0, 16, 0, 0, 0, 42, 0, 0, 0, 3, 4, 0, 0, 0, 48, 0, 45, 23, 0, 0, 0, 8, 38, 0, 0, 27, 0, 0, 0
|0, 0, 46, 0, 0, 0, 0, 0, 0, 49, 0, 0, 47, 0, 40, 0, 0, 0, 0, 0, 0, 0, 0, 19, 15, 0, 0, 45, 0, 0, 18, 0, 0, 0, 0, 0, 0, 34, 32, 0, 0, 0, 0, 0, 0, 0, 0, 0, 0
|0, 0, 40, 0, 14, 0, 0, 0, 0, 0, 0, 0, 0, 0, 0, 32, 2, 0, 0, 8, 0, 0, 0, 0, 0, 0, 41, 0, 0, 0, 0, 0, 0, 0, 42, 0, 0, 0, 47, 0, 0, 0, 0, 0, 10, 0, 0, 30, 44
|9, 40, 2, 0, 0, 0, 0, 0, 0, 0, 0, 48, 0, 0, 0, 26, 0, 0, 0, 0, 0, 0, 0, 41, 0, 0, 0, 42, 28, 0, 47, 37, 0, 3, 0, 0, 0, 12, 25, 4, 0, 0, 0, 0, 18, 0, 34, 0, 0
|0, 0, 28, 0, 0, 0, 0, 0, 17, 0, 9, 0, 0, 35, 19, 0, 0, 0, 0, 0, 0, 0, 0, 0, 0, 0, 22, 32, 43, 0, 0, 10, 0, 0, 0, 0, 0, 26, 0, 41, 16, 0, 0, 0, 0, 0, 14, 0, 0
|0, 0, 0, 0, 0, 0, 0, 39, 0, 0, 27, 0, 0, 42, 0, 37, 0, 0, 0, 0, 0, 0, 0, 0, 29, 35, 0, 0, 0, 0, 0, 20, 38, 0, 0, 0, 0, 0, 0, 0, 21, 0, 16, 0, 0, 0, 0, 0, 0
|0, 7, 31, 16, 0, 38, 37, 0, 34, 25, 0, 0, 0, 0, 0, 0, 0, 0, 0, 0, 0, 0, 0, 21, 39, 0, 0, 0, 0, 29, 0, 0, 42, 0, 0, 0, 0, 0, 8, 0, 0, 40, 0, 43, 0, 0, 0, 0, 0
|0, 0, 17, 0, 0, 0, 46, 0, 0, 0, 0, 0, 0, 8, 0, 0, 0, 0, 20, 0, 0, 0, 0, 0, 0, 0, 37, 3, 0, 0, 0, 0, 9, 0, 0, 0, 0, 0, 45, 24, 18, 0, 41, 19, 0, 0, 0, 0, 0
|0, 0, 0, 0, 4, 5, 0, 0, 0, 0, 0, 0, 32, 0, 22, 0, 3, 38, 0, 0, 0, 0, 36, 0, 0, 34, 0, 0, 0, 0, 0, 0, 0, 33, 0, 0, 20, 0, 11, 0, 0, 0, 0, 31, 0, 28, 48, 29, 0
|0, 0, 0, 0, 0, 41, 24, 0, 0, 0, 0, 0, 29, 0, 16, 14, 0, 0, 0, 0, 25, 0, 0, 0, 0, 28, 0, 26, 11, 0, 0, 0, 21, 35, 36, 0, 22, 10, 19, 37, 0, 0, 0, 0, 0, 0, 0, 0, 0
|43, 0, 0, 0, 0, 0, 0, 0, 42, 0, 0, 0, 20, 33, 0, 0, 5, 0, 4, 29, 0, 9, 0, 3, 0, 0, 0, 0, 23, 0, 0, 0, 37, 0, 0, 0, 0, 0, 0, 0, 0, 0, 0, 24, 0, 31, 2, 47, 6
|10, 0, 0, 0, 31, 0, 0, 0, 45, 0, 0, 0, 0, 0, 0, 0, 25, 0, 0, 0, 0, 0, 26, 0, 0, 0, 0, 0, 0, 0, 48, 0, 0, 0, 0, 0, 0, 0, 20, 0, 0, 0, 33, 3, 0, 0, 0, 0, 0
|0, 0, 0, 40, 0, 0, 29, 0, 31, 0, 0, 0, 0, 13, 30, 0, 38, 0, 0, 0, 2, 0, 0, 0, 0, 0, 0, 7, 0, 0, 0, 0, 0, 0, 0, 44, 0, 0, 0, 10, 45, 41, 0, 4, 1, 0, 0, 42, 0
|26, 0, 0, 0, 7, 0, 3, 0, 18, 6, 0, 0, 0, 0, 0, 44, 0, 0, 0, 41, 0, 0, 10, 0, 0, 20, 0, 0, 0, 0, 27, 0, 0, 0, 28, 0, 5, 0, 0, 29, 0, 0, 0, 40, 45, 0, 0, 19, 9
|18, 37, 0, 0, 0, 2, 45, 10, 0, 0, 0, 0, 0, 36, 48, 0, 0, 0, 0, 43, 0, 0, 30, 16, 32, 44, 14, 0, 0, 6, 0, 0, 4, 9, 25, 0, 0, 28, 0, 23, 0, 0, 0, 0, 0, 0, 0, 0, 0
|21, 0, 0, 0, 0, 0, 0, 0, 0, 0, 37, 19, 0, 0, 10, 16, 0, 0, 0, 0, 11, 0, 0, 0, 28, 0, 0, 0, 0, 0, 0, 0, 0, 0, 0, 0, 0, 0, 0, 0, 0, 0, 0, 0, 0, 0, 0, 18, 35
|46, 0, 0, 0, 11, 0, 0, 44, 0, 0, 0, 25, 5, 0, 0, 0, 49, 0, 0, 0, 19, 0, 0, 0, 35, 21, 0, 2, 0, 26, 22, 0, 0, 0, 0, 12, 33, 0, 6, 14, 0, 0, 37, 0, 0, 0, 0, 0, 43
|0, 46, 7, 0, 20, 36, 17, 0, 0, 0, 1, 0, 30, 0, 0, 0, 0, 0, 0, 0, 0, 0, 0, 0, 0, 29, 0, 0, 0, 5, 0, 0, 23, 0, 15, 0, 0, 37, 0, 6, 41, 0, 0, 0, 0, 22, 0, 0, 18
|23, 0, 0, 0, 0, 9, 38, 0, 6, 0, 0, 27, 0, 0, 43, 0, 0, 0, 0, 0, 0, 0, 0, 0, 0, 0, 0, 0, 0, 0, 0, 0, 0, 0, 7, 0, 0, 0, 30, 0, 0, 20, 0, 0, 0, 0, 0, 0, 49
|0, 27, 0, 0, 0, 0, 0, 0, 12, 0, 32, 0, 0, 44, 1, 28, 0, 0, 3, 0, 0, 0, 41, 9, 0, 0, 0, 48, 0, 39, 37, 0, 0, 24, 0, 23, 0, 0, 0, 46, 0, 0, 0, 0, 0, 0, 0, 21, 10
|0, 0, 0, 15, 0, 0, 0, 47, 38, 0, 39, 0, 0, 0, 0, 0, 9, 10, 0, 20, 0, 26, 0, 35, 0, 0, 5, 46, 0, 12, 0, 0, 0, 27, 0, 0, 0, 13, 0, 0, 0, 17, 44, 28, 0, 24, 0, 0, 0
|0, 0, 0, 0, 40, 0, 4, 0, 0, 43, 42, 0, 0, 0, 0, 0, 0, 0, 35, 0, 26, 0, 17, 13, 0, 0, 0, 0, 38, 0, 0, 0, 0, 14, 0, 3, 0, 0, 0, 0, 0, 0, 6, 27, 0, 0, 0, 0, 20
|0, 0, 8, 0, 0, 0, 0, 4, 0, 5, 0, 0, 18, 0, 0, 24, 6, 0, 0, 0, 47, 1, 0, 0, 7, 0, 0, 0, 30, 0, 0, 0, 0, 28, 9, 0, 0, 0, 0, 0, 0, 0, 0, 0, 0, 35, 0, 0, 0
|0, 0, 0, 0, 5, 0, 0, 0, 0, 17, 0, 0, 10, 0, 0, 25, 0, 7, 0, 0, 0, 0, 0, 0, 0, 0, 0, 0, 32, 0, 0, 0, 20, 19, 0, 9, 0, 11, 0, 45, 0, 0, 0, 36, 0, 29, 0, 0, 0
|28, 0, 32, 0, 0, 0, 0, 36, 41, 0, 0, 0, 8, 26, 0, 27, 0, 0, 7, 0, 43, 34, 44, 0, 0, 0, 0, 5, 0, 0, 9, 42, 0, 39, 0, 47, 0, 0, 0, 0, 22, 0, 13, 14, 0, 0, 6, 23, 30
|13, 26, 20, 36, 43, 0, 0, 0, 0, 0, 11, 0, 0, 0, 0, 0, 0, 35, 0, 0, 40, 0, 14, 0, 0, 41, 0, 38, 16, 0, 21, 31, 0, 0, 0, 0, 0, 0, 0, 3, 0, 49, 0, 0, 0, 0, 0, 0, 0
|15, 0, 0, 0, 0, 0, 0, 0, 0, 40, 0, 0, 21, 48, 0, 0, 0, 0, 0, 0, 0, 0, 0, 0, 6, 0, 0, 0, 36, 46, 0, 0, 0, 0, 0, 0, 41, 0, 31, 0, 0, 0, 0, 35, 27, 0, 0, 0, 0
|47, 0, 0, 0, 48, 35, 0, 0, 0, 38, 3, 12, 0, 0, 0, 13, 41, 31, 33, 0, 15, 0, 0, 25, 40, 0, 0, 0, 0, 0, 0, 0, 0, 37, 0, 0, 0, 0, 0, 42, 1, 0, 10, 46, 0, 0, 29, 0, 36
|17, 0, 6, 0, 0, 40, 12, 0, 0, 33, 0, 0, 0, 0, 20, 0, 0, 0, 0, 0, 0, 0, 0, 0, 0, 0, 0, 0, 0, 0, 0, 0, 0, 0, 0, 0, 0, 0, 48, 0, 0, 13, 0, 49, 0, 0, 0, 0, 0
|29, 30, 0, 0, 0, 0, 0, 0, 0, 0, 0, 18, 44, 0, 0, 0, 0, 48, 47, 0, 0, 0, 0, 0, 0, 0, 0, 28, 0, 0, 0, 0, 0, 0, 40, 0, 0, 0, 0, 0, 33, 0, 0, 0, 0, 0, 41, 0, 21
|0, 0, 0, 0, 0, 21, 18, 0, 43, 0, 0, 0, 24, 0, 0, 0, 0, 0, 19, 0, 23, 0, 22, 0, 4, 0, 36, 11, 0, 0, 0, 0, 0, 29, 0, 0, 0, 0, 16, 0, 12, 0, 0, 2, 0, 0, 0, 0, 0
|0, 0, 0, 0, 0, 0, 35, 0, 0, 36, 10, 30, 0, 0, 0, 0, 0, 19, 0, 0, 21, 0, 0, 0, 0, 0, 0, 0, 0, 0, 17, 0, 0, 38, 0, 0, 0, 0, 9, 0, 0, 48, 4, 0, 0, 47, 0, 0, 0
|0, 0, 0, 0, 47, 0, 15, 0, 0, 2, 0, 0, 0, 0, 0, 0, 0, 0, 0, 34, 0, 0, 46, 0, 0, 0, 0, 0, 0, 0, 10, 28, 0, 0, 0, 0, 17, 0, 0, 13, 0, 0, 0, 0, 0, 0, 27, 0, 25
|0, 0, 0, 0, 0, 0, 0, 19, 46, 0, 0, 16, 0, 0, 0, 2, 31, 0, 41, 0, 0, 22, 0, 0, 0, 4, 26, 34, 15, 7, 12, 18, 0, 0, 3, 0, 0, 0, 1, 0, 0, 0, 0, 0, 0, 48, 0, 0, 0
|0, 4, 0, 45, 0, 0, 0, 0, 0, 0, 0, 33, 1, 0, 0, 0, 0, 0, 22, 0, 32, 0, 20, 0, 0, 48, 21, 0, 0, 0, 0, 0, 0, 0, 0, 25, 47, 0, 0, 0, 0, 23, 0, 0, 0, 0, 0, 0, 0
|7, 0, 30, 0, 0, 0, 0, 0, 9, 3, 47, 11, 0, 0, 0, 0, 0, 0, 0, 42, 0, 49, 0, 0, 27, 0, 0, 0, 0, 36, 0, 0, 0, 0, 37, 22, 0, 0, 0, 0, 0, 0, 0, 0, 0, 0, 0, 31, 0
|14, 13, 0, 0, 0, 0, 0, 40, 0, 0, 0, 0, 0, 29, 15, 47, 0, 0, 0, 0, 0, 37, 0, 0, 0, 0, 0, 0, 0, 23, 0, 0, 0, 0, 0, 0, 0, 0, 0, 38, 39, 21, 0, 0, 0, 0, 0, 0, 5
|24, 16, 0, 0, 0, 18, 0, 12, 0, 0, 0, 31, 7, 0, 25, 0, 0, 0, 0, 0, 0, 0, 0, 0, 0, 0, 0, 0, 0, 0, 0, 0, 0, 43, 47, 45, 34, 33, 0, 11, 0, 37, 1, 10, 0, 32, 0, 46, 0|];