order = 7;
grid = [|32, 0, 0, 0, 0, 0, 0, 0, 0, 0, 0, 0, 0, 30, 0, 22, 0, 20, 0, 0, 0, 0, 0, 19, 0, 0, 0, 0, 0, 0, 0, 0, 0, 0, 0, 46, 49, 0, 0, 0, 0, 34, 41, 0, 0, 0, 0, 0, 42
|0, 27, 0, 0, 0, 0, 28, 0, 0, 0, 0, 0, 0, 0, 0, 0, 0, 35, 0, 0, 0, 41, 0, 0, 0, 0, 0, 0, 13, 0, 0, 42, 9, 0, 3, 0, 0, 0, 0, 0, 30, 45, 0, 0, 0, 0, 33, 0, 0
|0, 0, 0, 0, 46, 3, 0, 0, 0, 2, 24, 0, 0, 1, 0, 0, 33, 0, 0, 0, 0, 13, 0, 4, 0, 6, 0, 0, 0, 0, 17, 20, 0, 0, 41, 0, 0, 0, 0, 0, 0, 0, 0, 0, 0, 0, 0, 21, 0
|0, 0, 0, 0, 0, 25, 0, 0, 0, 21, 0, 0, 36, 0, 0, 0, 0, 40, 0, 13, 0, 45, 0, 0, 0, 24, 30, 11, 5, 0, 0, 0, 0, 44, 0, 37, 38, 7, 0, 23, 15, 19, 0, 27, 43, 14, 0, 0, 2
|0, 0, 0, 0, 0, 0, 0, 0, 0, 15, 0, 0, 0, 47, 0, 0, 0, 0, 0, 0, 0, 0, 0, 22, 0, 0, 0, 0, 0, 0, 0, 10, 16, 0, 0, 0, 0, 0, 8, 28, 0, 0, 0, 0, 0, 20, 13, 1, 0
|45, 0, 0, 0, 2, 0, 21, 0, 0, 0, 17, 49, 0, 12, 7, 0, 0, 0, 0, 32, 0, 0, 29, 0, 14, 0, 0, 27, 0, 0, 0, 0, 8, 4, 0, 33, 0, 0, 0, 0, 39, 0, 0, 0, 0, 34, 24, 3, 0
|0, 8, 22, 41, 0, 0, 20, 0, 0, 0, 16, 0, 14, 0, 0, 46, 24, 0, 0, 0, 0, 0, 0, 0, 28, 0, 0, 0, 0, 0, 0, 0, 0, 0, 0, 0, 0, 0, 0, 0, 26, 13, 18, 17, 0, 0, 30, 0, 0
|0, 0, 27, 29, 0, 0, 0, 7, 0, 0, 0, 0, 0, 48, 12, 8, 0, 0, 0, 0, 0, 0, 0, 0, 21, 0, 0, 16, 0, 33, 0, 0, 0, 0, 0, 47, 0, 0, 0, 1, 0, 20, 0, 0, 35, 0, 41, 0, 0
|22, 14, 3, 38, 0, 0, 0, 0, 0, 0, 0, 0, 30, 0, 0, 0, 0, 0, 0, 0, 0, 0, 0, 0, 45, 0, 0, 0, 0, 0, 0, 0, 0, 0, 20, 8, 0, 49, 42, 21, 0, 0, 0, 0, 0, 0, 0, 7, 0
|0, 0, 0, 0, 49, 0, 0, 0, 0, 17, 0, 0, 0, 0, 0, 0, 0, 0, 26, 0, 0, 0, 0, 0, 15, 20, 0, 0, 0, 0, 0, 0, 0, 0, 0, 0, 0, 19, 0, 9, 24, 0, 0, 0, 0, 21, 14, 0, 0
|0, 17, 0, 0, 0, 0, 0, 0, 16, 0, 0, 0, 0, 0, 0, 32, 0, 42, 0, 0, 0, 0, 0, 0, 0, 48, 0, 0, 38, 0, 0, 0, 0, 0, 4, 0, 44, 0, 0, 0, 0, 7, 0, 0, 24, 36, 0, 0, 28
|37, 15, 0, 0, 0, 0, 12, 0, 0, 0, 0, 5, 0, 0, 25, 0, 0, 0, 49, 0, 0, 0, 0, 0, 46, 18, 0, 30, 0, 0, 19, 0, 0, 8, 0, 10, 23, 0, 0, 0, 0, 0, 0, 0, 0, 0, 0, 31, 0
|0, 7, 0, 44, 0, 0, 31, 0, 0, 27, 3, 0, 38, 0, 0, 16, 43, 0, 35, 0, 9, 0, 0, 17, 0, 0, 0, 0, 0, 0, 0, 0, 0, 0, 0, 0, 0, 0, 0, 0, 0, 29, 0, 48, 0, 0, 8, 0, 0
|0, 0, 0, 8, 43, 0, 0, 0, 0, 11, 0, 0, 0, 2, 48, 0, 0, 0, 7, 0, 0, 0, 0, 0, 0, 12, 5, 0, 0, 9, 45, 0, 0, 0, 0, 0, 0, 0, 0, 33, 0, 0, 0, 0, 16, 0, 49, 0, 0
|0, 0, 42, 0, 0, 0, 0, 0, 0, 0, 25, 0, 0, 0, 26, 0, 0, 0, 3, 0, 0, 2, 0, 0, 0, 30, 0, 19, 0, 0, 0, 40, 33, 21, 0, 0, 0, 0, 0, 45, 0, 0, 0, 0, 0, 32, 0, 0, 0
|0, 0, 0, 12, 8, 0, 0, 0, 30, 0, 0, 0, 49, 0, 0, 0, 0, 0, 0, 9, 0, 0, 0, 42, 0, 10, 40, 23, 29, 0, 0, 0, 22, 0, 0, 19, 0, 16, 0, 0, 0, 41, 2, 7, 0, 0, 1, 0, 17
|0, 0, 0, 28, 0, 0, 43, 0, 0, 0, 0, 0, 7, 0, 0, 0, 0, 0, 0, 0, 0, 0, 0, 46, 39, 0, 0, 3, 30, 0, 31, 0, 0, 0, 0, 49, 0, 0, 0, 0, 0, 0, 0, 9, 37, 0, 0, 45, 0
|40, 0, 0, 23, 32, 0, 0, 0, 0, 0, 0, 0, 0, 0, 0, 0, 0, 44, 0, 0, 0, 25, 7, 13, 9, 0, 0, 0, 6, 0, 0, 19, 0, 26, 37, 0, 0, 0, 38, 30, 29, 0, 0, 0, 0, 3, 0, 0, 10
|0, 0, 2, 0, 21, 0, 0, 0, 0, 9, 0, 0, 0, 0, 0, 0, 0, 38, 0, 0, 31, 0, 0, 0, 4, 0, 0, 29, 46, 0, 32, 0, 0, 0, 27, 0, 0, 0, 39, 0, 0, 0, 26, 16, 13, 0, 0, 0, 0
|0, 0, 0, 0, 0, 0, 0, 33, 0, 0, 0, 0, 24, 0, 13, 0, 0, 0, 30, 0, 0, 0, 21, 36, 0, 0, 27, 20, 0, 7, 0, 0, 12, 0, 47, 0, 0, 0, 31, 0, 0, 46, 0, 0, 18, 0, 40, 44, 14
|0, 0, 0, 0, 0, 0, 0, 0, 27, 0, 0, 47, 1, 15, 0, 0, 0, 10, 0, 0, 0, 32, 0, 34, 0, 0, 0, 0, 0, 0, 0, 36, 2, 0, 0, 0, 0, 11, 26, 0, 0, 0, 0, 0, 0, 0, 0, 0, 0
|27, 0, 0, 2, 0, 0, 0, 0, 4, 0, 0, 0, 0, 0, 0, 41, 0, 25, 0, 0, 0, 18, 3, 29, 0, 0, 0, 0, 0, 28, 37, 0, 0, 0, 0, 0, 0, 0, 0, 0, 0, 36, 0, 33, 0, 11, 19, 0, 49
|0, 0, 0, 0, 0, 0, 13, 38, 49, 0, 0, 36, 27, 14, 0, 0, 23, 0, 45, 0, 5, 0, 20, 6, 40, 34, 0, 41, 0, 0, 3, 1, 47, 0, 0, 0, 0, 0, 0, 43, 0, 0, 0, 0, 0, 39, 0, 0, 0
|0, 0, 0, 31, 0, 42, 48, 11, 1, 3, 0, 0, 46, 0, 0, 0, 27, 33, 0, 0, 30, 0, 0, 0, 19, 7, 0, 49, 0, 0, 0, 0, 23, 0, 0, 0, 35, 0, 0, 22, 0, 40, 0, 0, 0, 47, 0, 0, 0
|0, 38, 0, 0, 0, 0, 0, 0, 0, 0, 0, 0, 0, 0, 0, 0, 0, 0, 0, 0, 36, 0, 35, 0, 22, 0, 0, 0, 20, 14, 0, 2, 42, 31, 0, 0, 0, 27, 23, 0, 0, 0, 0, 13, 0, 8, 0, 0, 0
|0, 39, 0, 0, 3, 0, 16, 0, 0, 0, 0, 0, 33, 0, 0, 38, 0, 14, 0, 0, 26, 0, 42, 0, 0, 0, 0, 0, 0, 0, 0, 0, 0, 19, 0, 0, 0, 0, 0, 0, 10, 15, 0, 30, 7, 6, 25, 0, 27
|0, 0, 0, 0, 0, 23, 0, 0, 0, 24, 0, 0, 0, 43, 0, 0, 0, 16, 0, 0, 0, 39, 0, 0, 0, 33, 0, 0, 0, 17, 40, 45, 0, 0, 0, 0, 0, 37, 0, 41, 38, 3, 14, 18, 42, 0, 36, 0, 0
|0, 0, 0, 0, 0, 0, 0, 0, 47, 39, 0, 20, 6, 0, 31, 0, 0, 3, 0, 0, 32, 0, 0, 0, 0, 0, 0, 21, 0, 4, 0, 13, 0, 0, 0, 0, 0, 18, 0, 0, 8, 25, 0, 34, 28, 0, 0, 17, 0
|48, 0, 0, 0, 23, 0, 0, 0, 29, 0, 0, 0, 0, 0, 0, 0, 0, 0, 21, 0, 0, 0, 5, 0, 0, 49, 0, 0, 0, 0, 0, 0, 46, 14, 0, 0, 0, 0, 0, 19, 28, 0, 0, 0, 0, 42, 44, 43, 0
|38, 0, 12, 0, 19, 0, 0, 0, 0, 0, 0, 0, 13, 0, 11, 27, 0, 0, 0, 0, 20, 21, 0, 0, 42, 0, 0, 0, 0, 0, 0, 0, 0, 0, 0, 0, 0, 15, 22, 0, 47, 0, 0, 0, 0, 46, 48, 0, 0
|0, 0, 0, 0, 6, 43, 0, 0, 0, 33, 0, 0, 0, 0, 49, 0, 0, 0, 2, 46, 0, 0, 0, 0, 0, 0, 18, 0, 0, 0, 0, 0, 0, 42, 32, 23, 3, 44, 0, 0, 34, 0, 15, 0, 0, 13, 0, 0, 0
|0, 0, 37, 39, 0, 0, 0, 0, 46, 0, 49, 0, 44, 0, 0, 0, 0, 0, 0, 0, 0, 40, 0, 0, 43, 0, 0, 26, 0, 24, 0, 0, 0, 0, 0, 7, 0, 0, 0, 0, 0, 0, 0, 0, 38, 12, 47, 14, 0
|0, 0, 47, 0, 0, 0, 0, 0, 12, 0, 0, 0, 39, 0, 0, 0, 0, 9, 24, 0, 0, 0, 0, 44, 37, 0, 0, 28, 0, 19, 48, 0, 5, 6, 29, 0, 0, 0, 0, 0, 0, 33, 27, 0, 0, 0, 16, 0, 7
|0, 0, 0, 30, 0, 0, 35, 0, 0, 8, 4, 0, 37, 0, 0, 42, 40, 0, 0, 0, 17, 0, 38, 0, 0, 0, 0, 14, 0, 26, 16, 41, 0, 0, 0, 11, 0, 0, 0, 0, 48, 0, 31, 10, 0, 1, 18, 0, 0
|0, 32, 0, 0, 36, 46, 4, 0, 0, 40, 0, 0, 0, 42, 0, 31, 44, 0, 0, 16, 33, 3, 48, 0, 0, 0, 47, 0, 15, 0, 0, 0, 0, 0, 0, 0, 0, 0, 17, 0, 0, 0, 39, 0, 0, 0, 0, 11, 0
|0, 36, 0, 0, 0, 5, 26, 0, 24, 0, 0, 0, 2, 0, 0, 0, 0, 0, 0, 0, 0, 42, 0, 35, 32, 0, 34, 0, 0, 0, 21, 0, 0, 0, 14, 45, 0, 0, 0, 0, 0, 11, 1, 47, 0, 43, 0, 0, 0
|12, 23, 28, 49, 0, 0, 8, 0, 11, 31, 0, 0, 45, 0, 0, 0, 1, 0, 10, 0, 40, 0, 0, 21, 0, 25, 0, 0, 0, 0, 18, 0, 0, 0, 0, 0, 0, 0, 0, 0, 0, 0, 0, 39, 0, 33, 0, 0, 0
|0, 21, 0, 0, 0, 44, 0, 0, 0, 28, 1, 3, 0, 0, 32, 0, 0, 0, 0, 0, 25, 0, 16, 0, 0, 0, 49, 0, 36, 41, 0, 0, 0, 22, 0, 0, 40, 0, 30, 0, 12, 4, 0, 0, 27, 0, 2, 0, 11
|0, 0, 4, 0, 0, 0, 0, 17, 0, 0, 0, 0, 0, 36, 22, 0, 0, 0, 0, 0, 0, 6, 23, 0, 5, 0, 0, 0, 0, 40, 0, 33, 0, 0, 0, 0, 0, 0, 0, 46, 0, 18, 0, 0, 0, 0, 31, 49, 21
|2, 0, 0, 9, 0, 0, 0, 19, 0, 0, 0, 0, 0, 0, 0, 0, 0, 0, 0, 3, 0, 0, 0, 0, 36, 0, 0, 46, 0, 5, 7, 0, 0, 23, 0, 0, 0, 0, 0, 0, 0, 38, 17, 0, 30, 0, 0, 0, 44
|0, 0, 39, 0, 0, 0, 6, 0, 0, 5, 0, 0, 22, 0, 0, 0, 0, 0, 0, 0, 0, 0, 24, 0, 0, 0, 0, 0, 0, 44, 0, 16, 0, 0, 30, 0, 0, 9, 37, 0, 17, 0, 48, 0, 0, 0, 0, 0, 41
|0, 41, 0, 0, 48, 0, 0, 0, 13, 0, 7, 44, 32, 4, 0, 0, 31, 0, 0, 42, 0, 0, 0, 9, 0, 0, 0, 39, 0, 0, 0, 0, 0, 0, 0, 43, 0, 14, 0, 0, 0, 0, 0, 0, 0, 0, 6, 0, 8
|0, 0, 0, 48, 30, 0, 14, 0, 0, 36, 44, 4, 0, 0, 0, 24, 42, 0, 0, 0, 47, 28, 0, 0, 0, 2, 0, 17, 37, 38, 1, 3, 0, 0, 0, 34, 33, 6, 0, 0, 0, 0, 0, 0, 39, 0, 35, 41, 22
|0, 0, 1, 0, 44, 0, 37, 39, 40, 0, 0, 24, 0, 0, 0, 0, 3, 0, 0, 0, 0, 0, 0, 0, 0, 0, 25, 47, 0, 45, 9, 0, 0, 0, 0, 0, 0, 0, 0, 0, 0, 26, 0, 46, 0, 0, 0, 0, 0
|0, 45, 0, 0, 0, 0, 0, 35, 0, 0, 0, 0, 0, 0, 0, 0, 0, 36, 4, 0, 0, 0, 0, 0, 0, 37, 0, 1, 0, 30, 0, 0, 14, 46, 23, 0, 0, 0, 0, 0, 25, 0, 43, 0, 0, 0, 38, 0, 20
|3, 0, 0, 46, 12, 0, 0, 13, 0, 0, 33, 0, 0, 0, 0, 2, 0, 0, 0, 0, 0, 4, 43, 0, 0, 0, 8, 44, 0, 0, 34, 0, 40, 39, 0, 15, 0, 38, 0, 0, 0, 0, 0, 0, 0, 30, 0, 36, 0
|6, 0, 0, 0, 11, 0, 0, 0, 2, 0, 0, 0, 0, 0, 0, 9, 0, 0, 0, 0, 22, 0, 40, 0, 0, 19, 0, 34, 0, 0, 0, 0, 0, 0, 15, 0, 0, 0, 0, 0, 0, 0, 49, 1, 14, 0, 27, 0, 0
|0, 0, 0, 27, 0, 0, 40, 0, 0, 0, 0, 1, 0, 0, 0, 0, 0, 0, 25, 21, 0, 0, 0, 45, 26, 0, 23, 0, 0, 0, 0, 0, 29, 18, 0, 0, 0, 2, 0, 3, 46, 44, 0, 0, 0, 0, 10, 0, 0
|0, 0, 23, 35, 33, 31, 34, 0, 19, 0, 0, 0, 11, 0, 0, 40, 0, 0, 0, 18, 0, 0, 0, 0, 3, 0, 0, 0, 0, 0, 0, 0, 0, 0, 21, 0, 0, 43, 41, 0, 0, 0, 0, 0, 0, 0, 7, 0, 0|];