order = 7;
grid = [|21, 0, 0, 26, 13, 28, 32, 0, 0, 19, 17, 38, 0, 0, 0, 0, 27, 0, 0, 23, 6, 34, 0, 0, 25, 0, 47, 24, 39, 33, 0, 0, 0, 0, 0, 0, 0, 0, 0, 0, 0, 0, 0, 0, 40, 8, 0, 0, 0
|0, 0, 27, 0, 0, 0, 0, 0, 0, 3, 6, 0, 32, 0, 0, 0, 0, 18, 22, 0, 0, 0, 0, 23, 0, 9, 2, 0, 19, 0, 0, 0, 13, 0, 0, 14, 0, 26, 0, 0, 0, 10, 0, 0, 0, 0, 0, 0, 0
|0, 0, 0, 44, 2, 0, 0, 23, 0, 45, 0, 10, 0, 0, 0, 39, 5, 1, 30, 0, 0, 0, 0, 0, 32, 0, 0, 0, 0, 0, 0, 0, 0, 0, 0, 0, 0, 0, 0, 21, 0, 15, 14, 38, 0, 0, 0, 0, 0
|0, 23, 0, 0, 0, 0, 0, 0, 0, 0, 0, 1, 0, 0, 0, 0, 0, 0, 0, 0, 0, 0, 0, 0, 0, 0, 11, 0, 14, 4, 0, 0, 0, 46, 0, 0, 0, 0, 0, 17, 0, 33, 0, 0, 0, 22, 0, 0, 6
|0, 0, 0, 0, 0, 30, 0, 0, 22, 0, 0, 24, 0, 0, 0, 13, 0, 0, 0, 0, 0, 0, 3, 0, 15, 0, 0, 0, 0, 0, 0, 0, 36, 25, 9, 6, 35, 0, 0, 0, 38, 27, 0, 0, 0, 5, 0, 42, 0
|15, 0, 6, 0, 0, 0, 0, 13, 0, 0, 0, 40, 30, 0, 0, 24, 0, 0, 2, 0, 47, 48, 0, 0, 0, 0, 0, 0, 28, 0, 0, 5, 34, 0, 0, 0, 45, 0, 0, 0, 0, 9, 0, 0, 0, 33, 0, 0, 0
|0, 9, 0, 0, 0, 0, 0, 0, 0, 0, 0, 0, 36, 0, 0, 0, 40, 26, 0, 0, 0, 0, 37, 0, 0, 0, 0, 0, 2, 0, 0, 0, 0, 0, 0, 3, 25, 0, 48, 0, 0, 0, 13, 0, 32, 0, 0, 21, 0
|0, 0, 0, 30, 6, 46, 0, 0, 0, 0, 0, 12, 0, 0, 0, 0, 0, 32, 0, 0, 0, 4, 0, 2, 18, 0, 8, 0, 7, 0, 0, 0, 35, 13, 0, 39, 40, 49, 10, 0, 0, 0, 0, 0, 15, 34, 0, 0, 0
|0, 24, 0, 49, 0, 0, 0, 0, 5, 0, 1, 7, 0, 0, 0, 0, 0, 0, 40, 0, 0, 0, 0, 42, 0, 12, 37, 0, 0, 0, 15, 0, 0, 6, 0, 0, 0, 0, 0, 0, 44, 0, 0, 0, 0, 0, 0, 0, 0
|0, 0, 42, 39, 7, 15, 21, 44, 0, 0, 0, 47, 0, 3, 0, 0, 0, 23, 0, 0, 0, 16, 0, 0, 0, 35, 40, 13, 0, 0, 0, 36, 0, 0, 0, 0, 18, 17, 5, 12, 0, 0, 26, 0, 0, 0, 49, 0, 0
|0, 0, 13, 0, 0, 0, 0, 0, 26, 0, 33, 0, 23, 8, 0, 0, 0, 0, 5, 0, 0, 0, 0, 0, 0, 0, 0, 31, 0, 16, 0, 42, 38, 40, 0, 22, 0, 0, 0, 0, 0, 0, 0, 0, 0, 17, 0, 44, 0
|0, 0, 0, 0, 0, 0, 45, 0, 0, 34, 0, 0, 0, 0, 0, 0, 0, 0, 0, 0, 10, 0, 32, 0, 0, 24, 19, 7, 0, 12, 0, 0, 0, 11, 0, 0, 0, 0, 21, 0, 0, 0, 0, 0, 0, 0, 0, 0, 39
|0, 12, 28, 0, 37, 0, 0, 49, 0, 0, 0, 29, 14, 0, 0, 31, 0, 0, 0, 19, 0, 46, 0, 0, 0, 0, 48, 0, 8, 0, 0, 44, 0, 0, 0, 0, 0, 0, 15, 43, 0, 0, 0, 35, 4, 7, 40, 0, 0
|41, 0, 0, 31, 43, 0, 35, 0, 0, 0, 18, 0, 0, 42, 49, 0, 0, 25, 0, 0, 33, 17, 0, 0, 0, 36, 0, 0, 0, 0, 21, 0, 5, 0, 0, 28, 34, 0, 7, 0, 0, 13, 38, 0, 0, 0, 12, 0, 0
|0, 19, 0, 0, 0, 0, 34, 0, 0, 0, 29, 14, 0, 0, 26, 0, 0, 0, 0, 0, 0, 10, 0, 0, 0, 30, 0, 0, 41, 0, 5, 0, 0, 0, 0, 0, 32, 0, 4, 0, 0, 0, 40, 21, 39, 0, 0, 0, 0
|0, 0, 37, 0, 0, 0, 9, 0, 0, 0, 0, 45, 38, 0, 1, 0, 0, 0, 0, 44, 0, 0, 0, 0, 5, 0, 0, 41, 49, 0, 0, 29, 43, 0, 26, 0, 27, 20, 0, 0, 39, 16, 0, 0, 0, 0, 0, 0, 31
|0, 0, 0, 0, 0, 0, 41, 0, 0, 0, 0, 0, 0, 0, 0, 20, 0, 24, 0, 32, 0, 12, 35, 0, 0, 15, 0, 49, 0, 0, 0, 0, 0, 0, 0, 0, 46, 11, 0, 0, 0, 37, 0, 0, 0, 0, 0, 0, 0
|0, 0, 4, 0, 0, 0, 0, 18, 41, 40, 0, 0, 19, 0, 0, 0, 0, 48, 0, 0, 0, 23, 21, 0, 0, 0, 27, 26, 0, 0, 0, 35, 0, 0, 0, 0, 22, 0, 0, 38, 0, 0, 0, 0, 0, 49, 0, 0, 36
|0, 0, 0, 0, 0, 0, 0, 0, 0, 0, 0, 0, 20, 0, 46, 0, 2, 0, 0, 0, 0, 39, 0, 0, 0, 0, 0, 0, 0, 0, 0, 1, 0, 48, 0, 0, 0, 5, 0, 0, 0, 0, 4, 0, 26, 9, 0, 38, 27
|0, 0, 0, 0, 26, 43, 0, 0, 0, 0, 0, 34, 0, 0, 0, 28, 0, 0, 37, 0, 0, 0, 1, 45, 0, 0, 3, 0, 0, 8, 0, 39, 0, 0, 0, 0, 0, 0, 0, 41, 0, 23, 0, 0, 11, 0, 0, 0, 33
|0, 0, 0, 0, 0, 0, 5, 0, 0, 0, 30, 0, 0, 2, 0, 0, 0, 0, 0, 0, 0, 43, 0, 33, 48, 29, 18, 0, 23, 0, 0, 0, 31, 0, 7, 0, 28, 0, 0, 0, 0, 0, 0, 0, 0, 35, 0, 0, 0
|0, 28, 32, 2, 0, 0, 0, 0, 0, 0, 0, 0, 0, 0, 0, 0, 0, 10, 0, 11, 0, 0, 0, 0, 22, 27, 0, 0, 0, 0, 0, 0, 0, 0, 0, 44, 9, 24, 0, 0, 0, 0, 36, 18, 49, 0, 0, 0, 0
|0, 26, 0, 0, 0, 0, 0, 0, 0, 30, 0, 0, 0, 0, 28, 0, 24, 0, 0, 7, 12, 0, 45, 0, 0, 0, 0, 0, 0, 0, 0, 0, 0, 0, 0, 8, 0, 0, 0, 16, 0, 0, 0, 4, 0, 0, 0, 41, 0
|0, 7, 39, 4, 25, 0, 0, 0, 20, 5, 0, 0, 49, 0, 29, 0, 0, 0, 33, 13, 0, 38, 0, 0, 0, 0, 0, 0, 0, 0, 0, 0, 0, 0, 0, 11, 47, 0, 0, 0, 0, 22, 28, 0, 0, 30, 0, 0, 3
|0, 0, 0, 0, 45, 0, 0, 0, 0, 0, 0, 0, 0, 0, 6, 0, 0, 4, 0, 30, 0, 36, 9, 0, 29, 39, 0, 16, 0, 0, 0, 0, 0, 47, 13, 0, 21, 0, 0, 0, 0, 25, 0, 46, 0, 0, 0, 7, 11
|0, 0, 0, 0, 0, 0, 0, 0, 0, 0, 15, 0, 0, 0, 0, 0, 0, 46, 0, 2, 38, 28, 0, 41, 11, 0, 0, 18, 0, 0, 0, 34, 24, 0, 0, 0, 4, 0, 0, 49, 20, 0, 0, 0, 1, 0, 0, 0, 0
|0, 0, 15, 0, 48, 0, 0, 0, 17, 0, 3, 11, 10, 4, 21, 0, 0, 0, 45, 8, 0, 20, 0, 0, 0, 0, 0, 34, 0, 9, 0, 14, 0, 0, 0, 0, 5, 38, 0, 36, 35, 0, 29, 0, 37, 0, 0, 0, 0
|0, 0, 0, 0, 0, 16, 0, 38, 0, 1, 0, 0, 0, 0, 0, 0, 0, 0, 0, 0, 25, 0, 0, 5, 0, 4, 0, 40, 0, 0, 0, 0, 0, 26, 0, 0, 0, 0, 0, 0, 2, 45, 0, 0, 42, 0, 44, 39, 22
|0, 0, 0, 0, 35, 0, 19, 9, 10, 2, 0, 0, 0, 0, 0, 0, 0, 49, 41, 16, 0, 0, 18, 0, 0, 6, 0, 0, 38, 0, 0, 0, 42, 34, 0, 24, 0, 4, 13, 39, 29, 0, 0, 0, 0, 27, 0, 0, 0
|0, 0, 24, 9, 0, 0, 0, 0, 0, 0, 0, 0, 3, 0, 0, 8, 0, 0, 0, 0, 0, 0, 0, 10, 41, 0, 23, 0, 17, 0, 0, 0, 37, 20, 0, 26, 0, 0, 0, 32, 0, 0, 0, 0, 2, 0, 15, 0, 0
|0, 0, 5, 23, 4, 11, 0, 0, 0, 0, 49, 0, 0, 0, 0, 0, 0, 0, 0, 0, 0, 0, 0, 25, 38, 13, 26, 45, 47, 0, 0, 0, 0, 0, 0, 0, 0, 0, 0, 0, 0, 0, 0, 22, 46, 0, 0, 0, 0
|45, 31, 0, 0, 0, 0, 0, 0, 0, 0, 0, 0, 0, 0, 3, 0, 0, 0, 0, 0, 0, 0, 0, 0, 0, 0, 39, 0, 0, 0, 24, 19, 0, 0, 0, 0, 0, 41, 0, 0, 0, 0, 9, 0, 12, 47, 0, 0, 0
|0, 0, 0, 32, 0, 0, 0, 0, 0, 24, 0, 33, 11, 0, 0, 0, 0, 0, 0, 0, 0, 0, 19, 0, 0, 0, 0, 30, 0, 6, 0, 0, 0, 0, 23, 0, 1, 0, 0, 0, 0, 0, 42, 0, 13, 0, 0, 0, 7
|0, 0, 0, 0, 0, 0, 0, 31, 18, 0, 0, 42, 0, 0, 12, 2, 0, 0, 0, 0, 32, 0, 48, 0, 0, 0, 0, 8, 10, 46, 11, 33, 0, 0, 3, 0, 15, 0, 0, 0, 0, 14, 0, 0, 0, 0, 0, 0, 0
|0, 15, 8, 0, 10, 0, 0, 0, 0, 0, 0, 0, 0, 0, 35, 0, 0, 17, 0, 0, 45, 32, 0, 22, 0, 14, 5, 0, 0, 0, 0, 0, 0, 0, 0, 47, 44, 0, 0, 0, 33, 0, 0, 16, 0, 0, 0, 0, 38
|0, 37, 0, 0, 0, 0, 0, 0, 0, 0, 4, 0, 0, 23, 0, 22, 29, 0, 36, 0, 43, 0, 0, 0, 0, 0, 0, 0, 0, 0, 0, 0, 0, 49, 0, 34, 0, 0, 0, 0, 41, 0, 0, 0, 0, 0, 0, 0, 10
|0, 0, 0, 1, 46, 0, 0, 0, 0, 0, 0, 0, 0, 0, 0, 12, 0, 0, 0, 0, 48, 0, 0, 0, 0, 44, 0, 0, 0, 27, 0, 32, 0, 0, 38, 0, 0, 0, 43, 0, 4, 0, 0, 34, 16, 0, 7, 0, 42
|44, 0, 0, 0, 0, 2, 0, 0, 3, 0, 21, 39, 47, 20, 0, 0, 0, 0, 25, 26, 0, 30, 0, 49, 0, 0, 35, 0, 0, 0, 0, 0, 0, 0, 42, 0, 0, 0, 22, 0, 36, 7, 0, 0, 0, 0, 0, 0, 15
|0, 0, 0, 15, 0, 0, 0, 32, 0, 0, 0, 0, 0, 16, 0, 0, 1, 34, 0, 0, 39, 0, 0, 0, 42, 0, 0, 0, 0, 7, 0, 0, 0, 31, 0, 0, 0, 0, 0, 44, 0, 35, 0, 0, 0, 14, 19, 0, 0
|0, 11, 0, 0, 0, 0, 6, 0, 0, 42, 0, 0, 0, 0, 0, 0, 0, 0, 0, 37, 28, 0, 13, 0, 0, 0, 0, 0, 0, 0, 0, 0, 0, 10, 0, 5, 38, 0, 0, 0, 0, 0, 0, 2, 0, 39, 0, 0, 0
|0, 0, 0, 0, 0, 45, 0, 0, 36, 37, 0, 0, 0, 0, 0, 0, 0, 0, 0, 15, 21, 0, 0, 38, 0, 0, 0, 0, 0, 0, 0, 0, 33, 1, 0, 16, 0, 0, 0, 0, 9, 0, 0, 0, 0, 26, 0, 0, 0
|0, 0, 0, 0, 21, 0, 0, 45, 0, 0, 0, 0, 0, 15, 0, 0, 0, 33, 9, 0, 24, 0, 16, 7, 10, 0, 4, 23, 25, 0, 0, 0, 11, 0, 0, 30, 39, 0, 19, 0, 0, 0, 12, 0, 0, 0, 0, 0, 0
|0, 16, 36, 0, 0, 0, 0, 19, 38, 0, 35, 0, 0, 0, 0, 0, 0, 0, 0, 0, 0, 0, 0, 0, 0, 23, 0, 0, 0, 0, 0, 31, 3, 0, 0, 0, 14, 0, 0, 46, 45, 0, 0, 0, 0, 0, 0, 43, 13
|0, 0, 12, 17, 0, 0, 23, 0, 0, 0, 0, 0, 1, 46, 0, 0, 0, 37, 0, 25, 0, 0, 11, 24, 0, 0, 0, 0, 4, 0, 0, 0, 8, 0, 0, 0, 41, 0, 16, 0, 0, 0, 0, 0, 28, 0, 35, 0, 0
|0, 13, 49, 0, 31, 7, 0, 0, 0, 0, 0, 0, 0, 44, 17, 38, 28, 0, 0, 0, 0, 0, 0, 0, 0, 34, 0, 0, 27, 0, 45, 0, 0, 36, 0, 32, 48, 0, 0, 0, 11, 43, 0, 0, 0, 0, 0, 0, 30
|0, 21, 0, 0, 33, 0, 30, 0, 0, 0, 0, 0, 0, 31, 0, 0, 0, 0, 0, 5, 0, 0, 20, 0, 0, 0, 32, 12, 0, 1, 0, 0, 25, 0, 0, 0, 2, 0, 0, 28, 0, 3, 44, 49, 8, 0, 0, 0, 0
|0, 0, 0, 0, 19, 0, 0, 48, 0, 0, 0, 0, 0, 0, 0, 14, 26, 36, 35, 0, 9, 18, 0, 0, 4, 0, 0, 0, 0, 0, 12, 0, 0, 44, 0, 0, 0, 37, 38, 0, 0, 0, 0, 0, 21, 42, 0, 0, 1
|0, 0, 1, 0, 0, 35, 0, 0, 8, 0, 26, 0, 0, 40, 0, 0, 0, 0, 10, 0, 0, 0, 29, 28, 0, 0, 0, 37, 22, 0, 0, 15, 0, 0, 0, 0, 0, 0, 0, 0, 23, 0, 16, 0, 0, 0, 0, 45, 0
|0, 0, 34, 0, 0, 0, 0, 21, 0, 0, 0, 0, 43, 0, 24, 0, 0, 0, 0, 0, 19, 7, 0, 0, 3, 49, 0, 36, 0, 5, 0, 0, 0, 0, 20, 33, 31, 0, 39, 0, 0, 0, 0, 32, 0, 0, 0, 0, 26|];