order = 8;
grid = [|6, 11, 0, 39, 35, 0, 0, 31, 0, 0, 0, 0, 0, 0, 49, 43, 0, 0, 0, 0, 46, 0, 0, 54, 33, 0, 0, 0, 0, 25, 26, 59, 28, 0, 52, 9, 0, 0, 64, 0, 0, 40, 0, 42, 0, 0, 0, 17, 16, 0, 0, 4, 20, 8, 3, 34, 0, 37, 0, 0, 38, 0, 0, 0
|46, 0, 9, 62, 0, 63, 0, 17, 0, 38, 0, 0, 0, 0, 21, 0, 0, 0, 0, 0, 0, 0, 0, 0, 37, 0, 0, 19, 0, 0, 43, 0, 0, 12, 0, 57, 0, 0, 48, 0, 0, 0, 0, 0, 0, 0, 41, 0, 6, 0, 0, 61, 0, 0, 0, 0, 0, 28, 15, 40, 0, 35, 0, 60
|24, 0, 0, 0, 49, 0, 0, 0, 15, 18, 34, 11, 0, 26, 5, 17, 19, 0, 4, 0, 0, 0, 0, 6, 0, 0, 29, 35, 0, 0, 0, 0, 0, 0, 0, 33, 0, 0, 0, 0, 51, 0, 0, 0, 0, 2, 0, 0, 0, 0, 46, 0, 30, 13, 0, 0, 0, 0, 0, 0, 0, 52, 0, 0
|0, 0, 36, 55, 0, 0, 0, 0, 35, 0, 0, 0, 0, 0, 22, 0, 32, 0, 58, 0, 0, 0, 37, 34, 0, 14, 0, 0, 50, 0, 0, 0, 16, 0, 0, 0, 0, 0, 0, 0, 28, 0, 0, 20, 0, 0, 0, 0, 0, 0, 64, 0, 0, 49, 0, 0, 59, 42, 0, 3, 0, 11, 0, 0
|0, 0, 0, 30, 0, 0, 0, 2, 0, 6, 4, 8, 0, 0, 14, 0, 0, 52, 18, 0, 0, 0, 10, 0, 0, 0, 0, 0, 0, 21, 0, 0, 0, 0, 0, 0, 0, 0, 0, 47, 0, 0, 0, 0, 60, 25, 49, 0, 0, 58, 0, 0, 0, 15, 33, 0, 0, 0, 0, 0, 0, 12, 0, 0
|0, 0, 0, 0, 0, 0, 0, 19, 0, 0, 0, 0, 59, 0, 0, 0, 14, 22, 17, 0, 63, 49, 62, 0, 0, 0, 0, 0, 0, 0, 0, 0, 0, 10, 0, 0, 0, 7, 0, 60, 0, 0, 9, 45, 0, 3, 0, 0, 38, 0, 0, 5, 0, 0, 0, 0, 0, 0, 43, 0, 24, 0, 29, 0
|0, 0, 20, 0, 22, 5, 0, 0, 0, 0, 0, 40, 0, 29, 0, 19, 0, 0, 0, 0, 0, 38, 0, 0, 0, 52, 0, 0, 0, 0, 58, 24, 0, 30, 0, 0, 44, 0, 32, 0, 0, 0, 0, 0, 53, 0, 0, 0, 0, 0, 54, 42, 0, 0, 7, 55, 0, 0, 0, 0, 41, 0, 0, 0
|38, 0, 0, 26, 7, 0, 0, 0, 0, 0, 0, 0, 0, 31, 60, 0, 0, 0, 50, 0, 0, 27, 0, 0, 0, 0, 0, 0, 0, 28, 9, 0, 0, 0, 0, 0, 0, 0, 0, 0, 54, 0, 6, 0, 0, 44, 35, 0, 0, 0, 1, 0, 0, 62, 0, 0, 0, 0, 0, 0, 0, 0, 0, 0
|16, 0, 60, 0, 50, 0, 33, 47, 17, 12, 0, 0, 0, 0, 0, 0, 0, 61, 1, 0, 40, 51, 0, 42, 0, 0, 39, 0, 0, 32, 0, 56, 0, 0, 0, 0, 7, 0, 0, 23, 0, 0, 0, 0, 0, 0, 0, 34, 0, 0, 30, 2, 0, 0, 0, 44, 13, 20, 0, 0, 11, 43, 0, 0
|0, 0, 41, 54, 0, 0, 32, 0, 0, 8, 0, 0, 0, 49, 0, 0, 0, 18, 0, 0, 57, 0, 0, 60, 0, 50, 0, 0, 0, 0, 52, 48, 0, 56, 0, 0, 0, 0, 36, 44, 43, 0, 19, 0, 0, 0, 4, 0, 0, 0, 0, 0, 0, 0, 0, 51, 0, 0, 0, 12, 0, 0, 58, 23
|34, 0, 0, 0, 0, 4, 0, 48, 0, 0, 0, 32, 0, 11, 0, 0, 0, 0, 0, 0, 0, 0, 0, 0, 23, 0, 0, 0, 0, 0, 12, 0, 29, 0, 14, 0, 0, 0, 0, 0, 0, 0, 0, 51, 0, 60, 0, 0, 46, 0, 0, 0, 0, 0, 0, 0, 62, 0, 0, 0, 0, 0, 0, 0
|0, 0, 0, 64, 0, 0, 0, 38, 0, 2, 43, 27, 0, 0, 0, 18, 0, 9, 0, 55, 0, 0, 0, 0, 21, 4, 0, 0, 0, 60, 0, 61, 25, 62, 13, 0, 0, 0, 0, 0, 0, 14, 0, 0, 0, 37, 0, 0, 0, 36, 0, 8, 0, 0, 0, 0, 0, 0, 35, 0, 0, 0, 0, 0
|0, 0, 0, 31, 8, 0, 0, 0, 37, 0, 23, 60, 0, 0, 0, 25, 0, 11, 0, 0, 0, 0, 0, 0, 62, 0, 0, 0, 1, 0, 2, 0, 57, 41, 0, 0, 38, 0, 0, 0, 20, 0, 0, 7, 61, 0, 0, 0, 12, 0, 0, 0, 0, 0, 0, 0, 0, 0, 0, 0, 0, 0, 0, 0
|0, 17, 13, 0, 0, 15, 0, 0, 0, 0, 0, 0, 0, 0, 0, 16, 0, 0, 0, 0, 0, 0, 0, 0, 0, 0, 0, 0, 45, 51, 8, 0, 4, 0, 60, 0, 0, 46, 0, 0, 40, 0, 29, 48, 23, 0, 25, 0, 0, 0, 0, 0, 39, 0, 0, 64, 0, 0, 0, 0, 0, 0, 0, 0
|0, 0, 0, 23, 59, 0, 0, 6, 0, 0, 0, 0, 0, 0, 0, 4, 0, 0, 0, 0, 0, 54, 0, 0, 0, 0, 41, 0, 0, 0, 24, 17, 0, 0, 30, 0, 0, 0, 0, 0, 0, 0, 11, 0, 0, 0, 0, 0, 0, 0, 0, 0, 29, 0, 0, 0, 0, 60, 0, 0, 0, 0, 37, 14
|62, 20, 0, 0, 0, 25, 56, 0, 0, 41, 0, 0, 0, 3, 61, 5, 0, 0, 0, 0, 0, 63, 46, 0, 28, 0, 0, 59, 27, 10, 0, 18, 0, 0, 0, 0, 11, 0, 0, 0, 0, 55, 2, 0, 0, 0, 0, 0, 0, 0, 0, 0, 0, 0, 0, 0, 0, 0, 0, 24, 22, 19, 0, 0
|0, 0, 0, 59, 0, 0, 0, 0, 34, 31, 0, 0, 23, 0, 0, 35, 0, 27, 40, 42, 0, 0, 44, 0, 0, 0, 0, 0, 0, 0, 0, 0, 0, 0, 0, 0, 0, 0, 0, 0, 0, 0, 0, 0, 36, 0, 61, 0, 0, 50, 56, 0, 0, 0, 0, 17, 0, 0, 0, 0, 0, 26, 0, 0
|0, 0, 54, 4, 10, 0, 0, 0, 0, 63, 0, 0, 0, 0, 6, 22, 0, 50, 0, 47, 20, 0, 33, 0, 0, 0, 0, 0, 51, 56, 13, 0, 0, 57, 0, 38, 0, 31, 0, 28, 0, 34, 0, 0, 0, 0, 0, 1, 0, 29, 15, 0, 41, 9, 0, 0, 11, 0, 0, 59, 0, 0, 0, 0
|0, 0, 0, 0, 0, 11, 0, 52, 61, 0, 0, 0, 0, 0, 0, 20, 0, 0, 15, 0, 0, 0, 0, 64, 0, 0, 26, 0, 0, 31, 0, 35, 0, 0, 0, 0, 0, 0, 0, 0, 0, 0, 0, 0, 0, 51, 0, 0, 0, 0, 0, 0, 0, 42, 0, 0, 0, 0, 0, 8, 1, 27, 45, 0
|0, 0, 0, 0, 0, 0, 0, 25, 0, 0, 28, 0, 0, 0, 0, 58, 0, 0, 0, 35, 0, 46, 0, 0, 0, 0, 0, 0, 0, 0, 0, 0, 0, 3, 0, 0, 0, 64, 22, 0, 0, 6, 0, 0, 0, 0, 0, 9, 0, 0, 0, 0, 0, 32, 0, 61, 0, 0, 0, 54, 0, 39, 0, 0
|42, 0, 0, 0, 30, 0, 0, 0, 0, 45, 0, 0, 38, 0, 0, 0, 0, 3, 0, 14, 10, 0, 0, 0, 0, 2, 0, 23, 41, 58, 46, 0, 0, 0, 50, 0, 0, 0, 35, 12, 18, 0, 0, 52, 7, 56, 47, 0, 21, 0, 0, 26, 48, 0, 0, 0, 0, 0, 0, 0, 0, 0, 28, 0
|48, 50, 0, 0, 31, 0, 0, 0, 0, 42, 0, 0, 0, 0, 56, 0, 0, 23, 0, 8, 0, 36, 0, 0, 0, 0, 40, 1, 60, 0, 0, 0, 0, 21, 0, 0, 0, 0, 0, 0, 0, 53, 12, 0, 2, 29, 0, 54, 34, 0, 0, 0, 0, 0, 38, 0, 0, 0, 46, 0, 0, 0, 47, 0
|27, 61, 0, 0, 0, 0, 0, 64, 0, 0, 0, 0, 0, 33, 0, 0, 0, 38, 0, 0, 0, 0, 0, 57, 0, 10, 0, 39, 9, 47, 37, 62, 56, 0, 0, 0, 15, 48, 0, 0, 0, 0, 0, 0, 0, 0, 31, 0, 0, 0, 2, 0, 0, 25, 0, 0, 0, 0, 0, 0, 0, 4, 0, 0
|0, 32, 24, 0, 0, 0, 3, 33, 0, 0, 0, 49, 0, 0, 0, 0, 22, 0, 0, 12, 25, 0, 0, 30, 0, 0, 0, 0, 0, 14, 0, 0, 0, 0, 26, 0, 0, 40, 2, 0, 0, 0, 0, 0, 19, 0, 0, 0, 0, 0, 0, 27, 37, 0, 35, 0, 0, 0, 48, 0, 0, 0, 0, 0
|0, 0, 37, 0, 0, 33, 0, 12, 0, 0, 0, 0, 0, 0, 63, 0, 4, 6, 0, 0, 0, 39, 0, 28, 0, 32, 0, 0, 0, 0, 0, 26, 0, 0, 0, 0, 0, 0, 0, 0, 0, 0, 0, 0, 0, 0, 0, 0, 0, 0, 0, 30, 0, 38, 59, 11, 50, 55, 40, 0, 56, 0, 18, 0
|0, 0, 0, 0, 15, 50, 0, 0, 38, 0, 0, 0, 6, 59, 0, 0, 0, 33, 24, 0, 0, 0, 2, 40, 0, 13, 0, 0, 18, 0, 20, 0, 0, 0, 0, 0, 0, 36, 49, 0, 0, 0, 0, 0, 0, 0, 0, 0, 0, 0, 0, 0, 0, 0, 0, 0, 35, 52, 0, 0, 9, 0, 0, 0
|0, 0, 0, 35, 0, 0, 22, 0, 0, 0, 36, 0, 0, 0, 0, 51, 0, 0, 0, 0, 41, 0, 0, 16, 43, 19, 31, 0, 0, 0, 0, 0, 52, 0, 0, 28, 0, 0, 44, 0, 0, 42, 0, 0, 0, 0, 0, 0, 39, 0, 45, 64, 0, 0, 0, 26, 0, 11, 34, 0, 0, 0, 0, 10
|44, 0, 0, 32, 0, 34, 0, 0, 0, 53, 27, 0, 0, 57, 0, 8, 0, 0, 3, 0, 0, 0, 19, 0, 0, 0, 0, 0, 0, 0, 0, 0, 24, 0, 0, 0, 0, 22, 0, 0, 61, 0, 0, 0, 0, 54, 0, 6, 50, 0, 52, 0, 21, 0, 0, 0, 0, 0, 41, 0, 0, 0, 0, 0
|0, 0, 0, 52, 0, 0, 0, 0, 0, 0, 0, 0, 0, 18, 33, 0, 51, 34, 8, 53, 30, 0, 0, 0, 0, 42, 11, 0, 0, 0, 0, 0, 35, 40, 0, 0, 39, 0, 7, 56, 0, 0, 38, 10, 0, 49, 0, 0, 14, 17, 16, 23, 0, 0, 0, 0, 0, 0, 0, 0, 0, 0, 0, 0
|8, 18, 0, 0, 0, 0, 0, 27, 32, 0, 0, 35, 3, 9, 19, 0, 10, 7, 0, 37, 0, 52, 0, 0, 0, 0, 0, 0, 0, 0, 0, 0, 0, 0, 31, 13, 12, 59, 6, 0, 0, 0, 0, 57, 0, 0, 55, 0, 0, 0, 0, 0, 0, 43, 36, 0, 0, 0, 47, 39, 0, 0, 0, 0
|0, 0, 0, 0, 0, 36, 2, 0, 0, 0, 0, 0, 43, 0, 0, 0, 0, 0, 60, 0, 0, 18, 0, 0, 0, 0, 0, 3, 0, 8, 0, 52, 0, 0, 37, 0, 50, 20, 54, 57, 0, 0, 0, 0, 0, 0, 0, 26, 0, 0, 0, 0, 0, 44, 0, 0, 0, 0, 0, 0, 0, 0, 0, 0
|0, 0, 0, 0, 0, 45, 0, 0, 0, 0, 0, 0, 10, 0, 0, 0, 0, 35, 0, 31, 12, 0, 0, 0, 0, 55, 22, 0, 0, 44, 48, 0, 62, 0, 0, 0, 0, 60, 46, 0, 0, 52, 0, 0, 14, 58, 0, 0, 19, 57, 3, 0, 6, 0, 0, 25, 0, 0, 0, 0, 28, 0, 59, 64
|0, 8, 0, 0, 33, 29, 0, 0, 20, 0, 0, 21, 0, 60, 13, 0, 44, 1, 7, 57, 0, 0, 0, 26, 0, 12, 0, 0, 0, 0, 0, 0, 0, 0, 32, 0, 0, 0, 0, 0, 0, 0, 0, 0, 0, 52, 54, 0, 0, 31, 0, 0, 0, 0, 30, 10, 0, 0, 0, 0, 0, 14, 0, 0
|0, 0, 11, 0, 0, 0, 36, 0, 0, 64, 5, 0, 34, 0, 0, 0, 54, 0, 0, 0, 27, 0, 0, 63, 0, 0, 44, 0, 0, 0, 62, 0, 42, 0, 0, 53, 56, 6, 0, 0, 39, 31, 0, 9, 0, 0, 7, 0, 0, 43, 4, 57, 0, 50, 0, 19, 22, 0, 30, 0, 58, 17, 35, 0
|0, 0, 55, 0, 0, 27, 0, 18, 22, 0, 10, 0, 8, 39, 0, 57, 0, 0, 0, 17, 0, 0, 9, 0, 31, 23, 0, 0, 0, 0, 0, 0, 0, 0, 46, 0, 0, 3, 0, 0, 0, 0, 0, 0, 0, 0, 0, 20, 0, 0, 36, 13, 0, 0, 0, 0, 0, 0, 0, 32, 44, 0, 0, 0
|0, 0, 45, 0, 0, 0, 64, 0, 0, 0, 0, 23, 0, 0, 0, 0, 0, 0, 0, 0, 18, 0, 4, 0, 0, 0, 0, 0, 0, 57, 51, 41, 39, 0, 0, 0, 0, 0, 34, 0, 0, 0, 24, 0, 0, 1, 26, 0, 0, 0, 0, 0, 44, 0, 0, 0, 7, 0, 0, 0, 46, 0, 0, 0
|0, 14, 0, 0, 46, 0, 0, 0, 0, 0, 0, 0, 49, 27, 0, 0, 0, 0, 6, 5, 0, 0, 0, 0, 61, 0, 8, 22, 0, 0, 0, 55, 12, 0, 25, 0, 0, 0, 0, 0, 0, 0, 64, 0, 0, 0, 2, 43, 0, 52, 0, 0, 0, 37, 0, 0, 0, 0, 0, 21, 20, 0, 0, 0
|9, 0, 0, 20, 0, 7, 0, 22, 0, 0, 0, 0, 0, 0, 0, 0, 0, 0, 25, 0, 0, 31, 40, 0, 0, 0, 0, 0, 0, 0, 11, 0, 0, 0, 0, 52, 26, 0, 21, 2, 0, 0, 0, 36, 0, 0, 0, 62, 8, 0, 0, 6, 0, 0, 0, 0, 0, 34, 10, 0, 53, 29, 27, 0
|54, 0, 0, 43, 0, 0, 58, 0, 0, 52, 0, 0, 0, 6, 0, 0, 0, 0, 0, 0, 0, 0, 0, 2, 0, 45, 3, 0, 20, 0, 27, 63, 0, 0, 57, 62, 33, 0, 0, 0, 0, 0, 10, 0, 0, 0, 0, 0, 53, 0, 0, 35, 0, 0, 0, 0, 0, 64, 0, 0, 0, 0, 4, 0
|0, 0, 0, 0, 0, 41, 44, 34, 0, 0, 7, 61, 25, 0, 0, 46, 0, 0, 45, 0, 52, 0, 0, 0, 0, 0, 0, 29, 35, 36, 0, 0, 0, 0, 0, 0, 0, 0, 0, 0, 0, 0, 0, 0, 0, 0, 0, 27, 0, 0, 0, 0, 32, 48, 22, 0, 0, 0, 0, 0, 0, 0, 0, 42
|0, 0, 0, 0, 6, 0, 0, 0, 0, 0, 45, 0, 13, 0, 0, 0, 0, 0, 53, 0, 0, 57, 0, 36, 0, 0, 21, 0, 0, 0, 0, 47, 0, 42, 0, 0, 0, 0, 0, 0, 0, 0, 44, 0, 0, 0, 58, 10, 0, 39, 0, 18, 7, 24, 0, 0, 63, 59, 62, 0, 0, 15, 0, 0
|32, 12, 33, 42, 0, 0, 0, 20, 60, 0, 0, 0, 0, 0, 0, 0, 0, 0, 0, 0, 0, 0, 24, 0, 0, 0, 0, 0, 0, 63, 0, 0, 30, 37, 0, 0, 0, 0, 0, 61, 0, 25, 0, 0, 45, 0, 0, 0, 55, 0, 0, 16, 57, 0, 0, 2, 0, 51, 0, 0, 39, 50, 0, 3
|37, 0, 0, 0, 1, 62, 0, 0, 0, 0, 0, 0, 0, 0, 10, 0, 0, 0, 61, 0, 0, 0, 0, 43, 7, 0, 60, 40, 0, 0, 31, 0, 58, 0, 0, 12, 0, 0, 0, 6, 0, 0, 0, 0, 0, 0, 0, 0, 64, 0, 0, 59, 27, 0, 50, 30, 0, 35, 0, 19, 0, 0, 0, 4
|52, 0, 58, 0, 0, 0, 0, 0, 7, 0, 35, 0, 0, 0, 0, 0, 0, 31, 0, 0, 0, 0, 1, 8, 0, 0, 0, 0, 0, 0, 0, 0, 64, 0, 0, 47, 0, 25, 0, 0, 6, 0, 27, 59, 0, 0, 0, 0, 0, 0, 0, 0, 0, 0, 0, 0, 49, 0, 0, 0, 0, 0, 0, 0
|64, 0, 0, 0, 43, 0, 0, 0, 0, 0, 11, 12, 31, 21, 0, 0, 0, 19, 0, 27, 0, 0, 0, 0, 58, 0, 0, 0, 55, 6, 30, 0, 0, 0, 35, 0, 0, 0, 0, 0, 0, 0, 37, 0, 0, 0, 0, 0, 0, 0, 0, 0, 61, 56, 0, 41, 0, 0, 0, 0, 0, 0, 0, 0
|0, 0, 0, 0, 0, 48, 0, 40, 0, 4, 51, 0, 0, 28, 16, 0, 30, 0, 0, 39, 0, 32, 0, 7, 54, 0, 0, 0, 23, 0, 0, 0, 17, 46, 21, 0, 43, 0, 0, 0, 0, 19, 0, 0, 42, 0, 0, 0, 44, 15, 0, 0, 47, 0, 0, 22, 0, 0, 13, 14, 0, 0, 0, 24
|0, 47, 0, 0, 0, 0, 0, 45, 0, 0, 0, 0, 57, 0, 0, 0, 0, 63, 0, 0, 0, 0, 0, 59, 0, 8, 9, 0, 0, 29, 0, 0, 0, 13, 24, 0, 0, 0, 55, 3, 23, 30, 0, 0, 0, 50, 0, 0, 0, 51, 0, 36, 0, 34, 62, 20, 40, 0, 0, 0, 0, 0, 38, 0
|0, 0, 0, 0, 54, 0, 24, 0, 0, 25, 0, 0, 52, 0, 15, 0, 0, 0, 0, 44, 0, 60, 0, 0, 0, 59, 12, 0, 0, 45, 0, 0, 0, 0, 0, 0, 0, 0, 33, 0, 0, 0, 0, 0, 13, 0, 0, 0, 32, 9, 0, 0, 0, 14, 5, 0, 31, 61, 16, 0, 0, 0, 30, 0
|0, 0, 0, 0, 19, 0, 0, 10, 0, 0, 0, 0, 0, 7, 43, 6, 3, 0, 0, 50, 0, 0, 15, 0, 0, 0, 0, 47, 28, 27, 0, 0, 0, 22, 0, 61, 0, 0, 23, 0, 0, 0, 0, 0, 33, 0, 0, 31, 59, 0, 39, 55, 58, 0, 0, 57, 0, 32, 11, 0, 51, 63, 9, 0
|20, 45, 0, 0, 0, 0, 0, 0, 0, 0, 0, 0, 44, 32, 0, 0, 0, 0, 0, 58, 43, 41, 0, 0, 57, 0, 0, 0, 0, 0, 59, 0, 0, 1, 0, 5, 0, 28, 0, 11, 4, 36, 0, 60, 0, 0, 0, 64, 0, 0, 53, 0, 0, 0, 8, 0, 0, 0, 19, 6, 0, 21, 0, 0
|17, 53, 48, 0, 60, 0, 0, 63, 1, 22, 0, 0, 0, 0, 0, 0, 0, 0, 0, 62, 51, 4, 0, 21, 0, 0, 56, 0, 0, 0, 0, 0, 0, 0, 0, 0, 0, 52, 0, 0, 8, 29, 0, 0, 0, 0, 30, 0, 0, 0, 37, 0, 0, 0, 0, 0, 0, 0, 0, 0, 0, 0, 0, 0
|0, 0, 0, 0, 0, 44, 0, 0, 11, 56, 0, 0, 0, 0, 0, 15, 0, 0, 0, 0, 8, 0, 0, 0, 25, 0, 63, 0, 0, 0, 0, 0, 51, 0, 10, 30, 0, 0, 17, 0, 0, 0, 0, 0, 0, 0, 0, 45, 13, 16, 0, 47, 0, 5, 0, 1, 0, 0, 0, 0, 0, 0, 0, 0
|0, 0, 0, 15, 37, 0, 0, 0, 0, 19, 39, 0, 0, 0, 20, 3, 0, 0, 30, 0, 0, 35, 0, 5, 0, 0, 0, 0, 0, 0, 0, 42, 0, 47, 0, 0, 0, 53, 58, 0, 0, 0, 0, 12, 0, 0, 6, 0, 0, 0, 62, 0, 10, 0, 0, 45, 4, 0, 0, 0, 59, 0, 0, 0
|0, 34, 0, 0, 0, 0, 0, 0, 0, 54, 0, 48, 0, 0, 0, 0, 0, 56, 0, 0, 32, 0, 0, 0, 0, 41, 64, 0, 0, 11, 33, 3, 63, 0, 0, 0, 0, 13, 0, 15, 0, 49, 50, 62, 55, 0, 0, 0, 0, 7, 0, 28, 0, 61, 0, 0, 0, 0, 27, 0, 35, 57, 0, 0
|14, 0, 0, 0, 0, 55, 62, 30, 49, 0, 46, 26, 28, 40, 0, 0, 0, 0, 0, 0, 0, 37, 18, 0, 0, 48, 0, 0, 58, 0, 0, 19, 0, 0, 0, 25, 0, 0, 31, 0, 0, 59, 63, 0, 10, 0, 0, 0, 0, 4, 0, 20, 51, 0, 0, 0, 0, 33, 45, 41, 0, 64, 61, 29
|0, 0, 50, 0, 0, 16, 35, 0, 0, 9, 0, 0, 0, 10, 27, 0, 36, 0, 0, 0, 60, 0, 0, 0, 0, 53, 0, 8, 62, 0, 5, 0, 19, 45, 40, 34, 0, 56, 0, 0, 0, 3, 0, 18, 47, 0, 48, 0, 52, 0, 0, 41, 0, 0, 0, 38, 0, 0, 39, 0, 0, 37, 0, 12
|0, 0, 34, 40, 0, 0, 0, 24, 0, 48, 21, 46, 0, 0, 0, 0, 0, 64, 0, 0, 0, 0, 0, 0, 0, 17, 0, 0, 0, 0, 39, 0, 0, 0, 0, 0, 13, 0, 0, 37, 0, 0, 4, 29, 0, 0, 0, 49, 0, 0, 0, 0, 16, 0, 0, 0, 0, 23, 0, 25, 0, 0, 11, 0
|10, 0, 0, 48, 62, 12, 17, 0, 0, 0, 0, 0, 0, 54, 0, 0, 0, 0, 51, 22, 0, 0, 0, 0, 0, 0, 0, 0, 25, 0, 0, 0, 15, 0, 0, 0, 5, 0, 0, 0, 0, 0, 35, 0, 0, 41, 0, 0, 0, 0, 0, 0, 0, 7, 0, 0, 0, 18, 0, 0, 0, 0, 64, 45
|0, 0, 0, 0, 18, 0, 55, 0, 0, 0, 0, 0, 26, 20, 0, 39, 42, 0, 46, 0, 0, 0, 0, 0, 12, 0, 27, 9, 0, 0, 0, 0, 32, 0, 19, 2, 0, 0, 0, 0, 15, 0, 0, 0, 0, 0, 53, 0, 48, 0, 24, 0, 22, 0, 0, 4, 0, 0, 49, 35, 0, 5, 0, 0
|0, 0, 0, 47, 0, 9, 0, 0, 0, 10, 0, 58, 18, 0, 0, 64, 28, 0, 0, 0, 0, 0, 0, 0, 48, 0, 0, 0, 0, 0, 0, 0, 21, 6, 44, 0, 0, 0, 0, 0, 0, 0, 0, 0, 0, 0, 0, 0, 0, 27, 38, 0, 0, 0, 54, 0, 39, 0, 0, 0, 0, 0, 0, 0
|0, 0, 7, 0, 0, 21, 0, 0, 0, 0, 25, 0, 29, 0, 0, 0, 0, 10, 0, 60, 0, 0, 0, 0, 0, 0, 0, 28, 53, 26, 0, 0, 0, 0, 22, 0, 0, 39, 63, 36, 0, 24, 0, 0, 16, 48, 42, 0, 0, 37, 0, 0, 0, 0, 0, 0, 43, 0, 0, 50, 0, 61, 0, 13
|45, 38, 0, 0, 42, 0, 0, 0, 0, 0, 0, 0, 0, 34, 0, 0, 0, 0, 0, 0, 0, 48, 23, 0, 0, 0, 0, 0, 0, 0, 0, 0, 0, 0, 56, 0, 0, 4, 25, 0, 0, 0, 1, 0, 0, 0, 0, 0, 28, 0, 0, 0, 0, 0, 0, 0, 0, 44, 0, 0, 0, 24, 0, 63
|0, 0, 0, 0, 0, 0, 0, 0, 0, 0, 0, 0, 0, 43, 17, 0, 0, 0, 29, 0, 0, 0, 0, 0, 0, 37, 52, 2, 19, 0, 0, 6, 0, 59, 0, 0, 0, 0, 0, 0, 0, 0, 0, 0, 0, 0, 21, 58, 23, 0, 44, 10, 0, 39, 0, 0, 0, 0, 0, 0, 54, 20, 0, 0
|61, 13, 31, 0, 0, 0, 0, 0, 23, 0, 0, 0, 0, 0, 0, 0, 0, 0, 0, 0, 0, 26, 0, 58, 0, 40, 0, 14, 0, 0, 0, 7, 27, 0, 48, 0, 0, 0, 53, 0, 0, 0, 47, 0, 63, 0, 0, 0, 15, 0, 6, 0, 0, 0, 25, 0, 46, 19, 60, 36, 29, 0, 0, 0|];