order = 8;
grid = [|0, 0, 60, 0, 0, 0, 0, 0, 44, 20, 0, 0, 0, 29, 34, 28, 0, 21, 31, 36, 15, 0, 0, 0, 0, 0, 0, 0, 50, 35, 0, 0, 0, 0, 37, 0, 40, 0, 33, 38, 0, 23, 0, 18, 27, 63, 39, 0, 62, 0, 0, 56, 0, 32, 0, 5, 0, 0, 0, 0, 0, 0, 0, 0
|0, 0, 0, 0, 0, 0, 0, 0, 0, 0, 55, 40, 0, 0, 0, 0, 0, 0, 0, 0, 37, 0, 0, 0, 7, 0, 0, 0, 0, 36, 0, 0, 0, 0, 0, 25, 0, 17, 13, 63, 0, 53, 38, 0, 0, 0, 45, 61, 0, 0, 26, 0, 0, 0, 18, 0, 0, 0, 0, 21, 0, 0, 0, 0
|26, 24, 0, 0, 0, 0, 0, 28, 0, 0, 0, 0, 0, 0, 0, 0, 60, 0, 0, 0, 0, 0, 11, 0, 0, 0, 44, 0, 0, 0, 34, 0, 0, 0, 0, 53, 0, 0, 12, 46, 0, 0, 0, 9, 41, 0, 0, 21, 0, 6, 0, 48, 0, 0, 17, 37, 0, 0, 0, 0, 0, 19, 0, 0
|0, 0, 0, 0, 0, 0, 0, 40, 0, 41, 0, 0, 0, 0, 0, 0, 0, 0, 0, 0, 57, 0, 0, 0, 46, 0, 0, 0, 0, 62, 0, 29, 4, 0, 0, 0, 0, 0, 0, 0, 0, 15, 24, 0, 0, 0, 0, 0, 0, 0, 55, 8, 0, 0, 0, 0, 32, 0, 0, 0, 0, 0, 0, 50
|0, 0, 0, 35, 0, 0, 15, 0, 6, 24, 53, 0, 0, 8, 19, 0, 0, 29, 0, 0, 0, 0, 0, 14, 0, 0, 0, 0, 0, 0, 0, 16, 0, 0, 0, 0, 41, 0, 23, 5, 0, 0, 0, 10, 0, 0, 0, 0, 0, 0, 0, 0, 0, 42, 0, 0, 0, 0, 0, 0, 54, 0, 0, 56
|55, 0, 0, 7, 50, 0, 0, 0, 0, 0, 0, 0, 0, 0, 30, 0, 52, 0, 44, 42, 0, 0, 0, 0, 0, 48, 0, 0, 63, 26, 0, 54, 0, 27, 0, 0, 0, 0, 32, 0, 0, 0, 8, 62, 29, 59, 0, 0, 0, 0, 0, 0, 21, 0, 0, 51, 0, 41, 0, 0, 47, 0, 0, 58
|0, 0, 0, 0, 0, 0, 0, 0, 23, 0, 0, 0, 0, 0, 0, 12, 0, 0, 0, 0, 0, 19, 0, 6, 32, 0, 0, 0, 58, 0, 0, 43, 0, 28, 0, 0, 0, 21, 0, 9, 0, 0, 3, 0, 0, 0, 0, 55, 0, 0, 0, 0, 0, 0, 0, 0, 0, 0, 35, 0, 0, 0, 51, 62
|0, 0, 0, 44, 0, 0, 53, 0, 0, 0, 0, 33, 1, 0, 38, 0, 0, 0, 13, 0, 47, 0, 30, 58, 0, 0, 5, 0, 17, 0, 0, 0, 0, 0, 0, 19, 54, 0, 0, 0, 31, 60, 0, 26, 6, 0, 64, 0, 20, 29, 4, 0, 0, 0, 2, 0, 0, 25, 61, 0, 0, 0, 0, 23
|0, 0, 0, 0, 0, 1, 55, 0, 34, 0, 0, 15, 32, 0, 0, 30, 0, 0, 38, 0, 0, 0, 45, 0, 0, 47, 0, 50, 10, 2, 0, 0, 0, 0, 58, 0, 0, 19, 18, 0, 0, 44, 0, 0, 0, 0, 0, 0, 0, 41, 0, 3, 0, 0, 5, 0, 0, 62, 0, 0, 57, 24, 0, 63
|0, 0, 0, 0, 0, 0, 42, 0, 0, 0, 18, 0, 0, 0, 45, 24, 62, 0, 49, 0, 0, 1, 29, 20, 41, 17, 0, 0, 19, 0, 0, 37, 36, 0, 0, 0, 0, 0, 14, 6, 0, 43, 0, 13, 60, 0, 53, 16, 0, 48, 0, 31, 0, 0, 0, 0, 0, 0, 0, 32, 0, 12, 58, 10
|0, 0, 0, 4, 0, 0, 0, 0, 0, 0, 0, 0, 0, 0, 8, 0, 0, 0, 0, 0, 50, 46, 0, 0, 36, 3, 0, 23, 42, 0, 33, 0, 30, 54, 57, 10, 0, 0, 0, 0, 15, 0, 0, 0, 0, 0, 0, 19, 0, 9, 0, 0, 56, 0, 0, 40, 0, 21, 11, 0, 0, 0, 61, 0
|64, 0, 3, 33, 0, 0, 0, 43, 0, 42, 0, 5, 0, 59, 61, 46, 0, 34, 0, 17, 0, 7, 19, 0, 0, 14, 54, 4, 0, 0, 29, 0, 0, 45, 0, 0, 0, 0, 0, 52, 0, 10, 49, 0, 31, 35, 24, 6, 37, 39, 0, 0, 0, 0, 13, 0, 16, 55, 8, 0, 0, 48, 0, 1
|57, 0, 0, 0, 61, 8, 0, 0, 0, 0, 0, 0, 0, 0, 53, 0, 0, 31, 47, 11, 54, 37, 21, 0, 1, 20, 0, 0, 43, 38, 26, 44, 0, 0, 0, 0, 0, 0, 3, 27, 0, 0, 0, 14, 50, 0, 0, 0, 0, 19, 52, 0, 59, 10, 36, 0, 33, 0, 0, 0, 0, 0, 29, 0
|0, 18, 0, 37, 0, 0, 0, 0, 1, 0, 0, 0, 0, 0, 0, 60, 0, 0, 0, 0, 0, 0, 0, 0, 0, 0, 0, 0, 0, 0, 57, 0, 0, 0, 0, 4, 0, 0, 0, 0, 3, 0, 0, 0, 0, 0, 0, 0, 42, 0, 0, 44, 20, 16, 0, 0, 0, 0, 0, 45, 7, 0, 0, 0
|52, 0, 0, 0, 0, 0, 0, 0, 64, 0, 0, 0, 0, 3, 20, 0, 0, 0, 0, 0, 0, 0, 0, 0, 0, 0, 25, 0, 21, 49, 0, 48, 0, 55, 0, 0, 0, 0, 0, 0, 0, 0, 0, 57, 0, 0, 41, 32, 6, 0, 0, 62, 22, 0, 27, 0, 0, 5, 0, 0, 53, 0, 0, 0
|0, 0, 0, 51, 0, 13, 0, 0, 0, 0, 0, 0, 19, 0, 0, 50, 0, 0, 0, 0, 10, 0, 0, 0, 0, 0, 15, 0, 0, 0, 0, 0, 17, 0, 0, 32, 0, 5, 0, 44, 0, 0, 0, 0, 0, 0, 0, 0, 0, 4, 0, 0, 0, 0, 30, 0, 0, 46, 0, 0, 0, 14, 0, 0
|0, 0, 52, 0, 0, 0, 0, 33, 41, 0, 0, 0, 7, 0, 9, 0, 0, 0, 0, 0, 6, 0, 31, 49, 10, 0, 0, 0, 0, 43, 0, 0, 0, 0, 0, 0, 0, 0, 0, 0, 0, 0, 0, 0, 0, 0, 8, 0, 22, 0, 29, 0, 0, 34, 0, 0, 0, 0, 0, 58, 0, 57, 0, 0
|21, 0, 0, 0, 0, 0, 0, 53, 0, 0, 0, 0, 0, 0, 0, 49, 4, 0, 0, 0, 0, 0, 0, 24, 0, 0, 17, 0, 0, 0, 58, 0, 0, 42, 32, 0, 0, 0, 0, 0, 23, 22, 63, 2, 0, 64, 0, 0, 0, 0, 0, 0, 27, 0, 0, 0, 12, 0, 0, 38, 50, 0, 0, 0
|0, 2, 0, 43, 0, 32, 0, 0, 0, 0, 0, 0, 0, 0, 0, 0, 0, 0, 0, 54, 0, 0, 0, 0, 29, 9, 24, 0, 0, 12, 0, 14, 13, 0, 1, 0, 19, 0, 0, 0, 0, 0, 57, 0, 0, 0, 3, 33, 0, 0, 60, 63, 28, 0, 0, 0, 0, 0, 0, 7, 0, 59, 27, 0
|54, 27, 47, 36, 0, 0, 0, 0, 0, 0, 0, 0, 0, 0, 0, 1, 0, 0, 34, 0, 0, 0, 0, 0, 0, 0, 0, 60, 0, 0, 0, 0, 0, 0, 28, 40, 0, 0, 50, 0, 0, 0, 0, 6, 0, 55, 13, 0, 0, 46, 0, 42, 0, 0, 0, 59, 41, 0, 19, 0, 17, 0, 0, 0
|0, 0, 0, 0, 0, 0, 0, 0, 0, 0, 0, 0, 0, 0, 0, 0, 0, 0, 0, 0, 48, 0, 0, 37, 0, 39, 0, 0, 0, 0, 0, 0, 0, 0, 0, 0, 0, 0, 0, 30, 0, 0, 0, 49, 16, 0, 0, 0, 14, 2, 0, 0, 33, 47, 0, 0, 24, 15, 60, 0, 0, 0, 36, 0
|0, 0, 0, 0, 0, 0, 0, 0, 0, 0, 0, 0, 0, 0, 0, 34, 0, 0, 0, 0, 14, 0, 0, 22, 47, 0, 0, 0, 0, 0, 0, 25, 0, 0, 0, 0, 0, 0, 0, 0, 0, 4, 0, 21, 0, 29, 0, 0, 50, 0, 40, 6, 17, 48, 0, 23, 0, 61, 0, 0, 0, 0, 0, 0
|4, 45, 0, 0, 0, 0, 0, 7, 18, 0, 3, 0, 0, 24, 58, 0, 5, 47, 0, 16, 12, 0, 26, 35, 0, 0, 0, 36, 0, 0, 48, 0, 0, 0, 0, 0, 0, 0, 38, 0, 0, 25, 0, 0, 0, 0, 0, 15, 19, 1, 0, 0, 0, 0, 0, 9, 0, 0, 55, 0, 23, 0, 0, 42
|60, 0, 0, 0, 0, 0, 0, 0, 0, 0, 47, 0, 20, 0, 0, 0, 0, 0, 0, 0, 0, 30, 0, 0, 0, 1, 0, 0, 0, 0, 46, 0, 0, 3, 0, 27, 0, 0, 0, 57, 26, 0, 0, 36, 0, 32, 0, 0, 38, 54, 0, 0, 10, 0, 62, 0, 0, 0, 0, 0, 48, 0, 0, 0
|0, 0, 0, 28, 43, 0, 0, 55, 0, 11, 0, 0, 16, 0, 0, 32, 0, 9, 0, 0, 0, 0, 36, 0, 6, 0, 0, 19, 0, 0, 0, 13, 0, 0, 0, 0, 0, 0, 0, 0, 0, 42, 62, 53, 0, 0, 0, 0, 54, 0, 0, 0, 0, 0, 0, 0, 0, 0, 0, 37, 0, 33, 25, 0
|31, 0, 0, 0, 54, 19, 0, 0, 0, 0, 0, 0, 17, 12, 0, 59, 2, 0, 0, 0, 0, 0, 0, 0, 0, 0, 0, 0, 0, 0, 0, 0, 34, 0, 0, 6, 0, 0, 44, 32, 36, 0, 0, 0, 0, 18, 0, 0, 0, 57, 16, 61, 0, 41, 0, 0, 0, 0, 0, 53, 0, 0, 0, 0
|0, 62, 0, 0, 0, 0, 9, 20, 55, 0, 0, 0, 0, 0, 0, 51, 0, 0, 28, 0, 0, 0, 0, 16, 26, 61, 0, 0, 0, 40, 59, 0, 0, 0, 0, 5, 0, 11, 35, 0, 0, 0, 0, 33, 0, 0, 0, 43, 0, 14, 0, 0, 0, 0, 0, 32, 0, 60, 0, 0, 24, 0, 2, 0
|0, 0, 0, 41, 0, 4, 57, 0, 0, 0, 0, 0, 60, 0, 0, 39, 21, 43, 0, 0, 0, 63, 0, 0, 54, 24, 0, 42, 0, 0, 0, 0, 0, 0, 19, 0, 0, 37, 0, 0, 0, 26, 0, 0, 20, 0, 0, 0, 0, 0, 0, 0, 0, 12, 0, 0, 0, 0, 51, 0, 35, 0, 0, 0
|46, 0, 0, 0, 0, 0, 52, 10, 0, 21, 0, 0, 0, 0, 0, 0, 0, 0, 29, 0, 0, 0, 0, 0, 14, 30, 38, 39, 0, 0, 0, 0, 61, 0, 16, 0, 12, 0, 0, 0, 0, 0, 0, 0, 0, 0, 60, 0, 0, 24, 0, 0, 0, 13, 11, 20, 27, 63, 42, 0, 0, 0, 0, 0
|16, 0, 0, 0, 2, 0, 0, 0, 0, 48, 0, 54, 0, 0, 0, 0, 0, 0, 0, 0, 44, 0, 0, 0, 0, 0, 28, 0, 20, 0, 0, 3, 0, 0, 26, 0, 36, 0, 0, 0, 0, 0, 0, 0, 4, 0, 0, 0, 0, 0, 0, 0, 0, 0, 43, 0, 62, 23, 0, 55, 0, 17, 13, 22
|0, 0, 30, 0, 0, 0, 14, 0, 0, 0, 29, 0, 0, 0, 25, 0, 27, 51, 0, 0, 0, 0, 0, 0, 0, 60, 0, 0, 15, 7, 44, 0, 0, 0, 43, 0, 59, 54, 52, 0, 0, 37, 16, 0, 0, 0, 10, 0, 0, 42, 0, 36, 0, 0, 0, 0, 0, 0, 39, 49, 0, 0, 0, 0
|0, 0, 0, 0, 26, 0, 22, 0, 0, 0, 0, 0, 0, 0, 0, 0, 0, 0, 0, 0, 0, 20, 37, 0, 0, 57, 0, 45, 41, 33, 49, 0, 42, 50, 0, 63, 0, 0, 0, 0, 39, 0, 0, 46, 35, 52, 0, 0, 0, 0, 28, 47, 0, 0, 0, 0, 0, 0, 0, 0, 21, 0, 0, 0
|0, 0, 26, 40, 0, 0, 51, 0, 48, 0, 0, 53, 0, 0, 0, 0, 0, 62, 0, 0, 16, 0, 0, 0, 20, 0, 2, 0, 0, 0, 0, 0, 0, 0, 0, 0, 10, 0, 0, 23, 0, 3, 5, 0, 0, 0, 44, 0, 0, 52, 19, 0, 0, 0, 0, 0, 0, 0, 0, 6, 0, 35, 0, 0
|0, 13, 54, 0, 60, 0, 12, 0, 0, 0, 0, 0, 50, 0, 22, 0, 0, 56, 0, 0, 0, 31, 0, 51, 0, 0, 45, 0, 0, 0, 0, 41, 0, 0, 17, 0, 5, 0, 0, 0, 0, 0, 0, 0, 2, 16, 0, 0, 0, 32, 0, 25, 0, 0, 33, 0, 58, 52, 0, 0, 0, 0, 0, 0
|20, 0, 4, 24, 19, 0, 0, 0, 0, 54, 0, 0, 0, 0, 56, 0, 0, 58, 0, 0, 52, 0, 9, 26, 8, 0, 0, 0, 0, 50, 28, 0, 0, 37, 0, 0, 0, 0, 0, 12, 0, 0, 0, 25, 0, 0, 0, 0, 0, 0, 0, 0, 0, 0, 0, 11, 0, 0, 0, 0, 0, 0, 15, 0
|0, 0, 0, 0, 0, 0, 0, 0, 0, 0, 39, 11, 37, 0, 0, 0, 46, 0, 0, 3, 0, 61, 0, 0, 0, 0, 0, 0, 0, 0, 0, 0, 15, 7, 4, 0, 30, 0, 43, 0, 0, 54, 0, 0, 0, 0, 0, 0, 0, 0, 0, 57, 0, 26, 0, 0, 17, 45, 0, 0, 0, 0, 42, 0
|7, 3, 59, 1, 0, 0, 0, 0, 5, 17, 0, 12, 0, 0, 0, 16, 0, 0, 19, 0, 33, 0, 0, 27, 0, 52, 0, 0, 39, 6, 55, 0, 64, 61, 0, 41, 0, 0, 25, 0, 0, 0, 0, 58, 15, 60, 0, 18, 36, 0, 0, 0, 44, 23, 0, 0, 0, 0, 0, 14, 43, 0, 0, 0
|0, 0, 0, 0, 0, 0, 0, 32, 0, 60, 0, 0, 0, 52, 0, 0, 0, 0, 0, 0, 0, 0, 28, 0, 0, 0, 0, 0, 0, 0, 23, 0, 0, 0, 0, 0, 0, 27, 0, 0, 35, 0, 0, 0, 0, 0, 0, 13, 0, 0, 0, 54, 0, 0, 0, 0, 49, 0, 63, 16, 12, 4, 0, 0
|0, 53, 0, 29, 0, 0, 0, 0, 0, 0, 25, 0, 0, 4, 0, 8, 0, 57, 0, 0, 0, 0, 0, 40, 0, 0, 0, 0, 0, 0, 0, 24, 0, 0, 0, 0, 0, 0, 0, 0, 0, 0, 12, 0, 0, 0, 63, 0, 0, 0, 0, 0, 0, 0, 22, 0, 0, 56, 0, 60, 9, 0, 0, 0
|0, 0, 0, 0, 0, 0, 0, 46, 0, 23, 0, 0, 0, 7, 0, 0, 0, 0, 0, 0, 11, 0, 0, 0, 0, 49, 0, 0, 0, 0, 0, 40, 0, 56, 53, 0, 16, 45, 0, 0, 0, 0, 31, 52, 0, 41, 0, 0, 0, 0, 0, 0, 12, 0, 0, 17, 0, 57, 27, 24, 2, 0, 18, 0
|0, 0, 33, 0, 0, 0, 10, 0, 0, 0, 0, 46, 0, 0, 7, 0, 0, 26, 64, 0, 0, 0, 0, 0, 0, 0, 0, 0, 23, 0, 0, 0, 27, 0, 0, 0, 42, 0, 0, 0, 40, 0, 39, 0, 0, 0, 21, 0, 0, 0, 0, 0, 0, 62, 0, 0, 0, 0, 5, 0, 0, 61, 0, 57
|0, 38, 0, 0, 0, 0, 0, 13, 0, 19, 0, 14, 15, 0, 0, 0, 51, 0, 0, 0, 0, 58, 46, 10, 0, 0, 52, 0, 3, 0, 0, 0, 0, 0, 21, 0, 0, 64, 0, 0, 0, 0, 0, 0, 36, 0, 0, 0, 0, 8, 43, 22, 2, 0, 0, 0, 31, 0, 0, 1, 0, 30, 0, 0
|0, 0, 0, 0, 0, 22, 0, 0, 16, 5, 0, 0, 0, 0, 0, 55, 0, 0, 0, 0, 40, 0, 42, 31, 0, 0, 0, 0, 0, 37, 0, 10, 0, 49, 0, 0, 9, 0, 58, 0, 30, 63, 0, 0, 0, 0, 0, 0, 32, 26, 0, 0, 0, 17, 56, 0, 0, 0, 45, 0, 0, 0, 0, 0
|0, 0, 20, 62, 56, 54, 0, 59, 37, 0, 0, 0, 61, 0, 41, 53, 0, 12, 6, 0, 13, 17, 43, 0, 0, 0, 0, 46, 0, 0, 0, 0, 38, 34, 0, 1, 63, 15, 0, 0, 0, 0, 44, 0, 64, 31, 7, 0, 10, 60, 58, 40, 18, 0, 55, 0, 0, 0, 0, 0, 8, 0, 9, 21
|3, 0, 0, 0, 0, 0, 0, 0, 0, 0, 0, 0, 43, 0, 1, 0, 0, 48, 0, 0, 0, 0, 39, 0, 0, 50, 0, 0, 0, 0, 0, 22, 0, 0, 0, 0, 0, 13, 0, 0, 0, 0, 2, 0, 0, 37, 38, 0, 0, 0, 0, 0, 0, 24, 0, 0, 0, 10, 0, 0, 0, 0, 0, 0
|0, 11, 0, 0, 21, 0, 0, 0, 0, 0, 0, 0, 0, 0, 54, 0, 0, 0, 41, 0, 0, 0, 0, 0, 45, 0, 0, 0, 0, 0, 0, 7, 0, 0, 5, 0, 0, 0, 24, 0, 58, 0, 0, 0, 62, 0, 0, 0, 23, 0, 0, 46, 0, 19, 0, 0, 0, 0, 0, 0, 37, 0, 39, 0
|0, 60, 0, 31, 0, 0, 36, 0, 0, 0, 0, 0, 0, 0, 0, 52, 0, 0, 0, 0, 0, 38, 49, 63, 0, 58, 14, 0, 0, 32, 6, 15, 26, 0, 0, 0, 0, 0, 11, 16, 0, 0, 0, 0, 0, 22, 0, 0, 0, 21, 0, 51, 35, 0, 0, 0, 13, 0, 0, 17, 0, 0, 41, 0
|0, 0, 0, 0, 0, 0, 0, 0, 0, 40, 0, 63, 0, 0, 0, 0, 0, 0, 25, 0, 0, 0, 0, 0, 0, 0, 0, 0, 2, 0, 21, 0, 0, 0, 0, 0, 0, 0, 19, 0, 0, 0, 0, 0, 0, 0, 0, 0, 0, 0, 39, 0, 34, 0, 28, 0, 35, 0, 58, 0, 0, 49, 0, 0
|0, 0, 11, 0, 53, 26, 0, 0, 0, 0, 42, 49, 44, 0, 0, 22, 28, 0, 0, 31, 0, 0, 33, 0, 0, 21, 6, 12, 64, 0, 0, 0, 0, 0, 0, 0, 0, 0, 0, 18, 61, 0, 0, 60, 25, 0, 0, 23, 0, 62, 0, 2, 0, 30, 0, 0, 0, 0, 0, 0, 0, 0, 57, 0
|0, 0, 0, 60, 0, 0, 0, 0, 0, 0, 0, 0, 0, 13, 23, 29, 16, 0, 5, 12, 0, 34, 0, 57, 0, 4, 0, 38, 0, 0, 0, 0, 44, 32, 51, 0, 0, 0, 0, 3, 64, 21, 26, 0, 59, 17, 0, 2, 0, 10, 36, 0, 0, 0, 9, 0, 0, 0, 0, 61, 0, 42, 31, 0
|24, 59, 0, 0, 0, 0, 0, 0, 0, 0, 15, 58, 0, 41, 12, 0, 0, 2, 0, 0, 0, 0, 0, 0, 0, 0, 13, 0, 0, 5, 0, 61, 0, 21, 0, 0, 45, 0, 0, 0, 6, 0, 0, 16, 0, 0, 0, 0, 0, 0, 22, 7, 0, 0, 40, 0, 0, 4, 0, 0, 55, 0, 1, 0
|0, 0, 34, 0, 0, 0, 0, 51, 0, 57, 0, 0, 55, 0, 0, 0, 0, 0, 0, 37, 43, 0, 0, 0, 0, 0, 0, 0, 0, 0, 3, 59, 0, 6, 0, 0, 0, 0, 0, 49, 0, 0, 0, 0, 0, 9, 0, 0, 0, 0, 0, 0, 0, 0, 44, 0, 0, 0, 30, 0, 0, 21, 0, 0
|37, 6, 0, 0, 0, 0, 0, 0, 0, 0, 60, 0, 34, 45, 50, 3, 0, 0, 0, 7, 0, 0, 0, 0, 0, 0, 0, 0, 0, 0, 0, 0, 0, 0, 0, 12, 0, 0, 0, 25, 0, 0, 0, 0, 0, 0, 0, 10, 0, 59, 23, 32, 61, 0, 0, 0, 29, 9, 64, 0, 0, 0, 0, 0
|0, 64, 0, 0, 0, 61, 0, 41, 10, 7, 0, 0, 40, 0, 0, 0, 0, 0, 0, 44, 0, 0, 0, 0, 0, 0, 0, 0, 0, 0, 0, 0, 0, 5, 0, 0, 0, 2, 56, 0, 34, 0, 15, 29, 0, 0, 0, 0, 0, 0, 0, 0, 11, 0, 0, 0, 0, 36, 17, 12, 0, 0, 0, 0
|0, 22, 23, 10, 0, 0, 0, 0, 0, 0, 0, 0, 0, 63, 0, 0, 0, 55, 0, 0, 0, 52, 0, 0, 0, 0, 0, 0, 25, 51, 0, 33, 46, 0, 0, 0, 0, 40, 0, 0, 0, 38, 50, 31, 0, 0, 0, 0, 0, 0, 0, 0, 0, 0, 35, 0, 14, 0, 32, 0, 0, 0, 34, 0
|0, 0, 0, 0, 0, 3, 0, 12, 0, 0, 0, 0, 0, 0, 0, 56, 61, 45, 0, 0, 0, 25, 23, 18, 0, 32, 49, 40, 0, 0, 42, 1, 0, 0, 0, 38, 0, 29, 16, 19, 0, 46, 0, 48, 0, 0, 0, 0, 0, 0, 0, 0, 14, 60, 0, 0, 50, 0, 44, 0, 0, 54, 0, 0
|0, 0, 0, 3, 0, 0, 44, 0, 0, 0, 0, 0, 0, 0, 0, 64, 0, 0, 0, 14, 0, 0, 0, 0, 0, 0, 0, 0, 0, 0, 0, 0, 0, 19, 61, 0, 0, 0, 0, 0, 0, 36, 54, 37, 0, 0, 23, 0, 0, 0, 0, 0, 29, 0, 0, 34, 5, 0, 0, 41, 0, 58, 7, 32
|51, 0, 0, 59, 0, 27, 0, 0, 4, 0, 0, 0, 11, 42, 0, 23, 0, 40, 0, 0, 0, 41, 0, 54, 0, 0, 0, 0, 0, 0, 0, 64, 0, 31, 35, 0, 3, 0, 46, 0, 0, 61, 29, 0, 56, 0, 62, 0, 0, 38, 6, 0, 52, 0, 0, 45, 44, 8, 0, 0, 0, 0, 0, 0
|0, 35, 21, 64, 0, 0, 0, 30, 53, 0, 0, 0, 0, 0, 0, 13, 0, 0, 0, 0, 60, 0, 0, 17, 0, 0, 0, 0, 54, 0, 0, 0, 0, 15, 0, 0, 38, 0, 0, 0, 0, 58, 0, 0, 0, 0, 0, 22, 59, 0, 2, 26, 0, 0, 61, 0, 36, 20, 0, 28, 51, 0, 0, 0
|0, 4, 0, 0, 0, 42, 17, 11, 46, 0, 0, 0, 0, 0, 55, 0, 31, 0, 0, 39, 0, 0, 0, 0, 30, 0, 0, 0, 0, 0, 0, 0, 0, 24, 0, 0, 0, 0, 0, 0, 0, 6, 18, 0, 0, 28, 16, 0, 0, 0, 0, 50, 0, 0, 0, 0, 0, 0, 52, 35, 0, 0, 21, 19
|19, 0, 14, 0, 1, 0, 0, 0, 0, 0, 37, 17, 0, 0, 0, 0, 34, 20, 0, 0, 0, 0, 0, 61, 27, 28, 0, 59, 24, 0, 50, 2, 41, 63, 0, 57, 0, 55, 0, 60, 0, 0, 0, 0, 0, 0, 0, 64, 0, 0, 0, 58, 36, 0, 15, 0, 0, 0, 0, 0, 56, 0, 0, 45
|0, 0, 12, 39, 0, 0, 0, 0, 0, 0, 0, 0, 0, 0, 0, 19, 3, 0, 45, 5, 0, 0, 0, 44, 0, 0, 0, 0, 37, 11, 0, 0, 0, 0, 0, 0, 0, 30, 7, 4, 0, 0, 0, 55, 0, 0, 40, 0, 0, 0, 0, 16, 0, 0, 20, 0, 42, 0, 15, 0, 0, 2, 59, 0
|40, 0, 0, 0, 0, 0, 0, 0, 0, 0, 0, 0, 0, 0, 0, 0, 1, 0, 0, 0, 0, 0, 62, 0, 0, 0, 19, 52, 0, 60, 61, 0, 0, 0, 6, 0, 23, 0, 0, 0, 0, 0, 7, 0, 0, 0, 0, 20, 0, 22, 0, 0, 0, 0, 42, 0, 4, 38, 0, 0, 30, 0, 0, 14
|8, 0, 0, 0, 0, 0, 0, 0, 0, 0, 40, 20, 51, 1, 0, 0, 48, 27, 0, 0, 0, 0, 0, 0, 0, 0, 29, 0, 0, 41, 0, 0, 0, 26, 0, 0, 0, 0, 0, 37, 63, 33, 46, 45, 32, 39, 0, 0, 4, 0, 10, 0, 30, 0, 0, 19, 64, 0, 0, 0, 0, 0, 16, 0|];