order = 8;
grid = [|0, 0, 0, 0, 0, 0, 0, 0, 0, 53, 0, 25, 29, 0, 0, 0, 0, 0, 11, 0, 0, 0, 0, 63, 0, 0, 0, 0, 0, 6, 0, 0, 0, 0, 48, 0, 0, 0, 12, 33, 0, 0, 23, 0, 0, 3, 43, 0, 0, 0, 0, 0, 0, 32, 0, 0, 0, 24, 0, 0, 19, 15, 0, 0
|0, 0, 0, 36, 0, 48, 64, 18, 0, 0, 0, 0, 0, 27, 0, 47, 0, 44, 0, 0, 1, 0, 0, 46, 0, 58, 0, 0, 0, 0, 0, 0, 0, 0, 17, 45, 0, 0, 8, 0, 0, 39, 0, 0, 24, 0, 0, 0, 0, 53, 0, 3, 0, 0, 22, 0, 0, 0, 0, 0, 13, 0, 0, 0
|42, 20, 0, 44, 0, 0, 0, 1, 0, 17, 0, 0, 0, 0, 26, 0, 21, 0, 0, 0, 0, 0, 0, 0, 43, 0, 38, 22, 0, 0, 0, 0, 0, 0, 0, 35, 55, 63, 0, 0, 37, 0, 0, 0, 0, 0, 4, 0, 0, 0, 58, 5, 0, 0, 49, 0, 14, 29, 11, 0, 2, 40, 62, 0
|0, 0, 0, 0, 19, 23, 47, 49, 0, 0, 0, 0, 0, 0, 0, 0, 9, 0, 0, 43, 45, 0, 0, 0, 0, 0, 0, 0, 27, 0, 0, 0, 0, 0, 0, 0, 0, 0, 0, 20, 0, 0, 0, 0, 0, 0, 0, 0, 4, 0, 0, 0, 0, 56, 0, 0, 1, 0, 46, 16, 0, 0, 0, 0
|45, 26, 0, 0, 0, 0, 0, 58, 0, 0, 20, 0, 0, 46, 48, 0, 37, 0, 0, 0, 0, 15, 0, 0, 41, 0, 0, 0, 0, 61, 24, 0, 0, 54, 38, 0, 0, 32, 0, 0, 0, 0, 0, 0, 42, 0, 0, 49, 27, 0, 0, 0, 0, 17, 36, 0, 0, 0, 0, 0, 0, 0, 44, 0
|0, 0, 0, 0, 0, 32, 0, 0, 0, 0, 0, 0, 0, 43, 0, 11, 0, 0, 0, 0, 0, 0, 0, 0, 0, 0, 57, 37, 47, 55, 0, 0, 0, 25, 0, 0, 7, 0, 21, 0, 0, 0, 0, 0, 0, 0, 58, 0, 0, 0, 0, 0, 0, 0, 35, 0, 0, 0, 0, 61, 0, 0, 0, 0
|0, 11, 0, 0, 46, 0, 0, 0, 0, 22, 0, 0, 0, 0, 59, 44, 7, 0, 0, 0, 0, 0, 14, 0, 0, 0, 0, 0, 0, 0, 4, 0, 0, 0, 0, 0, 0, 0, 0, 0, 0, 0, 17, 0, 40, 25, 0, 0, 0, 31, 0, 0, 0, 0, 0, 0, 0, 42, 43, 35, 0, 58, 0, 45
|0, 0, 0, 6, 0, 0, 0, 0, 0, 0, 0, 0, 0, 0, 0, 0, 0, 48, 0, 64, 0, 0, 0, 0, 32, 0, 0, 0, 0, 13, 49, 63, 0, 0, 0, 0, 10, 0, 16, 0, 0, 0, 26, 0, 59, 0, 1, 51, 0, 0, 0, 0, 0, 55, 8, 0, 0, 0, 0, 12, 0, 0, 5, 0
|0, 0, 0, 0, 0, 0, 0, 5, 34, 0, 0, 0, 0, 0, 54, 0, 0, 0, 0, 55, 0, 0, 41, 0, 40, 0, 33, 0, 0, 0, 0, 26, 0, 43, 0, 21, 39, 42, 0, 59, 0, 0, 8, 56, 0, 36, 24, 63, 0, 0, 0, 18, 0, 0, 57, 0, 0, 22, 0, 0, 0, 0, 0, 0
|0, 0, 0, 0, 0, 0, 0, 0, 0, 0, 21, 0, 63, 0, 0, 0, 0, 40, 0, 0, 0, 0, 16, 1, 0, 52, 0, 0, 0, 0, 0, 17, 0, 0, 0, 0, 34, 0, 0, 0, 0, 37, 38, 0, 0, 0, 13, 0, 0, 0, 56, 0, 0, 0, 0, 59, 0, 0, 0, 30, 46, 0, 0, 0
|0, 59, 0, 0, 0, 0, 61, 55, 0, 8, 0, 0, 0, 0, 0, 0, 0, 0, 0, 10, 0, 0, 0, 0, 34, 0, 24, 0, 12, 0, 47, 0, 0, 0, 29, 0, 0, 46, 0, 0, 0, 0, 0, 49, 0, 21, 57, 28, 16, 35, 1, 0, 0, 0, 0, 62, 0, 0, 0, 0, 0, 0, 13, 0
|64, 0, 0, 0, 0, 0, 0, 32, 0, 0, 0, 0, 0, 42, 0, 0, 0, 46, 34, 0, 0, 0, 0, 18, 0, 11, 0, 0, 0, 0, 0, 0, 4, 0, 0, 0, 0, 48, 0, 49, 0, 0, 51, 0, 0, 0, 59, 0, 0, 0, 0, 0, 0, 24, 0, 0, 17, 27, 44, 0, 0, 0, 0, 0
|0, 0, 0, 51, 0, 0, 11, 7, 0, 32, 0, 0, 0, 0, 2, 0, 0, 0, 0, 0, 0, 0, 4, 0, 0, 0, 0, 0, 0, 20, 0, 0, 0, 0, 0, 0, 0, 0, 0, 0, 0, 22, 34, 5, 0, 29, 17, 0, 0, 26, 0, 19, 50, 0, 0, 3, 43, 41, 0, 6, 56, 9, 0, 0
|0, 25, 0, 0, 0, 0, 0, 0, 0, 0, 41, 0, 0, 0, 30, 7, 26, 0, 38, 32, 0, 0, 52, 0, 0, 0, 0, 0, 0, 62, 16, 0, 53, 40, 0, 0, 0, 0, 6, 27, 45, 14, 0, 0, 11, 0, 55, 54, 0, 51, 46, 0, 0, 28, 39, 0, 0, 0, 0, 34, 0, 0, 0, 0
|0, 0, 0, 0, 0, 0, 54, 0, 20, 0, 0, 0, 0, 0, 0, 0, 0, 0, 0, 0, 0, 0, 0, 0, 0, 4, 0, 63, 0, 0, 0, 0, 23, 0, 0, 0, 0, 0, 0, 57, 43, 41, 44, 0, 10, 0, 30, 33, 0, 0, 0, 0, 0, 0, 0, 0, 0, 38, 0, 0, 39, 0, 0, 8
|0, 10, 0, 0, 0, 0, 0, 0, 0, 0, 0, 0, 0, 0, 0, 16, 13, 0, 0, 0, 0, 0, 0, 0, 0, 0, 56, 0, 0, 0, 32, 0, 17, 0, 0, 0, 33, 5, 0, 0, 0, 0, 0, 25, 0, 0, 9, 0, 0, 0, 0, 0, 0, 0, 0, 0, 21, 63, 0, 42, 0, 3, 0, 0
|0, 0, 0, 0, 0, 0, 14, 0, 0, 0, 0, 64, 0, 0, 0, 46, 60, 0, 0, 52, 0, 0, 0, 2, 0, 0, 25, 0, 24, 0, 0, 23, 0, 0, 0, 0, 0, 0, 56, 0, 0, 0, 0, 0, 0, 0, 0, 0, 0, 0, 0, 10, 26, 0, 18, 0, 0, 0, 0, 0, 0, 0, 0, 0
|0, 38, 0, 0, 0, 0, 17, 0, 0, 0, 0, 13, 60, 0, 0, 20, 0, 0, 0, 0, 0, 0, 0, 0, 1, 0, 45, 0, 0, 0, 22, 32, 0, 0, 0, 0, 0, 0, 0, 0, 8, 0, 0, 44, 62, 0, 0, 0, 0, 0, 0, 0, 48, 57, 58, 27, 0, 26, 0, 0, 0, 0, 0, 0
|53, 4, 0, 0, 0, 0, 63, 0, 0, 0, 0, 0, 61, 15, 25, 0, 0, 0, 5, 0, 0, 0, 0, 0, 0, 0, 0, 0, 0, 0, 0, 0, 0, 0, 0, 34, 0, 16, 0, 0, 0, 0, 0, 0, 0, 59, 0, 0, 0, 0, 29, 44, 0, 11, 0, 47, 0, 0, 0, 10, 0, 0, 0, 57
|0, 0, 0, 60, 0, 0, 0, 44, 0, 0, 0, 0, 0, 48, 0, 1, 0, 0, 0, 0, 0, 53, 0, 4, 0, 59, 17, 0, 0, 0, 0, 0, 58, 0, 0, 0, 0, 0, 0, 30, 54, 45, 0, 0, 0, 15, 0, 2, 0, 0, 64, 0, 0, 0, 0, 5, 0, 0, 0, 27, 0, 33, 36, 0
|9, 0, 0, 0, 0, 0, 13, 0, 32, 0, 0, 0, 0, 0, 0, 21, 0, 0, 0, 1, 57, 0, 44, 15, 4, 0, 11, 0, 0, 12, 0, 0, 35, 0, 0, 0, 0, 0, 54, 0, 0, 0, 53, 0, 0, 0, 0, 10, 37, 0, 0, 0, 0, 0, 0, 0, 45, 0, 0, 0, 0, 22, 0, 0
|0, 0, 0, 32, 59, 1, 0, 0, 0, 0, 0, 53, 24, 14, 5, 0, 0, 0, 0, 12, 0, 0, 47, 0, 0, 0, 0, 58, 0, 0, 0, 55, 0, 0, 57, 0, 0, 0, 19, 0, 0, 0, 0, 0, 0, 0, 0, 22, 45, 0, 0, 0, 62, 0, 0, 0, 0, 0, 0, 37, 17, 0, 63, 0
|56, 27, 0, 0, 0, 0, 0, 0, 3, 4, 0, 0, 0, 54, 43, 22, 14, 0, 0, 38, 0, 58, 0, 17, 0, 0, 0, 0, 0, 0, 39, 0, 0, 0, 0, 0, 0, 0, 33, 0, 0, 0, 0, 0, 0, 18, 0, 0, 0, 0, 0, 15, 0, 0, 59, 34, 0, 0, 25, 20, 44, 11, 0, 0
|0, 47, 62, 0, 0, 0, 28, 0, 0, 0, 45, 0, 0, 0, 51, 59, 0, 0, 43, 0, 0, 0, 0, 0, 53, 0, 0, 6, 0, 0, 44, 0, 0, 13, 64, 60, 0, 20, 0, 0, 0, 0, 27, 0, 0, 16, 14, 0, 49, 0, 2, 0, 0, 7, 30, 0, 0, 0, 0, 0, 58, 0, 0, 0
|0, 0, 0, 0, 0, 0, 0, 0, 0, 0, 0, 0, 0, 0, 0, 39, 0, 0, 0, 0, 0, 0, 48, 0, 0, 0, 0, 0, 31, 0, 20, 0, 0, 0, 0, 18, 0, 0, 0, 62, 28, 0, 0, 0, 0, 63, 0, 0, 0, 0, 0, 16, 1, 0, 10, 0, 0, 59, 64, 0, 0, 49, 35, 0
|0, 0, 0, 45, 0, 0, 18, 0, 0, 0, 0, 0, 53, 0, 0, 0, 0, 0, 0, 0, 0, 55, 9, 24, 0, 0, 0, 0, 10, 0, 57, 0, 0, 0, 23, 0, 0, 19, 44, 0, 40, 48, 16, 36, 0, 0, 0, 0, 0, 0, 28, 37, 0, 49, 64, 0, 0, 0, 0, 0, 0, 0, 0, 0
|0, 0, 0, 0, 0, 57, 0, 0, 35, 60, 0, 0, 0, 0, 45, 10, 17, 0, 27, 0, 7, 0, 0, 44, 0, 0, 0, 0, 0, 64, 0, 40, 0, 0, 0, 0, 0, 0, 0, 0, 0, 53, 1, 0, 0, 0, 0, 0, 0, 0, 0, 0, 0, 0, 0, 0, 0, 0, 0, 14, 0, 0, 0, 38
|52, 0, 14, 0, 0, 0, 0, 0, 0, 0, 0, 7, 0, 0, 0, 0, 57, 29, 0, 63, 61, 0, 0, 0, 0, 33, 0, 0, 0, 53, 12, 60, 0, 6, 0, 27, 0, 51, 48, 10, 62, 56, 45, 0, 43, 0, 0, 15, 0, 0, 32, 0, 0, 0, 0, 0, 36, 1, 0, 0, 0, 0, 0, 0
|0, 0, 0, 0, 0, 0, 0, 0, 36, 0, 29, 0, 0, 56, 4, 0, 0, 30, 18, 0, 43, 0, 0, 14, 0, 19, 42, 0, 0, 52, 45, 0, 0, 57, 60, 47, 0, 0, 0, 39, 25, 2, 0, 0, 0, 37, 0, 0, 7, 0, 0, 0, 0, 59, 62, 0, 28, 0, 0, 0, 0, 0, 0, 31
|0, 0, 15, 0, 5, 0, 0, 13, 62, 0, 0, 0, 0, 50, 0, 0, 34, 0, 0, 0, 0, 0, 0, 0, 11, 0, 0, 28, 0, 8, 58, 30, 0, 0, 0, 1, 0, 7, 0, 63, 0, 0, 52, 0, 39, 0, 44, 0, 0, 0, 0, 0, 19, 46, 17, 45, 0, 0, 37, 48, 32, 0, 60, 0
|0, 0, 0, 19, 0, 27, 38, 0, 0, 40, 55, 0, 0, 0, 44, 0, 0, 0, 0, 0, 0, 31, 42, 0, 0, 18, 0, 0, 0, 0, 0, 34, 0, 46, 14, 28, 0, 8, 0, 56, 0, 0, 9, 0, 0, 17, 50, 0, 39, 0, 0, 51, 0, 0, 0, 0, 0, 45, 0, 0, 61, 0, 0, 0
|0, 0, 0, 0, 0, 0, 0, 29, 52, 48, 0, 20, 0, 0, 0, 0, 0, 0, 0, 8, 46, 0, 13, 0, 51, 32, 6, 3, 0, 0, 0, 0, 0, 0, 0, 0, 0, 0, 0, 0, 0, 31, 0, 0, 0, 0, 49, 60, 53, 0, 25, 14, 54, 0, 0, 0, 0, 0, 0, 0, 0, 0, 0, 0
|0, 44, 0, 0, 0, 60, 49, 43, 16, 33, 0, 1, 0, 57, 55, 0, 0, 41, 0, 0, 0, 62, 0, 0, 21, 30, 0, 0, 5, 0, 34, 0, 0, 0, 0, 0, 0, 0, 0, 0, 0, 0, 0, 0, 0, 0, 10, 0, 0, 0, 17, 42, 0, 0, 26, 8, 4, 40, 0, 0, 0, 0, 0, 6
|0, 0, 0, 55, 40, 10, 0, 9, 0, 18, 0, 0, 0, 0, 8, 0, 51, 59, 0, 14, 16, 64, 37, 0, 17, 0, 0, 0, 0, 46, 0, 0, 0, 29, 0, 0, 0, 0, 0, 0, 0, 0, 0, 0, 6, 23, 0, 52, 47, 0, 7, 58, 0, 44, 41, 0, 50, 0, 0, 54, 35, 0, 0, 0
|0, 61, 0, 0, 0, 0, 0, 8, 59, 0, 0, 23, 0, 21, 63, 0, 0, 11, 0, 0, 0, 0, 0, 0, 0, 0, 0, 0, 37, 0, 0, 0, 0, 0, 58, 0, 60, 0, 0, 0, 46, 0, 0, 0, 31, 26, 12, 0, 32, 18, 38, 0, 0, 0, 0, 0, 0, 64, 0, 0, 16, 0, 0, 0
|0, 57, 6, 0, 0, 0, 0, 0, 0, 3, 0, 0, 5, 0, 0, 0, 0, 0, 0, 0, 0, 0, 0, 0, 48, 0, 12, 0, 0, 0, 7, 43, 0, 18, 0, 0, 0, 1, 0, 26, 0, 0, 50, 0, 0, 0, 8, 45, 14, 0, 0, 0, 2, 21, 51, 0, 0, 13, 23, 0, 0, 0, 0, 0
|47, 0, 0, 0, 0, 42, 19, 51, 0, 0, 0, 0, 0, 0, 17, 0, 0, 0, 48, 0, 0, 0, 21, 0, 8, 31, 0, 0, 0, 0, 0, 39, 5, 0, 0, 0, 0, 0, 0, 36, 0, 24, 58, 0, 0, 0, 41, 0, 0, 11, 0, 27, 45, 0, 0, 0, 0, 0, 0, 0, 57, 38, 0, 20
|0, 62, 0, 0, 0, 0, 0, 0, 0, 43, 0, 44, 0, 0, 14, 0, 0, 0, 0, 0, 0, 0, 26, 0, 0, 0, 0, 40, 0, 56, 1, 35, 2, 15, 0, 0, 47, 0, 3, 0, 0, 0, 0, 27, 25, 0, 28, 0, 0, 0, 0, 0, 5, 16, 0, 0, 0, 36, 0, 0, 7, 0, 0, 10
|0, 46, 0, 7, 0, 0, 0, 21, 0, 0, 40, 0, 0, 0, 58, 0, 0, 0, 17, 0, 27, 0, 0, 0, 0, 22, 0, 0, 54, 11, 0, 10, 0, 64, 0, 0, 0, 0, 62, 16, 0, 18, 0, 0, 0, 0, 0, 38, 0, 0, 0, 0, 57, 23, 0, 0, 44, 0, 0, 52, 3, 60, 30, 0
|28, 45, 0, 0, 0, 0, 0, 0, 0, 20, 30, 0, 0, 38, 0, 0, 0, 0, 22, 19, 0, 50, 0, 0, 0, 0, 18, 0, 58, 23, 59, 0, 32, 0, 0, 0, 0, 57, 4, 0, 0, 21, 0, 0, 13, 0, 0, 44, 62, 0, 33, 0, 0, 0, 0, 35, 0, 0, 0, 0, 0, 0, 49, 0
|0, 0, 0, 0, 0, 0, 0, 0, 0, 57, 2, 43, 0, 0, 36, 8, 0, 63, 0, 0, 0, 0, 51, 0, 0, 0, 39, 0, 0, 0, 0, 31, 22, 52, 0, 0, 0, 45, 0, 0, 0, 0, 0, 24, 0, 0, 0, 0, 0, 0, 0, 13, 0, 0, 9, 42, 0, 55, 0, 41, 0, 0, 0, 0
|0, 0, 0, 0, 0, 0, 35, 0, 0, 0, 0, 0, 0, 45, 0, 0, 0, 47, 0, 18, 0, 0, 25, 0, 0, 8, 58, 30, 19, 0, 0, 0, 46, 50, 0, 0, 64, 0, 0, 0, 0, 16, 0, 43, 54, 55, 0, 0, 0, 0, 0, 0, 0, 48, 0, 7, 49, 34, 10, 26, 0, 0, 0, 0
|30, 0, 4, 47, 3, 0, 0, 0, 26, 24, 0, 0, 0, 51, 64, 0, 11, 31, 0, 0, 52, 0, 0, 5, 0, 0, 21, 0, 0, 0, 0, 0, 0, 27, 0, 58, 0, 38, 0, 0, 0, 0, 10, 0, 0, 44, 0, 0, 22, 16, 0, 0, 0, 0, 32, 0, 6, 0, 0, 0, 0, 0, 40, 0
|0, 0, 0, 0, 0, 0, 0, 61, 38, 0, 49, 0, 3, 0, 0, 50, 0, 45, 0, 30, 0, 0, 0, 0, 0, 0, 4, 0, 0, 18, 10, 0, 0, 0, 0, 0, 2, 0, 0, 21, 0, 0, 0, 0, 0, 0, 0, 5, 19, 58, 44, 0, 0, 0, 0, 0, 0, 0, 0, 46, 0, 0, 0, 0
|0, 56, 64, 0, 0, 0, 0, 17, 0, 10, 0, 0, 0, 58, 0, 0, 0, 55, 0, 0, 0, 0, 0, 0, 9, 0, 0, 27, 0, 45, 0, 0, 0, 0, 42, 16, 0, 0, 0, 0, 0, 8, 0, 0, 0, 0, 0, 3, 0, 0, 0, 35, 0, 0, 0, 0, 0, 48, 0, 0, 31, 28, 2, 4
|0, 23, 50, 25, 0, 55, 6, 46, 7, 28, 0, 0, 0, 16, 0, 0, 0, 43, 32, 0, 0, 0, 0, 0, 0, 0, 0, 0, 0, 0, 0, 0, 0, 36, 0, 29, 0, 0, 0, 1, 0, 0, 0, 53, 0, 0, 0, 4, 0, 0, 5, 0, 0, 0, 0, 0, 0, 30, 0, 15, 0, 44, 0, 37
|15, 0, 10, 26, 20, 59, 0, 0, 0, 0, 0, 0, 37, 44, 46, 42, 16, 13, 0, 0, 0, 4, 0, 38, 0, 0, 0, 48, 56, 57, 17, 0, 0, 7, 0, 0, 53, 0, 0, 0, 2, 28, 32, 0, 0, 0, 0, 0, 23, 0, 11, 0, 29, 0, 0, 0, 0, 14, 0, 0, 0, 0, 0, 0
|0, 0, 0, 0, 0, 0, 0, 36, 0, 0, 0, 27, 0, 0, 0, 0, 0, 0, 15, 0, 40, 0, 0, 0, 0, 0, 0, 0, 0, 0, 0, 11, 0, 63, 25, 31, 0, 0, 47, 0, 0, 0, 0, 23, 0, 52, 0, 0, 0, 0, 21, 0, 4, 0, 0, 0, 38, 35, 0, 0, 0, 0, 0, 0
|0, 0, 1, 0, 0, 0, 0, 0, 63, 0, 0, 0, 0, 0, 0, 25, 0, 49, 0, 0, 0, 0, 0, 0, 0, 0, 10, 9, 0, 0, 0, 0, 31, 0, 50, 44, 0, 0, 0, 0, 34, 0, 0, 0, 0, 0, 0, 0, 0, 0, 0, 0, 0, 0, 27, 0, 0, 37, 0, 29, 0, 8, 0, 40
|0, 0, 41, 0, 0, 26, 0, 0, 0, 34, 53, 0, 0, 0, 0, 0, 0, 37, 46, 0, 0, 27, 0, 0, 0, 6, 0, 31, 40, 47, 23, 0, 0, 0, 0, 19, 0, 62, 0, 0, 15, 0, 2, 0, 0, 1, 0, 61, 0, 29, 51, 52, 56, 0, 0, 0, 0, 0, 0, 0, 21, 0, 0, 0
|39, 17, 36, 0, 0, 0, 60, 0, 0, 0, 0, 0, 0, 0, 0, 0, 0, 0, 0, 53, 0, 18, 0, 7, 45, 0, 0, 13, 0, 0, 0, 0, 0, 0, 0, 0, 0, 0, 41, 24, 0, 0, 0, 64, 0, 0, 0, 0, 0, 0, 0, 46, 44, 0, 48, 15, 0, 31, 62, 0, 0, 10, 0, 47
|49, 14, 52, 0, 0, 0, 0, 0, 30, 0, 0, 0, 0, 10, 28, 51, 0, 0, 0, 0, 0, 0, 0, 0, 0, 0, 0, 4, 0, 34, 0, 0, 57, 48, 37, 0, 0, 22, 58, 0, 0, 7, 42, 12, 0, 56, 21, 0, 0, 0, 0, 45, 0, 0, 0, 0, 0, 0, 0, 0, 38, 5, 0, 11
|11, 7, 0, 0, 0, 0, 0, 0, 0, 37, 0, 19, 47, 0, 15, 0, 31, 0, 0, 21, 44, 0, 0, 0, 0, 0, 50, 0, 0, 29, 0, 0, 0, 51, 0, 0, 0, 0, 0, 0, 0, 62, 0, 0, 0, 0, 0, 0, 40, 49, 10, 0, 0, 0, 0, 0, 0, 0, 30, 63, 6, 0, 41, 36
|0, 0, 5, 2, 0, 0, 0, 3, 0, 0, 0, 41, 0, 0, 6, 0, 55, 61, 0, 0, 0, 0, 0, 26, 0, 0, 0, 21, 0, 0, 0, 0, 0, 38, 0, 0, 0, 0, 0, 7, 0, 0, 18, 0, 0, 0, 45, 0, 0, 0, 47, 43, 39, 0, 37, 0, 54, 0, 0, 0, 0, 0, 25, 0
|0, 0, 32, 9, 12, 0, 37, 0, 43, 11, 3, 0, 0, 29, 0, 0, 0, 0, 0, 0, 0, 2, 22, 52, 0, 14, 48, 0, 0, 0, 61, 0, 13, 4, 0, 0, 0, 0, 0, 53, 57, 0, 0, 0, 0, 51, 25, 47, 0, 0, 0, 23, 63, 0, 0, 0, 0, 0, 60, 0, 0, 34, 50, 0
|0, 0, 0, 0, 0, 0, 0, 0, 39, 0, 24, 0, 16, 12, 35, 48, 43, 0, 62, 17, 8, 0, 0, 41, 0, 0, 0, 0, 20, 0, 63, 0, 0, 0, 0, 5, 0, 6, 0, 0, 52, 0, 0, 40, 37, 0, 0, 27, 30, 0, 0, 59, 0, 0, 0, 0, 0, 0, 26, 0, 0, 13, 42, 55
|0, 0, 33, 0, 30, 0, 0, 0, 0, 0, 0, 0, 0, 0, 0, 0, 0, 51, 0, 0, 2, 0, 45, 0, 0, 0, 0, 0, 0, 10, 0, 12, 47, 0, 0, 39, 0, 0, 29, 0, 0, 0, 60, 0, 0, 0, 0, 43, 0, 0, 0, 0, 0, 31, 0, 0, 0, 0, 0, 0, 24, 0, 16, 19
|44, 0, 20, 0, 0, 0, 0, 60, 14, 0, 0, 30, 0, 40, 0, 43, 0, 1, 0, 0, 32, 0, 31, 0, 0, 0, 7, 51, 0, 39, 0, 0, 0, 41, 0, 0, 0, 0, 0, 0, 0, 0, 0, 0, 0, 0, 0, 0, 0, 0, 0, 0, 0, 0, 0, 0, 0, 53, 0, 55, 23, 0, 0, 0
|0, 0, 0, 0, 0, 51, 16, 0, 0, 0, 52, 0, 0, 0, 27, 15, 0, 0, 0, 0, 0, 0, 17, 0, 0, 0, 0, 0, 1, 36, 0, 0, 0, 0, 0, 0, 0, 0, 0, 55, 0, 0, 0, 0, 14, 12, 47, 8, 0, 48, 0, 26, 0, 38, 0, 0, 0, 0, 0, 0, 0, 20, 0, 0
|0, 29, 0, 0, 0, 0, 0, 15, 0, 0, 34, 0, 0, 0, 0, 0, 52, 62, 0, 25, 42, 16, 0, 0, 22, 0, 0, 0, 0, 0, 0, 0, 0, 0, 53, 0, 0, 0, 0, 0, 0, 0, 0, 0, 5, 0, 19, 0, 0, 0, 39, 0, 0, 0, 7, 0, 0, 17, 0, 1, 0, 6, 0, 0
|0, 0, 0, 0, 0, 7, 46, 0, 42, 0, 0, 4, 31, 0, 0, 0, 0, 0, 0, 0, 54, 22, 0, 0, 0, 0, 0, 5, 0, 0, 0, 64, 18, 34, 0, 0, 0, 0, 0, 0, 0, 44, 0, 6, 0, 0, 0, 0, 0, 0, 0, 0, 0, 10, 0, 0, 0, 0, 0, 0, 0, 30, 45, 0
|3, 0, 0, 0, 0, 45, 53, 0, 0, 0, 0, 16, 0, 60, 0, 0, 0, 57, 63, 34, 30, 0, 0, 0, 15, 0, 0, 25, 0, 0, 50, 20, 7, 0, 0, 0, 0, 0, 35, 0, 0, 0, 33, 39, 0, 0, 0, 55, 0, 0, 24, 0, 0, 0, 47, 0, 51, 0, 0, 44, 59, 0, 43, 46
|38, 0, 0, 0, 0, 9, 0, 0, 0, 0, 0, 0, 0, 0, 0, 0, 0, 0, 29, 27, 39, 0, 0, 0, 30, 0, 0, 26, 0, 0, 0, 0, 0, 0, 0, 0, 0, 15, 0, 31, 0, 0, 0, 0, 49, 0, 0, 48, 35, 5, 53, 0, 0, 0, 0, 0, 0, 54, 0, 60, 0, 0, 12, 34
|0, 0, 0, 27, 0, 31, 0, 0, 61, 0, 25, 0, 0, 0, 0, 0, 0, 0, 47, 4, 0, 0, 0, 0, 0, 0, 0, 16, 0, 0, 0, 24, 1, 0, 20, 0, 0, 0, 13, 0, 41, 0, 0, 0, 53, 0, 37, 0, 44, 22, 6, 0, 0, 0, 56, 0, 0, 0, 0, 0, 0, 64, 0, 0|];