order = 8;
grid = [|18, 0, 0, 0, 49, 57, 61, 0, 0, 14, 0, 12, 0, 17, 16, 0, 0, 7, 0, 0, 0, 0, 0, 43, 0, 0, 0, 0, 0, 0, 36, 64, 0, 20, 0, 0, 24, 0, 19, 48, 0, 0, 0, 0, 13, 0, 0, 0, 0, 9, 0, 0, 0, 0, 0, 0, 0, 0, 0, 0, 0, 44, 0, 29
|29, 25, 0, 54, 0, 0, 0, 53, 0, 0, 0, 0, 0, 57, 0, 19, 0, 0, 0, 44, 5, 0, 0, 13, 0, 0, 0, 63, 0, 0, 43, 0, 0, 0, 0, 32, 0, 0, 0, 0, 46, 0, 0, 0, 0, 0, 0, 59, 22, 0, 0, 0, 0, 47, 0, 0, 0, 24, 0, 40, 0, 0, 31, 28
|0, 0, 0, 0, 60, 0, 0, 1, 0, 0, 0, 55, 28, 58, 48, 40, 0, 0, 0, 0, 0, 0, 64, 15, 0, 0, 0, 0, 32, 50, 41, 0, 0, 16, 0, 30, 4, 0, 53, 0, 27, 0, 0, 0, 0, 0, 0, 0, 46, 0, 20, 0, 0, 13, 0, 0, 0, 0, 0, 0, 45, 0, 56, 63
|0, 0, 38, 0, 58, 28, 44, 21, 56, 0, 0, 0, 20, 0, 0, 35, 0, 0, 0, 16, 0, 0, 46, 0, 0, 0, 0, 0, 5, 0, 0, 0, 0, 0, 0, 0, 0, 0, 0, 0, 0, 22, 0, 23, 3, 0, 15, 0, 45, 0, 0, 0, 0, 0, 0, 0, 0, 0, 48, 0, 0, 0, 0, 0
|0, 0, 0, 0, 45, 0, 0, 17, 0, 43, 5, 0, 0, 3, 31, 0, 59, 0, 0, 0, 0, 61, 11, 6, 22, 20, 0, 0, 0, 0, 0, 0, 0, 0, 35, 0, 0, 0, 1, 60, 0, 0, 0, 40, 44, 52, 0, 47, 15, 62, 0, 0, 0, 0, 0, 0, 13, 0, 0, 0, 0, 0, 16, 55
|0, 51, 0, 0, 0, 0, 0, 0, 0, 0, 23, 0, 0, 0, 22, 0, 0, 0, 0, 26, 0, 40, 0, 0, 0, 0, 0, 0, 15, 0, 0, 0, 0, 0, 55, 0, 0, 0, 0, 0, 0, 0, 0, 0, 0, 0, 0, 33, 0, 0, 21, 0, 0, 0, 0, 27, 53, 0, 0, 0, 34, 0, 0, 0
|16, 0, 0, 37, 0, 5, 13, 55, 0, 0, 0, 38, 0, 0, 27, 0, 0, 63, 0, 19, 0, 0, 57, 31, 53, 0, 61, 35, 0, 58, 0, 0, 0, 0, 0, 0, 0, 0, 0, 54, 0, 0, 0, 45, 0, 0, 36, 0, 0, 0, 0, 0, 17, 0, 0, 59, 0, 0, 32, 22, 0, 0, 0, 43
|48, 23, 0, 0, 0, 0, 0, 27, 0, 0, 50, 53, 0, 33, 0, 11, 0, 25, 0, 0, 2, 56, 0, 0, 0, 16, 0, 0, 0, 6, 0, 0, 21, 22, 0, 0, 0, 0, 0, 13, 0, 0, 41, 0, 0, 0, 0, 0, 0, 0, 0, 0, 0, 0, 39, 0, 0, 0, 0, 0, 46, 0, 7, 37
|0, 36, 0, 0, 0, 0, 0, 51, 0, 0, 0, 48, 23, 0, 0, 0, 29, 35, 0, 0, 0, 0, 6, 0, 0, 0, 0, 0, 58, 0, 0, 0, 0, 0, 0, 0, 0, 43, 0, 0, 0, 53, 31, 0, 0, 0, 0, 0, 0, 40, 0, 0, 26, 0, 9, 0, 44, 0, 50, 0, 0, 0, 37, 3
|54, 62, 0, 0, 27, 53, 0, 0, 18, 0, 0, 0, 0, 0, 0, 0, 0, 51, 0, 0, 0, 0, 14, 0, 0, 0, 0, 0, 23, 0, 5, 0, 0, 0, 40, 0, 0, 0, 30, 0, 0, 0, 50, 1, 43, 0, 0, 0, 0, 8, 0, 0, 0, 0, 59, 0, 45, 41, 0, 0, 0, 0, 0, 32
|43, 0, 0, 0, 0, 0, 0, 0, 54, 27, 0, 19, 0, 28, 42, 0, 0, 0, 32, 0, 0, 0, 8, 0, 0, 0, 0, 0, 0, 0, 46, 0, 0, 0, 36, 35, 0, 2, 0, 0, 4, 30, 22, 0, 62, 45, 23, 0, 0, 0, 0, 0, 0, 0, 0, 3, 0, 29, 0, 0, 0, 60, 0, 0
|0, 0, 0, 0, 0, 0, 0, 0, 0, 0, 0, 0, 0, 0, 1, 47, 28, 0, 0, 0, 0, 31, 0, 59, 37, 0, 49, 0, 0, 0, 0, 14, 0, 57, 0, 0, 0, 13, 0, 27, 0, 40, 0, 46, 0, 0, 0, 0, 0, 0, 0, 0, 0, 33, 0, 0, 0, 0, 0, 0, 55, 0, 0, 21
|23, 0, 0, 0, 0, 0, 0, 25, 26, 41, 31, 36, 0, 0, 0, 0, 0, 22, 12, 48, 21, 0, 60, 0, 0, 0, 0, 50, 52, 1, 30, 0, 0, 0, 0, 29, 0, 0, 0, 0, 0, 0, 0, 59, 9, 55, 0, 0, 0, 0, 0, 0, 0, 57, 0, 0, 0, 0, 0, 0, 4, 0, 0, 0
|0, 0, 9, 0, 59, 0, 15, 0, 0, 0, 0, 37, 0, 0, 0, 0, 0, 0, 0, 0, 0, 0, 0, 0, 0, 0, 24, 0, 0, 0, 0, 0, 0, 0, 0, 0, 18, 0, 0, 39, 32, 8, 49, 0, 0, 56, 0, 0, 0, 4, 0, 2, 0, 7, 50, 54, 0, 19, 0, 0, 30, 0, 0, 0
|0, 0, 0, 58, 64, 39, 38, 16, 8, 53, 32, 0, 7, 0, 0, 0, 0, 0, 0, 2, 0, 0, 40, 19, 0, 0, 0, 0, 0, 0, 13, 0, 59, 0, 0, 0, 0, 0, 25, 46, 47, 60, 0, 15, 0, 37, 0, 0, 0, 0, 0, 0, 22, 0, 0, 42, 0, 0, 0, 0, 0, 14, 0, 48
|0, 12, 32, 0, 0, 10, 24, 0, 0, 0, 0, 52, 0, 0, 0, 0, 0, 0, 0, 0, 58, 37, 36, 0, 0, 0, 34, 0, 0, 0, 0, 0, 60, 0, 0, 0, 54, 0, 0, 0, 0, 2, 0, 44, 0, 0, 0, 28, 0, 0, 6, 23, 30, 48, 0, 0, 1, 0, 0, 0, 8, 0, 0, 0
|2, 0, 18, 0, 38, 0, 0, 0, 0, 0, 0, 0, 0, 48, 28, 0, 0, 13, 0, 0, 64, 0, 0, 0, 4, 9, 16, 0, 0, 0, 0, 0, 50, 0, 7, 0, 0, 0, 0, 0, 34, 47, 27, 0, 59, 30, 0, 0, 0, 0, 0, 0, 0, 3, 0, 51, 52, 0, 0, 0, 17, 35, 0, 20
|0, 0, 0, 0, 0, 64, 0, 0, 57, 61, 0, 0, 0, 52, 25, 0, 51, 0, 55, 62, 0, 0, 0, 0, 0, 11, 0, 0, 7, 0, 0, 0, 0, 28, 54, 0, 48, 35, 0, 4, 43, 0, 0, 0, 0, 0, 0, 0, 0, 0, 0, 47, 0, 1, 0, 46, 38, 18, 0, 36, 0, 0, 0, 0
|0, 0, 0, 0, 0, 0, 0, 0, 0, 42, 0, 0, 0, 0, 0, 8, 35, 0, 0, 0, 0, 0, 0, 11, 0, 0, 3, 19, 0, 0, 50, 0, 0, 0, 0, 5, 1, 0, 0, 6, 0, 0, 0, 0, 0, 0, 0, 0, 26, 0, 0, 0, 0, 0, 0, 0, 0, 0, 0, 0, 0, 39, 0, 0
|0, 0, 0, 0, 42, 0, 0, 0, 0, 59, 16, 20, 34, 63, 0, 0, 0, 2, 0, 0, 0, 0, 0, 23, 24, 0, 0, 0, 0, 0, 0, 0, 0, 19, 0, 0, 0, 57, 0, 0, 45, 0, 0, 0, 0, 0, 0, 0, 0, 56, 0, 8, 0, 0, 0, 0, 28, 13, 0, 0, 43, 0, 0, 0
|0, 0, 0, 0, 10, 0, 7, 58, 15, 49, 12, 0, 0, 0, 0, 0, 0, 0, 0, 47, 14, 0, 0, 32, 0, 0, 43, 0, 27, 0, 0, 38, 18, 0, 0, 0, 23, 0, 0, 55, 0, 0, 0, 0, 0, 0, 0, 35, 0, 0, 0, 62, 0, 19, 0, 0, 0, 0, 9, 0, 63, 0, 0, 8
|0, 48, 43, 0, 0, 0, 11, 0, 23, 0, 0, 0, 0, 0, 0, 0, 60, 0, 0, 0, 0, 0, 3, 21, 34, 46, 0, 15, 0, 62, 29, 0, 2, 0, 0, 0, 0, 20, 52, 8, 19, 0, 0, 0, 0, 44, 54, 0, 0, 0, 0, 0, 40, 0, 0, 0, 56, 0, 0, 0, 0, 0, 25, 0
|0, 1, 0, 0, 0, 0, 0, 0, 0, 0, 29, 0, 0, 31, 0, 60, 0, 0, 0, 0, 8, 0, 0, 0, 0, 0, 0, 0, 0, 0, 0, 0, 3, 24, 10, 0, 0, 22, 0, 0, 0, 0, 26, 0, 0, 0, 0, 4, 36, 0, 0, 38, 0, 0, 0, 45, 30, 0, 0, 0, 47, 0, 46, 44
|0, 0, 0, 33, 0, 32, 0, 0, 0, 0, 0, 0, 0, 0, 0, 0, 0, 0, 0, 59, 0, 0, 0, 63, 0, 0, 0, 0, 22, 0, 0, 0, 0, 15, 0, 0, 0, 30, 49, 0, 0, 0, 0, 0, 6, 0, 0, 0, 0, 0, 0, 7, 20, 53, 60, 0, 0, 0, 37, 0, 1, 0, 29, 0
|4, 0, 29, 16, 0, 0, 31, 0, 20, 0, 0, 14, 0, 0, 0, 0, 6, 0, 0, 0, 56, 0, 0, 0, 41, 0, 37, 60, 0, 11, 0, 0, 0, 1, 0, 63, 0, 0, 0, 0, 0, 0, 0, 0, 38, 18, 0, 17, 0, 39, 0, 0, 0, 0, 51, 0, 0, 12, 0, 43, 0, 0, 0, 0
|0, 0, 7, 0, 0, 42, 0, 0, 35, 55, 0, 31, 41, 11, 0, 0, 0, 4, 0, 0, 0, 0, 43, 34, 39, 21, 1, 49, 0, 0, 24, 0, 0, 38, 23, 0, 0, 0, 0, 0, 14, 0, 0, 9, 16, 57, 0, 0, 19, 53, 0, 0, 6, 0, 0, 52, 0, 0, 0, 0, 0, 0, 0, 17
|0, 0, 0, 0, 0, 0, 0, 0, 0, 0, 52, 0, 0, 0, 0, 0, 12, 49, 0, 60, 0, 59, 37, 53, 16, 0, 7, 0, 0, 0, 0, 34, 0, 0, 0, 0, 32, 3, 0, 40, 64, 0, 0, 0, 0, 0, 0, 0, 0, 17, 0, 36, 0, 0, 0, 0, 0, 20, 61, 0, 0, 31, 0, 0
|0, 0, 0, 0, 0, 18, 0, 0, 0, 0, 0, 0, 0, 0, 0, 0, 0, 0, 41, 28, 55, 10, 0, 17, 61, 0, 0, 51, 0, 0, 0, 12, 43, 0, 0, 0, 0, 0, 0, 42, 0, 27, 0, 0, 0, 0, 0, 0, 0, 38, 0, 0, 1, 21, 0, 0, 0, 6, 25, 60, 0, 0, 49, 0
|0, 0, 0, 0, 0, 17, 0, 52, 0, 40, 0, 0, 0, 0, 0, 0, 0, 14, 0, 0, 39, 0, 0, 0, 0, 58, 0, 0, 47, 32, 3, 13, 28, 0, 0, 64, 0, 0, 0, 0, 0, 0, 60, 0, 0, 0, 0, 0, 0, 0, 0, 0, 45, 29, 0, 0, 0, 0, 16, 15, 0, 11, 0, 0
|0, 0, 0, 55, 0, 0, 0, 0, 0, 0, 0, 6, 0, 0, 0, 36, 0, 26, 0, 0, 15, 0, 0, 5, 23, 0, 0, 0, 0, 54, 0, 43, 48, 21, 0, 0, 0, 53, 0, 0, 0, 3, 0, 19, 0, 2, 52, 62, 12, 0, 46, 18, 0, 0, 0, 0, 39, 0, 0, 0, 0, 0, 0, 0
|41, 0, 0, 2, 0, 0, 0, 22, 0, 63, 8, 0, 4, 0, 0, 61, 3, 0, 0, 0, 0, 0, 0, 57, 0, 0, 0, 36, 0, 0, 0, 35, 0, 0, 39, 37, 0, 0, 55, 0, 0, 0, 0, 0, 0, 0, 12, 0, 0, 15, 0, 0, 0, 0, 0, 10, 48, 0, 0, 0, 0, 26, 0, 0
|0, 0, 0, 0, 15, 0, 12, 49, 17, 0, 0, 0, 0, 0, 0, 0, 0, 45, 0, 0, 0, 20, 0, 0, 0, 0, 0, 0, 0, 28, 0, 44, 0, 0, 26, 0, 41, 0, 0, 29, 0, 0, 0, 0, 51, 0, 0, 0, 37, 0, 0, 0, 47, 9, 0, 0, 0, 55, 0, 0, 56, 50, 0, 0
|0, 0, 0, 0, 3, 7, 0, 0, 0, 0, 0, 0, 0, 0, 0, 0, 0, 0, 0, 0, 0, 0, 0, 0, 0, 39, 62, 0, 0, 0, 0, 0, 0, 0, 0, 0, 40, 0, 35, 0, 0, 31, 0, 54, 0, 0, 44, 0, 28, 0, 0, 0, 55, 0, 0, 0, 0, 0, 0, 0, 23, 0, 0, 0
|0, 0, 12, 0, 54, 46, 0, 0, 27, 0, 0, 18, 0, 0, 0, 0, 0, 0, 0, 0, 0, 0, 0, 0, 49, 0, 30, 11, 0, 0, 0, 0, 39, 0, 1, 0, 0, 15, 0, 0, 0, 0, 0, 0, 47, 34, 43, 0, 0, 0, 16, 0, 23, 0, 0, 41, 24, 0, 8, 0, 0, 0, 0, 0
|0, 0, 1, 29, 0, 0, 0, 63, 48, 0, 0, 60, 0, 39, 0, 0, 0, 19, 0, 0, 0, 0, 0, 0, 0, 0, 46, 0, 0, 0, 0, 0, 0, 0, 0, 13, 0, 0, 0, 0, 57, 0, 0, 0, 0, 0, 0, 26, 0, 0, 0, 0, 5, 0, 12, 44, 0, 25, 3, 0, 0, 52, 0, 2
|0, 0, 55, 0, 16, 21, 34, 47, 0, 12, 0, 0, 0, 0, 0, 0, 0, 0, 0, 0, 0, 0, 0, 0, 0, 0, 0, 45, 33, 0, 0, 0, 0, 0, 0, 0, 0, 0, 0, 23, 0, 0, 0, 2, 0, 0, 0, 0, 0, 10, 57, 51, 0, 0, 0, 0, 0, 0, 0, 0, 0, 0, 0, 0
|0, 0, 0, 0, 13, 0, 0, 0, 0, 0, 0, 0, 0, 0, 0, 57, 0, 0, 2, 0, 0, 0, 0, 48, 0, 0, 0, 0, 12, 25, 0, 61, 0, 0, 0, 0, 0, 51, 0, 0, 0, 0, 0, 0, 0, 0, 0, 0, 29, 0, 0, 0, 0, 0, 0, 47, 0, 35, 0, 64, 19, 0, 0, 0
|0, 0, 0, 23, 20, 38, 0, 0, 0, 0, 0, 0, 0, 56, 0, 17, 0, 52, 0, 0, 0, 0, 0, 0, 0, 44, 0, 29, 0, 0, 0, 0, 0, 0, 0, 0, 0, 0, 0, 0, 3, 5, 0, 55, 0, 0, 0, 0, 0, 0, 1, 58, 0, 0, 0, 0, 0, 0, 0, 0, 15, 0, 0, 26
|53, 58, 0, 0, 0, 0, 0, 32, 0, 0, 44, 0, 0, 0, 0, 55, 34, 31, 0, 7, 0, 47, 0, 9, 0, 0, 0, 0, 0, 38, 0, 0, 6, 0, 12, 0, 0, 0, 0, 0, 0, 0, 0, 0, 0, 0, 29, 0, 0, 0, 0, 0, 0, 0, 0, 14, 46, 0, 0, 5, 0, 0, 0, 0
|0, 0, 0, 0, 0, 14, 0, 0, 30, 0, 0, 0, 0, 0, 0, 43, 13, 0, 26, 0, 36, 0, 0, 0, 54, 53, 0, 0, 0, 0, 16, 0, 0, 0, 0, 41, 0, 0, 0, 0, 21, 0, 0, 0, 37, 0, 1, 0, 0, 0, 3, 0, 0, 0, 49, 0, 0, 44, 45, 56, 6, 0, 0, 0
|57, 0, 0, 0, 21, 62, 16, 0, 0, 0, 9, 0, 0, 0, 8, 0, 48, 6, 0, 0, 0, 0, 0, 0, 0, 0, 0, 0, 0, 0, 0, 0, 0, 31, 56, 39, 35, 0, 0, 0, 1, 0, 0, 0, 0, 33, 30, 0, 0, 0, 0, 29, 0, 0, 0, 0, 0, 43, 18, 45, 0, 13, 0, 46
|0, 26, 2, 0, 0, 0, 0, 0, 4, 0, 45, 23, 0, 0, 46, 63, 43, 0, 24, 0, 0, 0, 0, 0, 0, 35, 0, 0, 0, 0, 0, 0, 0, 64, 0, 0, 0, 54, 50, 19, 0, 0, 55, 0, 11, 6, 0, 0, 0, 0, 0, 0, 62, 0, 0, 0, 0, 38, 0, 0, 0, 36, 5, 0
|0, 0, 59, 47, 7, 0, 0, 0, 0, 0, 14, 3, 0, 0, 0, 29, 16, 0, 0, 20, 35, 0, 0, 0, 5, 0, 0, 0, 0, 0, 0, 41, 0, 0, 0, 0, 0, 0, 22, 0, 54, 25, 0, 0, 0, 38, 0, 0, 0, 1, 0, 63, 10, 18, 0, 0, 0, 8, 0, 0, 0, 0, 44, 49
|0, 0, 0, 0, 29, 0, 0, 24, 0, 0, 0, 51, 0, 38, 0, 0, 61, 0, 0, 11, 0, 0, 42, 0, 0, 0, 25, 4, 0, 59, 23, 0, 0, 0, 0, 0, 49, 27, 5, 0, 0, 0, 0, 7, 0, 0, 0, 0, 0, 26, 0, 45, 0, 36, 0, 57, 0, 0, 58, 0, 0, 6, 0, 33
|0, 0, 50, 0, 0, 0, 0, 0, 44, 33, 0, 0, 0, 0, 0, 49, 0, 0, 0, 63, 0, 2, 19, 64, 0, 38, 0, 0, 0, 0, 26, 0, 0, 0, 0, 0, 0, 0, 4, 0, 0, 41, 35, 22, 0, 0, 59, 0, 0, 0, 0, 20, 0, 0, 0, 0, 0, 56, 0, 0, 0, 0, 0, 0
|0, 32, 49, 48, 0, 27, 0, 0, 53, 0, 0, 0, 0, 0, 0, 0, 0, 36, 0, 0, 0, 0, 0, 60, 0, 0, 13, 0, 31, 0, 0, 0, 0, 0, 0, 0, 0, 0, 6, 0, 37, 0, 8, 16, 0, 0, 0, 0, 0, 0, 0, 0, 0, 0, 0, 0, 0, 0, 0, 0, 14, 0, 0, 0
|0, 6, 33, 45, 0, 0, 20, 0, 0, 0, 0, 57, 48, 0, 0, 56, 14, 15, 49, 0, 0, 0, 0, 0, 12, 0, 0, 0, 55, 0, 0, 0, 0, 0, 0, 0, 42, 0, 0, 0, 29, 0, 0, 0, 0, 0, 0, 0, 0, 34, 0, 0, 0, 0, 23, 0, 31, 0, 0, 37, 2, 4, 0, 0
|0, 0, 22, 38, 44, 0, 0, 0, 0, 0, 0, 25, 0, 0, 0, 0, 0, 0, 0, 0, 0, 0, 0, 37, 0, 0, 0, 0, 0, 24, 0, 0, 0, 0, 58, 0, 0, 59, 0, 0, 0, 26, 0, 0, 0, 0, 0, 0, 0, 0, 0, 0, 0, 0, 0, 0, 57, 52, 0, 0, 64, 10, 0, 0
|0, 37, 0, 0, 32, 40, 0, 0, 7, 15, 0, 56, 0, 0, 0, 0, 0, 0, 0, 0, 33, 36, 0, 39, 13, 0, 0, 12, 0, 0, 0, 24, 0, 0, 43, 0, 0, 0, 0, 0, 0, 0, 0, 58, 0, 0, 0, 0, 52, 0, 0, 49, 0, 60, 2, 0, 0, 0, 0, 11, 0, 0, 0, 0
|0, 0, 0, 4, 39, 0, 0, 0, 0, 48, 0, 43, 0, 30, 0, 0, 0, 16, 14, 6, 0, 0, 0, 3, 51, 0, 19, 0, 60, 0, 0, 0, 0, 0, 0, 0, 0, 0, 0, 0, 0, 23, 0, 0, 41, 1, 0, 0, 0, 0, 0, 0, 0, 22, 0, 0, 0, 0, 46, 0, 32, 0, 8, 0
|3, 30, 0, 0, 0, 59, 55, 13, 0, 0, 0, 0, 0, 36, 0, 0, 0, 57, 42, 23, 63, 0, 0, 0, 15, 0, 0, 39, 2, 0, 0, 8, 0, 0, 0, 0, 0, 37, 0, 0, 0, 0, 40, 0, 0, 0, 53, 0, 48, 0, 0, 6, 0, 0, 0, 0, 35, 14, 0, 51, 0, 0, 20, 0
|62, 0, 36, 5, 0, 0, 0, 0, 0, 3, 0, 0, 0, 46, 0, 0, 55, 0, 0, 0, 0, 0, 51, 25, 0, 14, 35, 0, 0, 27, 0, 0, 23, 0, 0, 0, 0, 0, 16, 0, 0, 0, 9, 52, 0, 0, 0, 0, 0, 0, 0, 0, 54, 0, 0, 0, 0, 0, 13, 29, 0, 63, 30, 0
|0, 0, 0, 0, 0, 0, 0, 0, 59, 0, 0, 32, 55, 0, 20, 44, 15, 0, 0, 56, 40, 0, 0, 0, 0, 0, 48, 0, 0, 43, 25, 0, 57, 0, 0, 26, 45, 0, 0, 0, 0, 0, 0, 0, 0, 0, 0, 0, 0, 0, 0, 21, 18, 0, 13, 0, 0, 0, 0, 19, 0, 0, 0, 0
|0, 0, 0, 0, 28, 56, 1, 0, 0, 0, 0, 8, 0, 0, 0, 0, 30, 0, 0, 0, 32, 0, 53, 0, 46, 0, 0, 0, 0, 0, 57, 59, 0, 0, 0, 48, 0, 0, 0, 0, 60, 0, 0, 11, 31, 0, 0, 0, 0, 0, 0, 25, 0, 0, 0, 0, 0, 21, 0, 0, 0, 0, 0, 5
|0, 0, 41, 0, 0, 51, 14, 0, 0, 0, 0, 0, 0, 0, 0, 0, 0, 18, 0, 1, 0, 0, 0, 0, 44, 55, 0, 0, 0, 0, 0, 0, 0, 50, 0, 0, 60, 0, 0, 0, 0, 0, 54, 0, 48, 0, 0, 0, 32, 46, 0, 0, 3, 0, 0, 5, 0, 0, 0, 0, 0, 0, 0, 0
|0, 0, 35, 0, 46, 0, 21, 0, 0, 0, 0, 0, 0, 0, 0, 0, 37, 59, 43, 0, 0, 0, 48, 0, 0, 0, 0, 0, 0, 23, 17, 62, 0, 0, 0, 0, 0, 55, 20, 24, 16, 0, 0, 0, 8, 0, 0, 2, 0, 0, 11, 0, 51, 39, 36, 53, 0, 0, 0, 38, 0, 0, 50, 0
|0, 49, 0, 0, 0, 0, 0, 0, 0, 0, 0, 0, 13, 6, 0, 0, 0, 0, 27, 4, 0, 43, 2, 0, 0, 30, 0, 0, 0, 0, 0, 57, 0, 0, 11, 0, 26, 0, 0, 0, 0, 0, 0, 0, 0, 0, 0, 0, 0, 0, 0, 52, 0, 0, 0, 60, 0, 46, 0, 48, 0, 0, 0, 0
|38, 0, 58, 62, 36, 0, 0, 0, 3, 16, 0, 0, 0, 0, 0, 0, 0, 48, 0, 0, 0, 0, 0, 0, 0, 0, 0, 0, 0, 51, 19, 0, 0, 52, 57, 0, 0, 0, 0, 0, 0, 0, 11, 0, 27, 0, 9, 7, 0, 0, 0, 0, 49, 0, 0, 0, 0, 0, 0, 0, 0, 0, 2, 0
|0, 44, 5, 0, 0, 25, 32, 0, 0, 0, 0, 42, 62, 0, 21, 0, 9, 0, 6, 12, 0, 0, 38, 0, 0, 47, 0, 0, 0, 36, 0, 0, 33, 23, 0, 0, 61, 0, 0, 49, 0, 24, 43, 57, 0, 0, 0, 0, 50, 0, 0, 0, 0, 0, 0, 1, 15, 0, 0, 0, 13, 0, 0, 56
|0, 0, 51, 0, 0, 0, 0, 18, 0, 0, 60, 0, 43, 0, 0, 12, 0, 0, 0, 39, 3, 17, 0, 50, 0, 0, 0, 0, 40, 0, 45, 0, 0, 30, 0, 0, 0, 0, 21, 0, 0, 36, 16, 0, 0, 0, 0, 1, 0, 20, 38, 0, 0, 0, 0, 0, 0, 4, 0, 0, 57, 0, 0, 0
|0, 0, 0, 52, 0, 0, 45, 0, 0, 0, 0, 0, 0, 0, 0, 0, 36, 0, 0, 0, 0, 14, 0, 20, 0, 0, 0, 0, 6, 0, 64, 0, 0, 0, 0, 60, 0, 0, 43, 0, 0, 0, 0, 41, 0, 0, 0, 0, 25, 0, 26, 0, 0, 0, 57, 16, 42, 0, 0, 50, 0, 0, 0, 0
|0, 0, 16, 0, 0, 22, 57, 0, 0, 0, 0, 4, 0, 0, 0, 0, 0, 0, 0, 0, 0, 0, 0, 0, 35, 0, 0, 0, 0, 0, 0, 0, 0, 0, 31, 0, 0, 41, 0, 2, 62, 0, 45, 63, 0, 0, 0, 0, 0, 32, 0, 10, 0, 0, 0, 0, 0, 0, 0, 0, 0, 9, 0, 0
|0, 0, 0, 43, 19, 0, 0, 2, 51, 0, 0, 0, 0, 34, 0, 0, 62, 0, 0, 0, 0, 0, 1, 30, 50, 0, 0, 0, 0, 0, 31, 16, 37, 0, 0, 55, 0, 0, 0, 53, 23, 0, 0, 0, 0, 0, 13, 0, 0, 0, 5, 0, 9, 0, 0, 17, 0, 61, 0, 0, 11, 0, 0, 0
|14, 0, 0, 40, 0, 60, 9, 0, 0, 0, 22, 2, 0, 10, 0, 0, 0, 0, 0, 0, 0, 0, 18, 0, 0, 0, 0, 0, 0, 0, 15, 0, 54, 0, 0, 0, 0, 0, 0, 34, 0, 0, 61, 0, 0, 0, 0, 0, 0, 0, 35, 0, 0, 43, 0, 21, 20, 0, 0, 0, 0, 0, 38, 0|];