order = 8;
grid = [|0, 0, 29, 6, 0, 11, 0, 0, 1, 0, 0, 13, 0, 0, 5, 33, 0, 0, 0, 0, 0, 35, 50, 0, 30, 0, 0, 0, 0, 26, 0, 44, 56, 0, 15, 0, 0, 0, 0, 0, 0, 0, 0, 7, 0, 0, 25, 0, 0, 0, 0, 0, 0, 0, 0, 0, 38, 16, 55, 0, 57, 0, 0, 0
|46, 0, 0, 0, 0, 33, 0, 0, 27, 36, 0, 0, 29, 0, 54, 0, 0, 0, 0, 0, 0, 63, 0, 0, 15, 0, 0, 0, 0, 0, 0, 0, 0, 0, 0, 57, 0, 0, 0, 0, 0, 0, 0, 0, 0, 45, 0, 0, 0, 0, 0, 0, 0, 43, 61, 0, 0, 0, 23, 0, 0, 0, 0, 48
|38, 45, 35, 0, 0, 0, 0, 5, 55, 0, 0, 0, 0, 21, 16, 50, 0, 0, 0, 0, 7, 62, 0, 0, 8, 0, 0, 61, 0, 1, 52, 0, 0, 26, 0, 0, 41, 0, 0, 0, 48, 36, 0, 0, 13, 0, 0, 0, 0, 44, 0, 0, 0, 40, 0, 27, 0, 0, 58, 2, 0, 0, 0, 0
|0, 22, 0, 0, 0, 0, 0, 40, 0, 0, 0, 0, 10, 3, 0, 0, 0, 44, 0, 0, 0, 0, 0, 0, 49, 0, 42, 0, 0, 0, 0, 0, 0, 0, 0, 0, 0, 0, 0, 0, 0, 0, 58, 0, 0, 0, 32, 0, 0, 0, 0, 50, 0, 7, 41, 14, 0, 36, 0, 21, 0, 0, 56, 8
|36, 0, 0, 0, 0, 0, 0, 0, 38, 0, 0, 0, 0, 0, 0, 0, 14, 0, 0, 0, 0, 0, 0, 0, 0, 0, 0, 0, 0, 0, 55, 0, 0, 47, 0, 31, 0, 50, 27, 0, 62, 0, 0, 0, 53, 0, 0, 60, 0, 25, 0, 2, 0, 0, 0, 0, 29, 7, 0, 11, 0, 0, 32, 0
|0, 0, 0, 0, 0, 0, 0, 0, 0, 0, 0, 0, 0, 62, 8, 45, 38, 0, 43, 0, 0, 0, 41, 0, 0, 0, 0, 0, 0, 0, 0, 19, 28, 36, 0, 0, 0, 0, 0, 9, 0, 0, 0, 56, 0, 50, 0, 0, 0, 0, 0, 15, 0, 0, 0, 0, 20, 0, 0, 0, 6, 0, 0, 25
|0, 0, 64, 20, 0, 27, 0, 4, 0, 58, 7, 0, 9, 0, 28, 0, 0, 0, 0, 0, 57, 0, 0, 0, 0, 0, 0, 0, 3, 0, 0, 0, 0, 0, 0, 6, 0, 0, 0, 0, 51, 0, 0, 0, 0, 0, 0, 0, 0, 22, 0, 0, 0, 10, 59, 0, 0, 0, 0, 0, 0, 49, 0, 0
|0, 0, 0, 0, 0, 43, 0, 0, 0, 0, 0, 0, 0, 0, 0, 0, 0, 0, 0, 0, 0, 6, 40, 0, 48, 0, 24, 0, 0, 28, 32, 54, 14, 0, 0, 0, 0, 8, 0, 0, 0, 4, 0, 0, 46, 0, 0, 63, 0, 0, 39, 16, 0, 33, 0, 0, 0, 0, 0, 47, 0, 0, 0, 0
|0, 19, 0, 0, 0, 31, 0, 36, 22, 0, 0, 27, 0, 0, 39, 0, 41, 0, 0, 0, 0, 4, 0, 7, 0, 0, 12, 0, 0, 0, 30, 0, 17, 0, 0, 0, 26, 0, 0, 0, 0, 0, 0, 0, 0, 0, 56, 0, 0, 0, 0, 0, 64, 0, 0, 0, 11, 0, 32, 0, 25, 1, 0, 54
|0, 39, 0, 0, 0, 0, 12, 0, 57, 0, 0, 0, 0, 42, 0, 0, 22, 51, 0, 36, 0, 0, 0, 0, 54, 0, 0, 0, 0, 0, 0, 20, 0, 0, 40, 0, 38, 55, 0, 0, 0, 0, 0, 0, 0, 0, 0, 13, 0, 0, 0, 0, 45, 0, 0, 0, 0, 0, 0, 41, 0, 62, 0, 0
|0, 0, 17, 0, 0, 64, 20, 45, 0, 0, 0, 0, 0, 0, 0, 0, 0, 0, 0, 18, 0, 38, 0, 57, 44, 0, 0, 0, 0, 0, 8, 31, 0, 39, 5, 0, 43, 56, 25, 36, 0, 0, 0, 0, 0, 40, 0, 48, 0, 0, 0, 30, 0, 22, 0, 0, 0, 0, 0, 50, 0, 0, 63, 0
|23, 43, 0, 46, 34, 0, 0, 59, 0, 0, 0, 0, 51, 0, 0, 0, 39, 56, 0, 0, 25, 0, 0, 0, 16, 0, 0, 0, 0, 0, 0, 0, 0, 0, 0, 0, 0, 0, 0, 0, 0, 0, 0, 0, 0, 62, 52, 0, 6, 28, 0, 0, 61, 41, 0, 37, 0, 0, 0, 13, 0, 14, 0, 0
|0, 0, 0, 0, 0, 0, 6, 51, 47, 0, 0, 0, 0, 41, 0, 0, 0, 0, 52, 50, 0, 20, 58, 0, 0, 0, 0, 48, 0, 0, 0, 0, 0, 24, 57, 0, 0, 0, 0, 0, 0, 54, 0, 0, 30, 0, 4, 27, 0, 56, 19, 0, 0, 38, 0, 0, 33, 0, 0, 61, 0, 0, 0, 0
|0, 0, 53, 0, 32, 0, 0, 57, 0, 0, 0, 0, 0, 0, 0, 18, 0, 0, 0, 0, 0, 1, 0, 37, 0, 61, 0, 0, 0, 0, 26, 0, 0, 3, 0, 0, 0, 0, 0, 45, 0, 0, 0, 17, 38, 0, 44, 0, 43, 0, 27, 39, 0, 0, 0, 0, 0, 0, 0, 64, 23, 0, 0, 0
|0, 0, 0, 0, 63, 61, 0, 0, 12, 0, 0, 34, 0, 0, 0, 0, 0, 0, 0, 0, 28, 0, 0, 0, 1, 0, 0, 29, 0, 0, 0, 0, 0, 0, 0, 0, 0, 0, 33, 0, 59, 0, 0, 0, 10, 0, 11, 0, 40, 0, 47, 0, 20, 0, 21, 0, 0, 6, 0, 0, 0, 39, 27, 38
|0, 0, 0, 0, 0, 0, 3, 0, 8, 0, 0, 0, 0, 28, 0, 0, 0, 6, 0, 34, 0, 0, 54, 0, 0, 0, 22, 0, 0, 53, 0, 0, 0, 0, 42, 41, 0, 51, 0, 0, 0, 0, 0, 5, 0, 0, 0, 15, 0, 0, 0, 9, 11, 24, 0, 12, 0, 0, 0, 46, 0, 0, 36, 0
|0, 9, 0, 0, 19, 6, 0, 30, 0, 0, 0, 0, 0, 0, 3, 0, 0, 25, 0, 0, 22, 13, 0, 0, 0, 46, 0, 34, 0, 0, 0, 15, 0, 0, 63, 0, 0, 0, 0, 60, 0, 0, 40, 0, 0, 35, 50, 0, 10, 0, 4, 0, 0, 0, 0, 0, 0, 0, 0, 0, 0, 54, 42, 0
|0, 0, 20, 0, 0, 0, 46, 1, 60, 0, 0, 38, 36, 0, 59, 53, 0, 39, 0, 15, 0, 49, 0, 12, 0, 0, 55, 0, 33, 0, 0, 0, 0, 0, 37, 0, 0, 45, 0, 0, 16, 0, 0, 0, 0, 0, 0, 0, 0, 0, 0, 0, 0, 52, 0, 0, 17, 0, 0, 7, 51, 0, 0, 0
|35, 0, 0, 0, 0, 0, 54, 28, 0, 0, 0, 0, 44, 0, 0, 0, 0, 0, 0, 62, 0, 14, 0, 0, 0, 0, 38, 4, 0, 0, 0, 0, 0, 31, 43, 48, 17, 0, 36, 0, 0, 0, 0, 0, 19, 0, 0, 0, 61, 12, 0, 0, 30, 0, 0, 0, 0, 0, 40, 24, 0, 0, 0, 0
|57, 0, 0, 0, 0, 10, 31, 0, 0, 0, 0, 0, 0, 23, 49, 0, 47, 0, 0, 0, 17, 52, 55, 0, 0, 62, 0, 28, 0, 7, 0, 0, 0, 0, 0, 0, 0, 0, 0, 0, 0, 0, 0, 0, 0, 0, 53, 0, 0, 0, 14, 0, 0, 0, 0, 19, 59, 0, 0, 30, 1, 25, 0, 35
|0, 0, 52, 0, 8, 0, 0, 0, 63, 0, 17, 0, 0, 27, 0, 31, 0, 0, 58, 0, 0, 0, 1, 0, 0, 0, 64, 0, 0, 0, 0, 0, 0, 0, 0, 0, 0, 0, 24, 0, 0, 0, 5, 0, 7, 0, 0, 0, 0, 0, 36, 0, 0, 0, 0, 13, 0, 0, 0, 0, 41, 9, 0, 0
|61, 63, 51, 44, 0, 0, 0, 0, 0, 7, 0, 0, 0, 64, 22, 0, 0, 0, 0, 54, 0, 28, 26, 0, 0, 0, 0, 0, 0, 0, 29, 0, 0, 12, 0, 50, 14, 0, 0, 10, 0, 1, 0, 0, 0, 0, 9, 0, 62, 0, 0, 0, 0, 0, 24, 0, 0, 0, 0, 0, 0, 56, 0, 0
|0, 4, 0, 11, 0, 0, 0, 41, 6, 0, 0, 37, 0, 46, 0, 0, 0, 20, 0, 0, 3, 0, 0, 0, 24, 0, 0, 0, 0, 0, 1, 0, 0, 0, 54, 0, 0, 0, 0, 0, 0, 0, 0, 48, 0, 25, 0, 23, 0, 15, 0, 0, 0, 0, 0, 0, 0, 28, 8, 62, 0, 0, 0, 0
|0, 13, 22, 47, 0, 0, 0, 0, 0, 25, 0, 0, 39, 54, 0, 0, 60, 48, 7, 0, 0, 0, 0, 0, 0, 0, 0, 0, 30, 0, 20, 8, 0, 40, 0, 0, 0, 33, 0, 0, 17, 0, 0, 0, 64, 61, 0, 43, 31, 0, 0, 0, 0, 6, 0, 18, 0, 0, 0, 23, 0, 0, 21, 0
|0, 0, 14, 0, 0, 0, 0, 0, 0, 42, 0, 16, 0, 0, 0, 0, 0, 0, 0, 0, 0, 0, 29, 0, 20, 0, 0, 0, 0, 0, 19, 34, 22, 0, 0, 0, 0, 0, 0, 47, 0, 38, 0, 0, 25, 0, 54, 0, 0, 0, 0, 12, 17, 53, 0, 0, 0, 39, 5, 0, 0, 0, 0, 0
|0, 33, 0, 0, 0, 0, 0, 0, 0, 0, 0, 0, 49, 0, 0, 0, 20, 43, 0, 13, 0, 3, 0, 0, 0, 0, 16, 0, 0, 0, 2, 0, 0, 0, 0, 56, 44, 0, 1, 0, 0, 0, 28, 0, 32, 0, 0, 39, 0, 0, 0, 0, 0, 0, 47, 0, 0, 25, 19, 0, 0, 18, 64, 0
|0, 27, 0, 0, 0, 0, 36, 26, 37, 51, 0, 0, 7, 13, 0, 2, 0, 0, 0, 0, 0, 0, 47, 0, 0, 9, 50, 24, 1, 3, 0, 0, 0, 16, 0, 0, 0, 0, 0, 0, 0, 0, 4, 0, 0, 0, 0, 0, 0, 0, 0, 0, 40, 0, 0, 0, 6, 0, 0, 8, 0, 33, 0, 60
|0, 0, 7, 0, 0, 41, 56, 16, 0, 0, 0, 0, 46, 5, 0, 0, 0, 0, 32, 0, 51, 0, 0, 48, 0, 0, 54, 0, 0, 35, 21, 0, 0, 20, 26, 0, 8, 57, 0, 0, 0, 52, 0, 0, 40, 0, 18, 30, 0, 0, 0, 60, 0, 44, 13, 58, 36, 0, 0, 0, 0, 0, 0, 0
|0, 0, 21, 0, 0, 0, 0, 0, 0, 0, 0, 0, 0, 40, 0, 0, 0, 0, 0, 56, 0, 0, 8, 0, 0, 0, 0, 0, 0, 0, 0, 0, 0, 0, 25, 28, 19, 0, 0, 0, 0, 0, 42, 0, 61, 0, 0, 0, 0, 29, 0, 0, 0, 0, 0, 0, 0, 1, 0, 34, 0, 0, 0, 0
|0, 0, 62, 0, 0, 0, 0, 0, 0, 0, 0, 0, 64, 0, 47, 52, 0, 0, 0, 0, 0, 50, 0, 0, 0, 55, 0, 0, 61, 32, 0, 0, 0, 0, 0, 0, 0, 0, 6, 59, 45, 34, 0, 0, 0, 46, 0, 0, 0, 0, 0, 21, 0, 0, 0, 0, 0, 0, 0, 0, 0, 29, 44, 14
|48, 24, 0, 0, 17, 0, 0, 0, 0, 0, 0, 0, 0, 0, 34, 1, 0, 0, 0, 0, 0, 44, 60, 14, 0, 0, 0, 0, 0, 23, 0, 0, 0, 32, 0, 43, 0, 0, 0, 0, 22, 0, 0, 0, 0, 0, 0, 0, 0, 16, 0, 0, 25, 0, 0, 0, 0, 0, 0, 51, 0, 0, 0, 58
|19, 0, 0, 0, 50, 0, 0, 47, 0, 0, 0, 59, 0, 0, 0, 0, 0, 64, 0, 0, 0, 31, 0, 16, 0, 0, 0, 18, 0, 0, 0, 0, 0, 0, 0, 0, 62, 58, 0, 0, 14, 49, 0, 0, 0, 0, 0, 0, 2, 0, 0, 0, 0, 45, 0, 0, 0, 0, 0, 0, 0, 0, 23, 3
|0, 0, 0, 0, 0, 0, 29, 0, 0, 0, 0, 56, 0, 44, 9, 0, 0, 0, 0, 0, 0, 0, 0, 0, 0, 0, 52, 39, 2, 0, 0, 0, 0, 0, 41, 7, 0, 4, 0, 0, 40, 0, 0, 0, 0, 0, 0, 49, 0, 0, 0, 0, 48, 0, 0, 0, 0, 0, 0, 0, 45, 0, 0, 0
|0, 52, 11, 10, 0, 0, 0, 33, 0, 46, 0, 0, 0, 19, 0, 4, 0, 9, 44, 0, 0, 0, 0, 0, 0, 0, 41, 0, 0, 0, 5, 30, 0, 63, 0, 0, 0, 0, 56, 58, 0, 0, 0, 0, 0, 43, 0, 0, 0, 0, 0, 0, 47, 0, 18, 0, 0, 0, 0, 0, 0, 0, 0, 0
|0, 64, 0, 0, 0, 0, 0, 0, 0, 12, 37, 32, 11, 0, 0, 0, 0, 0, 27, 0, 0, 0, 17, 0, 0, 0, 0, 0, 0, 0, 48, 0, 0, 0, 31, 13, 20, 0, 0, 0, 0, 0, 0, 34, 0, 0, 0, 0, 0, 0, 40, 0, 16, 15, 0, 0, 23, 0, 25, 0, 39, 44, 0, 0
|0, 47, 0, 0, 0, 0, 0, 0, 15, 0, 0, 0, 48, 63, 0, 0, 55, 5, 0, 52, 13, 0, 0, 61, 53, 0, 0, 0, 21, 0, 0, 0, 0, 0, 0, 40, 32, 0, 0, 0, 0, 0, 17, 0, 0, 0, 0, 0, 57, 0, 33, 22, 0, 0, 30, 0, 0, 0, 0, 0, 35, 46, 0, 0
|8, 0, 0, 0, 0, 0, 0, 0, 0, 0, 0, 25, 0, 0, 38, 0, 0, 0, 0, 0, 0, 0, 0, 0, 0, 0, 0, 0, 50, 0, 0, 0, 0, 0, 0, 35, 51, 0, 0, 0, 56, 0, 0, 0, 36, 0, 0, 0, 7, 39, 43, 0, 58, 0, 19, 0, 49, 0, 33, 0, 0, 0, 0, 29
|0, 0, 45, 0, 0, 0, 39, 55, 0, 0, 0, 0, 0, 10, 61, 0, 36, 29, 0, 35, 0, 0, 0, 0, 63, 0, 0, 0, 12, 0, 0, 0, 59, 0, 0, 47, 57, 0, 0, 0, 0, 0, 15, 0, 0, 13, 0, 0, 0, 62, 0, 24, 0, 0, 0, 0, 54, 0, 0, 0, 0, 53, 0, 0
|0, 0, 0, 13, 58, 0, 0, 0, 0, 0, 0, 0, 0, 8, 14, 39, 4, 12, 53, 0, 0, 0, 24, 0, 0, 0, 0, 44, 0, 29, 7, 0, 0, 0, 0, 36, 0, 54, 30, 0, 0, 0, 0, 0, 0, 52, 0, 0, 0, 0, 0, 0, 0, 56, 0, 0, 0, 0, 0, 20, 47, 0, 0, 0
|0, 12, 0, 0, 0, 0, 5, 0, 52, 27, 47, 0, 13, 0, 17, 0, 0, 0, 0, 0, 0, 0, 11, 39, 0, 0, 9, 0, 0, 0, 59, 0, 0, 0, 0, 0, 0, 0, 15, 0, 37, 0, 0, 51, 0, 0, 0, 0, 14, 0, 49, 0, 0, 0, 0, 0, 8, 63, 0, 40, 64, 0, 0, 0
|0, 0, 0, 63, 0, 0, 0, 12, 0, 0, 0, 0, 0, 0, 27, 0, 0, 40, 0, 0, 0, 0, 0, 0, 0, 64, 0, 0, 0, 0, 0, 0, 0, 0, 23, 0, 15, 42, 0, 0, 0, 0, 0, 0, 0, 0, 0, 34, 0, 50, 0, 0, 0, 0, 0, 54, 0, 0, 38, 53, 37, 0, 0, 0
|0, 23, 0, 17, 49, 0, 45, 0, 0, 0, 0, 0, 0, 9, 0, 8, 35, 0, 0, 0, 26, 0, 0, 0, 0, 0, 0, 27, 0, 0, 0, 0, 0, 0, 0, 0, 0, 0, 57, 0, 4, 2, 0, 0, 0, 64, 0, 19, 53, 0, 0, 40, 33, 0, 0, 63, 39, 0, 20, 0, 10, 0, 0, 0
|0, 0, 0, 0, 0, 0, 0, 0, 43, 0, 0, 47, 40, 55, 23, 0, 0, 14, 0, 0, 0, 0, 0, 36, 7, 0, 49, 42, 0, 0, 0, 0, 0, 0, 0, 0, 13, 0, 0, 27, 0, 25, 0, 0, 11, 0, 0, 0, 0, 0, 12, 0, 0, 0, 38, 41, 63, 58, 31, 0, 0, 57, 0, 0
|0, 0, 0, 0, 0, 0, 0, 52, 14, 15, 0, 36, 0, 0, 0, 30, 10, 55, 0, 0, 0, 0, 0, 0, 0, 0, 0, 38, 0, 0, 13, 0, 0, 5, 0, 0, 0, 22, 0, 0, 33, 20, 0, 0, 0, 0, 0, 0, 0, 0, 0, 6, 0, 0, 0, 0, 41, 0, 0, 0, 0, 0, 0, 0
|0, 8, 0, 0, 41, 59, 0, 11, 0, 44, 0, 0, 0, 31, 0, 58, 0, 0, 46, 0, 0, 0, 0, 0, 0, 0, 0, 0, 55, 0, 23, 0, 0, 0, 0, 0, 0, 0, 32, 0, 43, 0, 0, 0, 51, 0, 0, 0, 0, 0, 0, 0, 0, 0, 0, 0, 52, 0, 0, 18, 0, 0, 0, 0
|0, 21, 0, 9, 47, 22, 34, 31, 0, 0, 0, 0, 0, 29, 52, 0, 0, 60, 0, 38, 62, 17, 0, 41, 0, 10, 26, 0, 0, 0, 0, 37, 1, 0, 51, 12, 0, 0, 0, 0, 0, 0, 30, 0, 0, 56, 0, 0, 36, 14, 0, 32, 15, 0, 0, 64, 25, 0, 0, 0, 0, 0, 0, 13
|0, 0, 0, 0, 0, 0, 0, 42, 0, 0, 63, 41, 0, 0, 0, 0, 0, 0, 0, 0, 0, 7, 0, 30, 0, 28, 0, 0, 0, 0, 0, 0, 20, 0, 0, 0, 0, 35, 45, 11, 0, 0, 0, 55, 0, 0, 40, 31, 0, 0, 0, 0, 43, 57, 29, 0, 0, 51, 49, 0, 0, 23, 47, 1
|0, 0, 0, 19, 0, 0, 0, 0, 46, 0, 0, 0, 0, 0, 0, 57, 0, 0, 56, 0, 0, 54, 0, 0, 61, 4, 0, 0, 20, 0, 0, 0, 36, 0, 38, 8, 58, 0, 0, 0, 63, 0, 0, 0, 0, 0, 0, 0, 0, 60, 34, 0, 22, 42, 0, 51, 3, 0, 0, 35, 0, 0, 0, 0
|0, 0, 0, 0, 33, 0, 0, 6, 0, 0, 0, 0, 24, 0, 7, 0, 0, 0, 0, 0, 0, 0, 0, 0, 2, 0, 15, 0, 53, 0, 47, 3, 51, 0, 0, 20, 0, 0, 62, 0, 0, 0, 0, 0, 48, 0, 0, 0, 39, 0, 17, 0, 49, 0, 0, 16, 44, 0, 0, 0, 0, 0, 0, 0
|0, 0, 1, 27, 0, 0, 0, 0, 0, 50, 54, 23, 0, 0, 0, 0, 0, 0, 0, 0, 0, 0, 0, 0, 6, 0, 0, 0, 41, 0, 0, 0, 0, 0, 3, 58, 24, 0, 0, 0, 0, 0, 9, 43, 45, 0, 57, 55, 0, 0, 0, 0, 42, 0, 15, 36, 2, 29, 51, 16, 0, 0, 0, 21
|0, 0, 54, 0, 40, 0, 0, 0, 0, 0, 0, 0, 38, 0, 0, 0, 0, 0, 39, 0, 29, 23, 0, 0, 0, 0, 0, 0, 19, 59, 0, 0, 0, 0, 0, 0, 0, 30, 4, 0, 0, 0, 0, 0, 0, 0, 0, 41, 45, 0, 0, 27, 32, 34, 0, 0, 0, 0, 0, 0, 0, 0, 48, 49
|0, 16, 0, 0, 57, 0, 59, 0, 0, 0, 39, 11, 0, 61, 56, 0, 0, 0, 0, 0, 0, 0, 3, 58, 0, 40, 0, 10, 0, 0, 0, 0, 0, 0, 0, 0, 0, 0, 14, 0, 0, 0, 0, 0, 21, 0, 0, 0, 0, 0, 0, 0, 0, 46, 0, 0, 34, 27, 0, 0, 0, 0, 0, 31
|0, 0, 0, 0, 20, 0, 0, 39, 0, 0, 0, 30, 53, 0, 0, 0, 0, 0, 0, 0, 0, 0, 0, 0, 26, 21, 0, 0, 0, 0, 0, 43, 0, 45, 0, 0, 0, 31, 22, 0, 0, 0, 0, 0, 8, 34, 0, 0, 1, 0, 0, 0, 50, 0, 0, 38, 10, 59, 0, 63, 0, 0, 0, 0
|0, 0, 5, 0, 0, 23, 2, 10, 44, 0, 0, 4, 0, 0, 0, 0, 0, 52, 17, 0, 0, 0, 0, 0, 0, 0, 0, 0, 0, 0, 57, 11, 49, 46, 0, 0, 0, 43, 0, 0, 0, 0, 0, 38, 26, 0, 0, 0, 0, 0, 0, 20, 0, 0, 0, 0, 47, 0, 64, 33, 0, 8, 62, 0
|0, 30, 0, 0, 0, 0, 53, 8, 0, 0, 20, 17, 47, 0, 0, 27, 0, 0, 28, 26, 0, 0, 0, 4, 34, 0, 33, 0, 0, 42, 46, 0, 0, 0, 0, 0, 0, 0, 0, 0, 0, 0, 0, 0, 12, 0, 0, 0, 0, 11, 0, 0, 0, 25, 0, 0, 0, 0, 0, 0, 36, 0, 0, 0
|0, 0, 0, 0, 0, 34, 14, 62, 0, 0, 0, 0, 0, 0, 0, 0, 0, 63, 47, 0, 59, 0, 16, 0, 0, 0, 0, 0, 27, 0, 38, 0, 0, 0, 0, 53, 28, 29, 0, 0, 0, 17, 0, 0, 0, 0, 0, 2, 0, 0, 0, 0, 0, 0, 57, 0, 0, 0, 35, 55, 0, 42, 0, 0
|0, 0, 0, 0, 0, 0, 4, 0, 0, 0, 13, 14, 0, 0, 35, 0, 28, 17, 0, 0, 0, 0, 0, 0, 55, 0, 0, 0, 0, 0, 0, 0, 11, 0, 0, 0, 0, 26, 43, 49, 0, 29, 20, 33, 0, 2, 0, 0, 0, 0, 0, 0, 0, 18, 62, 5, 61, 0, 0, 0, 54, 0, 39, 23
|0, 62, 0, 0, 43, 17, 0, 0, 0, 0, 0, 0, 19, 0, 0, 0, 0, 0, 40, 0, 53, 46, 0, 0, 0, 15, 0, 0, 45, 0, 0, 26, 0, 0, 0, 55, 0, 36, 0, 20, 0, 0, 0, 12, 0, 0, 7, 0, 0, 24, 0, 0, 0, 16, 0, 0, 0, 0, 0, 0, 8, 0, 0, 0
|0, 60, 0, 0, 2, 7, 0, 38, 5, 0, 15, 0, 23, 0, 43, 0, 0, 0, 0, 0, 0, 0, 0, 27, 0, 0, 0, 0, 0, 0, 0, 49, 21, 0, 0, 24, 30, 14, 0, 46, 0, 0, 0, 0, 0, 0, 0, 0, 25, 0, 51, 0, 35, 0, 0, 0, 45, 50, 0, 0, 44, 0, 0, 41
|0, 0, 26, 0, 0, 0, 0, 0, 0, 0, 8, 0, 0, 51, 0, 6, 0, 0, 0, 0, 56, 64, 33, 0, 0, 0, 48, 0, 7, 18, 0, 0, 0, 0, 17, 0, 0, 0, 0, 0, 24, 0, 14, 25, 0, 0, 31, 9, 0, 0, 0, 0, 39, 19, 0, 0, 0, 13, 0, 0, 29, 47, 60, 46
|0, 0, 0, 0, 0, 12, 51, 0, 0, 64, 0, 3, 31, 0, 0, 0, 0, 47, 0, 0, 0, 0, 0, 0, 0, 0, 29, 0, 0, 0, 6, 0, 0, 0, 0, 63, 0, 37, 0, 0, 39, 0, 0, 0, 34, 0, 0, 0, 0, 0, 0, 0, 10, 0, 40, 0, 1, 53, 0, 0, 0, 0, 11, 4
|0, 0, 61, 30, 0, 0, 0, 0, 49, 39, 1, 0, 12, 0, 0, 0, 63, 0, 0, 20, 6, 0, 7, 0, 0, 0, 0, 36, 40, 0, 14, 0, 0, 0, 0, 51, 0, 25, 0, 0, 32, 60, 0, 53, 0, 26, 19, 0, 0, 0, 0, 0, 0, 0, 0, 33, 0, 0, 0, 0, 0, 0, 0, 0
|0, 0, 0, 0, 0, 0, 0, 0, 0, 4, 0, 0, 27, 0, 0, 0, 30, 0, 55, 0, 0, 0, 0, 0, 0, 43, 31, 0, 0, 54, 0, 0, 0, 0, 0, 0, 0, 0, 53, 0, 0, 0, 0, 0, 0, 0, 0, 0, 0, 0, 28, 46, 0, 0, 14, 0, 0, 0, 0, 0, 0, 19, 0, 0
|0, 0, 0, 8, 0, 0, 0, 0, 0, 0, 55, 0, 0, 0, 37, 0, 0, 59, 0, 0, 0, 0, 35, 0, 46, 42, 1, 0, 63, 61, 0, 0, 0, 0, 0, 0, 7, 41, 0, 57, 28, 0, 0, 0, 0, 0, 0, 0, 0, 38, 13, 0, 2, 0, 0, 49, 0, 0, 0, 0, 0, 0, 0, 0|];