order = 8;
grid = [|0, 0, 0, 0, 0, 0, 0, 0, 0, 40, 0, 0, 35, 0, 0, 0, 0, 0, 21, 0, 0, 0, 0, 0, 0, 0, 0, 0, 0, 0, 0, 0, 0, 53, 0, 0, 0, 34, 22, 0, 0, 23, 24, 47, 60, 0, 0, 0, 0, 7, 0, 11, 0, 5, 45, 59, 0, 0, 0, 0, 0, 0, 0, 39
|0, 0, 0, 49, 0, 0, 0, 13, 6, 0, 27, 0, 0, 31, 0, 32, 28, 0, 0, 0, 0, 0, 0, 0, 0, 0, 0, 63, 0, 0, 0, 0, 0, 57, 0, 0, 52, 3, 0, 0, 0, 0, 42, 0, 37, 0, 61, 15, 0, 0, 0, 0, 19, 0, 0, 0, 56, 0, 0, 0, 0, 0, 36, 0
|0, 0, 0, 0, 0, 63, 0, 0, 0, 0, 0, 0, 0, 13, 0, 0, 0, 0, 0, 0, 0, 0, 0, 0, 0, 0, 0, 0, 37, 0, 0, 23, 0, 0, 0, 0, 0, 5, 0, 0, 0, 0, 0, 0, 35, 0, 0, 0, 32, 0, 0, 0, 0, 0, 0, 28, 0, 43, 0, 0, 0, 15, 0, 0
|0, 0, 22, 4, 0, 0, 0, 18, 0, 0, 0, 0, 24, 0, 0, 58, 40, 55, 0, 0, 0, 0, 0, 56, 0, 0, 36, 48, 0, 0, 0, 0, 50, 0, 29, 0, 38, 0, 0, 0, 0, 0, 7, 0, 0, 16, 0, 0, 0, 0, 0, 3, 0, 0, 60, 35, 0, 0, 0, 23, 11, 2, 0, 46
|19, 0, 0, 23, 33, 62, 0, 0, 0, 0, 0, 0, 36, 28, 0, 49, 0, 6, 45, 41, 0, 0, 0, 11, 0, 0, 24, 0, 0, 0, 0, 0, 0, 0, 0, 0, 0, 0, 60, 35, 12, 0, 64, 63, 0, 0, 0, 25, 0, 0, 0, 17, 0, 0, 57, 0, 0, 58, 0, 0, 54, 0, 42, 0
|0, 0, 0, 27, 0, 0, 5, 0, 8, 11, 0, 0, 0, 33, 0, 0, 0, 0, 0, 0, 0, 24, 23, 37, 43, 0, 0, 46, 0, 0, 0, 0, 0, 61, 0, 0, 0, 0, 0, 0, 0, 18, 57, 32, 0, 0, 58, 49, 0, 20, 0, 21, 0, 0, 0, 26, 3, 0, 0, 0, 0, 0, 0, 0
|0, 0, 0, 0, 0, 0, 42, 0, 16, 37, 0, 0, 57, 0, 0, 0, 0, 0, 0, 0, 36, 0, 0, 3, 0, 32, 0, 0, 4, 0, 0, 15, 0, 0, 0, 0, 0, 0, 48, 0, 0, 0, 11, 0, 2, 0, 0, 0, 12, 0, 0, 8, 0, 24, 61, 0, 49, 0, 0, 5, 0, 0, 30, 14
|0, 0, 0, 0, 47, 0, 0, 0, 0, 51, 0, 0, 5, 56, 3, 23, 0, 0, 0, 0, 0, 0, 0, 0, 0, 0, 0, 0, 0, 0, 0, 0, 0, 0, 0, 0, 28, 0, 11, 0, 0, 0, 0, 0, 0, 0, 33, 48, 0, 0, 0, 40, 0, 54, 18, 0, 0, 0, 0, 0, 0, 0, 0, 0
|0, 11, 0, 0, 0, 0, 0, 0, 0, 0, 0, 3, 0, 0, 36, 0, 0, 0, 10, 0, 9, 39, 0, 0, 6, 0, 43, 0, 0, 0, 48, 0, 0, 0, 53, 0, 0, 0, 58, 55, 0, 0, 0, 0, 0, 0, 0, 0, 0, 0, 0, 0, 0, 44, 0, 0, 0, 0, 0, 25, 0, 0, 0, 52
|0, 32, 0, 33, 0, 0, 34, 0, 39, 0, 50, 0, 0, 0, 0, 25, 0, 0, 0, 56, 0, 55, 0, 0, 14, 10, 0, 0, 0, 0, 0, 0, 0, 0, 0, 0, 15, 41, 16, 0, 0, 0, 0, 0, 0, 0, 0, 53, 0, 0, 26, 0, 0, 0, 27, 0, 0, 0, 0, 48, 0, 5, 18, 0
|0, 0, 0, 0, 0, 0, 15, 39, 0, 0, 0, 43, 17, 0, 40, 0, 0, 31, 49, 0, 0, 60, 0, 0, 0, 0, 0, 30, 0, 34, 20, 27, 0, 0, 0, 0, 6, 0, 0, 0, 18, 0, 0, 0, 0, 0, 25, 0, 0, 11, 0, 0, 4, 52, 9, 64, 0, 59, 10, 0, 0, 8, 0, 0
|0, 0, 0, 0, 17, 0, 0, 0, 51, 0, 0, 0, 0, 0, 5, 38, 0, 0, 0, 0, 0, 25, 0, 0, 24, 0, 0, 3, 0, 32, 0, 0, 0, 0, 11, 0, 0, 0, 0, 0, 0, 0, 0, 0, 29, 0, 0, 0, 28, 0, 60, 0, 0, 0, 21, 0, 0, 0, 0, 45, 0, 49, 0, 4
|0, 0, 0, 21, 0, 0, 0, 0, 0, 0, 0, 59, 0, 0, 0, 0, 41, 0, 0, 0, 0, 0, 0, 0, 0, 0, 0, 0, 46, 25, 0, 0, 0, 0, 0, 38, 0, 0, 0, 0, 0, 39, 0, 0, 0, 0, 0, 0, 6, 0, 57, 0, 0, 0, 0, 5, 26, 0, 0, 58, 0, 0, 0, 0
|0, 23, 0, 0, 0, 0, 0, 0, 0, 0, 0, 24, 0, 54, 0, 0, 21, 0, 0, 0, 59, 0, 0, 0, 0, 0, 0, 0, 0, 8, 0, 0, 0, 0, 0, 0, 13, 0, 0, 0, 33, 4, 34, 0, 3, 0, 0, 0, 0, 51, 0, 0, 0, 0, 63, 0, 0, 0, 7, 1, 0, 0, 0, 30
|0, 0, 31, 0, 0, 36, 13, 0, 37, 63, 0, 0, 0, 0, 0, 0, 0, 0, 23, 0, 0, 0, 0, 40, 0, 0, 62, 26, 0, 0, 35, 21, 0, 42, 0, 0, 24, 0, 0, 0, 0, 0, 0, 0, 46, 0, 0, 0, 0, 0, 45, 0, 0, 0, 38, 25, 0, 51, 34, 61, 0, 0, 32, 11
|0, 0, 25, 0, 16, 0, 0, 0, 0, 0, 56, 0, 0, 0, 0, 15, 34, 0, 0, 58, 30, 0, 46, 0, 0, 31, 23, 0, 0, 22, 0, 0, 49, 0, 20, 0, 60, 7, 0, 0, 0, 0, 0, 0, 0, 0, 45, 0, 0, 0, 0, 55, 0, 0, 37, 0, 0, 6, 24, 9, 53, 0, 0, 63
|0, 4, 17, 0, 35, 0, 18, 0, 0, 42, 0, 0, 0, 44, 0, 60, 24, 30, 0, 0, 0, 54, 62, 0, 7, 0, 0, 2, 0, 0, 55, 19, 0, 63, 0, 0, 0, 0, 0, 0, 0, 29, 14, 22, 0, 0, 21, 0, 0, 0, 0, 0, 0, 0, 0, 0, 0, 0, 0, 64, 0, 0, 0, 0
|0, 0, 30, 0, 3, 16, 0, 0, 29, 0, 0, 0, 0, 0, 0, 0, 0, 0, 0, 0, 13, 0, 0, 0, 45, 35, 10, 0, 0, 0, 0, 0, 0, 0, 0, 50, 0, 0, 0, 0, 0, 24, 0, 0, 0, 0, 18, 0, 25, 0, 0, 34, 0, 0, 56, 0, 0, 0, 41, 0, 0, 0, 21, 0
|40, 0, 0, 0, 0, 0, 49, 0, 0, 45, 0, 0, 0, 0, 51, 0, 33, 0, 19, 0, 0, 58, 0, 0, 0, 0, 0, 0, 0, 0, 0, 0, 0, 0, 35, 0, 0, 0, 21, 0, 0, 0, 0, 0, 0, 46, 0, 0, 0, 0, 0, 0, 0, 26, 0, 0, 0, 0, 0, 56, 0, 0, 48, 12
|0, 34, 0, 0, 0, 0, 0, 57, 59, 0, 2, 0, 0, 0, 0, 0, 0, 0, 0, 0, 0, 0, 0, 0, 17, 63, 53, 0, 0, 61, 4, 26, 0, 0, 0, 0, 0, 60, 0, 0, 49, 0, 0, 0, 48, 30, 0, 45, 7, 35, 0, 0, 0, 0, 0, 0, 0, 0, 0, 11, 0, 0, 62, 0
|14, 0, 0, 0, 0, 0, 0, 0, 0, 0, 0, 53, 0, 0, 6, 0, 0, 0, 61, 0, 0, 0, 60, 0, 0, 0, 0, 1, 0, 0, 0, 0, 40, 29, 0, 0, 0, 0, 0, 7, 59, 0, 23, 0, 0, 25, 0, 0, 0, 0, 0, 9, 0, 0, 0, 0, 0, 0, 0, 0, 49, 0, 3, 2
|0, 0, 0, 56, 0, 10, 0, 24, 0, 0, 0, 7, 0, 0, 0, 62, 27, 0, 11, 0, 0, 8, 0, 21, 0, 29, 0, 0, 0, 20, 0, 0, 0, 0, 0, 0, 0, 0, 55, 0, 0, 0, 0, 6, 0, 13, 5, 0, 0, 60, 0, 61, 0, 0, 0, 1, 25, 44, 0, 0, 0, 0, 0, 0
|53, 0, 0, 0, 0, 21, 0, 0, 0, 55, 0, 0, 0, 0, 0, 0, 0, 42, 0, 0, 38, 6, 0, 29, 0, 0, 0, 0, 31, 0, 13, 56, 9, 48, 0, 0, 45, 0, 34, 1, 0, 0, 0, 0, 0, 0, 0, 12, 50, 59, 2, 39, 0, 0, 0, 0, 24, 0, 0, 14, 15, 0, 28, 58
|0, 0, 0, 0, 0, 0, 0, 0, 0, 14, 58, 0, 26, 0, 0, 30, 0, 0, 59, 0, 0, 51, 0, 0, 0, 46, 0, 0, 0, 0, 0, 44, 0, 0, 0, 27, 17, 0, 0, 0, 0, 0, 0, 0, 4, 10, 0, 0, 22, 0, 0, 0, 0, 0, 0, 0, 61, 0, 0, 0, 34, 0, 0, 0
|0, 0, 0, 0, 43, 0, 0, 0, 38, 0, 0, 45, 39, 26, 0, 36, 48, 0, 0, 0, 0, 7, 30, 0, 0, 8, 0, 0, 0, 46, 0, 0, 0, 0, 0, 0, 0, 0, 0, 0, 0, 5, 0, 0, 33, 0, 0, 61, 20, 56, 50, 0, 1, 35, 0, 0, 37, 0, 0, 0, 0, 0, 0, 0
|0, 53, 0, 0, 0, 0, 0, 36, 0, 0, 0, 1, 9, 0, 48, 14, 0, 32, 0, 0, 17, 0, 43, 58, 0, 0, 0, 55, 0, 0, 0, 0, 0, 31, 0, 42, 0, 24, 0, 0, 0, 0, 0, 0, 0, 44, 0, 0, 4, 0, 0, 63, 0, 0, 0, 0, 64, 0, 0, 0, 29, 0, 0, 0
|0, 0, 0, 57, 0, 0, 0, 38, 0, 0, 0, 11, 0, 25, 0, 0, 36, 0, 0, 2, 54, 0, 4, 0, 0, 0, 56, 0, 23, 0, 14, 0, 19, 0, 0, 40, 0, 48, 0, 61, 0, 59, 20, 28, 6, 0, 0, 52, 0, 44, 0, 0, 7, 0, 15, 0, 0, 0, 39, 18, 45, 16, 0, 3
|0, 0, 0, 6, 25, 0, 48, 0, 0, 0, 0, 0, 63, 0, 0, 0, 0, 0, 0, 0, 0, 0, 14, 0, 0, 0, 0, 0, 0, 51, 1, 22, 0, 0, 0, 0, 0, 52, 0, 0, 57, 0, 0, 21, 18, 0, 37, 0, 0, 0, 30, 0, 0, 0, 42, 0, 0, 24, 0, 0, 0, 0, 59, 0
|58, 0, 62, 0, 0, 0, 0, 14, 0, 6, 0, 0, 0, 0, 0, 0, 16, 0, 0, 0, 0, 0, 0, 0, 0, 60, 59, 0, 0, 26, 0, 0, 0, 0, 0, 0, 0, 0, 0, 0, 0, 17, 0, 53, 0, 0, 0, 0, 19, 46, 27, 0, 0, 2, 0, 0, 43, 49, 57, 0, 13, 0, 0, 0
|0, 0, 54, 8, 0, 0, 0, 9, 44, 0, 62, 0, 20, 0, 43, 29, 0, 19, 55, 0, 3, 0, 0, 0, 0, 0, 63, 0, 11, 0, 25, 0, 0, 0, 15, 0, 0, 0, 0, 0, 0, 0, 0, 0, 0, 0, 0, 56, 0, 0, 0, 64, 61, 0, 0, 0, 52, 0, 0, 30, 12, 33, 6, 0
|0, 39, 44, 0, 0, 0, 0, 0, 0, 0, 0, 0, 0, 8, 0, 41, 0, 0, 0, 0, 23, 0, 45, 0, 0, 54, 3, 0, 43, 0, 0, 0, 0, 0, 0, 0, 55, 0, 0, 0, 1, 0, 0, 0, 0, 50, 0, 30, 0, 0, 0, 0, 5, 0, 0, 36, 0, 0, 0, 0, 58, 27, 0, 31
|0, 0, 0, 34, 0, 0, 0, 33, 22, 0, 0, 0, 30, 51, 0, 0, 0, 0, 0, 0, 0, 46, 0, 0, 0, 0, 41, 0, 0, 0, 0, 0, 0, 20, 44, 0, 0, 0, 56, 0, 0, 0, 0, 0, 0, 0, 12, 7, 0, 0, 0, 0, 16, 0, 0, 0, 0, 0, 32, 36, 0, 0, 0, 0
|0, 0, 0, 0, 0, 0, 6, 0, 0, 0, 0, 0, 0, 0, 0, 0, 0, 0, 0, 0, 0, 0, 48, 0, 0, 26, 0, 45, 0, 0, 11, 0, 0, 0, 0, 0, 0, 0, 0, 0, 0, 0, 0, 0, 0, 18, 0, 0, 0, 0, 16, 31, 0, 0, 0, 0, 0, 0, 0, 43, 0, 0, 0, 0
|0, 0, 0, 0, 0, 49, 0, 0, 0, 0, 0, 27, 0, 20, 0, 6, 0, 0, 26, 46, 0, 0, 0, 50, 48, 0, 19, 21, 0, 0, 0, 0, 0, 0, 3, 47, 54, 0, 0, 0, 0, 0, 31, 0, 0, 0, 0, 33, 29, 0, 7, 0, 0, 0, 0, 4, 55, 62, 0, 0, 9, 0, 58, 0
|0, 0, 0, 0, 0, 0, 0, 0, 0, 0, 26, 0, 0, 0, 0, 0, 0, 0, 0, 0, 0, 0, 0, 0, 0, 13, 0, 0, 0, 0, 0, 0, 14, 15, 61, 11, 0, 0, 0, 0, 7, 52, 0, 0, 27, 0, 0, 0, 0, 0, 0, 0, 0, 36, 19, 0, 0, 0, 31, 3, 0, 0, 0, 0
|0, 0, 0, 0, 0, 0, 16, 37, 0, 0, 0, 0, 0, 0, 0, 56, 0, 0, 0, 0, 0, 44, 0, 36, 50, 0, 49, 0, 0, 0, 0, 0, 0, 12, 0, 0, 0, 0, 4, 0, 21, 0, 53, 0, 47, 20, 0, 0, 0, 0, 0, 0, 13, 55, 0, 0, 41, 0, 18, 0, 0, 0, 27, 6
|0, 0, 9, 0, 0, 0, 0, 0, 0, 0, 16, 0, 0, 0, 0, 21, 59, 0, 0, 3, 53, 0, 0, 55, 0, 0, 0, 27, 0, 0, 0, 0, 0, 0, 48, 63, 10, 0, 0, 0, 37, 8, 35, 0, 0, 0, 54, 0, 49, 0, 0, 62, 0, 14, 0, 0, 0, 0, 12, 0, 0, 0, 0, 0
|0, 22, 0, 0, 0, 0, 0, 0, 0, 0, 0, 0, 48, 43, 0, 39, 0, 0, 0, 0, 0, 0, 0, 0, 0, 0, 32, 0, 0, 63, 0, 0, 2, 0, 0, 0, 0, 0, 13, 0, 0, 0, 0, 0, 0, 0, 0, 40, 0, 17, 0, 0, 0, 28, 0, 0, 0, 0, 0, 0, 0, 61, 25, 0
|0, 0, 27, 13, 54, 0, 0, 0, 0, 7, 0, 8, 0, 0, 0, 0, 0, 12, 0, 31, 0, 0, 0, 0, 0, 0, 0, 0, 0, 0, 3, 0, 0, 49, 24, 0, 0, 0, 0, 0, 0, 63, 0, 16, 0, 22, 0, 0, 18, 0, 0, 0, 57, 0, 0, 9, 0, 0, 0, 0, 30, 45, 51, 0
|0, 0, 0, 0, 0, 24, 0, 0, 0, 0, 45, 0, 0, 0, 0, 0, 0, 0, 35, 0, 0, 0, 0, 0, 31, 25, 52, 18, 57, 7, 62, 0, 6, 0, 0, 0, 0, 0, 0, 0, 29, 0, 19, 0, 50, 0, 4, 0, 51, 0, 54, 53, 0, 0, 0, 0, 20, 0, 0, 49, 0, 0, 0, 0
|0, 0, 52, 0, 0, 0, 0, 0, 0, 0, 15, 30, 0, 0, 0, 0, 0, 0, 0, 0, 0, 0, 56, 0, 0, 0, 0, 0, 0, 0, 8, 0, 0, 0, 0, 0, 0, 32, 0, 0, 0, 0, 0, 4, 0, 31, 0, 0, 35, 0, 0, 0, 0, 0, 28, 53, 0, 5, 0, 19, 0, 0, 0, 0
|64, 36, 0, 0, 30, 0, 0, 0, 47, 10, 0, 5, 62, 41, 0, 52, 0, 0, 0, 6, 11, 29, 17, 0, 54, 0, 14, 0, 0, 0, 53, 0, 0, 0, 0, 0, 43, 63, 0, 28, 15, 3, 21, 38, 51, 0, 0, 0, 0, 48, 0, 56, 0, 0, 0, 19, 0, 0, 0, 0, 0, 0, 0, 0
|32, 29, 0, 0, 49, 0, 56, 42, 0, 39, 0, 0, 0, 0, 54, 0, 0, 0, 0, 0, 19, 0, 0, 0, 18, 0, 0, 41, 35, 62, 0, 20, 0, 3, 21, 0, 0, 31, 0, 0, 0, 0, 47, 0, 0, 27, 34, 0, 0, 0, 0, 0, 0, 11, 0, 0, 0, 0, 0, 57, 0, 0, 2, 0
|0, 0, 0, 0, 0, 33, 0, 0, 0, 4, 0, 0, 0, 0, 0, 0, 44, 49, 7, 40, 0, 53, 1, 46, 0, 0, 0, 0, 0, 38, 0, 0, 59, 0, 13, 0, 0, 0, 41, 0, 0, 0, 9, 0, 0, 0, 0, 8, 23, 0, 43, 54, 0, 18, 36, 0, 0, 48, 0, 15, 3, 17, 0, 47
|62, 0, 0, 0, 0, 0, 0, 0, 49, 0, 17, 13, 37, 0, 63, 11, 12, 0, 27, 0, 0, 0, 8, 43, 25, 0, 47, 0, 0, 0, 0, 0, 35, 36, 30, 0, 44, 0, 19, 56, 0, 7, 48, 0, 0, 0, 0, 0, 0, 0, 0, 0, 0, 10, 0, 0, 0, 0, 61, 0, 0, 0, 34, 0
|0, 59, 1, 2, 50, 19, 37, 0, 56, 0, 48, 0, 0, 0, 0, 20, 0, 0, 4, 0, 0, 0, 0, 0, 0, 0, 0, 49, 32, 0, 0, 11, 0, 0, 0, 0, 0, 38, 0, 42, 0, 0, 0, 25, 0, 62, 0, 0, 0, 0, 40, 0, 47, 9, 0, 0, 0, 10, 0, 0, 0, 46, 0, 33
|0, 0, 0, 0, 0, 0, 0, 0, 0, 0, 0, 0, 28, 0, 29, 0, 0, 59, 38, 0, 60, 0, 0, 0, 0, 45, 0, 19, 0, 0, 0, 64, 20, 27, 0, 0, 0, 0, 52, 0, 0, 57, 0, 0, 0, 0, 0, 0, 0, 0, 0, 58, 39, 62, 13, 0, 51, 36, 0, 0, 14, 55, 0, 43
|0, 0, 0, 0, 0, 0, 0, 21, 0, 0, 0, 0, 3, 0, 0, 8, 0, 0, 32, 0, 0, 41, 0, 0, 0, 0, 42, 0, 0, 0, 0, 0, 0, 0, 4, 0, 14, 55, 50, 0, 0, 0, 0, 0, 0, 52, 0, 0, 0, 0, 0, 30, 0, 51, 0, 0, 0, 11, 0, 0, 0, 0, 0, 16
|61, 0, 0, 58, 0, 0, 0, 11, 0, 28, 0, 0, 49, 6, 0, 0, 0, 0, 0, 0, 0, 0, 55, 35, 51, 41, 0, 0, 0, 24, 0, 0, 0, 0, 43, 0, 0, 0, 0, 0, 39, 47, 0, 0, 0, 0, 0, 0, 0, 0, 0, 19, 0, 0, 8, 0, 17, 30, 21, 0, 2, 0, 0, 0
|0, 0, 0, 0, 0, 0, 0, 0, 58, 0, 0, 0, 31, 0, 26, 0, 0, 0, 0, 13, 0, 0, 0, 0, 0, 48, 2, 0, 0, 0, 47, 32, 0, 0, 0, 55, 0, 27, 0, 0, 0, 0, 38, 0, 49, 0, 53, 0, 0, 0, 0, 0, 0, 0, 29, 11, 0, 0, 0, 24, 0, 0, 41, 0
|0, 0, 0, 0, 0, 0, 38, 45, 0, 0, 32, 0, 0, 16, 0, 0, 0, 0, 0, 0, 0, 0, 0, 25, 58, 0, 50, 0, 0, 0, 0, 0, 0, 5, 49, 0, 0, 0, 0, 0, 28, 0, 0, 0, 0, 0, 8, 0, 2, 0, 0, 0, 0, 0, 0, 0, 34, 61, 0, 0, 1, 0, 56, 7
|0, 0, 0, 0, 0, 56, 0, 0, 0, 3, 0, 0, 25, 0, 0, 59, 0, 34, 58, 0, 0, 0, 0, 60, 8, 0, 0, 39, 0, 1, 6, 0, 0, 0, 16, 20, 0, 37, 0, 0, 48, 0, 44, 18, 24, 0, 0, 0, 0, 0, 0, 0, 0, 0, 0, 21, 0, 0, 0, 32, 0, 0, 0, 0
|0, 0, 57, 0, 0, 40, 0, 0, 35, 0, 0, 0, 0, 9, 21, 0, 0, 0, 0, 0, 0, 64, 0, 0, 0, 0, 0, 0, 0, 0, 27, 0, 0, 60, 63, 0, 12, 1, 28, 0, 0, 26, 0, 0, 31, 0, 29, 0, 0, 0, 0, 0, 0, 0, 51, 0, 0, 0, 0, 0, 47, 23, 0, 62
|0, 0, 0, 0, 0, 44, 0, 0, 0, 1, 29, 60, 0, 57, 0, 0, 0, 0, 43, 0, 41, 17, 0, 0, 53, 0, 0, 0, 0, 21, 0, 0, 0, 30, 50, 0, 35, 0, 0, 39, 0, 0, 54, 0, 0, 0, 0, 0, 31, 0, 0, 36, 9, 49, 0, 0, 0, 0, 0, 0, 0, 59, 14, 0
|16, 21, 50, 0, 0, 0, 0, 0, 0, 0, 8, 0, 10, 0, 0, 43, 0, 36, 51, 0, 0, 0, 0, 12, 0, 0, 0, 44, 0, 0, 0, 60, 0, 25, 32, 0, 0, 0, 14, 0, 0, 11, 17, 0, 0, 0, 0, 0, 0, 0, 0, 27, 15, 0, 0, 0, 0, 0, 0, 0, 40, 0, 0, 0
|0, 0, 0, 15, 0, 60, 0, 0, 61, 24, 0, 0, 0, 22, 0, 0, 0, 0, 0, 0, 0, 56, 0, 0, 0, 0, 37, 4, 34, 0, 0, 0, 0, 6, 0, 7, 0, 0, 0, 0, 0, 58, 0, 0, 5, 0, 16, 0, 0, 0, 0, 0, 0, 0, 0, 0, 0, 0, 0, 0, 0, 0, 0, 0
|0, 37, 0, 0, 0, 47, 0, 0, 5, 0, 24, 0, 52, 10, 0, 0, 0, 0, 0, 0, 0, 0, 0, 0, 0, 0, 0, 33, 13, 0, 0, 0, 0, 0, 0, 0, 0, 12, 3, 0, 0, 21, 0, 0, 0, 0, 63, 0, 26, 0, 35, 0, 20, 0, 0, 0, 19, 0, 0, 0, 0, 0, 0, 0
|0, 0, 0, 0, 0, 0, 0, 0, 0, 0, 51, 54, 27, 0, 0, 3, 0, 0, 0, 48, 0, 21, 0, 0, 0, 0, 0, 0, 0, 0, 0, 59, 10, 0, 55, 19, 0, 0, 0, 15, 62, 0, 0, 34, 32, 0, 14, 0, 0, 0, 17, 0, 0, 0, 11, 0, 38, 16, 42, 0, 0, 0, 0, 0
|0, 0, 51, 0, 31, 0, 62, 49, 14, 0, 41, 0, 43, 59, 0, 0, 0, 0, 0, 0, 0, 0, 9, 0, 16, 0, 0, 0, 44, 0, 0, 0, 7, 0, 0, 24, 20, 0, 39, 0, 0, 0, 0, 0, 0, 58, 0, 0, 0, 19, 61, 0, 0, 0, 0, 40, 0, 0, 0, 0, 0, 0, 0, 0
|46, 0, 0, 0, 0, 14, 0, 0, 0, 0, 0, 0, 0, 0, 0, 2, 0, 0, 0, 0, 0, 0, 0, 0, 0, 0, 57, 0, 0, 0, 0, 0, 38, 0, 28, 0, 0, 0, 0, 0, 0, 0, 0, 0, 0, 0, 0, 0, 0, 0, 0, 0, 0, 0, 0, 0, 0, 0, 56, 31, 63, 0, 0, 40
|45, 0, 34, 44, 0, 0, 0, 32, 0, 0, 0, 0, 0, 0, 7, 0, 63, 0, 39, 51, 43, 0, 0, 0, 56, 0, 0, 62, 0, 0, 60, 0, 48, 0, 0, 0, 0, 0, 0, 0, 20, 0, 0, 11, 0, 0, 0, 0, 0, 0, 0, 0, 54, 0, 0, 49, 0, 0, 0, 12, 0, 24, 0, 26
|0, 0, 0, 0, 38, 0, 0, 0, 26, 19, 0, 0, 0, 0, 0, 16, 0, 3, 0, 0, 18, 0, 33, 0, 0, 50, 64, 22, 0, 0, 41, 0, 0, 0, 0, 0, 8, 30, 0, 47, 0, 0, 55, 1, 0, 0, 43, 0, 0, 0, 0, 0, 0, 0, 0, 0, 0, 0, 11, 0, 0, 0, 0, 49
|0, 0, 0, 0, 0, 0, 0, 19, 0, 0, 0, 38, 0, 0, 0, 42, 50, 62, 0, 0, 49, 0, 0, 0, 0, 18, 0, 6, 1, 54, 21, 0, 0, 0, 41, 61, 31, 0, 0, 0, 4, 0, 0, 0, 16, 0, 0, 23, 0, 27, 0, 0, 43, 0, 0, 0, 0, 0, 0, 0, 0, 0, 0, 9
|0, 0, 0, 0, 0, 0, 0, 0, 53, 13, 0, 35, 0, 0, 62, 63, 0, 24, 0, 0, 0, 0, 0, 0, 0, 20, 0, 32, 10, 0, 0, 0, 0, 0, 0, 0, 0, 0, 0, 0, 40, 49, 0, 0, 0, 38, 0, 0, 33, 45, 39, 51, 21, 0, 0, 0, 0, 0, 14, 0, 0, 0, 0, 41|];