order = 8;
grid = [|0, 0, 0, 0, 0, 0, 0, 0, 0, 0, 0, 1, 0, 32, 0, 0, 0, 0, 0, 0, 0, 38, 0, 0, 0, 0, 0, 0, 0, 53, 0, 0, 0, 0, 11, 4, 0, 62, 0, 47, 0, 52, 36, 0, 15, 0, 0, 0, 57, 12, 19, 0, 49, 7, 0, 0, 39, 0, 0, 0, 50, 51, 27, 0
|0, 0, 48, 0, 20, 0, 19, 64, 0, 41, 0, 0, 0, 55, 0, 0, 4, 0, 0, 30, 0, 0, 0, 5, 0, 0, 0, 51, 0, 0, 12, 21, 0, 6, 0, 13, 0, 0, 33, 0, 0, 0, 11, 0, 60, 0, 1, 47, 0, 0, 0, 25, 0, 0, 28, 0, 0, 0, 9, 0, 2, 40, 62, 0
|24, 0, 0, 0, 28, 52, 0, 5, 0, 0, 0, 0, 0, 0, 0, 0, 0, 15, 0, 0, 44, 0, 11, 0, 0, 33, 0, 0, 0, 0, 0, 0, 57, 0, 0, 0, 51, 0, 54, 60, 0, 0, 0, 0, 0, 0, 0, 0, 0, 0, 0, 0, 0, 0, 56, 0, 0, 0, 0, 0, 0, 0, 0, 45
|0, 0, 0, 8, 53, 0, 35, 0, 0, 0, 0, 0, 50, 0, 13, 0, 0, 0, 41, 0, 0, 19, 0, 60, 0, 0, 45, 0, 0, 0, 0, 64, 3, 0, 5, 44, 0, 16, 0, 0, 0, 0, 29, 0, 21, 0, 0, 0, 0, 0, 0, 0, 0, 0, 0, 0, 0, 0, 46, 15, 0, 0, 0, 0
|0, 0, 0, 0, 0, 0, 0, 2, 8, 0, 5, 51, 27, 0, 0, 0, 0, 7, 59, 49, 0, 0, 47, 0, 25, 39, 0, 0, 0, 0, 0, 50, 0, 53, 0, 0, 0, 36, 0, 35, 0, 0, 0, 0, 0, 30, 0, 0, 0, 0, 0, 0, 0, 0, 21, 31, 0, 0, 0, 0, 0, 24, 0, 11
|44, 34, 0, 0, 62, 61, 0, 0, 0, 24, 23, 19, 0, 0, 0, 0, 0, 16, 0, 0, 0, 8, 0, 0, 0, 48, 0, 31, 11, 58, 0, 0, 20, 0, 0, 18, 0, 21, 0, 0, 0, 0, 0, 0, 49, 0, 0, 0, 0, 0, 0, 46, 0, 0, 0, 0, 0, 30, 0, 42, 33, 0, 6, 0
|0, 0, 39, 0, 42, 0, 58, 0, 0, 0, 0, 0, 53, 0, 0, 0, 0, 0, 0, 0, 18, 45, 26, 13, 60, 0, 52, 0, 36, 59, 0, 0, 46, 0, 0, 38, 0, 0, 0, 27, 0, 43, 0, 0, 0, 33, 0, 0, 0, 0, 8, 24, 0, 0, 17, 10, 0, 64, 0, 0, 63, 0, 0, 7
|0, 30, 45, 0, 0, 0, 0, 0, 0, 18, 26, 0, 33, 64, 0, 21, 0, 0, 37, 0, 0, 63, 0, 0, 19, 0, 47, 3, 0, 0, 0, 0, 0, 0, 0, 8, 2, 7, 0, 0, 0, 0, 0, 0, 0, 0, 0, 0, 0, 0, 0, 0, 0, 0, 0, 0, 0, 0, 0, 1, 35, 0, 0, 0
|0, 53, 0, 0, 35, 14, 0, 13, 0, 0, 0, 0, 0, 58, 0, 27, 0, 40, 49, 0, 31, 0, 0, 0, 46, 0, 0, 0, 0, 37, 0, 0, 63, 0, 38, 19, 0, 0, 0, 0, 48, 24, 0, 0, 55, 0, 0, 0, 0, 0, 30, 16, 0, 0, 0, 0, 34, 26, 0, 0, 36, 0, 23, 0
|25, 44, 0, 0, 0, 55, 0, 0, 15, 0, 62, 18, 40, 0, 0, 0, 0, 0, 0, 11, 0, 0, 0, 0, 0, 0, 34, 0, 0, 10, 19, 0, 56, 0, 0, 0, 0, 0, 9, 0, 57, 7, 0, 51, 0, 0, 30, 0, 21, 0, 0, 47, 0, 14, 0, 0, 0, 0, 31, 0, 0, 0, 0, 48
|0, 0, 0, 0, 43, 0, 0, 57, 0, 0, 8, 0, 0, 7, 0, 37, 0, 0, 27, 0, 0, 0, 10, 0, 0, 49, 0, 22, 0, 0, 3, 0, 44, 0, 0, 15, 0, 0, 0, 14, 0, 0, 0, 0, 0, 0, 0, 0, 32, 0, 61, 34, 0, 13, 5, 0, 17, 0, 0, 0, 0, 0, 64, 0
|0, 0, 0, 9, 49, 46, 48, 33, 0, 0, 0, 10, 0, 0, 0, 52, 42, 0, 0, 0, 0, 0, 21, 0, 0, 0, 39, 0, 0, 0, 0, 0, 0, 0, 0, 0, 0, 0, 0, 11, 64, 0, 1, 0, 0, 0, 0, 56, 0, 62, 0, 41, 0, 0, 0, 0, 0, 0, 24, 0, 0, 35, 58, 0
|0, 0, 0, 0, 0, 45, 8, 21, 0, 30, 0, 0, 0, 26, 0, 0, 0, 1, 0, 17, 0, 5, 0, 0, 0, 0, 0, 57, 0, 13, 14, 0, 0, 0, 0, 0, 0, 0, 29, 2, 0, 0, 0, 0, 0, 27, 0, 9, 0, 0, 37, 7, 0, 0, 0, 0, 0, 0, 0, 0, 4, 0, 0, 0
|0, 0, 0, 0, 27, 0, 0, 0, 0, 0, 35, 16, 0, 9, 44, 0, 0, 0, 0, 0, 0, 0, 0, 62, 0, 0, 0, 40, 64, 0, 0, 38, 0, 0, 0, 0, 46, 45, 0, 0, 0, 0, 0, 0, 0, 0, 0, 41, 0, 42, 0, 0, 0, 17, 24, 0, 0, 11, 0, 0, 0, 0, 0, 0
|0, 0, 0, 0, 0, 0, 32, 0, 0, 0, 0, 6, 0, 0, 19, 0, 0, 48, 0, 39, 20, 0, 0, 0, 0, 0, 0, 27, 16, 0, 0, 0, 0, 0, 0, 58, 0, 0, 0, 26, 0, 14, 0, 0, 0, 0, 0, 0, 0, 0, 0, 0, 22, 0, 9, 0, 0, 0, 0, 0, 0, 54, 0, 0
|0, 0, 0, 0, 0, 31, 0, 0, 0, 0, 0, 0, 64, 0, 28, 0, 0, 0, 0, 0, 24, 3, 36, 16, 0, 0, 0, 0, 0, 0, 29, 0, 0, 0, 0, 0, 0, 0, 0, 0, 0, 63, 42, 0, 0, 47, 26, 0, 0, 8, 46, 0, 58, 12, 0, 0, 0, 0, 2, 0, 0, 6, 0, 0
|0, 45, 0, 0, 11, 0, 23, 0, 0, 63, 0, 25, 0, 0, 0, 47, 0, 0, 64, 0, 0, 0, 0, 40, 13, 0, 0, 26, 0, 57, 0, 0, 18, 59, 0, 0, 0, 8, 0, 56, 0, 10, 39, 0, 0, 0, 41, 0, 0, 0, 0, 28, 0, 0, 0, 0, 20, 0, 0, 0, 0, 2, 0, 12
|0, 15, 31, 0, 0, 40, 13, 0, 0, 32, 64, 0, 0, 8, 58, 0, 57, 0, 0, 0, 0, 0, 0, 0, 0, 0, 0, 25, 0, 0, 9, 39, 0, 10, 0, 0, 24, 0, 38, 6, 63, 0, 0, 0, 0, 0, 20, 0, 0, 0, 0, 0, 0, 4, 0, 60, 0, 0, 45, 30, 0, 1, 0, 0
|0, 0, 0, 0, 0, 0, 0, 0, 5, 34, 0, 0, 0, 0, 2, 0, 50, 0, 20, 0, 0, 0, 0, 0, 0, 0, 0, 0, 19, 0, 0, 0, 0, 0, 0, 62, 31, 0, 0, 0, 0, 27, 0, 0, 0, 0, 33, 0, 12, 56, 25, 0, 55, 0, 22, 0, 0, 18, 0, 0, 0, 0, 39, 0
|30, 54, 0, 38, 0, 0, 0, 0, 0, 40, 0, 27, 10, 0, 0, 15, 0, 0, 0, 0, 0, 0, 0, 0, 0, 0, 0, 0, 53, 0, 58, 16, 0, 0, 2, 0, 29, 0, 0, 0, 0, 0, 0, 0, 0, 0, 0, 0, 45, 31, 0, 0, 0, 0, 0, 0, 62, 32, 50, 46, 0, 28, 0, 0
|0, 0, 0, 0, 0, 0, 0, 0, 0, 33, 14, 0, 0, 0, 0, 0, 0, 0, 0, 0, 0, 0, 28, 0, 23, 10, 0, 0, 59, 0, 32, 0, 0, 37, 0, 0, 0, 26, 0, 0, 0, 0, 0, 18, 0, 0, 0, 0, 0, 48, 0, 8, 0, 0, 0, 0, 0, 0, 0, 0, 0, 0, 0, 0
|0, 14, 0, 48, 0, 0, 52, 53, 0, 0, 0, 0, 0, 0, 0, 0, 0, 63, 0, 0, 0, 0, 46, 32, 0, 0, 0, 0, 27, 0, 0, 0, 0, 0, 0, 20, 22, 0, 0, 5, 6, 0, 0, 0, 40, 0, 0, 0, 0, 0, 34, 0, 57, 58, 0, 0, 0, 0, 0, 25, 59, 0, 26, 0
|18, 0, 0, 33, 0, 0, 63, 0, 0, 0, 0, 0, 59, 0, 0, 56, 8, 0, 23, 51, 0, 0, 0, 0, 0, 0, 36, 0, 50, 17, 0, 0, 0, 0, 12, 60, 64, 0, 0, 0, 14, 46, 0, 0, 0, 0, 0, 0, 26, 0, 62, 0, 0, 0, 0, 0, 0, 0, 0, 0, 0, 0, 16, 0
|0, 0, 0, 42, 0, 49, 0, 0, 0, 0, 43, 0, 16, 0, 0, 11, 22, 39, 0, 0, 2, 52, 0, 0, 0, 0, 0, 20, 55, 60, 0, 12, 0, 0, 0, 51, 0, 0, 0, 0, 0, 0, 0, 0, 0, 0, 0, 0, 54, 0, 0, 10, 0, 0, 0, 5, 0, 0, 48, 0, 40, 0, 0, 0
|14, 0, 0, 19, 45, 0, 0, 0, 4, 0, 0, 0, 0, 0, 35, 0, 0, 0, 0, 0, 0, 33, 0, 0, 0, 0, 25, 0, 40, 0, 52, 0, 0, 0, 3, 0, 0, 63, 26, 0, 62, 0, 0, 0, 44, 59, 0, 8, 0, 0, 0, 0, 0, 0, 0, 0, 0, 0, 0, 49, 0, 30, 11, 24
|0, 5, 0, 0, 0, 0, 49, 0, 0, 38, 0, 0, 0, 0, 0, 0, 45, 50, 0, 0, 0, 56, 0, 0, 10, 0, 0, 0, 0, 0, 0, 53, 0, 42, 0, 12, 0, 0, 0, 54, 11, 0, 0, 0, 0, 0, 0, 0, 0, 14, 60, 0, 0, 41, 0, 25, 0, 0, 0, 0, 0, 23, 0, 8
|0, 0, 27, 0, 0, 0, 0, 0, 3, 0, 21, 0, 0, 0, 0, 0, 48, 0, 0, 0, 0, 44, 0, 0, 0, 26, 0, 14, 0, 54, 0, 0, 36, 0, 0, 0, 60, 24, 0, 0, 0, 0, 0, 0, 0, 0, 0, 29, 43, 0, 2, 0, 0, 0, 64, 0, 0, 55, 0, 0, 51, 0, 17, 35
|0, 0, 4, 60, 0, 0, 62, 0, 0, 0, 7, 0, 43, 51, 12, 0, 0, 21, 0, 36, 0, 0, 0, 64, 0, 0, 0, 0, 30, 0, 5, 19, 0, 14, 40, 0, 0, 0, 23, 22, 0, 0, 0, 0, 0, 0, 38, 55, 0, 0, 31, 0, 15, 0, 57, 0, 0, 0, 0, 0, 0, 0, 0, 50
|0, 0, 0, 0, 0, 0, 0, 28, 0, 44, 0, 45, 0, 0, 0, 0, 0, 0, 0, 19, 41, 51, 0, 20, 0, 0, 0, 49, 0, 21, 47, 0, 0, 0, 17, 0, 61, 0, 0, 10, 0, 0, 6, 0, 0, 0, 52, 0, 0, 0, 0, 11, 0, 0, 46, 38, 0, 0, 4, 0, 0, 0, 0, 0
|20, 0, 0, 35, 0, 0, 0, 46, 0, 6, 0, 0, 0, 0, 0, 17, 49, 0, 40, 0, 0, 0, 0, 0, 38, 0, 0, 12, 0, 0, 0, 43, 0, 27, 0, 0, 0, 0, 0, 29, 5, 4, 0, 0, 0, 63, 0, 0, 0, 53, 45, 0, 10, 0, 0, 0, 0, 0, 0, 0, 0, 0, 21, 0
|38, 0, 0, 0, 0, 0, 0, 0, 0, 0, 0, 49, 0, 0, 0, 0, 0, 0, 0, 0, 0, 0, 61, 0, 0, 0, 0, 0, 0, 0, 0, 35, 0, 16, 0, 0, 0, 0, 0, 0, 1, 0, 31, 0, 2, 0, 3, 0, 0, 0, 24, 0, 8, 63, 0, 0, 0, 0, 0, 0, 56, 0, 46, 22
|0, 0, 0, 0, 0, 0, 17, 0, 0, 62, 0, 0, 0, 0, 0, 31, 0, 0, 38, 0, 0, 0, 0, 63, 0, 0, 22, 0, 41, 16, 0, 55, 0, 46, 0, 57, 0, 0, 0, 0, 0, 42, 0, 0, 0, 0, 0, 0, 28, 0, 0, 0, 0, 0, 0, 0, 0, 0, 0, 0, 0, 52, 0, 53
|34, 0, 0, 0, 4, 0, 0, 59, 0, 0, 0, 0, 41, 33, 0, 16, 0, 0, 0, 0, 0, 0, 56, 6, 24, 0, 53, 0, 0, 47, 0, 9, 0, 58, 10, 0, 0, 0, 0, 0, 0, 0, 37, 22, 38, 0, 32, 51, 29, 13, 0, 0, 0, 0, 19, 0, 0, 54, 35, 0, 1, 0, 0, 0
|0, 0, 0, 0, 14, 0, 27, 39, 0, 0, 32, 0, 19, 0, 0, 5, 0, 0, 0, 0, 45, 0, 0, 0, 0, 0, 0, 58, 33, 55, 0, 0, 0, 0, 0, 0, 0, 0, 0, 8, 0, 41, 0, 0, 0, 0, 0, 0, 10, 0, 11, 48, 4, 0, 0, 0, 0, 0, 61, 0, 0, 0, 0, 62
|0, 9, 42, 23, 0, 6, 38, 0, 0, 0, 37, 0, 0, 0, 17, 0, 51, 0, 0, 0, 0, 15, 0, 0, 0, 62, 0, 0, 29, 0, 0, 0, 25, 0, 0, 0, 0, 0, 0, 45, 60, 36, 0, 0, 0, 0, 0, 0, 8, 0, 40, 0, 0, 0, 58, 55, 0, 0, 44, 0, 0, 0, 0, 0
|0, 49, 50, 29, 0, 11, 54, 0, 10, 0, 0, 0, 0, 0, 0, 0, 2, 0, 0, 0, 0, 0, 0, 0, 32, 0, 0, 0, 39, 0, 48, 0, 0, 0, 0, 0, 0, 0, 0, 0, 0, 0, 0, 0, 0, 0, 0, 27, 0, 0, 0, 0, 0, 0, 0, 0, 0, 0, 0, 0, 8, 0, 0, 23
|0, 61, 0, 0, 0, 0, 64, 0, 0, 35, 0, 0, 0, 62, 55, 36, 0, 0, 0, 0, 32, 0, 0, 0, 43, 56, 0, 0, 0, 19, 0, 0, 0, 0, 0, 0, 0, 0, 27, 0, 0, 39, 0, 0, 33, 0, 0, 0, 14, 0, 50, 0, 0, 0, 0, 0, 0, 0, 20, 18, 25, 47, 7, 29
|0, 0, 0, 10, 0, 0, 0, 0, 0, 0, 0, 0, 0, 21, 0, 13, 11, 0, 0, 0, 0, 64, 0, 42, 0, 0, 1, 0, 0, 46, 0, 0, 0, 0, 0, 0, 26, 0, 2, 0, 0, 31, 0, 0, 18, 0, 0, 48, 0, 0, 0, 0, 0, 0, 0, 33, 41, 36, 0, 0, 32, 0, 0, 19
|0, 0, 0, 0, 0, 0, 0, 0, 0, 29, 0, 0, 30, 0, 42, 0, 0, 0, 44, 61, 0, 39, 0, 0, 4, 38, 0, 37, 0, 0, 25, 0, 35, 0, 0, 36, 14, 0, 0, 0, 0, 23, 0, 0, 5, 0, 0, 0, 41, 0, 0, 0, 16, 27, 2, 0, 9, 0, 57, 0, 0, 55, 0, 0
|0, 8, 63, 0, 0, 18, 0, 60, 48, 26, 0, 47, 0, 0, 0, 0, 0, 52, 7, 0, 13, 54, 33, 0, 0, 0, 27, 42, 0, 0, 0, 5, 53, 0, 0, 0, 0, 0, 0, 28, 0, 0, 16, 34, 0, 0, 0, 64, 0, 0, 0, 0, 0, 0, 0, 62, 11, 0, 12, 0, 0, 0, 0, 0
|0, 58, 60, 0, 0, 0, 5, 0, 29, 0, 0, 0, 0, 0, 15, 0, 0, 0, 0, 0, 0, 0, 0, 0, 59, 0, 64, 16, 0, 0, 0, 0, 0, 0, 63, 0, 37, 0, 0, 17, 0, 0, 41, 0, 0, 51, 0, 0, 0, 35, 0, 52, 0, 62, 0, 0, 0, 0, 0, 0, 34, 7, 0, 0
|0, 0, 0, 0, 0, 0, 0, 0, 0, 0, 0, 58, 0, 0, 0, 35, 0, 0, 10, 0, 3, 0, 30, 0, 53, 0, 0, 48, 56, 0, 0, 0, 0, 0, 0, 0, 0, 0, 0, 0, 0, 21, 0, 0, 0, 0, 0, 0, 0, 0, 17, 43, 0, 22, 0, 0, 33, 0, 0, 12, 0, 63, 0, 0
|0, 0, 0, 0, 0, 33, 46, 0, 0, 0, 0, 0, 0, 40, 22, 6, 0, 0, 13, 0, 7, 0, 0, 58, 0, 0, 12, 0, 37, 0, 0, 0, 41, 0, 64, 0, 9, 38, 52, 55, 53, 0, 0, 0, 0, 0, 0, 19, 0, 0, 0, 0, 3, 0, 0, 0, 0, 0, 0, 0, 0, 56, 0, 0
|0, 0, 0, 0, 0, 0, 0, 0, 41, 0, 20, 0, 0, 0, 0, 0, 0, 0, 17, 0, 0, 0, 0, 0, 0, 0, 0, 62, 0, 0, 0, 0, 61, 51, 46, 0, 0, 0, 44, 0, 0, 6, 58, 0, 0, 0, 0, 33, 34, 0, 0, 0, 0, 0, 0, 12, 0, 0, 0, 0, 48, 50, 0, 25
|42, 0, 0, 0, 17, 0, 0, 0, 53, 3, 0, 0, 0, 30, 0, 0, 0, 0, 0, 0, 0, 20, 0, 0, 0, 43, 0, 19, 38, 0, 50, 22, 0, 0, 0, 0, 0, 0, 16, 0, 0, 0, 0, 0, 0, 0, 10, 0, 0, 0, 0, 0, 0, 0, 0, 0, 0, 0, 0, 0, 0, 0, 0, 51
|0, 0, 0, 0, 0, 0, 3, 0, 11, 0, 19, 0, 56, 16, 51, 0, 0, 0, 63, 0, 39, 0, 0, 0, 0, 0, 0, 21, 7, 0, 60, 0, 0, 0, 0, 0, 0, 0, 0, 0, 0, 0, 38, 0, 0, 0, 0, 0, 53, 0, 0, 55, 0, 20, 0, 0, 0, 0, 0, 0, 0, 15, 43, 0
|0, 55, 0, 0, 0, 59, 0, 0, 0, 43, 0, 54, 0, 44, 0, 57, 0, 61, 0, 33, 27, 11, 0, 0, 0, 0, 41, 0, 0, 0, 0, 0, 0, 0, 0, 0, 0, 0, 0, 18, 0, 0, 24, 2, 0, 0, 0, 0, 0, 0, 0, 49, 0, 0, 0, 0, 35, 0, 0, 0, 45, 38, 0, 58
|56, 63, 0, 0, 0, 0, 0, 0, 0, 0, 0, 39, 0, 10, 0, 23, 0, 43, 28, 0, 0, 0, 0, 0, 0, 0, 0, 0, 0, 0, 0, 0, 0, 34, 0, 0, 53, 0, 0, 0, 0, 44, 0, 0, 7, 0, 0, 0, 38, 6, 41, 0, 0, 57, 47, 11, 0, 0, 0, 36, 60, 0, 0, 0
|0, 56, 0, 0, 0, 0, 0, 0, 0, 0, 0, 0, 21, 0, 0, 0, 0, 0, 0, 0, 0, 32, 0, 0, 0, 0, 26, 0, 0, 0, 0, 45, 0, 2, 0, 0, 0, 0, 11, 0, 28, 30, 0, 0, 0, 20, 0, 0, 0, 0, 0, 0, 0, 10, 36, 40, 0, 3, 0, 23, 0, 0, 4, 0
|22, 0, 0, 0, 0, 0, 0, 54, 0, 0, 0, 60, 0, 0, 0, 1, 0, 57, 0, 0, 0, 0, 0, 0, 0, 42, 0, 0, 10, 0, 37, 2, 0, 0, 4, 0, 32, 0, 0, 0, 0, 13, 0, 0, 0, 38, 0, 43, 0, 0, 0, 20, 48, 0, 0, 0, 0, 0, 0, 0, 24, 0, 0, 26
|0, 0, 0, 0, 0, 0, 0, 29, 0, 0, 0, 0, 36, 0, 0, 9, 0, 0, 52, 0, 0, 0, 0, 0, 41, 0, 6, 28, 0, 63, 0, 0, 0, 26, 0, 0, 0, 0, 13, 40, 0, 0, 0, 0, 4, 0, 0, 0, 51, 0, 0, 59, 0, 0, 0, 0, 0, 0, 30, 39, 0, 0, 0, 44
|0, 0, 21, 0, 0, 60, 0, 0, 0, 0, 0, 0, 0, 37, 0, 0, 0, 0, 0, 0, 0, 0, 0, 0, 17, 0, 0, 0, 0, 0, 0, 0, 0, 0, 0, 0, 0, 0, 0, 31, 3, 0, 0, 0, 0, 24, 0, 0, 0, 0, 13, 0, 0, 0, 27, 0, 0, 19, 0, 0, 0, 29, 53, 0
|0, 0, 38, 0, 6, 24, 0, 23, 0, 0, 0, 0, 0, 4, 0, 10, 0, 0, 0, 0, 59, 0, 54, 0, 0, 0, 11, 0, 0, 32, 53, 0, 0, 0, 48, 0, 0, 0, 60, 0, 55, 0, 0, 0, 0, 0, 0, 0, 0, 3, 0, 0, 0, 0, 63, 30, 28, 7, 0, 0, 0, 9, 33, 0
|0, 62, 5, 0, 46, 17, 0, 0, 0, 0, 63, 0, 0, 0, 0, 0, 0, 60, 47, 38, 0, 42, 0, 0, 0, 0, 0, 0, 0, 0, 0, 49, 0, 0, 52, 0, 3, 0, 36, 39, 41, 37, 0, 0, 31, 0, 0, 0, 4, 0, 0, 61, 32, 0, 0, 0, 56, 0, 40, 0, 58, 0, 0, 0
|0, 26, 0, 0, 0, 0, 0, 0, 2, 0, 0, 29, 0, 5, 0, 0, 0, 12, 0, 0, 0, 53, 0, 0, 0, 0, 50, 0, 0, 31, 59, 0, 37, 0, 0, 0, 0, 41, 24, 0, 0, 0, 0, 0, 58, 0, 61, 0, 0, 0, 56, 0, 0, 21, 0, 14, 0, 0, 0, 0, 0, 0, 34, 0
|0, 0, 0, 0, 52, 0, 0, 0, 44, 19, 30, 56, 0, 0, 43, 0, 41, 0, 0, 0, 0, 0, 0, 0, 0, 0, 0, 1, 0, 8, 0, 58, 28, 0, 0, 0, 0, 0, 0, 0, 0, 40, 0, 14, 0, 0, 39, 0, 0, 0, 26, 0, 0, 0, 0, 0, 0, 0, 0, 0, 0, 0, 0, 0
|0, 0, 0, 0, 0, 0, 0, 10, 0, 0, 22, 0, 31, 53, 0, 0, 0, 0, 51, 29, 0, 0, 45, 0, 21, 0, 0, 0, 0, 30, 7, 0, 64, 20, 0, 0, 0, 0, 0, 0, 12, 0, 0, 0, 0, 0, 0, 58, 5, 0, 6, 0, 0, 0, 0, 0, 55, 60, 0, 0, 0, 0, 0, 18
|0, 0, 0, 27, 0, 0, 0, 0, 0, 0, 0, 14, 0, 0, 40, 0, 0, 0, 0, 0, 0, 0, 0, 0, 0, 0, 35, 0, 25, 0, 0, 0, 48, 29, 0, 0, 0, 0, 0, 0, 52, 26, 45, 0, 0, 31, 0, 0, 0, 0, 0, 0, 0, 0, 10, 0, 0, 28, 0, 0, 53, 34, 0, 41
|0, 0, 0, 0, 8, 0, 45, 44, 0, 61, 54, 0, 29, 0, 0, 0, 60, 0, 0, 0, 36, 0, 0, 0, 0, 0, 0, 0, 0, 0, 0, 0, 24, 0, 0, 0, 50, 0, 0, 0, 0, 0, 0, 0, 0, 22, 0, 0, 0, 0, 0, 0, 40, 26, 11, 0, 0, 0, 0, 0, 49, 46, 0, 0
|0, 0, 24, 46, 0, 0, 0, 49, 0, 0, 47, 52, 34, 0, 0, 0, 0, 0, 0, 0, 0, 0, 0, 21, 0, 0, 0, 0, 57, 43, 0, 17, 0, 0, 36, 0, 0, 0, 0, 7, 44, 0, 2, 35, 0, 41, 5, 0, 0, 0, 0, 0, 0, 59, 0, 0, 6, 0, 33, 45, 0, 0, 0, 0
|0, 42, 0, 0, 0, 34, 0, 0, 0, 0, 0, 0, 0, 0, 48, 51, 58, 0, 0, 0, 0, 0, 50, 0, 45, 11, 37, 0, 3, 0, 0, 0, 0, 0, 31, 49, 0, 0, 0, 0, 40, 0, 0, 0, 27, 28, 0, 24, 0, 0, 0, 0, 21, 8, 0, 0, 0, 0, 0, 19, 0, 26, 0, 9
|0, 0, 19, 58, 0, 0, 0, 0, 43, 28, 0, 0, 0, 0, 0, 50, 63, 0, 0, 48, 0, 7, 39, 0, 0, 0, 0, 18, 0, 0, 56, 59, 0, 0, 25, 61, 55, 0, 0, 1, 10, 0, 3, 0, 36, 29, 0, 30, 52, 23, 20, 0, 24, 0, 0, 0, 0, 42, 0, 0, 0, 0, 0, 0
|59, 0, 1, 20, 0, 0, 43, 0, 0, 16, 0, 0, 60, 12, 0, 26, 0, 0, 0, 0, 61, 0, 0, 3, 0, 0, 0, 0, 28, 0, 0, 27, 0, 45, 21, 0, 0, 15, 6, 0, 0, 8, 0, 4, 0, 0, 0, 0, 0, 0, 0, 0, 0, 0, 0, 0, 0, 0, 10, 0, 0, 31, 0, 0
|0, 0, 0, 0, 0, 0, 21, 0, 0, 0, 0, 7, 8, 0, 0, 0, 0, 0, 0, 0, 0, 6, 24, 0, 0, 0, 0, 53, 52, 0, 0, 20, 5, 0, 0, 63, 0, 0, 0, 51, 47, 0, 14, 38, 0, 0, 0, 34, 22, 45, 0, 0, 43, 0, 0, 0, 0, 0, 0, 58, 54, 0, 32, 4|];