order = 8;
grid = [|0, 0, 62, 2, 0, 0, 0, 0, 26, 45, 0, 3, 0, 0, 0, 0, 0, 0, 0, 10, 0, 0, 53, 0, 20, 0, 0, 0, 41, 0, 0, 0, 0, 0, 0, 0, 36, 0, 0, 0, 0, 0, 0, 63, 0, 0, 0, 0, 0, 0, 7, 0, 37, 56, 0, 61, 0, 0, 0, 0, 0, 0, 0, 51
|0, 0, 0, 0, 0, 0, 36, 55, 0, 0, 4, 31, 0, 0, 49, 33, 34, 12, 0, 9, 27, 28, 51, 0, 23, 0, 0, 0, 0, 0, 0, 44, 63, 0, 0, 0, 0, 0, 26, 0, 29, 62, 7, 0, 3, 0, 0, 59, 0, 0, 0, 16, 0, 0, 0, 0, 39, 0, 0, 0, 35, 19, 24, 0
|0, 0, 18, 0, 47, 45, 0, 0, 0, 0, 8, 28, 32, 61, 0, 0, 0, 0, 0, 0, 0, 38, 20, 0, 0, 0, 0, 0, 0, 0, 63, 0, 0, 0, 0, 0, 0, 42, 0, 0, 0, 0, 0, 40, 0, 0, 44, 0, 17, 0, 0, 39, 0, 0, 4, 0, 64, 0, 16, 0, 0, 10, 57, 0
|0, 0, 23, 0, 26, 0, 0, 30, 43, 0, 0, 0, 27, 59, 34, 40, 0, 0, 18, 0, 1, 47, 22, 0, 0, 25, 0, 0, 0, 0, 0, 0, 39, 0, 0, 0, 0, 0, 0, 62, 0, 0, 5, 0, 0, 12, 0, 50, 0, 0, 0, 15, 0, 0, 0, 0, 0, 4, 56, 0, 52, 0, 41, 13
|0, 0, 0, 0, 28, 51, 0, 0, 0, 0, 0, 0, 1, 0, 9, 0, 23, 0, 0, 30, 0, 0, 0, 35, 0, 0, 0, 0, 40, 0, 0, 0, 17, 20, 0, 0, 14, 0, 31, 0, 0, 0, 0, 0, 24, 0, 36, 0, 0, 10, 0, 0, 0, 0, 0, 0, 0, 0, 0, 0, 37, 22, 45, 0
|0, 0, 0, 0, 13, 41, 31, 0, 0, 0, 0, 0, 22, 0, 44, 0, 25, 0, 0, 59, 54, 39, 19, 0, 0, 0, 0, 0, 0, 0, 0, 37, 0, 23, 0, 0, 40, 0, 35, 0, 0, 0, 0, 0, 0, 0, 0, 0, 1, 0, 0, 0, 33, 46, 60, 0, 0, 0, 0, 0, 0, 0, 0, 8
|0, 20, 52, 0, 0, 61, 0, 8, 60, 37, 0, 0, 0, 13, 0, 2, 0, 7, 0, 0, 44, 0, 0, 0, 1, 0, 39, 0, 0, 0, 0, 0, 0, 0, 0, 0, 0, 21, 0, 0, 16, 27, 0, 0, 0, 0, 49, 0, 35, 0, 0, 31, 0, 32, 0, 0, 33, 42, 0, 3, 0, 18, 0, 0
|0, 21, 60, 0, 0, 0, 0, 1, 0, 24, 39, 0, 41, 0, 0, 56, 46, 16, 3, 45, 62, 0, 0, 0, 0, 30, 0, 0, 33, 0, 0, 0, 0, 0, 0, 0, 0, 53, 0, 0, 47, 0, 0, 64, 23, 31, 26, 15, 19, 27, 59, 0, 28, 0, 0, 0, 0, 43, 0, 58, 0, 5, 40, 0
|0, 0, 0, 0, 0, 0, 0, 0, 0, 0, 53, 0, 0, 0, 14, 0, 0, 37, 0, 0, 0, 11, 0, 0, 0, 0, 0, 0, 0, 0, 50, 0, 0, 0, 0, 0, 62, 0, 0, 7, 31, 0, 0, 0, 28, 0, 0, 0, 41, 0, 0, 32, 0, 0, 0, 0, 20, 0, 57, 0, 0, 0, 0, 0
|0, 0, 0, 12, 0, 0, 0, 0, 0, 0, 27, 0, 0, 0, 0, 0, 56, 0, 0, 0, 35, 0, 28, 51, 32, 14, 0, 0, 49, 0, 0, 0, 0, 63, 0, 0, 0, 0, 0, 20, 0, 0, 58, 0, 55, 0, 7, 57, 60, 0, 0, 0, 0, 9, 0, 0, 41, 0, 0, 0, 0, 0, 0, 0
|0, 33, 0, 0, 0, 4, 0, 0, 0, 0, 0, 0, 0, 0, 0, 8, 63, 0, 0, 5, 0, 0, 14, 0, 0, 0, 0, 0, 13, 0, 0, 27, 55, 18, 38, 0, 0, 0, 0, 0, 2, 0, 0, 0, 64, 0, 19, 0, 44, 0, 0, 0, 0, 0, 30, 0, 7, 0, 0, 0, 0, 0, 0, 0
|0, 0, 0, 0, 0, 18, 0, 0, 0, 0, 44, 0, 60, 62, 0, 29, 0, 61, 0, 7, 0, 0, 0, 0, 0, 51, 0, 0, 0, 0, 0, 0, 0, 0, 0, 0, 0, 46, 64, 0, 0, 0, 3, 0, 0, 0, 4, 47, 0, 0, 0, 0, 21, 0, 0, 0, 0, 0, 0, 0, 0, 13, 38, 0
|0, 0, 0, 43, 0, 0, 0, 0, 0, 0, 0, 0, 0, 0, 0, 15, 39, 54, 0, 23, 0, 0, 45, 0, 0, 0, 25, 40, 0, 0, 1, 0, 0, 0, 0, 0, 16, 13, 0, 0, 0, 0, 0, 0, 0, 27, 29, 0, 37, 0, 0, 0, 0, 0, 0, 0, 0, 0, 61, 0, 0, 34, 30, 0
|0, 0, 0, 0, 0, 0, 0, 11, 0, 64, 0, 0, 13, 0, 59, 49, 0, 17, 0, 0, 0, 0, 0, 0, 0, 0, 35, 0, 0, 0, 0, 12, 0, 0, 27, 0, 0, 0, 0, 42, 0, 0, 0, 61, 0, 0, 8, 0, 0, 14, 53, 0, 0, 0, 0, 40, 0, 63, 0, 0, 26, 2, 58, 44
|0, 38, 2, 50, 0, 0, 0, 0, 0, 0, 0, 0, 0, 52, 0, 58, 0, 0, 0, 0, 15, 0, 0, 0, 0, 0, 0, 0, 29, 0, 0, 36, 0, 0, 14, 0, 41, 33, 0, 0, 6, 32, 0, 0, 0, 0, 0, 0, 34, 49, 0, 0, 0, 0, 18, 0, 0, 0, 0, 0, 0, 0, 0, 40
|16, 0, 0, 14, 0, 0, 0, 0, 36, 0, 43, 56, 0, 0, 0, 0, 0, 0, 0, 0, 64, 0, 0, 0, 31, 0, 38, 0, 34, 0, 2, 17, 57, 0, 0, 0, 0, 0, 61, 0, 0, 33, 0, 30, 0, 62, 0, 0, 0, 0, 58, 0, 42, 0, 0, 35, 22, 0, 10, 0, 0, 0, 0, 0
|0, 0, 0, 0, 0, 0, 54, 0, 41, 0, 0, 0, 0, 0, 57, 0, 53, 0, 0, 0, 42, 0, 0, 64, 0, 0, 0, 0, 0, 0, 0, 0, 0, 0, 2, 0, 0, 50, 62, 0, 0, 0, 0, 0, 0, 0, 0, 0, 0, 0, 0, 0, 0, 0, 0, 0, 0, 28, 0, 0, 43, 8, 0, 0
|0, 0, 0, 56, 0, 0, 0, 0, 0, 10, 22, 0, 0, 0, 51, 0, 0, 5, 41, 47, 0, 0, 48, 18, 14, 0, 0, 44, 0, 0, 0, 0, 0, 0, 0, 0, 52, 0, 0, 0, 0, 0, 0, 53, 0, 60, 0, 0, 30, 0, 15, 0, 0, 33, 0, 0, 0, 40, 0, 0, 0, 17, 62, 0
|0, 0, 45, 0, 64, 0, 0, 0, 0, 0, 0, 30, 0, 58, 23, 0, 0, 3, 14, 0, 0, 0, 0, 25, 0, 0, 0, 7, 0, 0, 0, 61, 41, 0, 0, 0, 0, 27, 0, 0, 0, 0, 0, 0, 0, 0, 10, 29, 0, 53, 20, 0, 0, 49, 0, 0, 0, 0, 0, 0, 0, 0, 0, 9
|49, 0, 14, 0, 0, 52, 2, 0, 0, 0, 0, 29, 0, 0, 0, 13, 0, 0, 58, 0, 0, 0, 34, 0, 0, 0, 0, 38, 0, 19, 9, 0, 0, 0, 60, 0, 0, 0, 0, 0, 0, 0, 0, 0, 56, 0, 0, 22, 0, 0, 0, 0, 0, 0, 0, 0, 27, 0, 0, 0, 0, 11, 36, 0
|0, 40, 0, 0, 0, 0, 0, 32, 59, 43, 0, 21, 0, 0, 27, 53, 38, 0, 0, 0, 0, 7, 0, 0, 0, 0, 0, 63, 0, 0, 64, 0, 0, 45, 0, 0, 0, 0, 0, 28, 0, 50, 0, 0, 0, 0, 0, 0, 0, 0, 0, 0, 0, 0, 0, 0, 0, 41, 30, 0, 0, 0, 0, 20
|0, 41, 0, 0, 0, 0, 29, 44, 3, 0, 0, 0, 38, 0, 0, 0, 0, 45, 0, 0, 0, 49, 0, 30, 60, 0, 0, 0, 0, 1, 35, 0, 0, 0, 0, 0, 12, 0, 0, 64, 0, 43, 0, 46, 0, 11, 5, 0, 58, 0, 0, 0, 0, 40, 0, 0, 0, 25, 51, 33, 13, 0, 0, 0
|0, 0, 37, 0, 0, 0, 0, 0, 0, 49, 0, 0, 0, 0, 42, 7, 29, 0, 0, 0, 26, 13, 0, 28, 34, 0, 18, 51, 0, 50, 0, 0, 58, 0, 0, 0, 0, 0, 0, 40, 0, 4, 38, 0, 0, 59, 0, 0, 0, 0, 17, 23, 0, 0, 0, 0, 46, 5, 0, 0, 48, 0, 52, 0
|0, 0, 0, 0, 42, 0, 0, 0, 0, 0, 0, 50, 0, 14, 0, 0, 0, 33, 0, 17, 0, 0, 0, 0, 0, 0, 0, 0, 0, 0, 49, 0, 0, 0, 4, 0, 23, 0, 0, 0, 0, 0, 41, 8, 0, 0, 0, 30, 0, 0, 0, 0, 0, 0, 0, 0, 0, 0, 0, 19, 0, 0, 0, 55
|0, 50, 0, 49, 0, 0, 0, 53, 0, 0, 35, 0, 0, 0, 0, 18, 0, 0, 0, 0, 0, 22, 39, 13, 0, 0, 36, 32, 31, 0, 0, 0, 0, 0, 0, 0, 48, 0, 0, 19, 0, 0, 0, 0, 37, 33, 0, 0, 0, 42, 0, 0, 40, 11, 0, 0, 0, 0, 0, 0, 0, 0, 43, 0
|0, 0, 11, 0, 29, 0, 0, 0, 0, 0, 57, 0, 44, 0, 0, 0, 61, 0, 28, 8, 0, 0, 0, 9, 0, 0, 0, 0, 0, 0, 0, 0, 0, 0, 39, 0, 0, 0, 0, 38, 0, 3, 0, 0, 30, 0, 0, 56, 0, 64, 60, 0, 0, 0, 26, 0, 0, 0, 0, 0, 49, 0, 0, 52
|0, 0, 0, 0, 41, 0, 0, 0, 0, 0, 3, 0, 39, 0, 0, 0, 0, 0, 0, 0, 0, 0, 0, 0, 0, 0, 61, 0, 0, 0, 44, 0, 0, 0, 0, 0, 0, 0, 52, 16, 11, 0, 0, 0, 0, 0, 0, 0, 0, 20, 0, 0, 0, 0, 24, 0, 51, 59, 0, 0, 0, 0, 0, 0
|38, 0, 0, 0, 44, 0, 0, 0, 0, 0, 0, 0, 29, 0, 0, 0, 0, 0, 0, 25, 0, 0, 0, 0, 0, 0, 0, 5, 0, 0, 28, 0, 14, 41, 0, 0, 0, 58, 0, 0, 0, 0, 0, 0, 62, 0, 35, 0, 0, 23, 0, 0, 0, 0, 56, 0, 54, 0, 0, 0, 20, 0, 0, 0
|0, 0, 0, 0, 0, 0, 0, 9, 1, 0, 12, 10, 0, 43, 0, 0, 0, 0, 0, 0, 0, 0, 17, 0, 25, 0, 29, 11, 0, 38, 0, 0, 0, 0, 0, 35, 63, 0, 40, 55, 0, 64, 2, 0, 27, 0, 0, 20, 0, 41, 0, 53, 0, 0, 0, 0, 0, 44, 0, 61, 8, 0, 0, 0
|43, 0, 0, 61, 0, 0, 16, 0, 0, 0, 0, 38, 31, 0, 5, 0, 0, 0, 0, 0, 0, 0, 0, 0, 0, 54, 0, 0, 0, 0, 52, 41, 0, 0, 0, 60, 0, 0, 0, 0, 0, 0, 0, 25, 0, 0, 0, 0, 0, 0, 44, 62, 0, 0, 0, 0, 0, 0, 0, 0, 0, 3, 0, 29
|1, 0, 0, 0, 0, 20, 39, 51, 16, 0, 14, 2, 4, 0, 28, 0, 41, 0, 0, 0, 0, 21, 0, 7, 0, 0, 0, 60, 0, 27, 23, 43, 5, 50, 0, 0, 0, 0, 0, 0, 10, 0, 0, 55, 26, 0, 0, 0, 0, 58, 0, 37, 0, 0, 0, 0, 6, 0, 0, 11, 0, 0, 56, 0
|60, 0, 0, 19, 35, 42, 0, 0, 0, 0, 0, 0, 0, 0, 0, 0, 16, 0, 0, 48, 45, 44, 0, 62, 0, 56, 10, 20, 0, 0, 0, 0, 0, 0, 0, 0, 0, 0, 0, 0, 0, 0, 0, 0, 0, 0, 24, 21, 0, 0, 43, 0, 0, 0, 0, 0, 0, 0, 0, 0, 0, 41, 0, 2
|0, 2, 53, 0, 0, 0, 0, 0, 9, 0, 34, 0, 0, 47, 0, 0, 0, 0, 0, 0, 24, 5, 0, 0, 0, 38, 0, 0, 45, 0, 0, 0, 0, 0, 17, 0, 0, 0, 0, 0, 0, 0, 16, 0, 0, 0, 0, 8, 28, 0, 0, 50, 49, 18, 12, 0, 0, 0, 0, 63, 0, 0, 0, 0
|28, 0, 0, 52, 0, 33, 0, 60, 22, 41, 0, 0, 0, 0, 0, 0, 0, 0, 0, 0, 0, 0, 0, 0, 63, 26, 0, 21, 0, 7, 0, 0, 0, 35, 0, 0, 0, 0, 0, 0, 0, 48, 39, 0, 34, 0, 0, 0, 31, 0, 0, 0, 0, 58, 0, 0, 36, 47, 0, 0, 59, 0, 29, 0
|0, 0, 0, 11, 24, 36, 45, 0, 0, 0, 0, 57, 58, 0, 0, 46, 0, 41, 0, 62, 48, 18, 0, 38, 0, 0, 0, 0, 0, 0, 0, 9, 0, 16, 0, 0, 33, 55, 0, 1, 53, 56, 4, 47, 0, 0, 28, 0, 32, 0, 0, 40, 0, 0, 0, 0, 0, 0, 5, 0, 0, 0, 0, 35
|0, 0, 0, 0, 0, 43, 26, 0, 49, 2, 0, 0, 63, 0, 0, 23, 0, 11, 47, 0, 16, 0, 35, 0, 15, 0, 3, 0, 0, 0, 0, 0, 10, 37, 40, 0, 38, 25, 0, 50, 59, 0, 0, 0, 0, 0, 32, 55, 0, 36, 0, 0, 0, 20, 0, 0, 0, 0, 8, 30, 0, 0, 0, 0
|0, 0, 0, 0, 0, 0, 23, 50, 30, 0, 17, 0, 16, 0, 0, 0, 0, 0, 52, 51, 0, 0, 0, 0, 0, 59, 0, 0, 0, 8, 27, 0, 0, 0, 0, 0, 32, 56, 0, 24, 0, 0, 0, 0, 35, 0, 0, 0, 0, 0, 0, 0, 39, 0, 0, 0, 49, 3, 0, 0, 41, 0, 9, 0
|0, 0, 0, 0, 0, 47, 0, 0, 0, 5, 29, 35, 14, 0, 0, 0, 0, 0, 0, 0, 0, 54, 40, 0, 0, 0, 1, 12, 0, 0, 0, 0, 62, 7, 0, 0, 0, 0, 0, 34, 0, 17, 50, 0, 0, 0, 0, 45, 0, 3, 48, 0, 53, 2, 37, 0, 0, 0, 0, 0, 0, 0, 0, 0
|7, 0, 3, 0, 0, 17, 0, 0, 0, 0, 0, 0, 0, 0, 50, 0, 0, 55, 0, 1, 34, 0, 0, 0, 0, 52, 0, 36, 44, 18, 0, 49, 0, 0, 0, 0, 0, 4, 11, 0, 0, 0, 0, 0, 21, 0, 0, 14, 0, 0, 0, 0, 16, 22, 46, 0, 23, 0, 0, 0, 0, 0, 0, 0
|0, 0, 63, 0, 0, 35, 49, 0, 0, 0, 56, 0, 0, 0, 0, 0, 45, 25, 0, 0, 19, 0, 15, 0, 47, 64, 0, 0, 0, 11, 17, 14, 0, 0, 0, 0, 0, 0, 0, 0, 0, 0, 0, 0, 61, 0, 0, 0, 0, 8, 0, 0, 0, 0, 0, 0, 0, 0, 0, 0, 0, 0, 16, 0
|40, 0, 41, 0, 0, 0, 0, 0, 5, 0, 0, 55, 62, 36, 21, 0, 0, 42, 60, 0, 0, 0, 0, 0, 51, 19, 14, 0, 0, 3, 0, 0, 22, 46, 30, 0, 0, 0, 0, 0, 0, 12, 0, 0, 38, 0, 0, 0, 0, 0, 0, 0, 0, 23, 0, 0, 0, 0, 7, 0, 0, 0, 0, 0
|0, 0, 0, 0, 0, 57, 0, 0, 0, 0, 7, 0, 59, 0, 11, 45, 0, 0, 8, 41, 0, 0, 0, 0, 0, 0, 0, 23, 0, 0, 0, 20, 0, 38, 0, 0, 42, 0, 0, 0, 0, 0, 0, 14, 0, 9, 0, 0, 0, 0, 0, 0, 0, 35, 0, 12, 0, 16, 18, 0, 0, 0, 0, 0
|0, 0, 0, 0, 0, 0, 6, 0, 0, 27, 54, 0, 0, 24, 0, 30, 14, 0, 0, 0, 0, 0, 0, 40, 0, 0, 17, 0, 0, 0, 21, 48, 7, 0, 63, 0, 0, 0, 45, 52, 0, 0, 51, 0, 0, 0, 59, 0, 0, 0, 9, 60, 2, 0, 0, 19, 37, 0, 3, 0, 0, 47, 0, 0
|0, 0, 25, 0, 0, 13, 0, 16, 0, 0, 6, 0, 50, 0, 43, 0, 0, 20, 0, 0, 0, 35, 11, 0, 0, 0, 64, 0, 0, 0, 0, 33, 54, 0, 0, 0, 0, 0, 0, 0, 0, 0, 0, 49, 0, 0, 0, 0, 0, 0, 40, 30, 0, 31, 0, 17, 0, 0, 60, 5, 0, 53, 23, 0
|0, 0, 0, 44, 0, 0, 5, 4, 25, 0, 0, 0, 0, 0, 0, 0, 17, 52, 62, 0, 0, 0, 0, 0, 0, 0, 49, 41, 0, 47, 0, 15, 0, 0, 0, 0, 0, 0, 0, 0, 19, 57, 0, 0, 20, 0, 63, 23, 0, 7, 0, 0, 0, 0, 53, 0, 0, 14, 0, 0, 51, 0, 0, 0
|0, 58, 0, 0, 0, 0, 47, 0, 19, 0, 0, 0, 15, 0, 0, 31, 0, 0, 0, 0, 13, 0, 0, 0, 0, 0, 0, 0, 0, 63, 0, 0, 11, 56, 0, 0, 50, 62, 23, 0, 0, 0, 0, 0, 2, 0, 0, 0, 0, 57, 0, 0, 0, 0, 0, 0, 26, 0, 40, 0, 0, 0, 0, 0
|0, 0, 8, 51, 0, 0, 0, 20, 0, 14, 23, 0, 49, 60, 10, 26, 22, 0, 37, 31, 0, 0, 0, 0, 43, 0, 0, 0, 0, 0, 18, 0, 28, 32, 0, 0, 58, 0, 17, 0, 0, 42, 0, 0, 15, 0, 0, 0, 0, 0, 0, 11, 0, 0, 0, 0, 9, 24, 55, 0, 0, 0, 0, 0
|63, 26, 0, 55, 0, 0, 0, 0, 0, 9, 0, 0, 0, 0, 0, 0, 0, 0, 0, 21, 39, 0, 0, 0, 38, 0, 0, 0, 0, 42, 0, 0, 40, 53, 0, 0, 0, 19, 0, 0, 22, 35, 0, 0, 0, 0, 0, 54, 36, 13, 0, 0, 14, 47, 0, 46, 0, 0, 0, 0, 0, 28, 4, 0
|18, 0, 12, 45, 0, 0, 0, 0, 0, 0, 19, 0, 0, 0, 0, 0, 0, 59, 0, 0, 0, 0, 0, 56, 49, 23, 0, 0, 55, 0, 0, 47, 0, 0, 50, 46, 0, 0, 0, 41, 3, 31, 0, 0, 0, 0, 0, 34, 0, 0, 0, 0, 0, 0, 0, 0, 0, 1, 0, 0, 0, 36, 0, 0
|0, 0, 0, 0, 50, 0, 0, 0, 0, 8, 0, 45, 0, 0, 0, 0, 0, 1, 0, 0, 0, 63, 0, 0, 10, 43, 12, 0, 0, 0, 0, 0, 0, 0, 21, 0, 13, 0, 60, 0, 0, 0, 0, 44, 58, 54, 0, 0, 0, 18, 0, 0, 34, 0, 0, 22, 61, 0, 0, 0, 0, 0, 37, 0
|0, 13, 46, 0, 0, 3, 0, 22, 0, 44, 55, 51, 5, 0, 0, 0, 28, 0, 54, 0, 0, 0, 0, 0, 0, 0, 11, 0, 0, 61, 0, 0, 64, 0, 0, 24, 0, 30, 48, 0, 23, 0, 0, 35, 0, 21, 0, 0, 0, 0, 0, 0, 0, 15, 0, 0, 14, 0, 0, 0, 0, 16, 18, 0
|0, 0, 0, 0, 30, 0, 43, 57, 0, 0, 0, 27, 0, 25, 0, 0, 0, 49, 39, 0, 0, 0, 0, 50, 0, 0, 0, 1, 0, 0, 0, 0, 0, 47, 0, 0, 0, 52, 0, 0, 0, 16, 59, 28, 0, 0, 0, 0, 0, 56, 3, 0, 0, 0, 0, 53, 24, 51, 0, 0, 0, 0, 44, 0
|0, 0, 10, 0, 0, 0, 0, 0, 0, 31, 0, 0, 0, 0, 0, 0, 0, 0, 0, 0, 53, 0, 0, 11, 0, 16, 0, 0, 0, 0, 0, 0, 0, 55, 57, 0, 0, 0, 0, 0, 0, 0, 0, 0, 0, 0, 60, 0, 0, 0, 0, 0, 0, 0, 0, 0, 3, 0, 0, 0, 0, 0, 0, 0
|0, 0, 0, 0, 0, 9, 0, 0, 56, 0, 0, 39, 0, 0, 0, 0, 51, 8, 0, 61, 36, 0, 0, 16, 0, 0, 44, 0, 18, 0, 24, 0, 0, 0, 26, 0, 0, 0, 0, 0, 0, 46, 15, 0, 0, 0, 0, 0, 0, 0, 0, 0, 0, 57, 0, 54, 0, 0, 0, 0, 0, 63, 31, 21
|55, 0, 0, 0, 0, 0, 0, 0, 28, 0, 47, 0, 0, 38, 0, 21, 0, 60, 45, 58, 17, 0, 52, 0, 0, 3, 0, 0, 35, 33, 14, 0, 12, 0, 0, 39, 0, 0, 0, 51, 0, 0, 0, 10, 0, 1, 0, 0, 0, 0, 0, 0, 31, 0, 41, 0, 0, 0, 9, 0, 0, 23, 0, 54
|37, 0, 35, 0, 39, 0, 0, 0, 54, 0, 0, 36, 0, 29, 0, 34, 0, 43, 0, 0, 0, 3, 0, 42, 48, 0, 0, 57, 0, 0, 41, 0, 0, 1, 0, 5, 0, 31, 33, 0, 0, 0, 0, 0, 4, 0, 0, 0, 0, 0, 50, 0, 30, 0, 59, 0, 0, 0, 0, 0, 40, 0, 25, 28
|0, 0, 0, 4, 0, 0, 41, 0, 0, 0, 0, 0, 19, 0, 0, 0, 0, 0, 0, 0, 49, 0, 58, 45, 39, 0, 0, 0, 0, 0, 51, 0, 0, 40, 0, 62, 34, 0, 0, 0, 0, 20, 0, 0, 0, 0, 0, 3, 0, 0, 0, 0, 24, 0, 0, 0, 0, 0, 0, 0, 6, 0, 0, 64
|0, 9, 33, 0, 0, 0, 0, 0, 0, 34, 0, 0, 21, 0, 45, 0, 0, 0, 1, 0, 0, 0, 0, 24, 0, 0, 0, 0, 0, 12, 0, 13, 0, 0, 0, 0, 44, 0, 0, 0, 0, 0, 0, 0, 47, 37, 0, 0, 0, 0, 62, 0, 0, 5, 0, 0, 0, 0, 0, 0, 36, 51, 0, 0
|0, 0, 0, 31, 0, 0, 0, 0, 0, 0, 0, 0, 0, 20, 0, 0, 0, 22, 0, 0, 28, 19, 33, 0, 0, 0, 0, 42, 0, 0, 0, 0, 0, 0, 0, 9, 0, 43, 0, 6, 0, 29, 0, 0, 13, 0, 0, 0, 27, 0, 46, 49, 0, 17, 0, 0, 0, 32, 0, 0, 0, 61, 0, 41
|0, 0, 0, 0, 0, 63, 0, 58, 57, 15, 28, 37, 56, 7, 0, 47, 0, 0, 0, 0, 0, 29, 3, 0, 0, 0, 0, 59, 54, 0, 0, 0, 30, 0, 0, 0, 0, 60, 0, 0, 36, 0, 0, 39, 0, 0, 0, 0, 0, 0, 0, 0, 0, 0, 0, 4, 0, 0, 0, 0, 0, 0, 0, 0
|0, 0, 32, 0, 0, 0, 1, 0, 0, 0, 0, 0, 0, 17, 0, 0, 0, 0, 0, 0, 0, 51, 0, 0, 0, 0, 0, 0, 63, 0, 0, 0, 29, 0, 0, 0, 0, 0, 0, 0, 0, 0, 0, 7, 0, 0, 22, 0, 0, 0, 0, 43, 48, 34, 0, 0, 0, 0, 0, 40, 0, 0, 0, 0
|51, 0, 0, 0, 0, 10, 61, 46, 0, 38, 0, 40, 0, 0, 52, 43, 0, 48, 0, 0, 7, 0, 0, 0, 0, 24, 0, 47, 0, 0, 0, 0, 3, 0, 0, 0, 0, 0, 0, 0, 62, 23, 0, 42, 0, 57, 27, 0, 2, 15, 0, 58, 0, 64, 20, 0, 0, 49, 0, 45, 0, 0, 0, 4
|0, 19, 0, 16, 0, 0, 18, 0, 0, 0, 0, 41, 0, 0, 29, 0, 0, 0, 0, 0, 0, 32, 0, 0, 7, 0, 0, 35, 38, 40, 0, 0, 59, 0, 0, 0, 0, 0, 54, 0, 0, 0, 0, 0, 0, 0, 50, 9, 56, 26, 0, 61, 1, 0, 0, 0, 0, 0, 0, 37, 0, 15, 0, 0
|0, 0, 17, 42, 21, 6, 0, 0, 0, 30, 0, 5, 0, 32, 0, 0, 36, 15, 0, 0, 0, 23, 0, 0, 0, 0, 0, 0, 0, 0, 0, 1, 0, 0, 0, 0, 0, 18, 0, 0, 8, 55, 0, 0, 0, 38, 0, 0, 25, 0, 0, 0, 0, 0, 0, 0, 63, 0, 0, 39, 28, 0, 0, 0|];