order = 8;
grid = [|0, 0, 0, 0, 38, 0, 4, 0, 0, 0, 54, 0, 0, 62, 0, 34, 0, 0, 43, 0, 47, 0, 61, 0, 0, 35, 0, 0, 0, 19, 50, 0, 0, 0, 0, 17, 5, 0, 0, 0, 18, 0, 0, 0, 0, 52, 0, 0, 0, 0, 20, 0, 0, 27, 33, 0, 8, 0, 0, 0, 60, 0, 0, 25
|7, 0, 33, 0, 0, 0, 25, 0, 0, 0, 42, 36, 0, 0, 0, 0, 0, 0, 37, 0, 1, 0, 0, 8, 3, 44, 0, 0, 18, 0, 17, 0, 0, 61, 0, 12, 0, 0, 0, 23, 0, 0, 43, 0, 0, 0, 0, 0, 0, 0, 45, 0, 0, 13, 0, 0, 0, 0, 0, 0, 0, 0, 0, 0
|0, 17, 53, 0, 0, 0, 0, 0, 0, 0, 0, 0, 0, 0, 51, 23, 6, 0, 0, 0, 0, 0, 0, 0, 43, 34, 58, 0, 46, 0, 0, 0, 0, 0, 16, 0, 26, 0, 54, 0, 63, 0, 45, 0, 60, 0, 0, 36, 0, 1, 0, 0, 44, 0, 0, 57, 4, 38, 0, 0, 0, 0, 0, 0
|58, 0, 0, 26, 1, 0, 0, 0, 30, 50, 61, 0, 0, 0, 0, 32, 0, 15, 0, 0, 0, 0, 0, 0, 0, 37, 0, 0, 33, 0, 62, 64, 0, 0, 0, 0, 0, 39, 0, 0, 54, 0, 0, 0, 0, 42, 0, 0, 0, 21, 34, 7, 0, 0, 3, 0, 28, 0, 2, 55, 52, 41, 27, 47
|0, 0, 0, 0, 0, 0, 0, 0, 0, 56, 0, 0, 0, 0, 0, 0, 0, 0, 0, 0, 0, 0, 21, 0, 0, 61, 0, 0, 0, 0, 0, 24, 20, 0, 0, 0, 43, 18, 19, 0, 0, 0, 32, 0, 0, 0, 28, 0, 0, 0, 0, 0, 0, 0, 0, 15, 0, 58, 0, 31, 0, 0, 49, 0
|37, 0, 0, 0, 51, 0, 0, 0, 0, 2, 28, 41, 55, 25, 0, 40, 19, 23, 46, 0, 0, 0, 0, 33, 1, 0, 0, 0, 0, 0, 20, 36, 0, 0, 0, 0, 0, 0, 59, 0, 0, 62, 0, 0, 17, 10, 0, 24, 18, 0, 0, 0, 31, 54, 0, 29, 0, 63, 16, 14, 0, 7, 12, 0
|0, 0, 10, 0, 11, 0, 0, 3, 0, 0, 0, 0, 0, 0, 0, 0, 60, 48, 57, 56, 38, 5, 0, 0, 0, 0, 0, 63, 0, 0, 0, 0, 40, 29, 0, 0, 33, 0, 30, 0, 0, 0, 0, 0, 1, 0, 0, 0, 0, 0, 0, 0, 0, 43, 0, 0, 0, 6, 0, 19, 0, 0, 13, 9
|0, 18, 0, 0, 0, 0, 19, 0, 38, 0, 43, 0, 48, 0, 0, 0, 0, 2, 0, 0, 51, 0, 0, 0, 0, 42, 0, 0, 0, 9, 0, 27, 57, 11, 0, 0, 0, 0, 0, 0, 61, 0, 26, 0, 0, 0, 46, 0, 0, 0, 0, 0, 0, 0, 0, 5, 0, 15, 0, 54, 0, 0, 53, 20
|0, 0, 43, 5, 55, 0, 0, 0, 33, 0, 0, 0, 0, 0, 35, 0, 0, 18, 2, 0, 11, 0, 0, 0, 37, 0, 0, 39, 22, 0, 0, 0, 56, 0, 0, 4, 0, 0, 10, 20, 0, 0, 0, 1, 0, 0, 52, 0, 0, 0, 0, 0, 0, 0, 0, 0, 0, 0, 0, 0, 58, 19, 0, 26
|0, 58, 0, 0, 0, 52, 0, 24, 8, 0, 0, 0, 5, 45, 0, 0, 0, 37, 0, 0, 0, 19, 28, 31, 57, 0, 0, 54, 0, 17, 0, 13, 0, 0, 0, 0, 0, 0, 0, 0, 0, 0, 0, 18, 0, 0, 0, 0, 0, 0, 0, 0, 32, 0, 0, 56, 38, 0, 15, 49, 0, 0, 0, 0
|0, 27, 0, 0, 0, 42, 0, 39, 0, 0, 20, 0, 0, 12, 0, 0, 46, 0, 10, 57, 0, 0, 9, 63, 55, 60, 16, 0, 7, 0, 0, 0, 0, 0, 0, 0, 0, 38, 44, 24, 48, 0, 0, 0, 0, 0, 43, 0, 0, 54, 0, 0, 35, 0, 0, 13, 30, 18, 0, 40, 0, 3, 56, 50
|0, 0, 1, 35, 46, 18, 16, 6, 0, 0, 0, 0, 32, 0, 0, 14, 15, 0, 0, 0, 0, 0, 0, 0, 0, 0, 53, 58, 0, 0, 0, 2, 0, 0, 0, 45, 0, 63, 0, 30, 20, 0, 0, 0, 13, 0, 0, 9, 50, 0, 39, 0, 0, 37, 0, 33, 0, 0, 0, 47, 0, 0, 0, 0
|3, 0, 0, 0, 0, 0, 0, 0, 54, 0, 24, 48, 46, 0, 58, 15, 0, 7, 0, 0, 39, 0, 32, 0, 23, 0, 0, 0, 49, 0, 0, 19, 17, 0, 0, 0, 21, 34, 0, 8, 0, 0, 5, 0, 50, 26, 0, 0, 0, 0, 31, 10, 0, 63, 0, 0, 0, 13, 0, 0, 0, 53, 0, 0
|0, 0, 0, 0, 0, 0, 0, 19, 56, 0, 0, 0, 0, 0, 0, 0, 0, 42, 0, 0, 0, 13, 0, 0, 47, 0, 61, 0, 50, 43, 30, 0, 0, 0, 35, 0, 0, 0, 0, 3, 0, 0, 0, 46, 0, 0, 0, 0, 0, 0, 18, 0, 0, 0, 0, 0, 60, 0, 22, 41, 0, 0, 0, 0
|13, 0, 0, 61, 0, 0, 28, 48, 0, 0, 0, 0, 30, 9, 63, 0, 0, 6, 8, 62, 0, 0, 0, 0, 0, 18, 0, 59, 51, 0, 0, 0, 0, 0, 58, 0, 0, 52, 0, 0, 0, 0, 25, 0, 54, 29, 0, 0, 0, 0, 0, 0, 0, 0, 0, 0, 0, 0, 0, 0, 31, 0, 21, 0
|0, 0, 45, 0, 0, 0, 41, 0, 0, 40, 26, 0, 0, 0, 0, 0, 0, 47, 0, 0, 0, 24, 23, 0, 0, 0, 48, 0, 3, 0, 56, 0, 0, 0, 0, 62, 0, 0, 0, 0, 0, 0, 0, 42, 0, 22, 0, 0, 0, 16, 0, 53, 0, 9, 0, 0, 0, 0, 0, 0, 0, 0, 0, 10
|40, 0, 0, 0, 0, 0, 56, 0, 0, 0, 0, 0, 63, 22, 0, 0, 26, 0, 0, 0, 0, 0, 0, 3, 30, 0, 0, 0, 42, 24, 0, 53, 41, 0, 0, 0, 0, 0, 0, 0, 0, 0, 19, 0, 0, 34, 32, 0, 0, 0, 0, 0, 61, 0, 0, 0, 0, 0, 35, 0, 0, 0, 0, 0
|0, 0, 54, 0, 33, 49, 0, 0, 0, 27, 31, 46, 8, 47, 0, 58, 0, 63, 0, 45, 0, 0, 0, 5, 16, 0, 0, 0, 0, 0, 0, 0, 0, 0, 0, 0, 0, 0, 0, 0, 0, 56, 0, 0, 15, 0, 0, 0, 0, 0, 0, 17, 0, 0, 9, 0, 0, 0, 0, 61, 0, 0, 0, 0
|0, 0, 22, 0, 0, 0, 46, 15, 0, 0, 0, 0, 19, 0, 0, 0, 17, 0, 0, 0, 59, 28, 0, 0, 0, 1, 0, 0, 64, 0, 6, 0, 34, 0, 52, 0, 0, 0, 0, 0, 55, 0, 27, 0, 35, 0, 8, 0, 39, 33, 0, 56, 45, 12, 0, 0, 63, 0, 31, 0, 30, 5, 0, 0
|10, 0, 0, 0, 0, 0, 3, 0, 28, 44, 0, 5, 0, 0, 52, 0, 0, 0, 48, 0, 0, 0, 0, 0, 0, 0, 0, 0, 0, 0, 0, 0, 19, 0, 0, 0, 0, 0, 0, 0, 0, 0, 0, 0, 0, 0, 0, 51, 0, 0, 0, 2, 13, 0, 0, 0, 0, 0, 0, 0, 0, 0, 0, 0
|5, 0, 31, 0, 0, 0, 11, 50, 0, 0, 55, 0, 0, 0, 0, 0, 0, 0, 0, 33, 0, 0, 0, 0, 22, 0, 0, 0, 0, 0, 0, 0, 10, 0, 0, 0, 0, 28, 17, 13, 0, 0, 0, 43, 16, 0, 0, 0, 0, 0, 0, 6, 0, 42, 0, 0, 0, 0, 0, 0, 0, 34, 46, 0
|0, 0, 58, 0, 0, 0, 0, 0, 3, 20, 0, 0, 0, 0, 0, 2, 0, 1, 11, 0, 15, 0, 0, 0, 36, 7, 12, 38, 62, 0, 0, 0, 0, 0, 9, 0, 0, 0, 0, 45, 0, 0, 18, 10, 0, 0, 0, 23, 0, 0, 0, 19, 27, 0, 0, 0, 0, 0, 48, 0, 0, 0, 0, 0
|0, 0, 0, 0, 0, 0, 14, 17, 0, 10, 0, 13, 24, 0, 64, 0, 0, 0, 0, 6, 21, 0, 0, 0, 0, 0, 0, 0, 52, 0, 34, 0, 0, 0, 0, 16, 0, 59, 48, 63, 38, 0, 0, 36, 0, 0, 0, 0, 0, 0, 0, 0, 0, 0, 0, 0, 0, 0, 28, 0, 0, 0, 0, 0
|0, 2, 0, 0, 53, 0, 0, 0, 9, 1, 0, 0, 34, 0, 0, 0, 0, 0, 23, 0, 0, 0, 0, 0, 0, 14, 28, 0, 0, 0, 0, 0, 0, 0, 0, 0, 0, 49, 0, 0, 17, 0, 0, 0, 0, 31, 0, 45, 0, 24, 0, 0, 48, 0, 36, 0, 0, 50, 0, 52, 0, 0, 0, 21
|0, 0, 0, 0, 0, 0, 0, 0, 0, 0, 0, 0, 0, 0, 61, 0, 0, 0, 0, 0, 0, 53, 39, 0, 64, 0, 0, 0, 0, 0, 0, 0, 0, 0, 0, 0, 0, 0, 23, 0, 0, 0, 14, 0, 0, 0, 33, 0, 0, 17, 0, 0, 43, 0, 25, 50, 27, 0, 0, 0, 0, 0, 0, 19
|53, 0, 0, 0, 0, 0, 54, 14, 0, 0, 33, 0, 0, 0, 0, 17, 16, 0, 0, 26, 23, 0, 19, 2, 45, 0, 31, 0, 56, 0, 0, 21, 0, 0, 0, 0, 30, 0, 0, 0, 0, 0, 0, 64, 0, 0, 0, 0, 0, 0, 0, 0, 0, 0, 0, 0, 0, 0, 0, 0, 0, 32, 0, 0
|0, 0, 0, 0, 0, 0, 0, 0, 34, 0, 0, 0, 43, 13, 0, 0, 8, 0, 0, 0, 0, 27, 0, 0, 0, 0, 0, 20, 0, 0, 0, 0, 21, 47, 0, 0, 0, 26, 0, 0, 0, 0, 40, 0, 0, 0, 0, 0, 0, 0, 0, 0, 0, 59, 48, 23, 0, 41, 0, 0, 0, 9, 0, 0
|44, 0, 0, 0, 0, 23, 60, 0, 0, 49, 56, 59, 0, 38, 0, 0, 0, 0, 0, 0, 0, 0, 10, 0, 0, 0, 0, 61, 0, 0, 0, 0, 18, 0, 20, 0, 0, 9, 0, 42, 43, 0, 6, 0, 0, 16, 0, 0, 0, 0, 0, 0, 0, 0, 0, 0, 0, 0, 17, 3, 0, 0, 0, 0
|42, 0, 0, 0, 0, 0, 0, 0, 48, 0, 0, 0, 0, 3, 0, 35, 28, 11, 0, 61, 0, 0, 33, 0, 0, 38, 0, 19, 0, 0, 0, 1, 0, 0, 0, 37, 0, 40, 50, 51, 0, 0, 0, 34, 36, 17, 0, 39, 0, 0, 0, 54, 0, 0, 0, 4, 0, 0, 26, 13, 0, 21, 31, 0
|19, 0, 0, 0, 0, 16, 29, 0, 0, 0, 6, 0, 31, 0, 0, 0, 0, 44, 0, 48, 0, 0, 3, 0, 2, 0, 23, 0, 55, 26, 0, 0, 0, 0, 0, 52, 0, 0, 49, 0, 32, 0, 0, 0, 0, 0, 0, 0, 0, 0, 0, 0, 0, 0, 47, 0, 25, 22, 34, 1, 45, 0, 0, 0
|34, 0, 12, 55, 0, 46, 0, 4, 0, 0, 32, 39, 44, 0, 0, 0, 0, 0, 63, 0, 0, 45, 18, 0, 33, 0, 0, 25, 0, 27, 0, 0, 0, 0, 0, 0, 0, 0, 0, 1, 0, 0, 37, 0, 0, 0, 15, 0, 56, 0, 0, 0, 38, 0, 0, 0, 0, 0, 54, 0, 0, 30, 0, 57
|0, 28, 0, 0, 0, 61, 0, 0, 0, 12, 0, 30, 0, 0, 0, 0, 0, 43, 49, 21, 0, 0, 0, 0, 0, 0, 52, 0, 0, 0, 0, 0, 0, 56, 0, 0, 19, 0, 0, 0, 0, 0, 0, 0, 24, 62, 0, 0, 27, 0, 40, 0, 0, 1, 29, 0, 0, 0, 0, 64, 0, 16, 0, 63
|56, 3, 0, 42, 0, 0, 0, 57, 0, 0, 23, 0, 0, 0, 0, 0, 9, 0, 0, 0, 0, 46, 15, 0, 0, 0, 0, 37, 0, 0, 27, 0, 0, 0, 0, 0, 18, 61, 0, 0, 0, 0, 0, 0, 41, 0, 0, 0, 38, 0, 50, 62, 49, 0, 0, 0, 0, 51, 44, 0, 10, 0, 28, 0
|38, 0, 0, 11, 0, 20, 0, 0, 0, 0, 0, 0, 36, 0, 2, 0, 43, 0, 0, 39, 0, 25, 40, 0, 4, 0, 14, 18, 0, 22, 19, 0, 0, 0, 0, 0, 0, 0, 0, 31, 44, 23, 0, 0, 57, 0, 0, 26, 0, 3, 33, 0, 64, 5, 6, 54, 0, 0, 52, 62, 0, 0, 0, 0
|0, 0, 0, 0, 5, 0, 0, 0, 0, 0, 0, 0, 0, 6, 0, 25, 22, 0, 0, 0, 20, 0, 0, 0, 0, 0, 41, 46, 0, 55, 45, 0, 0, 10, 0, 0, 0, 0, 40, 33, 0, 0, 0, 0, 0, 0, 0, 0, 0, 0, 60, 0, 0, 0, 0, 18, 0, 31, 0, 0, 49, 0, 63, 0
|0, 0, 49, 31, 40, 63, 47, 58, 0, 0, 0, 10, 0, 55, 57, 0, 0, 16, 45, 59, 0, 0, 0, 12, 0, 0, 0, 0, 0, 0, 0, 0, 0, 0, 0, 0, 0, 25, 0, 0, 0, 0, 0, 56, 0, 0, 0, 18, 14, 0, 0, 0, 34, 0, 0, 0, 0, 0, 0, 0, 0, 0, 0, 46
|25, 0, 36, 0, 0, 0, 59, 7, 60, 18, 46, 0, 4, 0, 0, 9, 0, 0, 0, 0, 29, 0, 0, 0, 0, 0, 0, 0, 0, 0, 0, 0, 1, 0, 0, 0, 0, 15, 0, 6, 0, 2, 0, 31, 0, 0, 58, 0, 0, 0, 0, 0, 42, 0, 41, 0, 12, 0, 50, 0, 38, 0, 48, 0
|0, 44, 0, 0, 61, 0, 0, 0, 0, 0, 0, 0, 12, 0, 0, 0, 0, 0, 0, 0, 0, 0, 0, 38, 6, 11, 0, 16, 0, 1, 63, 0, 42, 0, 0, 26, 0, 0, 0, 46, 0, 0, 0, 59, 7, 33, 0, 0, 0, 0, 23, 0, 47, 10, 0, 0, 0, 0, 0, 0, 0, 56, 0, 0
|12, 0, 0, 0, 64, 0, 0, 18, 0, 19, 0, 0, 0, 0, 5, 0, 47, 60, 50, 0, 33, 42, 0, 6, 0, 0, 0, 0, 0, 0, 7, 0, 23, 0, 0, 49, 0, 0, 14, 0, 0, 0, 0, 0, 0, 0, 45, 0, 0, 39, 35, 0, 0, 0, 0, 0, 0, 0, 27, 20, 0, 40, 3, 29
|0, 29, 19, 17, 0, 0, 9, 0, 0, 0, 58, 21, 0, 49, 0, 0, 0, 0, 51, 0, 0, 2, 0, 14, 0, 0, 0, 0, 0, 12, 64, 0, 0, 8, 0, 0, 44, 0, 0, 0, 0, 0, 0, 0, 0, 0, 0, 20, 36, 45, 0, 0, 0, 0, 31, 0, 43, 1, 0, 0, 6, 0, 0, 0
|31, 0, 60, 62, 0, 0, 0, 0, 45, 0, 2, 0, 0, 0, 0, 1, 0, 53, 0, 0, 0, 0, 36, 0, 0, 0, 0, 0, 0, 61, 47, 0, 0, 63, 0, 0, 0, 12, 0, 0, 0, 0, 0, 0, 0, 0, 0, 52, 0, 0, 15, 0, 0, 0, 0, 6, 0, 0, 0, 35, 0, 0, 24, 41
|0, 0, 0, 63, 0, 0, 10, 21, 0, 0, 0, 15, 0, 0, 0, 0, 0, 54, 0, 46, 56, 0, 0, 0, 0, 9, 0, 11, 0, 0, 3, 0, 7, 0, 0, 0, 0, 0, 0, 0, 12, 0, 0, 30, 28, 60, 0, 0, 0, 29, 0, 0, 50, 33, 57, 0, 32, 0, 0, 0, 19, 0, 26, 0
|14, 0, 35, 2, 0, 58, 7, 0, 0, 0, 0, 0, 0, 0, 0, 61, 18, 0, 0, 52, 0, 0, 0, 0, 25, 0, 57, 0, 0, 0, 0, 12, 33, 0, 0, 27, 0, 0, 0, 5, 64, 43, 0, 0, 44, 13, 39, 6, 0, 0, 49, 0, 10, 0, 21, 55, 0, 0, 9, 16, 0, 0, 23, 0
|0, 0, 0, 0, 0, 0, 0, 0, 0, 0, 0, 0, 0, 0, 0, 0, 0, 0, 0, 0, 0, 0, 0, 4, 0, 0, 0, 0, 0, 33, 0, 30, 0, 39, 0, 48, 0, 0, 0, 0, 0, 0, 0, 0, 0, 37, 0, 0, 3, 0, 0, 0, 0, 41, 0, 0, 0, 0, 0, 0, 0, 58, 0, 0
|0, 0, 0, 0, 0, 0, 0, 29, 13, 36, 5, 35, 50, 0, 0, 12, 0, 24, 0, 0, 55, 0, 0, 47, 46, 0, 0, 0, 0, 39, 10, 0, 0, 0, 0, 58, 0, 14, 43, 0, 33, 0, 0, 19, 0, 0, 20, 0, 1, 0, 0, 0, 54, 0, 0, 9, 0, 0, 0, 0, 0, 0, 0, 0
|0, 0, 0, 0, 0, 19, 1, 0, 0, 0, 0, 0, 0, 0, 0, 0, 61, 0, 0, 27, 0, 41, 0, 0, 50, 17, 0, 0, 0, 0, 0, 7, 0, 44, 0, 20, 0, 21, 0, 0, 0, 0, 0, 35, 47, 54, 0, 0, 16, 0, 0, 0, 0, 11, 0, 0, 37, 0, 59, 0, 62, 0, 0, 0
|0, 0, 0, 0, 0, 0, 0, 53, 0, 0, 52, 33, 0, 0, 0, 0, 0, 17, 58, 0, 10, 0, 0, 11, 0, 0, 0, 0, 0, 0, 28, 0, 0, 0, 0, 0, 0, 0, 0, 0, 0, 0, 0, 0, 31, 15, 14, 0, 48, 25, 0, 40, 0, 24, 0, 0, 0, 36, 46, 0, 0, 0, 0, 0
|43, 0, 0, 0, 39, 0, 0, 11, 26, 0, 0, 42, 0, 0, 59, 0, 0, 0, 28, 38, 0, 0, 0, 48, 0, 0, 0, 0, 0, 0, 51, 0, 0, 0, 0, 0, 0, 0, 0, 0, 0, 21, 0, 0, 0, 0, 24, 40, 45, 14, 36, 0, 0, 0, 61, 0, 17, 0, 0, 0, 0, 0, 0, 44
|0, 10, 0, 39, 0, 0, 0, 0, 0, 32, 0, 11, 0, 0, 55, 0, 0, 0, 0, 0, 0, 0, 0, 0, 0, 0, 0, 47, 0, 0, 0, 0, 15, 6, 12, 0, 0, 0, 0, 0, 0, 0, 0, 45, 0, 0, 0, 0, 40, 23, 0, 0, 0, 0, 0, 8, 0, 0, 63, 0, 0, 0, 33, 0
|4, 42, 46, 0, 0, 30, 0, 56, 5, 0, 19, 40, 0, 0, 0, 0, 0, 0, 0, 11, 63, 0, 0, 0, 0, 33, 0, 0, 0, 0, 59, 0, 0, 0, 0, 54, 7, 0, 26, 0, 0, 6, 0, 0, 0, 18, 0, 3, 0, 0, 0, 0, 0, 0, 0, 0, 23, 0, 0, 0, 0, 0, 0, 0
|36, 0, 0, 0, 0, 0, 0, 54, 0, 0, 0, 0, 20, 60, 0, 49, 37, 46, 0, 0, 13, 0, 0, 57, 0, 0, 0, 0, 0, 11, 0, 0, 30, 0, 0, 0, 0, 0, 0, 10, 0, 0, 0, 0, 0, 0, 0, 0, 4, 63, 43, 15, 0, 56, 0, 42, 0, 0, 62, 0, 51, 0, 34, 59
|15, 32, 0, 0, 0, 0, 0, 0, 43, 0, 0, 0, 0, 0, 37, 0, 0, 61, 0, 24, 60, 10, 0, 0, 63, 0, 39, 0, 31, 0, 0, 0, 0, 0, 0, 0, 0, 0, 0, 56, 0, 0, 0, 16, 0, 0, 0, 0, 47, 0, 0, 49, 29, 35, 0, 0, 0, 0, 0, 25, 41, 0, 0, 0
|0, 0, 8, 0, 0, 0, 0, 0, 36, 0, 0, 45, 0, 0, 0, 0, 0, 0, 0, 0, 54, 0, 0, 0, 0, 0, 55, 0, 9, 6, 0, 0, 44, 0, 0, 13, 0, 0, 0, 0, 25, 0, 0, 24, 0, 51, 0, 0, 33, 0, 0, 28, 0, 0, 59, 0, 0, 0, 49, 0, 39, 0, 0, 31
|0, 35, 6, 45, 0, 0, 24, 0, 0, 0, 0, 0, 18, 26, 0, 0, 0, 0, 0, 0, 0, 0, 27, 0, 0, 12, 19, 0, 0, 0, 0, 0, 0, 0, 0, 0, 0, 0, 62, 0, 0, 0, 0, 0, 0, 56, 64, 0, 0, 0, 25, 0, 0, 51, 44, 0, 0, 0, 0, 0, 11, 0, 0, 0
|0, 0, 0, 0, 0, 0, 0, 0, 53, 0, 0, 0, 62, 0, 29, 0, 3, 0, 0, 0, 8, 0, 4, 25, 38, 0, 0, 1, 0, 0, 0, 43, 0, 52, 0, 0, 0, 5, 0, 0, 0, 0, 0, 41, 0, 0, 0, 0, 0, 18, 0, 0, 22, 0, 32, 0, 16, 0, 56, 0, 0, 0, 0, 0
|0, 64, 3, 0, 19, 0, 0, 0, 0, 0, 0, 0, 42, 0, 0, 0, 0, 50, 0, 0, 0, 0, 0, 0, 0, 0, 34, 0, 54, 0, 0, 0, 0, 27, 0, 0, 0, 0, 0, 41, 0, 0, 0, 0, 9, 0, 0, 33, 0, 0, 0, 11, 0, 0, 0, 0, 26, 0, 0, 10, 0, 0, 0, 0
|0, 39, 25, 0, 37, 0, 0, 0, 42, 0, 0, 0, 3, 0, 0, 0, 0, 45, 0, 0, 0, 23, 0, 0, 0, 0, 0, 35, 0, 0, 0, 0, 0, 0, 0, 0, 56, 0, 0, 0, 40, 0, 0, 0, 0, 0, 61, 0, 44, 0, 0, 0, 0, 0, 28, 24, 0, 59, 12, 0, 0, 0, 0, 30
|29, 19, 0, 14, 0, 4, 0, 0, 0, 0, 37, 22, 1, 10, 0, 8, 0, 33, 0, 0, 0, 62, 0, 0, 17, 0, 0, 0, 53, 0, 0, 57, 0, 0, 0, 0, 0, 0, 6, 43, 49, 0, 52, 44, 0, 0, 0, 0, 64, 0, 54, 0, 0, 0, 15, 0, 21, 0, 0, 9, 47, 0, 41, 34
|0, 0, 0, 0, 0, 0, 0, 0, 0, 0, 0, 0, 0, 44, 0, 0, 0, 0, 0, 0, 16, 0, 37, 50, 31, 0, 0, 0, 61, 0, 0, 0, 0, 0, 30, 0, 0, 11, 13, 12, 0, 0, 0, 0, 63, 8, 0, 0, 0, 0, 0, 0, 23, 0, 17, 39, 0, 3, 0, 5, 0, 0, 0, 0
|0, 62, 42, 0, 60, 7, 0, 0, 20, 57, 0, 14, 21, 0, 0, 47, 58, 30, 0, 28, 0, 51, 0, 0, 19, 0, 0, 0, 0, 0, 9, 0, 0, 37, 0, 0, 0, 24, 25, 0, 0, 0, 0, 0, 55, 53, 0, 34, 0, 0, 0, 36, 0, 0, 0, 0, 0, 26, 38, 0, 0, 31, 43, 0
|0, 36, 0, 0, 0, 0, 52, 0, 31, 0, 4, 7, 0, 0, 0, 0, 0, 20, 0, 0, 0, 61, 8, 0, 15, 16, 0, 0, 27, 0, 18, 0, 32, 0, 22, 0, 0, 41, 39, 0, 35, 24, 57, 0, 14, 0, 0, 0, 0, 62, 0, 0, 0, 0, 0, 0, 0, 0, 0, 0, 0, 49, 11, 0
|0, 0, 61, 43, 0, 22, 45, 0, 0, 0, 0, 0, 17, 0, 0, 0, 5, 57, 26, 0, 0, 9, 0, 54, 0, 0, 0, 0, 0, 0, 52, 51, 0, 33, 0, 0, 0, 0, 0, 0, 0, 0, 0, 0, 48, 0, 0, 56, 0, 0, 0, 37, 0, 6, 34, 0, 0, 0, 0, 63, 0, 8, 25, 0
|27, 49, 23, 0, 0, 35, 0, 0, 0, 0, 0, 0, 61, 0, 0, 0, 0, 0, 7, 0, 0, 14, 0, 36, 0, 0, 0, 0, 0, 28, 0, 50, 9, 4, 0, 0, 45, 31, 0, 0, 0, 0, 0, 0, 37, 0, 0, 0, 0, 0, 0, 33, 0, 0, 11, 0, 0, 48, 0, 0, 0, 0, 0, 24
|0, 40, 0, 0, 31, 0, 0, 0, 50, 28, 0, 0, 0, 0, 54, 0, 29, 0, 0, 25, 0, 0, 34, 0, 0, 0, 42, 0, 47, 0, 0, 44, 0, 49, 0, 7, 0, 1, 0, 0, 0, 0, 60, 0, 10, 23, 0, 0, 0, 0, 0, 0, 0, 0, 0, 0, 0, 0, 13, 6, 0, 0, 0, 52|];