order = 8;
grid = [|0, 22, 0, 64, 0, 4, 0, 0, 0, 49, 63, 55, 25, 60, 0, 0, 0, 0, 0, 0, 0, 0, 0, 0, 0, 0, 0, 41, 0, 23, 56, 0, 0, 43, 0, 0, 0, 0, 0, 0, 0, 29, 0, 0, 57, 0, 18, 0, 10, 0, 50, 0, 6, 36, 45, 0, 0, 0, 0, 0, 0, 0, 0, 0
|0, 0, 0, 0, 3, 0, 0, 0, 6, 0, 0, 0, 56, 0, 0, 0, 55, 58, 0, 0, 38, 0, 0, 0, 0, 60, 61, 40, 0, 0, 0, 0, 0, 30, 0, 0, 0, 0, 42, 0, 0, 0, 0, 0, 0, 0, 0, 47, 0, 21, 14, 0, 0, 0, 52, 0, 0, 13, 0, 46, 1, 53, 0, 2
|0, 23, 0, 0, 0, 0, 37, 0, 47, 0, 0, 64, 10, 0, 0, 0, 0, 0, 33, 0, 0, 5, 0, 28, 0, 42, 0, 0, 0, 0, 0, 0, 0, 0, 0, 7, 0, 0, 0, 35, 55, 0, 0, 60, 16, 11, 0, 0, 30, 0, 39, 0, 0, 48, 0, 24, 22, 18, 20, 0, 0, 29, 0, 6
|49, 0, 44, 24, 34, 0, 29, 39, 0, 0, 0, 0, 0, 0, 0, 0, 0, 0, 35, 0, 0, 0, 52, 0, 0, 0, 0, 16, 0, 0, 26, 0, 0, 51, 0, 13, 45, 0, 8, 12, 0, 0, 0, 14, 46, 0, 0, 0, 0, 0, 11, 61, 0, 0, 0, 0, 0, 0, 15, 38, 0, 0, 0, 0
|9, 6, 0, 0, 0, 0, 63, 0, 0, 0, 0, 0, 30, 0, 0, 14, 0, 0, 37, 47, 0, 0, 36, 0, 0, 28, 0, 0, 25, 45, 0, 59, 0, 0, 0, 23, 0, 0, 0, 0, 0, 17, 0, 35, 34, 0, 13, 0, 0, 0, 55, 0, 0, 0, 0, 0, 0, 0, 0, 0, 0, 0, 0, 61
|0, 0, 12, 0, 38, 0, 0, 47, 0, 0, 19, 0, 61, 16, 0, 0, 0, 0, 0, 0, 18, 40, 0, 0, 0, 22, 0, 0, 0, 30, 0, 5, 4, 0, 0, 33, 14, 0, 2, 0, 0, 51, 0, 0, 48, 0, 0, 0, 17, 0, 23, 0, 0, 0, 0, 0, 0, 0, 0, 26, 0, 0, 0, 0
|0, 0, 0, 18, 7, 0, 0, 0, 0, 0, 0, 0, 0, 9, 24, 0, 0, 0, 45, 0, 0, 0, 54, 49, 29, 0, 0, 0, 10, 0, 0, 11, 61, 0, 41, 20, 0, 0, 0, 0, 44, 0, 0, 0, 0, 0, 0, 0, 0, 0, 0, 22, 0, 0, 0, 0, 34, 62, 0, 0, 0, 0, 0, 0
|0, 0, 46, 13, 27, 0, 0, 0, 0, 20, 0, 33, 0, 0, 0, 0, 0, 0, 0, 0, 8, 0, 0, 2, 0, 0, 0, 0, 0, 0, 0, 39, 59, 0, 58, 11, 0, 0, 0, 0, 10, 0, 0, 0, 0, 61, 0, 0, 0, 16, 0, 0, 0, 56, 43, 0, 0, 0, 63, 52, 50, 0, 0, 37
|45, 25, 7, 38, 8, 0, 0, 0, 16, 0, 0, 0, 0, 0, 0, 0, 0, 0, 0, 0, 52, 0, 6, 0, 0, 17, 0, 0, 0, 0, 0, 0, 0, 58, 0, 0, 0, 0, 9, 0, 0, 0, 0, 0, 42, 53, 0, 0, 62, 0, 12, 59, 0, 0, 0, 0, 41, 0, 0, 0, 33, 0, 0, 0
|41, 0, 43, 0, 0, 49, 0, 0, 0, 0, 6, 0, 0, 0, 0, 0, 35, 0, 0, 19, 0, 0, 0, 0, 0, 0, 12, 0, 0, 0, 51, 0, 0, 37, 57, 0, 0, 10, 0, 0, 0, 0, 0, 0, 63, 62, 29, 4, 0, 47, 24, 0, 0, 45, 8, 0, 0, 27, 0, 0, 0, 13, 0, 0
|27, 0, 0, 0, 0, 22, 0, 16, 0, 37, 0, 0, 0, 0, 0, 58, 0, 0, 0, 0, 0, 0, 8, 38, 0, 0, 0, 60, 0, 10, 0, 0, 0, 0, 0, 5, 0, 0, 11, 45, 43, 0, 0, 0, 21, 0, 0, 0, 0, 0, 32, 28, 0, 30, 0, 0, 1, 0, 0, 0, 0, 20, 0, 0
|0, 0, 0, 35, 0, 0, 0, 0, 0, 0, 38, 7, 0, 0, 0, 0, 49, 0, 0, 0, 0, 0, 62, 0, 0, 0, 0, 0, 0, 0, 0, 15, 0, 0, 0, 4, 0, 0, 0, 0, 40, 46, 0, 0, 0, 48, 0, 32, 19, 0, 0, 0, 0, 20, 0, 0, 0, 10, 42, 0, 37, 55, 0, 0
|0, 37, 48, 0, 0, 53, 12, 55, 21, 0, 0, 0, 0, 0, 0, 0, 0, 0, 0, 15, 0, 57, 63, 0, 0, 8, 0, 0, 0, 0, 0, 41, 0, 0, 0, 0, 0, 0, 0, 0, 0, 0, 0, 50, 0, 0, 31, 0, 51, 0, 0, 0, 0, 0, 1, 44, 0, 5, 0, 0, 0, 35, 0, 0
|0, 0, 1, 0, 0, 0, 36, 0, 0, 33, 9, 0, 0, 40, 41, 0, 0, 0, 0, 0, 37, 0, 0, 42, 0, 0, 0, 0, 0, 0, 0, 0, 0, 0, 61, 0, 0, 0, 0, 14, 54, 0, 0, 0, 0, 0, 0, 15, 58, 0, 0, 0, 0, 18, 0, 38, 51, 0, 0, 62, 29, 56, 0, 0
|0, 0, 0, 0, 0, 0, 54, 0, 0, 0, 0, 0, 51, 0, 0, 0, 0, 56, 0, 0, 10, 0, 0, 5, 0, 43, 45, 0, 0, 0, 58, 0, 50, 0, 0, 0, 0, 0, 0, 0, 0, 0, 0, 0, 0, 0, 41, 35, 0, 0, 0, 0, 49, 0, 0, 0, 0, 0, 0, 14, 23, 0, 8, 30
|2, 0, 0, 46, 0, 0, 0, 63, 0, 0, 0, 0, 0, 0, 44, 0, 13, 0, 32, 0, 59, 0, 55, 0, 0, 0, 0, 0, 27, 0, 0, 0, 0, 0, 0, 62, 0, 30, 0, 36, 0, 20, 28, 10, 0, 49, 0, 0, 41, 0, 0, 52, 0, 0, 0, 15, 0, 0, 0, 45, 16, 0, 0, 0
|0, 0, 28, 0, 0, 0, 0, 20, 0, 0, 40, 0, 62, 0, 0, 32, 0, 0, 21, 0, 7, 0, 0, 4, 0, 0, 5, 0, 0, 0, 0, 42, 51, 0, 23, 0, 35, 0, 0, 0, 0, 0, 0, 0, 0, 10, 0, 57, 0, 63, 0, 0, 0, 0, 9, 0, 64, 46, 0, 0, 0, 0, 0, 0
|37, 0, 0, 0, 0, 46, 0, 43, 0, 0, 15, 0, 0, 0, 0, 33, 0, 29, 55, 0, 0, 17, 45, 0, 31, 40, 0, 0, 0, 60, 4, 0, 0, 0, 0, 0, 0, 34, 0, 0, 0, 0, 21, 0, 0, 63, 38, 0, 0, 0, 0, 18, 0, 0, 0, 0, 0, 20, 0, 59, 0, 0, 0, 35
|10, 11, 0, 0, 29, 0, 0, 0, 59, 47, 0, 0, 0, 36, 0, 0, 37, 46, 0, 0, 0, 0, 0, 18, 1, 0, 35, 57, 0, 0, 0, 0, 0, 0, 0, 9, 0, 0, 0, 17, 5, 0, 0, 0, 0, 0, 0, 0, 0, 0, 0, 50, 24, 0, 30, 28, 0, 0, 0, 58, 12, 0, 0, 21
|0, 17, 35, 0, 0, 0, 0, 4, 0, 0, 0, 0, 63, 0, 0, 0, 8, 0, 0, 54, 0, 53, 47, 64, 0, 0, 58, 0, 0, 0, 0, 0, 11, 0, 0, 0, 46, 0, 0, 49, 0, 30, 0, 0, 0, 28, 0, 0, 0, 0, 0, 0, 0, 14, 0, 0, 0, 0, 0, 0, 0, 60, 0, 0
|0, 15, 9, 6, 50, 39, 24, 25, 54, 0, 0, 0, 0, 64, 0, 61, 0, 0, 0, 0, 1, 0, 0, 0, 23, 0, 0, 0, 49, 0, 0, 0, 0, 0, 0, 0, 0, 0, 0, 0, 20, 0, 0, 0, 0, 12, 0, 0, 0, 0, 0, 0, 0, 13, 0, 45, 3, 0, 0, 36, 0, 33, 0, 0
|0, 49, 0, 0, 0, 0, 60, 0, 0, 0, 0, 3, 0, 0, 10, 0, 0, 0, 0, 0, 0, 0, 0, 11, 0, 0, 0, 0, 0, 0, 64, 0, 0, 27, 0, 0, 0, 0, 0, 0, 8, 53, 0, 0, 0, 0, 0, 0, 0, 0, 58, 0, 2, 0, 42, 0, 0, 61, 0, 28, 0, 0, 0, 0
|0, 58, 0, 55, 64, 0, 0, 0, 0, 19, 24, 5, 0, 0, 0, 0, 0, 0, 0, 0, 0, 0, 30, 0, 0, 0, 0, 0, 22, 16, 0, 0, 0, 0, 0, 0, 0, 13, 0, 0, 51, 0, 0, 18, 43, 0, 0, 45, 0, 53, 0, 0, 0, 0, 0, 0, 40, 7, 47, 0, 0, 0, 0, 0
|22, 42, 0, 0, 61, 0, 19, 0, 55, 0, 0, 27, 0, 37, 4, 57, 58, 0, 0, 23, 0, 0, 0, 41, 0, 0, 0, 0, 14, 0, 0, 10, 0, 62, 43, 0, 0, 12, 54, 0, 0, 0, 0, 40, 0, 0, 64, 7, 21, 0, 31, 39, 0, 0, 0, 0, 17, 0, 0, 6, 0, 0, 29, 13
|0, 0, 0, 0, 0, 25, 0, 48, 0, 2, 62, 0, 0, 34, 0, 0, 45, 0, 0, 0, 21, 52, 4, 46, 0, 0, 42, 36, 0, 0, 0, 0, 0, 22, 0, 0, 15, 0, 0, 0, 0, 0, 16, 0, 14, 0, 0, 17, 43, 0, 0, 13, 0, 0, 33, 63, 0, 50, 0, 0, 0, 0, 56, 3
|0, 8, 0, 0, 16, 0, 0, 0, 0, 0, 0, 0, 0, 0, 0, 0, 0, 26, 0, 0, 0, 0, 0, 0, 0, 0, 0, 50, 0, 57, 45, 62, 0, 25, 0, 35, 0, 20, 0, 0, 0, 2, 43, 0, 0, 0, 27, 0, 0, 0, 0, 47, 60, 39, 0, 0, 54, 0, 52, 0, 0, 31, 0, 11
|0, 0, 30, 53, 0, 0, 0, 13, 0, 0, 64, 0, 0, 17, 0, 27, 0, 63, 11, 0, 0, 14, 0, 37, 0, 0, 0, 22, 0, 0, 40, 20, 36, 0, 60, 0, 0, 0, 0, 59, 0, 0, 0, 0, 0, 0, 0, 0, 0, 0, 0, 0, 0, 0, 49, 0, 0, 38, 0, 39, 0, 0, 48, 0
|51, 0, 0, 0, 0, 41, 0, 0, 0, 0, 61, 0, 0, 0, 32, 0, 0, 0, 0, 0, 0, 0, 0, 0, 0, 26, 0, 0, 0, 0, 23, 0, 58, 17, 16, 0, 0, 0, 0, 62, 0, 0, 0, 0, 25, 36, 22, 0, 0, 0, 35, 0, 12, 0, 44, 0, 15, 0, 24, 0, 0, 0, 0, 0
|36, 0, 0, 0, 0, 0, 0, 0, 0, 0, 0, 0, 0, 0, 0, 0, 0, 0, 0, 0, 0, 0, 53, 0, 46, 32, 60, 0, 48, 0, 0, 0, 0, 12, 0, 0, 33, 49, 14, 0, 0, 0, 23, 0, 0, 0, 0, 0, 0, 0, 4, 0, 0, 19, 24, 64, 42, 25, 0, 35, 0, 0, 0, 29
|59, 46, 0, 12, 60, 63, 0, 0, 0, 0, 0, 29, 0, 0, 0, 22, 0, 0, 0, 0, 0, 38, 0, 0, 16, 0, 24, 0, 0, 0, 0, 0, 0, 0, 0, 0, 0, 0, 0, 1, 0, 32, 57, 0, 0, 0, 0, 41, 0, 0, 0, 0, 0, 0, 36, 14, 0, 9, 0, 0, 0, 0, 0, 64
|21, 33, 0, 0, 17, 0, 0, 0, 10, 0, 0, 60, 0, 30, 37, 19, 0, 0, 15, 0, 0, 39, 0, 35, 2, 0, 0, 0, 0, 0, 0, 0, 0, 0, 27, 0, 55, 0, 0, 11, 58, 24, 0, 0, 18, 0, 0, 0, 0, 0, 0, 0, 0, 25, 0, 0, 0, 0, 0, 4, 36, 5, 13, 0
|24, 0, 37, 0, 0, 1, 61, 0, 53, 0, 18, 0, 5, 38, 45, 0, 0, 0, 0, 57, 0, 20, 0, 36, 0, 0, 54, 0, 17, 15, 0, 52, 13, 0, 0, 0, 0, 2, 6, 0, 0, 0, 0, 0, 29, 60, 0, 0, 0, 0, 0, 0, 0, 50, 0, 9, 0, 0, 0, 0, 0, 16, 0, 0
|0, 0, 0, 45, 0, 0, 0, 57, 64, 0, 0, 0, 0, 0, 0, 0, 0, 8, 0, 14, 55, 31, 17, 0, 0, 0, 0, 0, 0, 0, 0, 0, 0, 0, 0, 0, 26, 41, 0, 9, 0, 56, 0, 42, 0, 46, 0, 39, 0, 24, 0, 0, 0, 0, 58, 0, 0, 0, 0, 60, 0, 36, 0, 0
|0, 0, 31, 0, 0, 0, 0, 35, 0, 0, 11, 15, 0, 0, 0, 0, 0, 0, 9, 12, 6, 4, 0, 0, 0, 57, 21, 0, 58, 0, 62, 0, 23, 20, 0, 0, 0, 0, 0, 0, 0, 0, 0, 0, 0, 19, 16, 40, 0, 8, 17, 0, 0, 0, 46, 25, 0, 47, 0, 0, 0, 0, 0, 0
|0, 51, 0, 0, 0, 0, 0, 0, 0, 42, 0, 0, 40, 0, 0, 0, 0, 20, 0, 5, 0, 0, 56, 0, 0, 0, 0, 0, 0, 0, 0, 54, 0, 0, 0, 38, 0, 24, 0, 0, 47, 0, 60, 55, 0, 44, 28, 22, 63, 0, 49, 0, 39, 0, 19, 27, 25, 0, 0, 0, 0, 0, 0, 0
|0, 7, 0, 21, 55, 0, 0, 17, 0, 0, 27, 0, 0, 32, 0, 0, 0, 0, 0, 0, 51, 0, 0, 62, 26, 0, 0, 49, 0, 0, 0, 48, 0, 57, 0, 0, 0, 25, 0, 0, 0, 0, 18, 41, 0, 0, 0, 0, 0, 0, 0, 0, 0, 0, 0, 0, 0, 0, 0, 0, 0, 0, 0, 0
|0, 0, 0, 0, 0, 0, 0, 32, 45, 0, 39, 0, 0, 0, 0, 49, 0, 0, 0, 30, 60, 25, 0, 0, 0, 0, 41, 19, 0, 0, 0, 0, 0, 0, 37, 6, 0, 0, 61, 0, 0, 38, 0, 31, 0, 9, 62, 0, 57, 0, 0, 64, 0, 35, 0, 0, 59, 0, 0, 0, 0, 0, 0, 26
|64, 1, 0, 0, 0, 0, 0, 0, 0, 0, 0, 26, 0, 0, 0, 0, 0, 0, 0, 0, 0, 44, 0, 0, 0, 0, 0, 0, 0, 0, 0, 0, 0, 4, 0, 55, 0, 58, 0, 0, 0, 27, 0, 17, 33, 0, 0, 0, 37, 6, 0, 0, 0, 0, 0, 0, 0, 32, 0, 63, 0, 0, 0, 0
|0, 0, 39, 54, 0, 0, 0, 40, 0, 0, 0, 34, 37, 0, 0, 52, 26, 41, 16, 63, 0, 0, 22, 0, 0, 0, 0, 0, 0, 0, 36, 0, 0, 49, 42, 0, 0, 0, 0, 0, 0, 0, 0, 11, 0, 0, 0, 61, 0, 0, 9, 0, 45, 0, 62, 0, 0, 0, 14, 0, 0, 0, 0, 56
|0, 41, 0, 0, 0, 56, 62, 0, 0, 0, 0, 0, 0, 0, 0, 0, 59, 0, 0, 11, 0, 0, 28, 40, 0, 18, 0, 0, 1, 0, 0, 0, 0, 0, 45, 0, 0, 5, 0, 0, 12, 0, 0, 0, 23, 0, 58, 0, 0, 0, 0, 0, 0, 0, 0, 0, 0, 0, 0, 0, 0, 34, 0, 43
|0, 0, 0, 11, 0, 0, 0, 0, 0, 0, 0, 0, 0, 0, 6, 0, 31, 0, 0, 2, 0, 0, 0, 25, 0, 0, 0, 51, 42, 12, 52, 0, 0, 0, 0, 14, 0, 0, 4, 0, 16, 0, 59, 0, 0, 64, 0, 0, 0, 35, 0, 0, 0, 0, 0, 0, 0, 39, 0, 0, 49, 0, 0, 0
|0, 34, 0, 0, 58, 0, 4, 12, 3, 22, 0, 0, 0, 0, 64, 0, 0, 0, 60, 1, 0, 0, 0, 0, 0, 0, 32, 0, 62, 0, 0, 0, 0, 0, 0, 0, 50, 0, 52, 0, 0, 28, 6, 13, 0, 55, 0, 0, 0, 57, 0, 0, 0, 0, 14, 0, 0, 17, 0, 0, 0, 9, 0, 0
|0, 39, 6, 23, 0, 15, 0, 0, 50, 0, 0, 0, 0, 0, 31, 0, 16, 0, 48, 0, 0, 0, 0, 0, 0, 0, 29, 0, 9, 0, 0, 0, 0, 0, 0, 0, 0, 0, 0, 0, 0, 61, 0, 33, 0, 0, 0, 0, 0, 0, 0, 34, 63, 38, 0, 0, 0, 0, 44, 40, 0, 0, 0, 0
|0, 50, 52, 36, 0, 0, 0, 0, 39, 0, 0, 0, 20, 51, 0, 0, 0, 43, 0, 8, 30, 49, 0, 0, 0, 0, 0, 47, 64, 0, 0, 0, 0, 0, 17, 0, 0, 0, 0, 0, 0, 23, 0, 0, 2, 0, 0, 21, 0, 55, 59, 0, 19, 0, 0, 26, 33, 0, 29, 0, 0, 0, 0, 0
|0, 0, 0, 0, 24, 0, 13, 0, 0, 0, 0, 0, 38, 0, 0, 40, 0, 0, 0, 41, 47, 0, 0, 0, 0, 0, 0, 31, 46, 0, 0, 0, 27, 0, 1, 29, 0, 55, 30, 48, 0, 0, 0, 0, 0, 0, 0, 0, 0, 11, 0, 0, 0, 2, 0, 0, 0, 54, 0, 0, 0, 0, 43, 0
|0, 56, 17, 0, 46, 2, 0, 0, 0, 0, 32, 0, 0, 0, 0, 0, 0, 0, 61, 27, 0, 0, 0, 6, 0, 0, 0, 14, 50, 0, 0, 0, 12, 0, 15, 39, 0, 0, 0, 0, 0, 0, 0, 0, 0, 0, 45, 43, 0, 25, 0, 0, 0, 0, 0, 0, 0, 0, 0, 0, 0, 0, 0, 0
|0, 0, 0, 40, 43, 0, 0, 22, 0, 0, 0, 0, 0, 0, 0, 25, 0, 0, 0, 0, 14, 59, 0, 0, 0, 0, 0, 0, 0, 8, 30, 0, 0, 0, 13, 0, 21, 0, 0, 0, 34, 0, 0, 0, 0, 20, 0, 27, 50, 0, 0, 33, 0, 0, 29, 7, 0, 0, 0, 0, 0, 0, 0, 0
|19, 0, 0, 0, 32, 55, 1, 44, 13, 0, 0, 0, 43, 29, 0, 34, 0, 3, 0, 0, 0, 21, 9, 15, 11, 0, 0, 0, 0, 54, 0, 17, 0, 56, 0, 0, 22, 0, 0, 25, 0, 0, 0, 0, 0, 0, 0, 60, 0, 42, 0, 0, 0, 0, 0, 4, 0, 0, 28, 50, 0, 0, 6, 38
|0, 0, 0, 0, 1, 0, 0, 0, 0, 44, 0, 22, 0, 0, 0, 0, 0, 0, 14, 0, 27, 36, 32, 0, 0, 13, 0, 0, 0, 0, 0, 40, 6, 0, 0, 0, 0, 42, 60, 0, 28, 0, 0, 0, 0, 16, 0, 18, 0, 0, 0, 0, 0, 0, 0, 0, 0, 49, 0, 17, 0, 47, 0, 39
|0, 0, 0, 0, 0, 0, 35, 34, 0, 51, 0, 0, 14, 4, 0, 0, 9, 59, 0, 0, 0, 8, 0, 0, 6, 0, 0, 0, 0, 0, 0, 0, 0, 38, 18, 0, 0, 0, 0, 0, 22, 0, 11, 26, 0, 0, 56, 49, 0, 0, 0, 0, 53, 64, 0, 21, 0, 0, 0, 0, 0, 0, 15, 0
|0, 62, 0, 58, 26, 0, 31, 2, 0, 24, 43, 0, 0, 50, 0, 0, 29, 49, 0, 33, 0, 0, 18, 0, 0, 0, 0, 48, 60, 0, 32, 0, 0, 0, 0, 0, 0, 0, 0, 0, 0, 0, 0, 38, 0, 21, 0, 0, 0, 27, 52, 0, 0, 17, 0, 8, 0, 0, 0, 34, 6, 0, 0, 0
|0, 44, 0, 0, 0, 54, 0, 38, 0, 0, 0, 0, 0, 0, 0, 0, 0, 0, 34, 0, 0, 0, 37, 0, 0, 0, 0, 0, 0, 27, 5, 0, 57, 0, 0, 0, 0, 0, 0, 0, 0, 43, 50, 53, 0, 0, 0, 0, 1, 0, 63, 0, 0, 3, 0, 0, 0, 8, 0, 0, 0, 0, 0, 55
|0, 0, 0, 0, 0, 45, 0, 0, 63, 0, 0, 0, 0, 0, 46, 0, 64, 0, 0, 24, 26, 0, 0, 0, 0, 23, 0, 0, 0, 0, 0, 61, 0, 15, 0, 56, 0, 0, 0, 0, 0, 0, 58, 0, 0, 17, 3, 54, 16, 0, 44, 6, 0, 0, 0, 0, 0, 0, 1, 10, 0, 0, 0, 0
|0, 0, 0, 8, 0, 0, 0, 0, 31, 0, 0, 0, 0, 0, 0, 45, 61, 0, 0, 0, 0, 0, 0, 16, 37, 0, 0, 0, 0, 41, 0, 0, 43, 14, 0, 0, 0, 21, 0, 0, 0, 0, 0, 0, 39, 0, 47, 0, 0, 0, 0, 0, 10, 0, 0, 0, 60, 0, 35, 0, 62, 0, 0, 0
|0, 0, 0, 0, 0, 0, 30, 0, 0, 0, 0, 0, 0, 0, 60, 0, 22, 0, 0, 13, 0, 0, 0, 0, 0, 0, 0, 2, 28, 49, 21, 64, 0, 0, 0, 0, 0, 0, 0, 51, 0, 48, 0, 0, 0, 0, 46, 0, 0, 0, 5, 0, 0, 0, 0, 0, 0, 0, 0, 0, 0, 0, 0, 0
|18, 0, 0, 0, 0, 16, 0, 0, 15, 0, 0, 0, 0, 0, 0, 54, 0, 0, 0, 0, 0, 0, 35, 0, 0, 0, 31, 29, 45, 0, 17, 0, 0, 0, 2, 8, 0, 0, 0, 0, 30, 34, 0, 0, 0, 0, 0, 0, 0, 0, 47, 0, 0, 28, 0, 0, 0, 0, 23, 9, 26, 0, 0, 0
|0, 0, 0, 0, 20, 0, 22, 0, 25, 0, 41, 0, 32, 0, 47, 30, 0, 9, 0, 0, 36, 48, 14, 13, 0, 0, 27, 0, 0, 0, 0, 0, 0, 0, 0, 0, 0, 0, 15, 0, 0, 42, 0, 0, 0, 0, 0, 0, 0, 0, 64, 0, 0, 46, 0, 16, 0, 0, 0, 5, 0, 0, 1, 0
|0, 0, 15, 0, 0, 0, 34, 0, 43, 0, 17, 0, 0, 0, 51, 62, 0, 54, 3, 0, 0, 37, 0, 0, 0, 0, 0, 0, 0, 40, 0, 0, 0, 0, 0, 18, 0, 0, 50, 0, 11, 64, 0, 0, 47, 0, 0, 23, 12, 0, 0, 0, 0, 0, 60, 0, 0, 4, 0, 0, 0, 38, 0, 14
|0, 32, 0, 49, 0, 0, 0, 0, 0, 0, 0, 0, 15, 7, 0, 0, 0, 0, 0, 0, 0, 47, 0, 0, 60, 0, 0, 0, 0, 51, 0, 0, 0, 0, 0, 27, 54, 0, 0, 0, 9, 21, 0, 0, 19, 0, 0, 55, 0, 0, 0, 30, 0, 63, 0, 0, 0, 40, 31, 0, 64, 0, 0, 0
|0, 19, 57, 0, 0, 64, 38, 0, 49, 0, 33, 0, 0, 0, 0, 6, 32, 0, 0, 0, 5, 0, 0, 0, 39, 0, 0, 23, 0, 61, 0, 55, 8, 0, 0, 0, 0, 0, 0, 0, 27, 0, 0, 0, 0, 0, 25, 0, 0, 17, 0, 0, 58, 0, 0, 0, 13, 0, 0, 7, 0, 0, 0, 0
|7, 0, 0, 0, 28, 33, 0, 54, 0, 0, 0, 24, 21, 0, 0, 0, 0, 0, 1, 0, 0, 0, 61, 0, 0, 0, 11, 25, 8, 0, 0, 63, 0, 0, 64, 0, 0, 0, 45, 52, 53, 16, 30, 0, 0, 0, 20, 0, 4, 0, 0, 0, 34, 0, 50, 0, 0, 44, 0, 0, 35, 0, 0, 15
|0, 0, 16, 43, 45, 31, 46, 58, 36, 60, 0, 0, 0, 0, 0, 0, 11, 0, 0, 50, 15, 0, 0, 0, 21, 0, 0, 0, 0, 0, 0, 0, 0, 0, 0, 0, 0, 7, 0, 0, 17, 0, 49, 0, 28, 0, 0, 5, 25, 0, 38, 0, 0, 0, 0, 0, 56, 42, 0, 18, 52, 23, 19, 0
|0, 0, 4, 62, 11, 0, 0, 1, 0, 0, 0, 0, 0, 27, 0, 0, 0, 0, 17, 16, 44, 0, 0, 0, 0, 45, 0, 0, 0, 0, 41, 35, 0, 13, 0, 53, 63, 22, 23, 2, 0, 0, 0, 0, 0, 0, 0, 0, 0, 0, 0, 0, 56, 9, 0, 0, 0, 0, 0, 0, 0, 0, 0, 0
|0, 53, 60, 0, 44, 6, 0, 18, 0, 0, 0, 0, 0, 11, 16, 0, 0, 0, 0, 0, 0, 58, 26, 56, 0, 0, 0, 30, 15, 0, 0, 0, 0, 0, 19, 43, 9, 0, 0, 0, 13, 0, 0, 0, 0, 0, 50, 0, 31, 0, 0, 0, 0, 0, 0, 0, 0, 28, 0, 2, 0, 0, 0, 0|];