order = 8;
grid = [|38, 0, 0, 0, 0, 0, 0, 0, 0, 0, 0, 26, 0, 0, 0, 21, 0, 64, 32, 0, 0, 11, 0, 53, 0, 0, 0, 0, 0, 0, 0, 0, 0, 63, 6, 0, 0, 9, 0, 0, 0, 0, 7, 45, 58, 0, 37, 0, 0, 0, 0, 0, 0, 0, 19, 0, 56, 0, 0, 0, 0, 0, 3, 0
|0, 58, 8, 0, 16, 25, 0, 0, 0, 0, 0, 0, 52, 0, 0, 0, 10, 0, 0, 19, 0, 0, 0, 0, 0, 11, 53, 0, 0, 51, 63, 2, 64, 0, 0, 0, 0, 0, 0, 0, 5, 0, 30, 40, 57, 0, 0, 0, 14, 61, 36, 0, 46, 0, 0, 0, 0, 0, 60, 0, 0, 0, 0, 0
|0, 0, 41, 57, 0, 0, 0, 0, 31, 0, 0, 29, 33, 0, 0, 0, 0, 46, 0, 0, 0, 0, 43, 0, 23, 8, 24, 0, 0, 0, 0, 62, 19, 0, 10, 0, 0, 0, 0, 0, 0, 0, 0, 0, 0, 0, 35, 0, 0, 0, 39, 0, 28, 2, 0, 26, 0, 0, 21, 63, 0, 0, 14, 0
|0, 0, 37, 64, 4, 0, 0, 0, 0, 0, 0, 63, 46, 0, 0, 0, 13, 0, 0, 56, 14, 0, 0, 0, 0, 0, 0, 0, 0, 0, 0, 17, 0, 0, 47, 0, 0, 0, 0, 0, 19, 53, 62, 36, 0, 22, 0, 0, 0, 0, 0, 41, 0, 0, 0, 59, 0, 0, 5, 0, 0, 0, 0, 0
|1, 0, 0, 0, 0, 63, 44, 0, 6, 0, 0, 0, 0, 61, 0, 2, 0, 0, 58, 60, 0, 0, 0, 8, 0, 3, 0, 0, 0, 0, 0, 0, 12, 18, 49, 0, 30, 0, 0, 27, 0, 0, 0, 21, 0, 0, 0, 0, 0, 0, 35, 0, 33, 11, 0, 0, 0, 0, 9, 55, 0, 0, 0, 0
|0, 0, 47, 0, 13, 19, 0, 42, 16, 0, 0, 0, 0, 0, 0, 0, 0, 0, 0, 0, 0, 22, 0, 0, 0, 9, 0, 59, 0, 64, 33, 0, 31, 52, 60, 45, 53, 0, 48, 2, 25, 17, 0, 0, 0, 0, 0, 55, 37, 0, 56, 6, 0, 0, 0, 0, 0, 0, 39, 0, 0, 29, 0, 20
|45, 0, 60, 34, 0, 54, 0, 0, 62, 9, 56, 0, 0, 0, 0, 0, 2, 0, 0, 0, 3, 0, 0, 0, 0, 0, 0, 0, 0, 0, 39, 0, 55, 29, 0, 0, 23, 0, 0, 33, 0, 0, 0, 0, 0, 44, 0, 0, 0, 0, 0, 53, 64, 0, 0, 0, 0, 0, 0, 6, 12, 43, 0, 0
|21, 0, 30, 29, 62, 0, 0, 26, 0, 0, 0, 0, 19, 23, 0, 0, 0, 38, 0, 0, 0, 0, 0, 0, 0, 0, 0, 0, 0, 35, 54, 0, 0, 15, 1, 0, 0, 0, 0, 0, 0, 0, 60, 0, 0, 0, 13, 0, 0, 27, 0, 0, 0, 0, 0, 0, 0, 0, 17, 61, 0, 0, 0, 0
|0, 0, 0, 47, 0, 45, 0, 0, 0, 41, 0, 0, 0, 0, 0, 0, 0, 0, 0, 0, 0, 0, 0, 42, 20, 35, 0, 0, 17, 0, 16, 0, 0, 0, 0, 0, 0, 0, 50, 7, 0, 0, 0, 0, 0, 0, 1, 0, 0, 0, 0, 0, 0, 0, 0, 0, 0, 0, 33, 0, 0, 53, 0, 30
|0, 0, 0, 2, 59, 0, 0, 0, 0, 0, 0, 61, 38, 0, 0, 0, 0, 0, 33, 51, 25, 31, 0, 0, 0, 30, 0, 48, 49, 54, 0, 0, 0, 11, 22, 0, 0, 1, 0, 8, 6, 10, 15, 42, 0, 0, 0, 28, 40, 0, 0, 0, 0, 46, 52, 43, 23, 44, 0, 0, 21, 0, 57, 0
|0, 24, 0, 0, 0, 46, 0, 0, 0, 0, 60, 9, 0, 0, 33, 0, 0, 0, 5, 22, 0, 63, 34, 0, 0, 0, 31, 0, 28, 55, 0, 0, 0, 0, 0, 0, 0, 0, 21, 51, 0, 0, 18, 61, 0, 49, 36, 0, 0, 1, 0, 58, 16, 0, 0, 12, 14, 0, 0, 35, 52, 8, 11, 0
|0, 0, 0, 0, 0, 0, 0, 22, 45, 0, 0, 10, 35, 64, 0, 0, 53, 39, 0, 15, 0, 0, 0, 0, 8, 46, 25, 0, 5, 60, 0, 0, 0, 0, 28, 3, 20, 0, 18, 0, 0, 0, 44, 0, 0, 0, 0, 0, 0, 0, 0, 0, 0, 24, 0, 0, 6, 0, 0, 0, 0, 0, 0, 0
|0, 0, 0, 0, 1, 0, 0, 0, 0, 22, 0, 0, 0, 0, 0, 0, 0, 0, 7, 64, 0, 0, 0, 0, 0, 0, 0, 0, 41, 0, 0, 4, 33, 62, 0, 0, 0, 0, 0, 0, 0, 0, 0, 13, 0, 0, 0, 0, 0, 0, 0, 0, 18, 0, 0, 0, 0, 0, 0, 0, 0, 51, 0, 0
|0, 60, 16, 43, 0, 0, 0, 28, 24, 0, 11, 3, 0, 0, 0, 49, 56, 0, 0, 0, 0, 0, 47, 0, 29, 0, 0, 0, 0, 0, 0, 0, 0, 0, 0, 0, 6, 55, 0, 0, 17, 0, 23, 58, 40, 0, 54, 0, 0, 26, 0, 0, 0, 0, 0, 0, 0, 0, 0, 0, 0, 0, 0, 1
|17, 49, 0, 33, 10, 0, 0, 0, 44, 0, 0, 52, 0, 1, 0, 0, 11, 0, 0, 0, 0, 26, 0, 0, 0, 0, 0, 37, 51, 3, 0, 0, 48, 0, 0, 0, 0, 0, 0, 31, 0, 0, 19, 0, 24, 0, 4, 0, 0, 0, 30, 0, 0, 0, 0, 27, 0, 0, 54, 0, 0, 0, 5, 0
|5, 0, 0, 8, 51, 0, 23, 0, 42, 46, 0, 58, 0, 15, 0, 27, 0, 0, 0, 0, 0, 0, 0, 0, 33, 0, 0, 0, 0, 0, 0, 0, 0, 0, 0, 0, 57, 0, 0, 36, 0, 0, 3, 0, 0, 0, 0, 0, 0, 0, 25, 22, 0, 0, 0, 0, 0, 0, 47, 0, 62, 0, 0, 0
|26, 18, 0, 46, 0, 0, 0, 0, 55, 23, 0, 13, 0, 0, 0, 0, 29, 0, 0, 0, 30, 0, 59, 45, 1, 0, 54, 51, 7, 0, 0, 49, 0, 56, 39, 0, 0, 37, 22, 0, 47, 4, 0, 0, 17, 63, 40, 0, 0, 0, 0, 0, 24, 0, 43, 62, 0, 15, 12, 0, 0, 0, 0, 61
|48, 0, 0, 0, 0, 0, 0, 0, 0, 0, 0, 0, 0, 0, 26, 0, 0, 0, 63, 0, 0, 43, 0, 0, 58, 28, 0, 0, 0, 0, 0, 0, 0, 0, 0, 47, 0, 0, 0, 57, 0, 0, 0, 0, 50, 0, 0, 0, 0, 0, 0, 0, 0, 59, 0, 0, 37, 0, 0, 0, 0, 11, 0, 0
|0, 0, 0, 37, 0, 0, 13, 0, 0, 0, 30, 44, 0, 0, 0, 0, 0, 41, 49, 0, 0, 5, 35, 0, 0, 0, 0, 0, 0, 0, 0, 0, 0, 0, 0, 0, 43, 0, 0, 15, 0, 34, 33, 0, 23, 18, 29, 0, 0, 42, 0, 0, 0, 60, 1, 0, 0, 0, 0, 32, 17, 0, 0, 0
|0, 0, 64, 0, 47, 0, 0, 0, 0, 0, 45, 0, 0, 27, 51, 0, 60, 0, 17, 58, 0, 0, 0, 0, 0, 37, 0, 0, 38, 0, 0, 0, 0, 23, 2, 0, 0, 0, 0, 0, 0, 0, 0, 0, 0, 0, 0, 0, 0, 0, 0, 57, 30, 0, 0, 0, 0, 56, 19, 0, 0, 0, 53, 54
|0, 0, 0, 31, 15, 0, 22, 0, 46, 0, 0, 0, 9, 0, 0, 0, 0, 27, 0, 0, 0, 0, 0, 0, 0, 0, 0, 16, 0, 0, 0, 32, 13, 49, 0, 44, 0, 0, 0, 0, 0, 0, 38, 0, 0, 0, 41, 0, 0, 0, 0, 14, 56, 0, 0, 19, 24, 40, 48, 0, 0, 0, 0, 3
|0, 0, 57, 0, 55, 0, 52, 0, 0, 42, 0, 0, 0, 0, 15, 10, 62, 0, 22, 31, 26, 0, 4, 12, 0, 39, 0, 0, 0, 0, 0, 0, 6, 0, 0, 33, 29, 0, 19, 0, 58, 0, 36, 0, 0, 13, 0, 0, 0, 0, 0, 0, 61, 0, 0, 0, 0, 38, 0, 0, 0, 35, 34, 0
|0, 34, 0, 0, 0, 0, 36, 0, 0, 31, 0, 28, 0, 0, 0, 0, 0, 0, 54, 0, 0, 0, 38, 0, 0, 0, 0, 2, 13, 0, 0, 0, 26, 45, 50, 0, 0, 18, 30, 4, 0, 0, 0, 0, 0, 0, 0, 0, 12, 0, 0, 0, 48, 0, 0, 0, 0, 0, 0, 0, 0, 49, 0, 0
|0, 0, 0, 0, 49, 0, 17, 0, 0, 0, 0, 0, 0, 38, 0, 56, 0, 0, 53, 0, 0, 0, 0, 0, 43, 0, 40, 0, 0, 0, 0, 35, 0, 0, 0, 0, 0, 28, 0, 0, 0, 0, 6, 0, 0, 0, 0, 0, 0, 8, 0, 0, 0, 0, 0, 0, 0, 0, 0, 58, 0, 0, 20, 0
|20, 0, 0, 39, 0, 0, 0, 0, 0, 0, 48, 64, 0, 17, 0, 0, 54, 43, 0, 0, 0, 61, 30, 0, 0, 15, 0, 32, 0, 0, 0, 0, 63, 0, 0, 38, 0, 0, 0, 0, 60, 0, 0, 0, 0, 0, 0, 0, 0, 0, 58, 21, 0, 49, 0, 0, 9, 0, 0, 0, 16, 0, 37, 56
|0, 0, 28, 1, 0, 0, 0, 0, 0, 0, 52, 0, 5, 0, 21, 0, 50, 16, 0, 0, 39, 62, 0, 0, 0, 0, 23, 0, 61, 0, 0, 0, 37, 0, 0, 0, 25, 43, 58, 13, 0, 15, 0, 0, 0, 0, 0, 0, 0, 0, 0, 0, 0, 0, 14, 0, 0, 0, 0, 0, 0, 0, 27, 0
|49, 0, 0, 0, 0, 0, 0, 61, 0, 0, 0, 0, 0, 37, 0, 0, 0, 36, 0, 0, 23, 0, 0, 0, 0, 16, 0, 0, 0, 0, 45, 0, 51, 0, 30, 0, 0, 0, 0, 17, 0, 44, 0, 0, 25, 33, 0, 0, 3, 15, 0, 0, 0, 20, 28, 24, 0, 0, 0, 0, 39, 0, 0, 47
|0, 0, 0, 0, 0, 0, 0, 16, 0, 19, 0, 0, 0, 0, 0, 0, 0, 0, 0, 3, 0, 0, 64, 26, 0, 7, 14, 0, 0, 0, 0, 0, 0, 0, 0, 20, 0, 0, 0, 0, 0, 0, 0, 17, 59, 0, 47, 0, 0, 0, 11, 0, 0, 0, 0, 0, 13, 0, 0, 0, 0, 0, 0, 0
|52, 0, 0, 18, 0, 0, 25, 0, 0, 54, 22, 0, 0, 0, 0, 31, 35, 58, 0, 38, 0, 0, 0, 0, 55, 13, 41, 0, 0, 0, 0, 0, 0, 60, 0, 0, 0, 23, 7, 42, 0, 61, 0, 6, 0, 0, 43, 0, 46, 62, 0, 0, 0, 29, 5, 0, 1, 34, 0, 0, 0, 0, 0, 0
|36, 38, 0, 0, 0, 35, 0, 0, 0, 0, 0, 0, 47, 39, 0, 40, 0, 0, 0, 0, 0, 0, 0, 0, 0, 17, 0, 0, 30, 37, 0, 50, 0, 9, 0, 0, 0, 0, 0, 0, 0, 20, 0, 0, 46, 0, 0, 0, 0, 16, 6, 0, 0, 0, 42, 0, 0, 0, 7, 57, 0, 21, 45, 0
|63, 0, 0, 0, 30, 0, 4, 0, 0, 0, 29, 0, 20, 0, 0, 0, 0, 0, 0, 0, 15, 28, 0, 6, 0, 0, 22, 0, 0, 43, 1, 53, 0, 0, 0, 0, 0, 0, 64, 0, 0, 21, 0, 0, 0, 9, 18, 3, 0, 0, 0, 0, 0, 0, 0, 0, 0, 0, 23, 2, 0, 59, 0, 0
|0, 0, 32, 0, 0, 0, 0, 0, 0, 0, 15, 0, 53, 3, 0, 0, 0, 0, 0, 0, 13, 4, 0, 0, 54, 0, 0, 0, 0, 0, 0, 42, 0, 0, 0, 0, 19, 44, 0, 0, 12, 0, 55, 7, 0, 0, 0, 0, 0, 0, 0, 0, 39, 0, 51, 50, 0, 0, 0, 0, 0, 46, 0, 22
|0, 0, 0, 0, 0, 48, 0, 0, 0, 0, 0, 0, 25, 0, 52, 0, 0, 0, 42, 0, 28, 58, 0, 0, 0, 0, 0, 0, 0, 0, 0, 0, 0, 31, 27, 0, 0, 0, 0, 64, 0, 6, 0, 43, 0, 53, 0, 0, 0, 19, 49, 0, 9, 0, 0, 0, 30, 0, 0, 0, 0, 14, 0, 57
|0, 42, 0, 0, 0, 33, 0, 0, 9, 0, 0, 0, 24, 0, 0, 0, 0, 0, 0, 0, 0, 0, 0, 0, 0, 0, 0, 0, 0, 0, 0, 0, 0, 0, 0, 0, 0, 12, 0, 39, 0, 32, 0, 0, 0, 61, 26, 49, 0, 41, 0, 29, 25, 0, 0, 28, 0, 0, 0, 15, 43, 0, 10, 0
|0, 0, 38, 0, 0, 0, 0, 43, 0, 0, 0, 0, 0, 0, 0, 15, 0, 54, 18, 0, 0, 0, 0, 36, 0, 0, 37, 0, 40, 0, 0, 56, 0, 4, 0, 0, 0, 0, 0, 0, 0, 30, 0, 0, 0, 0, 0, 10, 0, 0, 47, 0, 0, 0, 0, 42, 33, 0, 0, 0, 55, 0, 24, 19
|0, 0, 0, 0, 32, 56, 5, 0, 18, 0, 0, 14, 0, 44, 23, 0, 0, 25, 64, 61, 57, 0, 19, 0, 0, 0, 0, 0, 0, 0, 0, 26, 0, 59, 15, 0, 0, 52, 0, 0, 0, 0, 0, 47, 0, 0, 0, 0, 0, 0, 0, 2, 0, 40, 0, 0, 0, 0, 0, 0, 0, 34, 0, 0
|0, 0, 34, 0, 0, 0, 0, 0, 17, 0, 0, 5, 0, 22, 0, 0, 32, 0, 0, 0, 56, 0, 0, 0, 0, 43, 7, 57, 0, 0, 0, 0, 21, 0, 63, 0, 0, 0, 0, 0, 0, 55, 0, 3, 0, 0, 0, 0, 0, 0, 10, 0, 0, 0, 0, 0, 0, 0, 0, 0, 40, 9, 0, 64
|0, 0, 0, 54, 0, 60, 31, 0, 48, 0, 0, 0, 7, 0, 6, 0, 0, 26, 0, 0, 0, 0, 0, 0, 0, 0, 0, 0, 0, 45, 0, 0, 17, 0, 32, 0, 0, 0, 0, 0, 0, 0, 0, 0, 0, 0, 0, 0, 0, 43, 0, 27, 57, 12, 0, 0, 0, 52, 0, 0, 38, 41, 0, 44
|19, 0, 0, 0, 0, 0, 0, 0, 0, 35, 0, 0, 0, 0, 43, 0, 0, 0, 0, 0, 0, 0, 22, 0, 0, 42, 0, 0, 52, 31, 0, 58, 0, 0, 0, 0, 41, 0, 0, 0, 0, 28, 34, 0, 60, 0, 0, 0, 0, 0, 0, 0, 0, 0, 0, 63, 0, 11, 0, 0, 32, 61, 0, 0
|0, 0, 0, 0, 0, 0, 0, 0, 30, 0, 0, 0, 0, 0, 0, 0, 0, 0, 0, 0, 10, 0, 0, 0, 0, 0, 0, 0, 0, 24, 0, 36, 0, 0, 0, 43, 0, 0, 37, 0, 4, 0, 0, 0, 18, 0, 0, 40, 0, 0, 0, 0, 0, 0, 32, 6, 0, 0, 0, 0, 0, 0, 0, 0
|0, 0, 0, 0, 0, 0, 0, 0, 0, 0, 0, 0, 0, 21, 0, 0, 0, 0, 0, 0, 0, 0, 0, 0, 17, 0, 36, 54, 0, 63, 0, 0, 0, 0, 0, 0, 0, 0, 0, 0, 0, 0, 0, 0, 0, 0, 53, 20, 0, 0, 0, 0, 0, 0, 48, 41, 47, 6, 26, 0, 50, 0, 0, 46
|8, 45, 52, 25, 0, 0, 0, 0, 0, 0, 0, 0, 56, 0, 47, 19, 0, 0, 0, 0, 0, 0, 0, 55, 0, 0, 0, 0, 0, 28, 0, 0, 0, 0, 0, 0, 0, 0, 60, 0, 46, 37, 0, 0, 0, 0, 0, 4, 6, 0, 0, 0, 0, 50, 0, 0, 0, 0, 15, 9, 0, 0, 0, 0
|0, 0, 0, 0, 0, 0, 0, 0, 0, 0, 0, 0, 18, 0, 0, 7, 28, 0, 0, 0, 0, 0, 0, 54, 0, 0, 0, 5, 50, 0, 41, 0, 0, 0, 0, 26, 61, 0, 0, 0, 0, 0, 0, 0, 0, 47, 0, 0, 20, 0, 0, 0, 0, 0, 0, 0, 8, 24, 0, 0, 0, 17, 23, 34
|0, 0, 49, 0, 22, 0, 34, 0, 0, 0, 0, 0, 0, 0, 50, 0, 63, 47, 0, 0, 0, 64, 0, 30, 0, 0, 0, 0, 0, 0, 0, 0, 32, 17, 20, 57, 14, 15, 0, 0, 0, 59, 51, 0, 0, 0, 0, 9, 10, 37, 0, 7, 12, 0, 0, 0, 0, 42, 0, 0, 0, 52, 0, 0
|0, 0, 0, 20, 0, 0, 0, 0, 0, 0, 57, 0, 0, 0, 0, 0, 0, 0, 0, 0, 0, 40, 41, 24, 37, 0, 9, 0, 0, 0, 0, 0, 34, 35, 16, 0, 0, 0, 0, 0, 0, 54, 0, 30, 0, 0, 0, 0, 0, 0, 46, 0, 0, 0, 0, 0, 0, 0, 3, 0, 0, 0, 36, 0
|0, 0, 17, 0, 0, 59, 62, 57, 4, 0, 0, 32, 0, 30, 0, 0, 0, 0, 0, 2, 0, 0, 0, 0, 0, 0, 0, 0, 19, 0, 0, 0, 0, 0, 21, 10, 0, 63, 11, 0, 0, 0, 0, 0, 0, 0, 0, 0, 0, 0, 0, 0, 0, 38, 0, 52, 54, 14, 0, 0, 0, 45, 35, 0
|0, 0, 0, 0, 50, 0, 0, 0, 0, 0, 0, 38, 0, 24, 0, 0, 0, 0, 10, 13, 29, 0, 0, 0, 0, 34, 0, 0, 35, 0, 57, 14, 0, 0, 0, 0, 0, 0, 0, 28, 0, 40, 52, 0, 19, 0, 0, 0, 0, 58, 0, 0, 0, 31, 0, 44, 0, 0, 0, 0, 0, 0, 0, 60
|0, 0, 0, 3, 0, 0, 63, 0, 0, 0, 0, 0, 0, 0, 20, 34, 0, 0, 0, 59, 58, 0, 44, 16, 0, 0, 0, 27, 0, 30, 53, 0, 0, 0, 25, 0, 0, 8, 0, 0, 0, 0, 21, 33, 28, 55, 57, 0, 0, 0, 0, 0, 42, 19, 0, 0, 0, 0, 0, 13, 0, 0, 40, 5
|22, 41, 0, 0, 44, 0, 57, 0, 2, 52, 0, 53, 61, 0, 0, 0, 0, 0, 0, 0, 0, 20, 0, 0, 0, 0, 19, 10, 0, 0, 0, 0, 0, 0, 0, 0, 64, 0, 24, 16, 0, 0, 49, 0, 0, 0, 0, 54, 0, 0, 0, 42, 0, 47, 17, 0, 35, 0, 0, 0, 0, 5, 0, 27
|0, 0, 0, 0, 17, 0, 0, 0, 0, 0, 0, 30, 0, 0, 0, 63, 0, 37, 2, 0, 0, 21, 0, 0, 0, 0, 0, 0, 36, 0, 0, 0, 0, 61, 0, 0, 0, 0, 0, 0, 0, 35, 0, 29, 0, 0, 44, 0, 48, 33, 0, 0, 1, 0, 0, 0, 0, 0, 10, 0, 0, 0, 0, 50
|0, 30, 24, 0, 5, 0, 6, 0, 0, 0, 0, 0, 0, 0, 0, 0, 12, 0, 38, 10, 0, 0, 0, 40, 50, 0, 0, 8, 0, 0, 48, 11, 0, 53, 0, 0, 0, 0, 39, 19, 20, 0, 0, 0, 0, 17, 0, 0, 0, 0, 0, 25, 58, 0, 3, 0, 0, 26, 34, 0, 0, 7, 43, 0
|56, 0, 0, 0, 0, 0, 0, 14, 0, 15, 0, 0, 0, 0, 0, 29, 18, 0, 3, 5, 0, 42, 0, 48, 0, 0, 0, 0, 0, 0, 0, 6, 0, 38, 0, 0, 0, 0, 8, 0, 0, 0, 0, 60, 0, 0, 55, 0, 27, 2, 0, 0, 0, 0, 53, 0, 59, 54, 32, 0, 30, 0, 0, 0
|0, 0, 55, 0, 0, 36, 42, 40, 0, 0, 4, 12, 44, 50, 0, 8, 0, 0, 0, 0, 0, 25, 58, 0, 35, 0, 20, 0, 29, 0, 0, 0, 57, 0, 0, 0, 51, 0, 0, 0, 0, 2, 0, 0, 37, 0, 0, 0, 0, 0, 41, 0, 7, 28, 16, 32, 0, 0, 18, 0, 0, 23, 0, 0
|0, 52, 0, 0, 0, 0, 45, 0, 0, 0, 18, 0, 0, 0, 0, 0, 0, 0, 0, 6, 41, 0, 53, 0, 15, 55, 34, 0, 33, 0, 0, 0, 0, 0, 0, 59, 0, 0, 0, 0, 0, 0, 4, 0, 8, 0, 27, 0, 0, 0, 0, 0, 0, 0, 0, 56, 0, 0, 0, 0, 0, 0, 2, 0
|0, 0, 0, 49, 0, 51, 58, 0, 0, 14, 0, 45, 10, 0, 0, 0, 16, 0, 0, 0, 0, 0, 0, 50, 0, 0, 0, 0, 0, 39, 4, 0, 0, 0, 0, 0, 0, 0, 2, 0, 0, 0, 0, 0, 0, 28, 0, 26, 0, 0, 12, 59, 6, 0, 40, 0, 0, 0, 29, 0, 0, 64, 0, 0
|0, 0, 0, 28, 0, 0, 0, 33, 3, 0, 5, 0, 0, 42, 19, 0, 0, 4, 0, 0, 0, 0, 0, 0, 0, 0, 61, 0, 59, 41, 0, 0, 0, 0, 0, 23, 21, 0, 0, 22, 18, 0, 0, 0, 0, 0, 0, 0, 0, 0, 0, 0, 0, 0, 0, 30, 0, 0, 0, 0, 0, 0, 39, 0
|0, 55, 58, 0, 0, 52, 0, 0, 0, 0, 0, 0, 0, 45, 0, 0, 37, 0, 0, 0, 0, 44, 0, 0, 0, 38, 0, 0, 0, 0, 0, 43, 16, 0, 8, 0, 0, 59, 0, 18, 0, 46, 0, 0, 0, 0, 0, 0, 61, 0, 53, 0, 0, 0, 63, 57, 0, 36, 0, 0, 35, 0, 0, 2
|0, 0, 0, 0, 0, 0, 0, 0, 52, 0, 0, 0, 34, 0, 0, 0, 58, 0, 11, 0, 0, 0, 8, 0, 0, 0, 0, 0, 18, 0, 0, 0, 0, 0, 57, 25, 0, 0, 51, 0, 0, 0, 0, 0, 0, 0, 0, 0, 0, 0, 0, 50, 0, 0, 0, 0, 0, 29, 0, 0, 0, 37, 0, 0
|0, 0, 0, 0, 0, 34, 0, 0, 40, 10, 53, 0, 15, 56, 49, 0, 0, 0, 0, 12, 0, 1, 0, 0, 31, 0, 51, 0, 0, 0, 0, 0, 30, 0, 0, 0, 0, 2, 5, 0, 44, 0, 0, 18, 0, 16, 0, 61, 0, 0, 0, 4, 0, 0, 0, 0, 0, 0, 0, 0, 0, 63, 0, 0
|0, 0, 0, 0, 0, 2, 0, 0, 0, 57, 0, 0, 62, 0, 0, 0, 6, 32, 0, 0, 0, 24, 52, 25, 53, 12, 0, 0, 0, 42, 0, 0, 0, 0, 0, 64, 0, 41, 0, 3, 10, 0, 54, 31, 47, 0, 0, 0, 0, 0, 0, 0, 0, 0, 0, 0, 0, 0, 0, 0, 0, 0, 0, 48
|0, 0, 0, 6, 0, 23, 0, 0, 0, 13, 0, 20, 59, 55, 54, 0, 0, 0, 15, 0, 0, 0, 10, 28, 44, 49, 27, 0, 0, 0, 0, 37, 43, 33, 14, 9, 42, 0, 0, 26, 0, 0, 0, 0, 51, 0, 0, 35, 1, 0, 0, 0, 0, 56, 0, 0, 0, 0, 52, 12, 0, 0, 16, 58
|0, 0, 0, 0, 0, 61, 0, 0, 0, 0, 9, 0, 50, 0, 44, 22, 64, 35, 0, 0, 42, 0, 2, 0, 0, 48, 0, 0, 0, 0, 25, 0, 0, 0, 17, 0, 0, 58, 0, 0, 0, 36, 0, 0, 0, 0, 0, 0, 33, 0, 59, 0, 10, 0, 0, 0, 0, 46, 0, 0, 0, 0, 0, 0
|28, 0, 5, 0, 0, 0, 19, 48, 38, 0, 0, 0, 0, 0, 12, 3, 0, 13, 0, 16, 49, 51, 0, 0, 63, 56, 0, 35, 0, 0, 61, 0, 0, 0, 0, 0, 0, 0, 0, 60, 0, 0, 0, 0, 0, 0, 0, 0, 26, 52, 0, 24, 0, 0, 0, 0, 0, 62, 0, 25, 0, 0, 0, 0
|0, 0, 0, 41, 0, 0, 7, 0, 32, 37, 26, 0, 0, 0, 27, 0, 48, 0, 0, 57, 0, 0, 0, 39, 24, 0, 58, 0, 0, 0, 0, 0, 0, 0, 44, 0, 0, 0, 0, 0, 0, 0, 43, 49, 0, 4, 22, 0, 0, 3, 0, 0, 0, 25, 0, 0, 0, 61, 0, 0, 0, 0, 0, 0|];