order = 8;
grid = [|0, 23, 0, 37, 0, 0, 44, 0, 0, 57, 0, 40, 0, 3, 0, 0, 0, 53, 0, 0, 28, 0, 0, 43, 62, 0, 2, 0, 61, 0, 0, 50, 0, 0, 0, 0, 42, 0, 0, 0, 58, 49, 0, 0, 4, 38, 0, 0, 0, 52, 24, 0, 0, 0, 0, 9, 0, 0, 0, 0, 32, 0, 0, 0
|0, 0, 0, 0, 0, 42, 58, 0, 0, 0, 46, 0, 11, 0, 38, 0, 0, 37, 0, 0, 0, 0, 0, 0, 0, 0, 0, 0, 16, 19, 0, 0, 0, 0, 0, 26, 0, 0, 0, 0, 0, 0, 0, 0, 51, 0, 0, 14, 0, 0, 0, 0, 0, 0, 0, 0, 39, 0, 0, 0, 0, 48, 0, 0
|0, 41, 0, 0, 0, 0, 0, 49, 0, 0, 0, 0, 0, 0, 0, 13, 0, 44, 0, 0, 0, 0, 14, 0, 0, 0, 28, 0, 0, 9, 0, 56, 1, 0, 0, 61, 10, 0, 0, 0, 0, 7, 60, 47, 0, 0, 64, 24, 27, 0, 0, 0, 48, 0, 0, 57, 0, 0, 0, 0, 59, 0, 30, 0
|0, 0, 0, 59, 0, 0, 0, 0, 0, 0, 0, 0, 0, 23, 2, 41, 0, 0, 0, 0, 0, 19, 36, 0, 0, 0, 0, 0, 0, 0, 4, 0, 34, 44, 0, 33, 0, 52, 0, 63, 0, 0, 35, 0, 0, 8, 17, 0, 0, 0, 0, 0, 0, 0, 21, 40, 12, 61, 0, 0, 0, 0, 0, 0
|6, 63, 0, 0, 53, 0, 0, 0, 49, 0, 0, 25, 0, 0, 0, 0, 0, 0, 0, 0, 1, 13, 0, 20, 23, 0, 0, 0, 0, 0, 0, 21, 0, 0, 0, 0, 0, 0, 7, 0, 42, 0, 0, 30, 0, 59, 0, 0, 0, 0, 0, 0, 0, 12, 2, 0, 0, 0, 57, 0, 0, 44, 0, 54
|0, 0, 0, 56, 0, 0, 2, 57, 0, 0, 0, 0, 59, 0, 0, 0, 18, 0, 0, 33, 52, 41, 0, 0, 0, 42, 64, 7, 48, 0, 0, 0, 0, 0, 0, 0, 0, 0, 0, 17, 0, 0, 0, 0, 13, 0, 0, 0, 0, 0, 15, 3, 0, 0, 0, 0, 4, 0, 49, 0, 10, 0, 0, 50
|0, 4, 0, 5, 0, 33, 0, 0, 0, 0, 42, 0, 0, 0, 0, 63, 0, 0, 0, 0, 0, 0, 0, 0, 0, 0, 0, 0, 31, 27, 0, 0, 0, 0, 0, 0, 0, 0, 0, 0, 0, 0, 6, 0, 0, 0, 0, 0, 0, 43, 0, 0, 0, 41, 0, 0, 0, 0, 46, 0, 0, 0, 0, 0
|30, 22, 0, 0, 0, 0, 31, 20, 0, 0, 0, 0, 0, 0, 0, 6, 0, 59, 0, 54, 0, 42, 0, 0, 0, 0, 14, 0, 0, 0, 0, 0, 53, 41, 0, 0, 0, 0, 0, 0, 0, 23, 40, 0, 0, 0, 0, 0, 0, 0, 0, 0, 0, 1, 0, 0, 0, 0, 11, 2, 0, 0, 0, 0
|0, 60, 19, 0, 0, 0, 0, 23, 0, 0, 0, 0, 1, 25, 0, 0, 0, 21, 0, 0, 0, 0, 51, 35, 6, 64, 0, 0, 0, 0, 0, 0, 4, 39, 32, 10, 0, 0, 29, 0, 0, 0, 15, 0, 0, 0, 0, 0, 0, 0, 0, 38, 0, 0, 47, 0, 0, 34, 0, 0, 52, 0, 0, 18
|0, 0, 0, 33, 0, 0, 0, 0, 26, 0, 0, 58, 36, 0, 0, 22, 45, 0, 60, 0, 13, 10, 0, 0, 46, 0, 0, 1, 15, 0, 0, 0, 0, 0, 0, 0, 19, 0, 0, 0, 0, 0, 0, 17, 0, 0, 23, 0, 20, 40, 0, 0, 35, 0, 12, 21, 62, 0, 38, 4, 0, 39, 0, 0
|0, 0, 20, 0, 0, 0, 0, 0, 0, 0, 0, 0, 0, 0, 0, 0, 0, 0, 52, 0, 0, 0, 0, 0, 0, 0, 13, 0, 33, 0, 0, 0, 56, 62, 0, 49, 0, 53, 0, 0, 0, 0, 0, 26, 27, 0, 0, 0, 0, 18, 0, 0, 0, 0, 15, 0, 36, 48, 0, 17, 0, 0, 0, 5
|61, 0, 14, 0, 0, 8, 56, 0, 0, 0, 19, 0, 0, 54, 0, 0, 2, 0, 25, 0, 48, 0, 41, 0, 0, 0, 11, 35, 0, 0, 23, 0, 15, 0, 0, 0, 0, 0, 0, 0, 0, 0, 0, 42, 0, 0, 0, 0, 0, 0, 0, 0, 29, 0, 0, 0, 53, 0, 0, 16, 27, 0, 24, 0
|41, 0, 0, 0, 0, 12, 45, 0, 0, 0, 0, 0, 0, 0, 0, 0, 0, 0, 0, 0, 0, 0, 0, 42, 0, 0, 19, 0, 0, 62, 0, 0, 0, 0, 0, 0, 0, 0, 23, 21, 60, 0, 0, 0, 0, 55, 0, 57, 0, 0, 0, 0, 0, 0, 0, 0, 0, 0, 0, 0, 0, 0, 0, 0
|5, 0, 0, 0, 28, 0, 0, 58, 0, 18, 0, 0, 0, 62, 0, 0, 57, 0, 12, 11, 0, 0, 0, 0, 0, 39, 0, 0, 7, 42, 21, 61, 0, 0, 0, 0, 0, 0, 16, 22, 13, 0, 0, 4, 0, 0, 0, 0, 19, 0, 0, 0, 55, 0, 32, 0, 0, 0, 23, 0, 26, 54, 0, 0
|0, 36, 0, 0, 63, 21, 59, 11, 0, 40, 2, 0, 0, 64, 0, 0, 0, 0, 50, 0, 0, 0, 0, 23, 0, 0, 0, 0, 0, 38, 18, 0, 0, 0, 0, 0, 0, 34, 0, 0, 1, 0, 9, 0, 0, 0, 54, 0, 0, 0, 44, 0, 0, 0, 0, 0, 0, 0, 20, 0, 0, 0, 0, 8
|0, 0, 0, 0, 0, 0, 0, 0, 23, 0, 30, 0, 37, 0, 0, 61, 0, 64, 0, 0, 0, 5, 0, 0, 0, 0, 0, 25, 0, 16, 0, 41, 0, 45, 0, 0, 0, 0, 47, 0, 0, 29, 0, 63, 2, 11, 38, 34, 0, 0, 0, 4, 49, 42, 52, 0, 0, 0, 0, 0, 0, 0, 21, 19
|0, 0, 42, 0, 0, 34, 0, 0, 36, 0, 0, 4, 17, 9, 28, 0, 0, 0, 21, 0, 0, 0, 64, 45, 0, 0, 60, 0, 0, 0, 0, 0, 0, 0, 35, 53, 46, 0, 0, 39, 30, 0, 0, 49, 22, 0, 0, 0, 62, 0, 0, 0, 40, 0, 0, 0, 8, 0, 0, 54, 0, 0, 0, 47
|0, 0, 51, 0, 23, 0, 0, 9, 0, 0, 60, 0, 0, 0, 0, 0, 0, 10, 48, 0, 0, 44, 0, 59, 0, 57, 31, 0, 0, 0, 0, 0, 47, 0, 33, 63, 0, 0, 56, 0, 16, 0, 7, 0, 0, 0, 0, 0, 0, 22, 0, 0, 25, 46, 24, 0, 58, 0, 34, 0, 0, 0, 4, 12
|0, 45, 8, 0, 0, 44, 0, 0, 0, 2, 49, 50, 47, 0, 0, 0, 31, 0, 0, 53, 0, 0, 0, 0, 37, 0, 23, 0, 0, 24, 28, 25, 52, 30, 0, 0, 32, 0, 0, 0, 0, 0, 0, 0, 0, 0, 61, 0, 0, 0, 0, 48, 0, 3, 0, 0, 22, 0, 0, 0, 0, 0, 0, 0
|0, 59, 47, 0, 0, 0, 0, 50, 39, 33, 0, 0, 0, 0, 26, 62, 0, 0, 46, 0, 0, 0, 0, 0, 0, 0, 0, 0, 0, 0, 0, 11, 0, 7, 0, 0, 0, 58, 0, 0, 0, 0, 0, 0, 0, 0, 0, 6, 0, 0, 0, 0, 0, 45, 0, 0, 61, 35, 0, 10, 0, 0, 0, 0
|0, 18, 0, 0, 0, 24, 0, 0, 0, 0, 57, 0, 0, 0, 0, 0, 0, 0, 0, 0, 0, 56, 0, 0, 14, 0, 0, 0, 0, 0, 42, 0, 5, 0, 0, 0, 0, 62, 0, 0, 48, 36, 0, 0, 0, 27, 0, 43, 0, 8, 0, 64, 9, 0, 0, 12, 51, 0, 0, 0, 0, 0, 0, 0
|2, 0, 0, 0, 61, 0, 54, 10, 0, 0, 0, 0, 0, 51, 0, 0, 49, 0, 0, 0, 27, 17, 0, 0, 0, 41, 0, 0, 0, 0, 46, 0, 0, 0, 0, 0, 24, 0, 0, 0, 8, 38, 0, 59, 0, 34, 0, 0, 0, 28, 0, 0, 0, 7, 6, 0, 0, 0, 0, 0, 36, 0, 0, 0
|0, 58, 0, 15, 0, 0, 0, 0, 18, 0, 0, 0, 0, 0, 0, 0, 22, 0, 0, 0, 0, 54, 2, 62, 0, 0, 0, 0, 0, 49, 0, 0, 64, 0, 0, 0, 0, 21, 14, 0, 0, 0, 0, 0, 0, 0, 1, 0, 0, 0, 0, 0, 0, 0, 0, 0, 19, 32, 0, 39, 0, 38, 0, 0
|0, 0, 22, 52, 0, 0, 0, 0, 24, 0, 64, 0, 0, 34, 0, 0, 0, 0, 18, 0, 43, 0, 0, 0, 0, 0, 0, 9, 0, 8, 0, 0, 0, 0, 0, 0, 0, 16, 0, 0, 0, 47, 0, 40, 23, 0, 26, 0, 0, 49, 0, 0, 0, 14, 56, 0, 0, 0, 0, 28, 0, 13, 0, 0
|0, 20, 40, 29, 0, 0, 0, 19, 0, 25, 4, 0, 0, 0, 0, 0, 0, 8, 32, 0, 31, 53, 0, 0, 0, 28, 0, 0, 0, 0, 0, 23, 0, 0, 3, 0, 0, 0, 24, 0, 0, 0, 0, 61, 0, 0, 43, 56, 0, 42, 33, 0, 7, 52, 14, 0, 50, 0, 37, 0, 55, 1, 0, 0
|22, 0, 0, 0, 0, 0, 0, 0, 0, 53, 0, 0, 16, 0, 30, 0, 0, 0, 0, 0, 14, 0, 52, 2, 0, 17, 0, 0, 32, 0, 43, 15, 0, 0, 0, 0, 0, 1, 50, 0, 45, 0, 0, 0, 0, 0, 0, 36, 13, 0, 0, 11, 0, 0, 0, 0, 0, 39, 62, 0, 12, 58, 0, 10
|0, 0, 0, 0, 0, 0, 0, 0, 0, 0, 35, 0, 0, 0, 0, 58, 0, 0, 0, 0, 0, 0, 0, 0, 0, 0, 42, 0, 0, 0, 0, 3, 49, 0, 25, 0, 0, 0, 0, 32, 54, 0, 0, 0, 0, 0, 0, 0, 0, 51, 0, 39, 0, 0, 34, 0, 38, 0, 47, 13, 61, 0, 36, 0
|0, 0, 58, 0, 0, 0, 0, 0, 0, 0, 8, 0, 0, 0, 0, 18, 0, 20, 0, 28, 0, 0, 0, 54, 0, 0, 0, 0, 0, 0, 11, 0, 0, 0, 0, 0, 34, 0, 0, 0, 32, 0, 0, 0, 31, 51, 0, 0, 22, 55, 0, 0, 0, 0, 0, 0, 0, 0, 4, 0, 0, 41, 35, 0
|0, 16, 0, 0, 0, 52, 13, 0, 0, 0, 0, 0, 0, 0, 0, 0, 35, 0, 4, 0, 0, 0, 0, 0, 0, 30, 0, 0, 18, 0, 0, 0, 0, 36, 57, 0, 0, 38, 0, 7, 0, 63, 0, 0, 40, 0, 0, 0, 56, 0, 0, 0, 5, 0, 19, 0, 0, 0, 17, 31, 9, 0, 0, 0
|0, 0, 0, 0, 0, 0, 60, 31, 0, 0, 32, 0, 0, 0, 0, 0, 0, 56, 0, 0, 0, 0, 49, 0, 0, 35, 0, 0, 0, 0, 0, 0, 37, 0, 0, 0, 0, 0, 4, 23, 3, 55, 0, 0, 6, 0, 41, 0, 0, 0, 0, 0, 12, 0, 61, 0, 0, 0, 0, 0, 43, 0, 0, 0
|0, 0, 41, 0, 14, 47, 0, 0, 6, 0, 0, 0, 0, 0, 31, 26, 62, 0, 0, 0, 0, 38, 0, 0, 44, 0, 0, 0, 4, 33, 0, 0, 22, 0, 0, 0, 0, 0, 0, 0, 0, 0, 34, 0, 0, 21, 0, 0, 0, 0, 48, 16, 0, 0, 0, 0, 54, 49, 0, 63, 8, 0, 0, 23
|12, 0, 0, 0, 0, 7, 0, 0, 33, 0, 24, 0, 0, 0, 61, 17, 0, 41, 0, 0, 0, 0, 0, 0, 0, 49, 0, 0, 0, 0, 0, 0, 0, 14, 55, 0, 0, 0, 0, 56, 0, 0, 0, 38, 0, 0, 0, 0, 64, 0, 0, 0, 43, 0, 0, 0, 0, 0, 0, 25, 0, 42, 0, 0
|0, 0, 0, 0, 0, 0, 6, 0, 42, 0, 18, 0, 0, 16, 0, 0, 0, 0, 0, 0, 5, 0, 0, 0, 22, 0, 0, 0, 0, 0, 0, 0, 14, 0, 0, 0, 0, 0, 3, 0, 63, 10, 0, 0, 33, 0, 0, 0, 0, 2, 0, 20, 0, 0, 0, 29, 44, 0, 0, 0, 28, 0, 0, 24
|0, 0, 0, 0, 0, 0, 0, 0, 0, 0, 29, 0, 31, 0, 0, 0, 0, 0, 0, 0, 0, 0, 0, 49, 41, 0, 3, 0, 0, 0, 0, 0, 0, 0, 0, 0, 23, 0, 0, 0, 0, 0, 11, 0, 48, 16, 52, 0, 4, 0, 0, 45, 30, 0, 54, 53, 0, 21, 0, 0, 0, 0, 0, 0
|0, 8, 52, 0, 0, 0, 0, 26, 0, 59, 0, 0, 0, 11, 0, 0, 0, 0, 0, 0, 0, 0, 0, 41, 0, 0, 0, 0, 0, 0, 62, 0, 0, 10, 0, 25, 0, 0, 21, 0, 0, 60, 0, 35, 17, 43, 0, 0, 0, 58, 42, 0, 0, 19, 0, 0, 0, 4, 0, 0, 0, 0, 0, 0
|0, 0, 0, 0, 0, 51, 0, 0, 61, 0, 0, 1, 0, 45, 0, 0, 36, 12, 23, 0, 54, 0, 0, 0, 0, 52, 10, 43, 0, 0, 0, 0, 0, 0, 0, 0, 0, 4, 11, 0, 0, 0, 0, 0, 0, 15, 0, 18, 21, 0, 38, 5, 24, 26, 0, 0, 0, 0, 0, 56, 48, 0, 0, 0
|49, 0, 0, 0, 0, 0, 28, 0, 48, 0, 0, 0, 0, 0, 0, 0, 0, 0, 58, 0, 0, 0, 0, 25, 0, 0, 6, 0, 56, 0, 2, 9, 0, 35, 0, 0, 0, 0, 61, 0, 0, 0, 46, 8, 38, 0, 21, 0, 0, 37, 0, 0, 0, 47, 0, 0, 0, 0, 0, 0, 0, 0, 0, 40
|0, 7, 0, 0, 33, 0, 0, 0, 0, 0, 0, 17, 0, 0, 36, 9, 0, 0, 0, 0, 0, 0, 0, 0, 0, 0, 0, 27, 42, 32, 0, 13, 31, 0, 0, 34, 0, 0, 0, 29, 0, 0, 0, 51, 0, 0, 0, 23, 0, 0, 0, 0, 0, 10, 16, 0, 0, 0, 12, 0, 0, 0, 0, 0
|13, 17, 0, 4, 0, 46, 0, 0, 62, 0, 0, 0, 23, 0, 58, 43, 0, 0, 0, 0, 0, 0, 0, 6, 0, 0, 0, 0, 51, 0, 0, 14, 0, 0, 0, 0, 0, 0, 0, 0, 0, 0, 0, 9, 0, 54, 0, 31, 0, 0, 39, 40, 0, 0, 0, 0, 0, 2, 0, 0, 0, 37, 0, 32
|0, 0, 0, 0, 0, 0, 0, 0, 38, 0, 0, 0, 51, 0, 63, 0, 0, 28, 9, 0, 34, 0, 0, 0, 0, 0, 0, 20, 0, 50, 45, 0, 0, 0, 52, 0, 26, 0, 0, 19, 0, 5, 36, 62, 0, 32, 0, 0, 0, 0, 1, 57, 8, 0, 0, 0, 0, 23, 0, 42, 0, 0, 0, 0
|27, 0, 6, 0, 0, 0, 0, 0, 60, 0, 0, 0, 0, 0, 62, 49, 0, 0, 0, 0, 0, 21, 24, 0, 0, 0, 0, 0, 0, 0, 0, 0, 0, 0, 30, 0, 0, 0, 32, 0, 23, 0, 14, 52, 0, 0, 35, 0, 0, 0, 0, 53, 0, 0, 0, 0, 0, 45, 0, 11, 63, 12, 46, 0
|0, 38, 0, 1, 0, 0, 0, 53, 0, 0, 63, 27, 64, 26, 0, 0, 0, 0, 0, 0, 4, 0, 0, 0, 0, 0, 44, 0, 0, 25, 0, 0, 61, 18, 0, 19, 31, 0, 8, 0, 43, 48, 0, 0, 47, 0, 0, 0, 39, 59, 45, 34, 0, 0, 42, 16, 0, 58, 41, 0, 22, 55, 23, 7
|45, 0, 28, 0, 0, 0, 0, 0, 0, 0, 0, 39, 0, 8, 0, 0, 0, 0, 0, 0, 0, 0, 33, 34, 0, 0, 58, 0, 54, 53, 0, 0, 0, 0, 0, 56, 0, 0, 0, 0, 20, 0, 0, 18, 7, 0, 0, 21, 0, 0, 11, 0, 0, 62, 0, 0, 5, 0, 0, 50, 0, 0, 0, 0
|0, 0, 0, 0, 0, 0, 23, 0, 0, 0, 0, 0, 18, 0, 53, 0, 0, 45, 0, 0, 41, 49, 0, 64, 0, 0, 17, 0, 2, 0, 37, 0, 0, 42, 14, 0, 0, 24, 26, 0, 0, 58, 59, 0, 0, 50, 0, 46, 40, 0, 0, 29, 0, 0, 13, 0, 30, 16, 0, 60, 0, 0, 0, 0
|0, 0, 33, 0, 58, 0, 55, 0, 0, 44, 0, 46, 0, 0, 21, 0, 0, 42, 0, 0, 0, 0, 28, 0, 0, 18, 0, 38, 3, 0, 0, 0, 0, 0, 0, 0, 5, 0, 22, 0, 0, 0, 0, 36, 0, 0, 24, 0, 0, 0, 35, 0, 0, 50, 0, 0, 34, 0, 0, 57, 0, 27, 0, 0
|0, 24, 32, 0, 0, 18, 0, 0, 0, 0, 55, 0, 0, 0, 0, 36, 0, 0, 0, 0, 63, 0, 62, 0, 11, 0, 0, 0, 0, 7, 15, 0, 28, 0, 43, 0, 0, 0, 48, 0, 0, 0, 0, 0, 0, 0, 0, 0, 33, 26, 0, 22, 0, 0, 0, 0, 20, 0, 8, 0, 0, 0, 61, 29
|0, 48, 0, 20, 0, 0, 0, 42, 37, 11, 0, 0, 0, 2, 29, 0, 0, 13, 0, 9, 0, 46, 0, 0, 0, 0, 0, 0, 0, 0, 0, 10, 0, 0, 64, 0, 0, 0, 35, 0, 0, 0, 0, 0, 0, 0, 0, 0, 36, 32, 0, 0, 1, 30, 0, 0, 33, 0, 0, 0, 53, 0, 19, 0
|59, 31, 0, 0, 0, 0, 0, 47, 0, 0, 0, 0, 0, 56, 34, 0, 0, 0, 0, 1, 0, 0, 0, 0, 0, 32, 0, 0, 0, 0, 22, 12, 21, 0, 0, 0, 13, 0, 0, 50, 33, 0, 0, 0, 0, 0, 0, 0, 0, 0, 0, 0, 0, 0, 3, 60, 0, 38, 0, 49, 0, 0, 42, 0
|0, 0, 0, 0, 0, 0, 0, 0, 0, 50, 41, 0, 0, 0, 7, 0, 0, 0, 64, 4, 0, 0, 0, 37, 3, 0, 26, 58, 0, 0, 0, 0, 0, 33, 44, 0, 12, 0, 0, 0, 0, 27, 0, 0, 0, 36, 0, 32, 0, 0, 2, 24, 20, 0, 0, 0, 57, 0, 0, 0, 6, 19, 0, 0
|0, 0, 0, 26, 62, 0, 8, 0, 0, 0, 15, 0, 0, 0, 0, 0, 0, 0, 0, 0, 0, 0, 0, 57, 0, 0, 0, 0, 0, 41, 0, 0, 0, 0, 0, 0, 1, 0, 0, 0, 0, 0, 51, 0, 18, 0, 0, 0, 38, 31, 30, 13, 52, 0, 25, 0, 0, 0, 0, 0, 0, 0, 37, 0
|0, 9, 0, 0, 0, 0, 0, 51, 0, 0, 0, 0, 0, 0, 24, 0, 34, 36, 49, 3, 0, 47, 0, 0, 0, 0, 25, 0, 0, 0, 61, 0, 32, 0, 56, 0, 0, 0, 15, 0, 0, 44, 52, 0, 14, 7, 4, 0, 29, 0, 0, 23, 0, 33, 0, 54, 0, 0, 0, 0, 1, 0, 43, 0
|31, 54, 36, 0, 0, 30, 0, 0, 0, 0, 45, 0, 0, 59, 47, 0, 0, 0, 0, 0, 0, 0, 61, 18, 57, 0, 0, 32, 0, 4, 0, 0, 62, 0, 0, 0, 0, 0, 34, 0, 38, 13, 0, 0, 0, 0, 46, 0, 50, 0, 0, 0, 58, 0, 0, 0, 0, 0, 0, 40, 0, 25, 0, 0
|0, 0, 0, 2, 0, 0, 12, 0, 0, 0, 0, 0, 0, 55, 0, 0, 0, 50, 0, 0, 0, 0, 0, 0, 0, 0, 0, 0, 0, 0, 0, 63, 0, 0, 60, 0, 20, 29, 0, 0, 0, 53, 45, 0, 30, 0, 39, 35, 3, 0, 0, 0, 0, 56, 0, 0, 26, 0, 0, 0, 0, 59, 0, 11
|0, 0, 38, 0, 35, 0, 4, 0, 0, 0, 44, 0, 26, 31, 0, 0, 0, 29, 0, 52, 9, 0, 0, 0, 0, 0, 0, 0, 0, 0, 0, 33, 0, 0, 0, 28, 0, 30, 0, 0, 0, 0, 0, 0, 0, 0, 0, 0, 0, 64, 0, 0, 0, 59, 0, 42, 0, 0, 0, 0, 0, 0, 0, 0
|0, 40, 0, 3, 5, 0, 20, 0, 0, 0, 36, 9, 0, 0, 0, 2, 41, 0, 0, 0, 7, 1, 0, 0, 0, 0, 0, 18, 0, 0, 0, 31, 0, 0, 0, 0, 57, 47, 0, 0, 0, 62, 0, 0, 26, 23, 0, 0, 55, 0, 0, 14, 34, 48, 0, 0, 0, 0, 0, 33, 0, 0, 0, 0
|0, 0, 59, 7, 0, 0, 0, 0, 0, 0, 0, 0, 0, 0, 0, 0, 8, 62, 0, 0, 35, 0, 0, 0, 36, 0, 20, 15, 0, 0, 0, 0, 26, 0, 0, 0, 25, 0, 0, 0, 49, 0, 33, 0, 0, 0, 0, 22, 0, 63, 9, 0, 0, 0, 0, 0, 0, 10, 0, 0, 0, 0, 38, 0
|0, 0, 0, 0, 0, 0, 0, 0, 0, 0, 0, 0, 53, 18, 0, 0, 0, 0, 0, 0, 0, 35, 0, 55, 48, 11, 0, 0, 0, 0, 0, 0, 0, 29, 59, 0, 47, 0, 46, 10, 0, 0, 1, 0, 36, 0, 5, 0, 0, 0, 64, 0, 0, 0, 0, 45, 0, 12, 0, 0, 0, 0, 39, 57
|0, 55, 0, 0, 0, 6, 0, 0, 50, 0, 0, 30, 0, 0, 0, 20, 10, 0, 0, 0, 0, 0, 0, 0, 0, 0, 63, 0, 0, 37, 0, 32, 11, 0, 0, 44, 0, 0, 0, 0, 0, 0, 0, 0, 41, 0, 0, 59, 35, 24, 0, 0, 0, 0, 4, 0, 0, 1, 51, 0, 0, 18, 0, 0
|0, 2, 0, 0, 0, 0, 3, 0, 0, 0, 54, 0, 45, 43, 0, 8, 7, 0, 0, 17, 0, 50, 0, 0, 25, 0, 0, 0, 0, 0, 0, 18, 0, 0, 0, 0, 0, 0, 55, 0, 35, 22, 30, 44, 64, 24, 51, 42, 0, 62, 52, 0, 39, 0, 59, 0, 0, 0, 19, 38, 0, 46, 0, 6
|0, 64, 0, 0, 11, 0, 5, 17, 0, 60, 51, 38, 46, 0, 0, 0, 0, 0, 0, 0, 0, 18, 0, 8, 0, 0, 52, 0, 14, 0, 0, 0, 0, 0, 0, 0, 45, 0, 0, 0, 0, 32, 20, 0, 0, 0, 56, 0, 42, 0, 0, 0, 0, 40, 0, 47, 0, 50, 0, 0, 0, 49, 0, 0
|0, 0, 0, 48, 0, 25, 24, 0, 2, 63, 0, 0, 0, 0, 0, 0, 0, 0, 61, 22, 0, 57, 42, 0, 0, 0, 0, 0, 0, 0, 29, 0, 0, 0, 19, 32, 0, 7, 0, 53, 39, 0, 0, 0, 0, 0, 14, 0, 0, 11, 0, 28, 23, 0, 0, 27, 56, 59, 0, 0, 0, 0, 0, 0
|0, 0, 0, 18, 0, 0, 33, 52, 0, 0, 0, 0, 0, 0, 0, 0, 0, 26, 0, 0, 0, 0, 0, 0, 15, 0, 0, 30, 50, 0, 0, 0, 6, 0, 0, 0, 51, 0, 0, 0, 0, 34, 0, 0, 0, 0, 0, 0, 0, 0, 3, 56, 57, 0, 20, 0, 41, 0, 0, 0, 44, 28, 0, 0
|0, 0, 12, 0, 0, 16, 0, 21, 0, 0, 0, 26, 27, 7, 0, 0, 0, 0, 0, 41, 30, 0, 0, 0, 0, 55, 0, 6, 38, 0, 44, 0, 0, 0, 0, 31, 0, 17, 58, 0, 50, 0, 0, 37, 63, 18, 0, 0, 0, 0, 5, 0, 0, 0, 60, 32, 43, 54, 0, 0, 0, 0, 2, 0
|0, 0, 0, 0, 0, 0, 50, 0, 0, 0, 56, 0, 0, 0, 25, 0, 0, 46, 0, 45, 0, 0, 29, 0, 0, 0, 0, 0, 0, 5, 0, 0, 0, 21, 0, 0, 0, 0, 9, 43, 0, 11, 0, 0, 0, 0, 0, 0, 0, 30, 41, 0, 0, 0, 0, 51, 0, 0, 0, 0, 40, 53, 55, 0|];