order = 8;
grid = [|6, 0, 0, 0, 0, 0, 0, 0, 0, 0, 0, 46, 0, 0, 0, 49, 2, 0, 3, 0, 9, 0, 0, 0, 0, 0, 38, 0, 35, 0, 0, 57, 0, 11, 0, 0, 0, 0, 0, 0, 0, 0, 0, 0, 0, 0, 0, 0, 0, 0, 56, 48, 0, 0, 43, 0, 0, 0, 0, 0, 0, 0, 0, 7
|26, 60, 0, 0, 0, 62, 24, 31, 0, 3, 0, 37, 0, 50, 0, 0, 0, 0, 0, 0, 56, 0, 0, 0, 0, 0, 16, 0, 6, 0, 0, 9, 0, 0, 0, 0, 0, 43, 0, 0, 0, 7, 0, 0, 12, 29, 44, 0, 0, 0, 11, 0, 20, 0, 0, 0, 33, 0, 46, 0, 0, 0, 0, 0
|21, 0, 0, 4, 0, 0, 0, 0, 0, 0, 0, 0, 0, 0, 24, 0, 29, 50, 0, 54, 59, 55, 0, 1, 0, 46, 0, 64, 0, 0, 0, 0, 0, 41, 0, 3, 0, 0, 0, 0, 25, 57, 0, 0, 8, 0, 0, 35, 0, 0, 0, 0, 0, 47, 0, 0, 0, 0, 0, 27, 0, 28, 0, 0
|51, 0, 0, 0, 46, 39, 0, 17, 43, 0, 0, 53, 10, 0, 0, 0, 0, 0, 0, 0, 0, 62, 0, 0, 0, 0, 0, 41, 0, 0, 0, 0, 0, 13, 27, 0, 48, 0, 0, 16, 11, 0, 0, 4, 0, 0, 0, 63, 37, 59, 0, 0, 0, 0, 0, 0, 0, 0, 0, 0, 0, 0, 0, 0
|0, 0, 16, 9, 49, 0, 0, 29, 56, 0, 39, 55, 17, 61, 48, 63, 0, 0, 0, 0, 0, 0, 0, 0, 27, 18, 13, 58, 0, 0, 0, 28, 0, 0, 59, 0, 14, 0, 0, 0, 31, 6, 0, 0, 50, 0, 0, 0, 33, 0, 0, 22, 0, 24, 0, 62, 47, 5, 54, 0, 0, 0, 0, 0
|2, 0, 0, 0, 34, 45, 0, 0, 0, 9, 0, 0, 0, 0, 0, 23, 0, 0, 49, 0, 0, 18, 0, 0, 0, 0, 55, 0, 0, 0, 5, 0, 21, 0, 50, 0, 0, 0, 0, 0, 15, 58, 1, 0, 0, 59, 0, 0, 0, 0, 0, 19, 0, 0, 0, 0, 0, 0, 0, 0, 0, 0, 0, 0
|8, 0, 38, 0, 0, 0, 0, 0, 35, 20, 0, 0, 29, 0, 0, 0, 11, 0, 0, 12, 0, 0, 0, 0, 0, 36, 0, 31, 0, 0, 56, 61, 23, 0, 0, 0, 18, 0, 0, 54, 0, 9, 0, 0, 0, 19, 47, 0, 0, 0, 0, 0, 0, 0, 0, 0, 0, 0, 0, 0, 0, 16, 0, 0
|64, 0, 18, 35, 7, 0, 0, 0, 0, 13, 14, 0, 62, 51, 0, 0, 37, 33, 0, 28, 0, 25, 0, 0, 0, 0, 0, 11, 0, 26, 0, 0, 0, 0, 42, 0, 24, 0, 6, 0, 0, 10, 39, 0, 0, 0, 61, 46, 0, 0, 0, 0, 0, 0, 15, 41, 50, 0, 0, 0, 0, 31, 0, 59
|0, 0, 0, 0, 0, 0, 0, 0, 0, 0, 0, 0, 0, 56, 57, 41, 0, 0, 0, 0, 0, 0, 0, 0, 55, 0, 39, 0, 0, 0, 29, 0, 6, 0, 0, 0, 4, 0, 37, 0, 0, 43, 0, 0, 24, 0, 0, 0, 0, 50, 0, 12, 0, 0, 0, 0, 34, 42, 0, 9, 0, 52, 0, 0
|0, 53, 9, 0, 45, 0, 0, 0, 0, 27, 21, 0, 0, 0, 39, 0, 0, 0, 0, 15, 35, 0, 0, 0, 0, 0, 0, 0, 0, 61, 0, 0, 0, 0, 0, 0, 0, 0, 44, 41, 58, 11, 0, 25, 0, 0, 0, 0, 0, 0, 0, 0, 56, 0, 7, 0, 3, 0, 0, 0, 0, 0, 36, 64
|0, 0, 0, 27, 0, 0, 4, 0, 0, 0, 0, 29, 63, 7, 0, 0, 0, 25, 32, 0, 0, 44, 0, 0, 0, 9, 0, 21, 0, 0, 0, 13, 0, 0, 14, 0, 45, 58, 0, 0, 0, 26, 0, 0, 51, 6, 0, 2, 15, 0, 0, 0, 0, 52, 41, 55, 35, 0, 0, 62, 0, 0, 30, 0
|0, 0, 0, 0, 0, 25, 0, 11, 49, 0, 36, 0, 34, 0, 0, 44, 0, 64, 0, 51, 39, 3, 0, 0, 0, 0, 0, 7, 0, 0, 19, 43, 0, 0, 0, 23, 0, 12, 0, 0, 0, 48, 40, 0, 0, 0, 0, 27, 0, 0, 0, 0, 0, 0, 63, 0, 13, 0, 0, 0, 32, 0, 61, 20
|0, 0, 62, 0, 0, 0, 0, 0, 0, 0, 32, 0, 0, 3, 0, 24, 0, 0, 0, 36, 0, 0, 0, 0, 47, 0, 53, 22, 14, 0, 44, 41, 0, 25, 29, 19, 0, 0, 0, 0, 0, 0, 0, 0, 13, 0, 0, 0, 0, 0, 0, 0, 51, 0, 0, 46, 0, 0, 0, 0, 7, 0, 0, 0
|0, 0, 0, 0, 0, 0, 0, 21, 8, 0, 0, 0, 0, 0, 0, 0, 0, 7, 0, 0, 0, 0, 0, 55, 30, 0, 0, 3, 0, 0, 0, 63, 0, 26, 32, 0, 0, 0, 0, 0, 41, 18, 0, 0, 0, 0, 0, 0, 0, 39, 0, 29, 0, 0, 38, 0, 0, 0, 0, 16, 14, 0, 0, 0
|0, 0, 0, 36, 0, 0, 0, 0, 0, 18, 0, 0, 25, 0, 0, 0, 0, 0, 41, 45, 4, 0, 0, 0, 1, 59, 35, 0, 0, 0, 0, 31, 0, 0, 47, 0, 16, 0, 34, 0, 0, 0, 0, 12, 0, 0, 0, 0, 13, 0, 0, 0, 0, 60, 0, 0, 8, 0, 0, 0, 26, 0, 0, 0
|0, 47, 57, 0, 0, 0, 19, 0, 0, 0, 0, 0, 0, 0, 0, 0, 0, 0, 0, 0, 52, 0, 28, 0, 0, 0, 25, 0, 0, 0, 38, 51, 0, 62, 35, 0, 43, 48, 0, 0, 44, 42, 0, 0, 0, 0, 0, 7, 0, 27, 0, 0, 8, 0, 0, 0, 0, 0, 0, 0, 0, 0, 0, 0
|58, 0, 30, 28, 0, 0, 49, 0, 0, 0, 0, 0, 43, 25, 5, 0, 0, 0, 0, 0, 0, 0, 0, 0, 0, 0, 0, 0, 0, 37, 0, 0, 0, 0, 0, 0, 0, 0, 42, 0, 18, 0, 0, 7, 0, 0, 0, 34, 0, 11, 0, 0, 0, 0, 0, 2, 57, 21, 22, 0, 9, 0, 0, 0
|0, 55, 14, 0, 19, 26, 23, 60, 0, 0, 40, 0, 0, 0, 0, 59, 0, 0, 0, 0, 36, 1, 0, 0, 21, 0, 44, 0, 31, 0, 0, 0, 0, 0, 16, 0, 0, 0, 0, 0, 0, 63, 46, 0, 0, 0, 0, 0, 0, 0, 27, 0, 0, 29, 17, 0, 0, 0, 0, 0, 0, 0, 58, 0
|11, 21, 44, 50, 0, 16, 0, 0, 58, 0, 3, 0, 0, 41, 0, 18, 0, 0, 0, 0, 37, 54, 0, 0, 0, 0, 60, 0, 0, 0, 0, 32, 40, 57, 0, 24, 38, 34, 0, 52, 0, 0, 35, 14, 0, 4, 0, 59, 0, 0, 0, 0, 0, 0, 0, 0, 0, 0, 42, 0, 5, 0, 0, 23
|0, 0, 0, 0, 0, 0, 22, 20, 0, 0, 0, 0, 27, 0, 55, 0, 0, 0, 0, 0, 49, 45, 0, 9, 0, 0, 0, 0, 0, 0, 0, 59, 0, 50, 0, 64, 0, 0, 54, 0, 0, 0, 0, 0, 39, 0, 0, 0, 0, 0, 0, 0, 0, 38, 0, 0, 0, 0, 16, 0, 0, 0, 0, 0
|47, 0, 0, 0, 57, 0, 0, 0, 32, 61, 0, 24, 0, 34, 64, 52, 23, 15, 0, 0, 0, 0, 26, 0, 0, 13, 0, 54, 7, 20, 0, 0, 0, 30, 0, 0, 0, 0, 0, 0, 27, 0, 0, 0, 49, 0, 0, 55, 0, 0, 0, 58, 0, 0, 8, 35, 29, 0, 10, 44, 0, 0, 45, 0
|4, 0, 32, 0, 0, 0, 0, 0, 0, 0, 0, 54, 30, 0, 2, 0, 0, 0, 0, 0, 0, 0, 0, 0, 0, 0, 0, 0, 0, 29, 0, 0, 0, 0, 0, 0, 0, 47, 26, 0, 0, 0, 0, 0, 0, 0, 58, 0, 0, 0, 0, 0, 0, 37, 5, 0, 0, 50, 0, 0, 28, 0, 31, 0
|0, 0, 29, 0, 56, 2, 0, 0, 0, 0, 50, 16, 36, 53, 0, 0, 57, 44, 0, 0, 38, 0, 0, 40, 0, 0, 0, 0, 30, 0, 0, 0, 5, 0, 0, 32, 0, 0, 0, 17, 0, 0, 45, 0, 54, 0, 0, 0, 0, 0, 0, 0, 9, 0, 0, 0, 26, 0, 12, 0, 4, 0, 0, 0
|0, 0, 0, 0, 62, 6, 3, 0, 37, 0, 10, 0, 0, 0, 0, 0, 30, 56, 0, 17, 0, 0, 0, 22, 0, 0, 0, 0, 0, 57, 24, 0, 0, 0, 0, 0, 0, 29, 0, 43, 13, 0, 0, 0, 31, 0, 0, 21, 0, 0, 52, 0, 0, 0, 25, 16, 0, 0, 60, 0, 0, 15, 0, 1
|0, 38, 0, 0, 0, 0, 0, 49, 0, 22, 0, 0, 0, 24, 0, 0, 0, 40, 0, 0, 0, 0, 0, 43, 51, 0, 12, 0, 0, 1, 0, 0, 0, 0, 4, 6, 28, 0, 32, 0, 37, 62, 0, 0, 0, 31, 0, 0, 54, 15, 0, 47, 0, 21, 0, 0, 0, 0, 0, 59, 11, 33, 0, 39
|0, 0, 28, 5, 0, 12, 0, 0, 29, 0, 0, 0, 0, 35, 27, 42, 48, 0, 0, 57, 46, 0, 0, 0, 0, 0, 47, 0, 0, 0, 0, 0, 50, 34, 0, 0, 0, 55, 22, 0, 0, 30, 0, 0, 63, 0, 0, 0, 0, 0, 0, 0, 0, 0, 0, 19, 0, 0, 0, 0, 37, 0, 0, 24
|0, 24, 0, 0, 13, 0, 25, 0, 0, 8, 0, 26, 0, 14, 0, 0, 0, 39, 9, 0, 0, 0, 0, 45, 36, 56, 0, 0, 0, 52, 30, 55, 62, 0, 0, 54, 64, 38, 0, 42, 0, 59, 0, 57, 0, 0, 0, 0, 0, 0, 44, 0, 0, 0, 60, 0, 0, 0, 0, 0, 35, 0, 0, 51
|0, 0, 0, 0, 0, 47, 0, 0, 0, 0, 0, 0, 0, 62, 46, 0, 0, 0, 0, 42, 0, 15, 32, 30, 0, 6, 0, 0, 0, 3, 10, 0, 0, 0, 0, 16, 0, 63, 0, 0, 0, 0, 0, 0, 0, 0, 0, 53, 0, 2, 0, 0, 0, 0, 0, 0, 0, 0, 0, 0, 0, 0, 0, 12
|0, 1, 8, 0, 6, 19, 0, 0, 0, 0, 0, 10, 0, 0, 0, 3, 0, 0, 0, 0, 53, 0, 0, 0, 0, 28, 0, 62, 0, 14, 16, 58, 52, 24, 0, 15, 20, 45, 23, 0, 0, 0, 0, 0, 0, 0, 35, 44, 0, 0, 0, 0, 33, 0, 57, 0, 0, 0, 0, 0, 0, 0, 29, 0
|41, 0, 0, 46, 0, 0, 0, 0, 5, 4, 0, 43, 52, 0, 6, 0, 51, 0, 0, 0, 0, 0, 0, 0, 35, 0, 0, 0, 0, 0, 40, 22, 0, 0, 3, 0, 0, 36, 0, 0, 48, 0, 0, 0, 0, 0, 0, 0, 0, 0, 0, 0, 7, 28, 0, 64, 56, 0, 0, 0, 44, 0, 0, 0
|0, 0, 58, 0, 0, 10, 30, 0, 1, 0, 0, 0, 53, 0, 0, 0, 62, 55, 23, 0, 13, 0, 0, 20, 0, 48, 0, 0, 0, 41, 63, 39, 59, 12, 0, 0, 25, 0, 0, 33, 0, 0, 28, 0, 0, 0, 0, 0, 0, 0, 0, 0, 0, 0, 0, 0, 0, 0, 0, 0, 0, 0, 0, 0
|0, 50, 0, 0, 0, 0, 0, 62, 0, 0, 0, 48, 57, 0, 0, 0, 0, 0, 0, 0, 0, 34, 0, 0, 0, 0, 0, 9, 18, 32, 0, 0, 61, 0, 0, 0, 0, 2, 0, 0, 0, 0, 0, 5, 0, 0, 0, 0, 0, 35, 0, 0, 11, 3, 23, 0, 0, 0, 0, 64, 0, 7, 0, 0
|0, 54, 23, 0, 0, 9, 20, 5, 0, 0, 0, 0, 21, 0, 37, 0, 0, 0, 0, 0, 0, 0, 0, 0, 0, 3, 18, 28, 55, 0, 0, 0, 0, 0, 0, 0, 0, 0, 0, 0, 51, 0, 0, 39, 59, 0, 7, 0, 0, 0, 43, 0, 29, 0, 0, 58, 14, 0, 8, 32, 53, 0, 0, 0
|0, 29, 64, 0, 0, 1, 0, 57, 0, 0, 62, 8, 0, 0, 0, 5, 0, 0, 55, 39, 0, 0, 31, 0, 0, 0, 0, 0, 48, 60, 0, 0, 7, 49, 44, 0, 0, 10, 0, 0, 0, 0, 0, 18, 40, 0, 0, 61, 0, 0, 45, 25, 0, 14, 33, 38, 0, 0, 0, 0, 0, 0, 0, 0
|62, 0, 53, 0, 0, 0, 0, 0, 16, 51, 0, 15, 12, 2, 36, 0, 0, 35, 0, 0, 48, 0, 0, 0, 31, 54, 61, 0, 0, 0, 0, 0, 0, 0, 0, 45, 39, 0, 0, 0, 0, 0, 0, 0, 0, 0, 8, 0, 0, 0, 22, 0, 0, 0, 0, 1, 0, 0, 0, 60, 29, 0, 0, 0
|14, 0, 0, 0, 0, 0, 0, 10, 0, 25, 0, 0, 0, 0, 0, 0, 0, 0, 0, 0, 0, 7, 0, 56, 0, 64, 0, 33, 0, 0, 0, 0, 0, 0, 0, 36, 0, 0, 0, 0, 0, 0, 17, 0, 0, 0, 0, 58, 23, 0, 0, 0, 5, 27, 0, 0, 41, 31, 0, 0, 0, 0, 26, 0
|0, 49, 0, 0, 0, 0, 0, 0, 0, 6, 0, 0, 0, 38, 0, 0, 0, 0, 0, 44, 0, 5, 0, 0, 29, 0, 59, 0, 0, 0, 0, 0, 0, 0, 0, 0, 51, 0, 0, 0, 0, 0, 31, 20, 0, 0, 24, 0, 0, 0, 0, 0, 0, 56, 47, 0, 0, 0, 0, 0, 0, 9, 0, 0
|0, 0, 0, 0, 0, 0, 16, 0, 0, 0, 0, 7, 0, 0, 0, 0, 18, 0, 40, 0, 0, 0, 0, 34, 0, 0, 0, 0, 0, 0, 0, 0, 0, 23, 0, 57, 0, 31, 0, 35, 53, 0, 0, 0, 0, 25, 0, 0, 0, 0, 0, 30, 0, 0, 24, 0, 0, 0, 36, 48, 0, 0, 0, 46
|0, 48, 22, 0, 28, 32, 0, 0, 0, 31, 0, 0, 0, 0, 0, 34, 0, 0, 0, 0, 0, 0, 0, 52, 4, 0, 50, 0, 10, 0, 0, 0, 0, 0, 41, 0, 0, 0, 0, 38, 33, 0, 0, 0, 0, 0, 0, 0, 0, 0, 0, 0, 0, 0, 35, 0, 0, 43, 0, 24, 0, 2, 0, 0
|0, 0, 0, 0, 0, 0, 0, 0, 55, 0, 42, 0, 0, 0, 0, 57, 0, 0, 0, 0, 0, 0, 0, 47, 0, 0, 0, 16, 0, 38, 49, 35, 0, 0, 0, 0, 0, 0, 0, 5, 0, 0, 0, 29, 0, 62, 45, 0, 0, 0, 0, 0, 0, 0, 0, 0, 61, 0, 0, 0, 0, 0, 0, 0
|0, 56, 0, 0, 0, 0, 0, 4, 0, 0, 44, 0, 0, 0, 0, 35, 0, 0, 0, 0, 0, 0, 0, 0, 0, 31, 0, 47, 0, 59, 0, 0, 57, 0, 26, 0, 0, 0, 0, 0, 28, 0, 33, 0, 0, 0, 0, 0, 0, 0, 0, 0, 25, 15, 34, 0, 1, 0, 0, 0, 10, 0, 3, 49
|19, 16, 0, 0, 0, 0, 0, 0, 0, 0, 23, 0, 24, 0, 0, 0, 0, 0, 0, 0, 0, 0, 0, 7, 0, 0, 0, 0, 0, 0, 0, 0, 0, 0, 0, 0, 0, 0, 64, 22, 63, 46, 0, 34, 0, 0, 0, 30, 0, 5, 37, 51, 0, 0, 0, 0, 58, 44, 0, 0, 0, 0, 15, 0
|0, 0, 41, 0, 47, 21, 0, 0, 57, 0, 0, 0, 0, 0, 0, 13, 0, 0, 0, 24, 0, 0, 0, 0, 0, 60, 0, 0, 0, 0, 26, 34, 35, 0, 0, 7, 0, 0, 0, 0, 0, 0, 0, 55, 20, 0, 0, 0, 0, 0, 0, 0, 0, 2, 0, 18, 30, 0, 0, 0, 46, 48, 0, 50
|42, 36, 49, 0, 0, 0, 54, 0, 0, 0, 0, 0, 51, 4, 0, 0, 0, 0, 0, 0, 0, 0, 0, 0, 0, 0, 0, 0, 0, 0, 0, 0, 0, 39, 19, 0, 0, 62, 3, 0, 0, 0, 0, 0, 0, 11, 0, 22, 0, 7, 0, 0, 0, 45, 0, 24, 0, 0, 0, 8, 0, 0, 0, 0
|0, 0, 25, 0, 0, 5, 0, 0, 0, 63, 37, 0, 0, 0, 18, 32, 0, 0, 0, 0, 0, 42, 0, 48, 0, 0, 23, 15, 19, 0, 0, 0, 43, 0, 0, 0, 54, 4, 49, 0, 21, 56, 0, 0, 0, 0, 0, 0, 35, 0, 61, 0, 0, 31, 9, 0, 0, 55, 2, 0, 0, 0, 0, 0
|0, 0, 0, 0, 0, 0, 11, 53, 0, 0, 0, 0, 56, 9, 0, 0, 0, 18, 37, 0, 8, 38, 0, 0, 64, 0, 0, 0, 0, 0, 0, 14, 0, 29, 0, 0, 30, 0, 58, 0, 35, 0, 0, 0, 0, 0, 0, 54, 0, 0, 59, 0, 0, 0, 0, 50, 0, 0, 0, 0, 0, 57, 0, 0
|31, 0, 0, 0, 0, 57, 0, 30, 0, 0, 0, 0, 48, 52, 0, 0, 0, 0, 59, 0, 27, 0, 0, 0, 41, 0, 0, 0, 0, 58, 0, 0, 33, 0, 5, 56, 0, 44, 18, 47, 0, 0, 0, 0, 0, 38, 64, 0, 0, 0, 17, 0, 4, 0, 0, 29, 9, 0, 0, 0, 0, 42, 0, 0
|0, 51, 13, 6, 26, 3, 12, 0, 0, 0, 0, 38, 0, 54, 0, 29, 0, 0, 0, 0, 47, 2, 0, 0, 0, 27, 0, 44, 24, 0, 39, 0, 0, 0, 0, 42, 0, 46, 0, 25, 0, 0, 0, 0, 0, 0, 0, 0, 20, 0, 0, 0, 0, 0, 0, 30, 0, 33, 0, 0, 0, 0, 0, 0
|37, 0, 0, 0, 0, 0, 1, 0, 10, 53, 0, 0, 0, 0, 35, 0, 0, 0, 0, 0, 0, 0, 34, 0, 0, 0, 0, 0, 0, 0, 0, 0, 0, 54, 0, 2, 0, 0, 0, 0, 0, 24, 0, 51, 0, 0, 0, 0, 56, 0, 0, 0, 13, 0, 3, 0, 19, 0, 0, 0, 43, 46, 0, 0
|0, 0, 0, 0, 9, 58, 0, 0, 51, 46, 0, 13, 3, 0, 0, 0, 33, 0, 0, 5, 0, 0, 2, 0, 61, 0, 0, 30, 0, 0, 0, 0, 0, 0, 0, 0, 0, 1, 39, 0, 0, 0, 0, 43, 25, 0, 0, 0, 0, 0, 0, 0, 22, 0, 0, 44, 0, 0, 0, 0, 0, 0, 23, 0
|0, 0, 0, 11, 0, 0, 17, 0, 7, 0, 0, 44, 0, 0, 0, 62, 25, 41, 64, 23, 0, 0, 8, 0, 6, 0, 0, 0, 21, 0, 0, 0, 0, 0, 0, 55, 33, 0, 0, 0, 0, 0, 0, 30, 0, 12, 0, 0, 27, 0, 0, 0, 0, 61, 0, 40, 53, 3, 0, 0, 38, 0, 0, 0
|33, 0, 0, 0, 0, 24, 0, 26, 0, 0, 0, 0, 0, 0, 17, 16, 0, 0, 0, 0, 0, 0, 0, 0, 32, 0, 54, 34, 0, 56, 0, 0, 0, 0, 49, 9, 58, 0, 0, 60, 0, 0, 63, 0, 36, 0, 6, 0, 1, 0, 0, 0, 0, 48, 0, 0, 0, 0, 0, 45, 0, 0, 7, 0
|0, 0, 20, 25, 0, 0, 56, 0, 0, 0, 0, 0, 0, 0, 0, 0, 0, 12, 14, 32, 58, 0, 0, 0, 18, 0, 0, 0, 47, 0, 0, 1, 16, 0, 0, 0, 6, 24, 7, 62, 0, 0, 0, 0, 23, 0, 31, 0, 0, 63, 0, 0, 0, 0, 59, 5, 17, 0, 0, 28, 0, 0, 0, 0
|0, 0, 0, 0, 0, 0, 0, 0, 0, 0, 0, 0, 0, 0, 0, 1, 0, 26, 0, 0, 0, 0, 0, 0, 0, 0, 0, 43, 0, 17, 0, 44, 0, 0, 0, 18, 0, 25, 0, 0, 0, 0, 0, 0, 27, 0, 0, 0, 0, 0, 0, 0, 6, 0, 58, 0, 62, 0, 0, 0, 0, 0, 0, 60
|54, 8, 0, 48, 0, 30, 0, 28, 0, 0, 0, 0, 0, 0, 0, 0, 0, 43, 51, 0, 0, 0, 0, 0, 20, 53, 45, 40, 39, 0, 0, 60, 0, 0, 12, 0, 0, 0, 41, 44, 0, 0, 0, 0, 0, 0, 38, 0, 0, 62, 0, 23, 0, 0, 0, 0, 31, 0, 0, 0, 0, 0, 0, 0
|49, 63, 21, 0, 0, 53, 0, 0, 0, 0, 29, 0, 0, 43, 0, 0, 0, 20, 0, 0, 0, 0, 0, 0, 19, 0, 0, 13, 0, 0, 0, 7, 0, 0, 0, 0, 0, 50, 0, 56, 0, 0, 0, 0, 62, 15, 0, 0, 57, 8, 30, 0, 45, 0, 0, 51, 0, 14, 0, 0, 0, 0, 0, 0
|0, 0, 0, 0, 0, 0, 55, 0, 48, 0, 0, 36, 0, 0, 0, 0, 0, 0, 15, 0, 30, 51, 0, 32, 0, 63, 0, 0, 0, 5, 0, 0, 0, 0, 0, 0, 0, 0, 59, 0, 20, 0, 0, 0, 14, 0, 0, 0, 0, 0, 0, 0, 24, 44, 0, 0, 64, 0, 23, 0, 0, 0, 0, 58
|0, 0, 43, 0, 0, 49, 0, 0, 0, 50, 56, 0, 0, 0, 0, 0, 0, 0, 0, 0, 0, 0, 45, 0, 0, 41, 0, 0, 0, 0, 0, 0, 0, 0, 0, 5, 0, 39, 0, 53, 0, 0, 6, 0, 0, 0, 0, 38, 60, 13, 31, 0, 0, 64, 0, 0, 0, 2, 33, 30, 0, 0, 0, 0
|9, 0, 0, 0, 0, 52, 42, 8, 0, 0, 0, 0, 0, 0, 0, 0, 0, 0, 0, 0, 64, 0, 19, 0, 12, 57, 0, 0, 0, 43, 0, 0, 0, 0, 0, 0, 0, 0, 0, 13, 0, 0, 0, 0, 0, 0, 0, 0, 0, 0, 0, 0, 0, 23, 0, 0, 0, 0, 0, 18, 0, 17, 0, 0
|0, 0, 56, 0, 0, 0, 33, 0, 52, 0, 31, 0, 16, 0, 12, 0, 0, 5, 0, 14, 20, 0, 42, 0, 0, 0, 34, 55, 0, 10, 9, 0, 0, 0, 0, 27, 0, 0, 0, 19, 0, 0, 0, 0, 30, 0, 32, 0, 0, 0, 0, 4, 0, 0, 0, 0, 0, 0, 0, 61, 0, 0, 0, 28
|61, 0, 24, 0, 0, 0, 0, 25, 0, 0, 0, 45, 0, 0, 0, 0, 0, 0, 0, 0, 62, 0, 43, 0, 0, 0, 19, 37, 0, 30, 18, 0, 8, 14, 7, 0, 0, 35, 48, 0, 0, 0, 0, 0, 0, 0, 57, 39, 0, 0, 41, 0, 0, 51, 0, 0, 0, 0, 0, 0, 0, 63, 40, 0
|0, 30, 0, 0, 23, 0, 0, 0, 0, 7, 0, 0, 0, 0, 0, 43, 0, 0, 0, 0, 0, 0, 0, 0, 11, 0, 58, 56, 0, 2, 0, 0, 18, 0, 0, 0, 0, 64, 57, 0, 0, 0, 0, 0, 0, 8, 13, 3, 0, 0, 53, 0, 0, 0, 61, 33, 37, 38, 0, 0, 51, 62, 0, 0
|0, 34, 0, 0, 0, 0, 15, 0, 0, 0, 0, 0, 0, 0, 0, 0, 0, 0, 0, 0, 28, 0, 0, 0, 0, 0, 0, 0, 0, 0, 59, 6, 0, 0, 0, 0, 12, 0, 0, 0, 0, 23, 0, 33, 0, 0, 62, 64, 0, 52, 0, 0, 0, 0, 0, 0, 0, 0, 0, 35, 0, 0, 9, 0
|0, 0, 0, 0, 0, 51, 0, 0, 0, 0, 0, 0, 0, 0, 0, 53, 0, 49, 0, 0, 0, 16, 7, 33, 0, 0, 64, 0, 32, 13, 0, 0, 0, 0, 0, 11, 0, 20, 0, 0, 0, 0, 0, 0, 43, 55, 46, 0, 0, 0, 2, 0, 0, 26, 0, 0, 0, 0, 0, 0, 0, 0, 0, 10|];