order = 8;
grid = [|0, 0, 57, 0, 40, 0, 50, 0, 39, 0, 0, 0, 0, 0, 0, 0, 0, 51, 0, 59, 27, 0, 0, 64, 9, 34, 6, 0, 0, 0, 2, 0, 0, 1, 33, 0, 0, 7, 0, 0, 0, 0, 44, 3, 23, 0, 0, 30, 0, 0, 0, 0, 0, 0, 16, 0, 0, 62, 0, 61, 0, 0, 0, 32
|53, 0, 0, 0, 0, 0, 0, 0, 0, 2, 0, 0, 0, 0, 0, 0, 0, 0, 0, 0, 0, 3, 0, 20, 40, 45, 17, 0, 1, 0, 0, 30, 0, 0, 0, 0, 0, 0, 0, 19, 0, 0, 0, 51, 0, 0, 0, 0, 56, 0, 0, 0, 41, 0, 0, 10, 0, 0, 0, 0, 0, 0, 0, 0
|7, 45, 0, 0, 0, 47, 18, 39, 0, 0, 42, 12, 0, 0, 0, 0, 37, 0, 0, 28, 24, 0, 4, 0, 0, 0, 0, 0, 0, 0, 0, 0, 23, 0, 0, 0, 30, 0, 0, 0, 56, 0, 0, 41, 8, 13, 22, 5, 0, 0, 50, 0, 55, 0, 0, 0, 31, 0, 0, 0, 0, 0, 0, 0
|37, 19, 36, 16, 0, 0, 0, 0, 23, 0, 0, 0, 0, 0, 6, 0, 0, 61, 0, 0, 0, 0, 0, 0, 0, 0, 0, 0, 0, 0, 0, 4, 0, 0, 0, 10, 3, 5, 0, 0, 0, 0, 32, 20, 0, 0, 0, 0, 29, 0, 0, 0, 0, 0, 57, 25, 56, 0, 0, 0, 2, 1, 18, 0
|0, 0, 34, 49, 0, 0, 0, 0, 35, 0, 0, 0, 37, 7, 30, 1, 0, 0, 0, 26, 18, 0, 50, 2, 0, 0, 38, 0, 54, 5, 0, 25, 0, 0, 51, 0, 22, 0, 0, 0, 0, 0, 0, 0, 0, 0, 0, 0, 0, 0, 36, 0, 0, 0, 0, 42, 52, 0, 0, 60, 0, 0, 53, 0
|0, 1, 0, 17, 0, 0, 41, 0, 0, 0, 0, 0, 0, 38, 0, 0, 29, 0, 44, 32, 34, 0, 0, 48, 0, 15, 0, 0, 0, 0, 0, 0, 0, 0, 45, 0, 0, 0, 0, 0, 0, 0, 0, 0, 0, 0, 0, 0, 3, 0, 0, 0, 0, 2, 0, 0, 46, 0, 0, 0, 4, 0, 42, 0
|0, 48, 56, 24, 0, 0, 0, 0, 0, 20, 0, 10, 0, 27, 0, 0, 0, 0, 0, 33, 0, 53, 0, 0, 0, 0, 0, 0, 0, 0, 0, 58, 0, 0, 0, 0, 0, 0, 0, 0, 0, 0, 0, 14, 0, 0, 0, 0, 45, 0, 0, 0, 52, 63, 0, 0, 0, 35, 0, 64, 0, 0, 0, 0
|51, 0, 0, 0, 0, 3, 0, 43, 15, 0, 0, 0, 0, 0, 0, 0, 56, 0, 0, 0, 0, 0, 0, 0, 0, 0, 0, 61, 35, 0, 0, 64, 0, 0, 36, 12, 0, 0, 41, 0, 0, 0, 0, 0, 2, 0, 0, 0, 31, 1, 0, 34, 0, 0, 0, 0, 0, 0, 0, 0, 0, 0, 0, 19
|0, 0, 0, 13, 0, 0, 0, 0, 56, 0, 63, 0, 0, 0, 0, 0, 0, 1, 0, 22, 36, 0, 0, 0, 0, 0, 0, 0, 59, 41, 0, 0, 0, 0, 0, 0, 0, 0, 21, 0, 57, 47, 0, 0, 0, 0, 0, 8, 0, 0, 0, 0, 31, 0, 0, 0, 64, 0, 0, 42, 0, 0, 0, 9
|0, 0, 0, 60, 0, 0, 0, 0, 0, 0, 21, 51, 0, 37, 15, 52, 59, 7, 0, 54, 0, 12, 0, 0, 0, 0, 0, 0, 0, 53, 0, 0, 0, 0, 0, 63, 57, 0, 0, 43, 0, 0, 3, 11, 0, 0, 19, 38, 0, 0, 0, 0, 0, 0, 0, 0, 0, 56, 46, 48, 0, 0, 0, 0
|58, 0, 49, 0, 0, 0, 0, 3, 0, 0, 31, 0, 0, 23, 0, 0, 0, 0, 0, 0, 0, 0, 0, 52, 0, 0, 50, 4, 11, 0, 0, 0, 0, 39, 0, 0, 44, 48, 0, 0, 0, 0, 0, 53, 16, 0, 0, 0, 0, 0, 0, 30, 0, 0, 0, 0, 12, 0, 0, 36, 40, 0, 0, 57
|0, 0, 0, 0, 0, 57, 11, 38, 0, 0, 0, 0, 36, 0, 0, 41, 0, 0, 31, 0, 0, 0, 0, 0, 0, 16, 0, 33, 0, 43, 28, 22, 0, 0, 0, 0, 0, 0, 12, 0, 37, 52, 24, 15, 0, 0, 40, 61, 46, 0, 3, 0, 42, 0, 47, 0, 0, 0, 0, 0, 0, 0, 26, 0
|0, 0, 0, 0, 0, 0, 0, 52, 0, 0, 60, 0, 0, 0, 0, 20, 0, 0, 0, 0, 0, 0, 0, 0, 5, 0, 0, 0, 0, 0, 48, 0, 0, 0, 41, 47, 0, 0, 46, 55, 1, 44, 0, 56, 0, 2, 30, 9, 0, 0, 27, 0, 0, 0, 54, 0, 0, 0, 0, 6, 0, 0, 0, 63
|0, 0, 32, 0, 59, 8, 0, 20, 28, 47, 19, 0, 58, 0, 57, 46, 4, 0, 0, 0, 0, 0, 6, 40, 15, 0, 18, 0, 0, 21, 0, 0, 0, 7, 0, 26, 54, 0, 56, 0, 51, 0, 29, 0, 0, 48, 0, 0, 0, 61, 0, 55, 0, 0, 0, 0, 1, 0, 0, 0, 0, 41, 13, 0
|39, 41, 0, 19, 53, 0, 0, 0, 3, 0, 0, 0, 0, 22, 0, 34, 0, 28, 43, 0, 0, 0, 0, 0, 0, 55, 0, 0, 10, 0, 0, 24, 0, 2, 0, 0, 0, 0, 0, 0, 25, 0, 0, 0, 0, 0, 0, 0, 14, 4, 9, 0, 0, 0, 0, 0, 0, 0, 0, 0, 0, 0, 38, 0
|0, 17, 0, 0, 36, 0, 0, 0, 5, 0, 7, 53, 0, 0, 45, 0, 0, 0, 33, 19, 38, 0, 0, 0, 0, 12, 0, 0, 0, 0, 0, 0, 0, 0, 0, 0, 0, 0, 61, 8, 0, 20, 59, 0, 0, 0, 0, 0, 0, 0, 0, 22, 26, 0, 0, 0, 30, 0, 0, 0, 0, 0, 0, 0
|0, 0, 0, 0, 0, 0, 7, 0, 0, 25, 0, 0, 0, 0, 0, 0, 0, 34, 0, 0, 50, 59, 36, 19, 0, 0, 0, 28, 24, 32, 0, 0, 0, 0, 0, 42, 33, 0, 0, 0, 0, 0, 62, 0, 0, 0, 0, 0, 55, 6, 5, 0, 0, 0, 0, 0, 0, 0, 52, 3, 47, 0, 0, 0
|0, 0, 0, 10, 0, 0, 57, 0, 12, 0, 0, 0, 0, 0, 0, 0, 0, 0, 41, 0, 0, 0, 22, 0, 0, 5, 0, 20, 0, 0, 0, 18, 0, 0, 0, 0, 0, 0, 0, 7, 16, 0, 0, 0, 35, 0, 0, 0, 40, 0, 29, 0, 63, 62, 0, 0, 27, 11, 56, 17, 0, 0, 54, 42
|40, 0, 0, 63, 0, 48, 0, 0, 0, 0, 0, 0, 3, 21, 0, 57, 0, 0, 0, 0, 0, 0, 0, 0, 0, 0, 0, 0, 6, 45, 0, 0, 0, 5, 0, 0, 8, 0, 0, 0, 0, 33, 0, 0, 54, 0, 0, 0, 0, 41, 47, 11, 0, 0, 0, 31, 29, 0, 0, 0, 0, 0, 0, 0
|0, 0, 0, 9, 31, 53, 0, 0, 0, 55, 0, 0, 0, 50, 0, 0, 0, 10, 0, 20, 0, 29, 23, 0, 0, 0, 0, 0, 0, 0, 0, 15, 63, 0, 61, 0, 11, 0, 60, 0, 0, 7, 38, 0, 14, 34, 8, 0, 16, 0, 0, 0, 0, 0, 36, 0, 0, 37, 0, 0, 51, 62, 4, 18
|49, 39, 0, 0, 0, 25, 0, 0, 45, 29, 0, 24, 30, 0, 0, 35, 31, 0, 0, 0, 21, 0, 0, 0, 0, 51, 0, 0, 0, 0, 0, 0, 0, 0, 0, 15, 0, 0, 0, 0, 0, 0, 0, 0, 56, 0, 0, 0, 0, 0, 0, 0, 46, 0, 0, 0, 0, 0, 1, 0, 0, 36, 0, 40
|0, 0, 62, 0, 52, 36, 29, 0, 0, 0, 0, 0, 5, 0, 28, 0, 0, 0, 0, 0, 12, 0, 47, 0, 0, 0, 0, 0, 0, 17, 0, 7, 0, 0, 0, 0, 55, 0, 0, 0, 50, 1, 0, 2, 0, 0, 24, 0, 34, 0, 49, 0, 0, 30, 8, 59, 0, 0, 0, 53, 58, 0, 22, 0
|4, 0, 0, 0, 0, 18, 2, 0, 62, 0, 0, 0, 0, 0, 0, 0, 0, 0, 3, 63, 0, 45, 30, 0, 26, 0, 0, 37, 19, 0, 0, 0, 0, 46, 0, 56, 51, 0, 0, 0, 0, 0, 0, 0, 40, 0, 0, 57, 0, 0, 42, 0, 0, 53, 21, 0, 6, 0, 0, 28, 0, 5, 0, 0
|34, 3, 0, 0, 0, 0, 0, 0, 52, 0, 32, 7, 54, 0, 41, 0, 28, 53, 0, 43, 0, 0, 0, 0, 0, 0, 0, 0, 0, 0, 0, 0, 0, 0, 17, 0, 62, 0, 0, 31, 55, 45, 58, 13, 0, 22, 0, 0, 0, 60, 0, 0, 0, 0, 23, 0, 16, 0, 0, 0, 0, 0, 0, 35
|0, 0, 3, 0, 20, 26, 13, 11, 24, 36, 56, 0, 0, 64, 0, 0, 54, 5, 0, 41, 0, 0, 46, 0, 58, 0, 0, 0, 0, 0, 0, 0, 38, 0, 0, 0, 0, 0, 62, 0, 0, 4, 0, 0, 42, 0, 0, 0, 0, 0, 10, 0, 0, 0, 55, 0, 39, 0, 19, 0, 63, 0, 0, 0
|0, 24, 0, 0, 0, 0, 64, 8, 34, 0, 38, 1, 59, 0, 0, 42, 48, 22, 0, 0, 0, 0, 0, 0, 0, 0, 41, 0, 0, 0, 0, 0, 0, 0, 0, 17, 0, 0, 0, 29, 0, 56, 54, 0, 0, 36, 0, 0, 57, 13, 0, 0, 0, 0, 0, 0, 45, 0, 61, 0, 52, 46, 0, 0
|0, 0, 0, 0, 0, 0, 49, 0, 33, 0, 0, 0, 0, 0, 0, 0, 0, 0, 13, 0, 0, 0, 56, 0, 0, 0, 0, 0, 0, 0, 0, 52, 21, 0, 0, 0, 42, 59, 0, 0, 0, 0, 0, 0, 0, 0, 0, 0, 0, 0, 0, 0, 0, 0, 0, 0, 10, 4, 0, 0, 0, 0, 0, 0
|0, 0, 43, 0, 0, 0, 0, 0, 0, 0, 0, 27, 0, 0, 0, 0, 47, 44, 0, 12, 0, 18, 0, 60, 0, 0, 0, 0, 0, 46, 0, 37, 0, 0, 0, 0, 0, 0, 0, 0, 0, 0, 0, 0, 0, 41, 0, 0, 23, 0, 24, 49, 0, 59, 26, 0, 33, 0, 21, 0, 0, 0, 56, 0
|0, 0, 31, 0, 0, 0, 9, 0, 0, 0, 0, 0, 0, 55, 10, 0, 0, 29, 0, 0, 0, 64, 0, 0, 0, 0, 0, 0, 36, 62, 0, 0, 0, 33, 0, 4, 0, 3, 57, 0, 0, 61, 0, 0, 1, 0, 0, 45, 22, 0, 0, 0, 0, 58, 0, 54, 0, 0, 0, 0, 0, 0, 51, 34
|0, 18, 0, 0, 4, 0, 0, 0, 0, 0, 0, 0, 23, 0, 0, 43, 34, 27, 0, 0, 63, 6, 0, 0, 0, 30, 42, 0, 0, 38, 0, 49, 0, 0, 0, 7, 61, 24, 28, 0, 29, 0, 11, 0, 0, 0, 0, 0, 0, 56, 0, 0, 0, 0, 0, 36, 0, 0, 0, 9, 0, 0, 31, 5
|0, 0, 0, 54, 42, 0, 0, 0, 2, 0, 0, 0, 28, 45, 0, 0, 33, 0, 0, 0, 0, 0, 0, 25, 51, 0, 9, 13, 0, 18, 0, 0, 0, 19, 0, 0, 0, 0, 47, 0, 39, 0, 0, 0, 0, 0, 63, 34, 0, 0, 0, 0, 20, 0, 0, 0, 0, 0, 53, 57, 0, 24, 0, 0
|0, 0, 0, 0, 0, 0, 0, 0, 0, 8, 0, 0, 44, 18, 0, 26, 0, 0, 59, 0, 0, 0, 0, 45, 0, 3, 4, 23, 0, 0, 21, 0, 0, 0, 0, 0, 0, 0, 0, 9, 0, 0, 0, 64, 6, 0, 7, 0, 0, 40, 0, 32, 0, 11, 42, 0, 13, 49, 0, 58, 0, 0, 0, 38
|0, 0, 0, 0, 0, 14, 0, 0, 0, 38, 0, 0, 0, 0, 0, 8, 0, 0, 0, 0, 0, 0, 64, 0, 0, 0, 0, 0, 0, 0, 0, 0, 0, 0, 0, 0, 0, 0, 59, 18, 0, 0, 0, 0, 0, 16, 0, 0, 0, 11, 26, 10, 30, 0, 32, 3, 50, 17, 0, 0, 0, 0, 60, 0
|26, 0, 0, 0, 0, 0, 0, 34, 0, 0, 12, 0, 0, 0, 0, 59, 0, 0, 0, 0, 0, 0, 0, 0, 0, 0, 55, 8, 0, 30, 46, 51, 0, 0, 0, 39, 0, 0, 15, 0, 0, 0, 0, 0, 0, 0, 0, 0, 0, 57, 62, 50, 0, 61, 0, 0, 41, 0, 25, 4, 0, 48, 0, 0
|0, 0, 0, 0, 2, 0, 0, 0, 0, 0, 1, 0, 56, 0, 35, 0, 0, 0, 0, 0, 0, 0, 63, 0, 0, 14, 48, 0, 50, 0, 26, 0, 0, 0, 12, 0, 0, 0, 49, 0, 0, 0, 47, 22, 0, 0, 0, 0, 0, 45, 0, 0, 44, 17, 0, 60, 7, 0, 0, 0, 0, 0, 3, 0
|0, 0, 0, 3, 0, 0, 0, 0, 6, 0, 0, 57, 39, 0, 0, 17, 0, 0, 0, 0, 0, 35, 0, 0, 0, 0, 11, 0, 0, 29, 54, 53, 0, 0, 40, 61, 0, 0, 0, 0, 0, 0, 0, 0, 0, 0, 0, 0, 0, 0, 0, 0, 0, 43, 14, 0, 0, 28, 0, 0, 55, 0, 0, 0
|8, 0, 0, 0, 0, 0, 0, 0, 0, 0, 0, 0, 0, 43, 4, 0, 0, 0, 12, 0, 0, 39, 59, 21, 0, 0, 0, 0, 0, 0, 18, 0, 0, 0, 27, 0, 16, 0, 0, 0, 52, 51, 56, 0, 11, 0, 0, 37, 0, 0, 46, 0, 64, 55, 0, 0, 53, 9, 15, 0, 0, 35, 0, 45
|33, 0, 0, 1, 0, 0, 40, 0, 0, 0, 0, 0, 0, 31, 0, 9, 0, 0, 0, 0, 0, 0, 19, 0, 0, 23, 12, 0, 34, 0, 0, 43, 0, 17, 8, 0, 0, 26, 0, 0, 0, 0, 0, 0, 0, 0, 0, 0, 0, 16, 0, 0, 0, 0, 0, 39, 0, 0, 0, 0, 11, 0, 0, 0
|0, 0, 0, 53, 0, 0, 0, 0, 0, 0, 0, 14, 0, 34, 0, 0, 23, 3, 0, 0, 0, 52, 0, 1, 0, 0, 0, 0, 0, 60, 22, 13, 0, 43, 0, 62, 48, 64, 0, 0, 0, 0, 0, 0, 0, 0, 0, 0, 0, 28, 51, 25, 6, 42, 20, 0, 0, 0, 63, 39, 0, 21, 0, 0
|20, 0, 0, 57, 0, 35, 0, 0, 0, 0, 16, 0, 55, 0, 32, 0, 0, 0, 0, 27, 0, 0, 0, 0, 7, 0, 0, 0, 0, 28, 0, 45, 0, 13, 58, 0, 41, 0, 50, 0, 60, 23, 0, 39, 0, 0, 0, 0, 47, 31, 0, 0, 0, 0, 37, 0, 61, 0, 0, 38, 0, 49, 29, 0
|42, 27, 0, 0, 0, 0, 62, 0, 0, 0, 0, 0, 9, 0, 0, 0, 0, 60, 63, 21, 0, 0, 0, 0, 10, 0, 0, 0, 12, 0, 0, 0, 0, 0, 0, 19, 0, 0, 0, 54, 0, 0, 0, 0, 0, 0, 0, 0, 0, 0, 0, 0, 39, 0, 53, 17, 0, 0, 34, 0, 0, 0, 0, 0
|52, 0, 0, 18, 0, 16, 0, 0, 0, 0, 59, 0, 0, 0, 0, 0, 0, 12, 0, 0, 0, 34, 0, 0, 22, 0, 30, 0, 0, 0, 31, 0, 62, 0, 0, 0, 0, 0, 3, 0, 0, 0, 0, 1, 0, 0, 0, 0, 0, 0, 0, 0, 0, 0, 13, 0, 0, 50, 33, 0, 0, 63, 11, 0
|0, 0, 0, 0, 0, 0, 0, 28, 0, 0, 33, 0, 52, 0, 0, 63, 18, 0, 0, 0, 0, 0, 0, 59, 0, 0, 3, 62, 0, 64, 0, 0, 0, 34, 14, 0, 0, 29, 39, 0, 0, 2, 0, 25, 0, 0, 5, 41, 0, 0, 0, 0, 0, 51, 0, 50, 0, 0, 0, 0, 53, 0, 0, 0
|41, 10, 7, 0, 13, 1, 0, 0, 0, 26, 0, 0, 0, 0, 24, 0, 9, 56, 19, 46, 31, 0, 0, 0, 0, 0, 5, 0, 0, 0, 0, 57, 0, 0, 0, 60, 0, 49, 0, 40, 0, 0, 0, 0, 0, 0, 42, 0, 0, 18, 0, 0, 22, 64, 0, 0, 0, 51, 0, 0, 28, 0, 0, 14
|31, 0, 2, 0, 0, 0, 0, 0, 0, 10, 0, 0, 0, 0, 8, 36, 0, 45, 0, 0, 64, 0, 33, 0, 50, 0, 0, 21, 23, 7, 0, 32, 0, 0, 0, 0, 47, 0, 0, 22, 0, 0, 0, 0, 27, 9, 0, 0, 42, 46, 55, 48, 57, 15, 0, 62, 0, 52, 58, 0, 0, 0, 0, 0
|0, 0, 0, 0, 29, 39, 0, 0, 0, 0, 0, 64, 0, 0, 0, 0, 0, 0, 0, 0, 55, 0, 0, 0, 0, 0, 44, 18, 46, 0, 0, 0, 0, 0, 7, 0, 0, 28, 0, 0, 0, 34, 0, 0, 0, 0, 43, 0, 0, 10, 0, 0, 0, 0, 31, 0, 0, 0, 0, 0, 0, 0, 5, 54
|47, 0, 0, 0, 0, 0, 0, 57, 49, 0, 0, 37, 14, 0, 19, 0, 0, 0, 0, 0, 28, 0, 0, 0, 0, 43, 24, 0, 0, 0, 1, 0, 0, 0, 0, 5, 0, 46, 51, 0, 0, 0, 0, 0, 31, 0, 50, 48, 6, 0, 33, 0, 35, 0, 9, 0, 3, 0, 0, 0, 0, 0, 0, 55
|5, 30, 11, 58, 37, 43, 0, 0, 0, 0, 44, 0, 40, 0, 0, 0, 0, 0, 0, 0, 0, 0, 0, 0, 49, 0, 0, 0, 0, 34, 0, 0, 0, 0, 0, 0, 0, 56, 25, 38, 0, 0, 0, 0, 0, 62, 0, 0, 59, 0, 54, 0, 28, 0, 0, 41, 0, 0, 0, 21, 0, 47, 0, 0
|0, 0, 0, 50, 0, 0, 16, 0, 38, 0, 0, 0, 63, 28, 0, 0, 0, 0, 0, 0, 0, 0, 9, 32, 0, 0, 0, 0, 48, 6, 0, 0, 0, 47, 0, 0, 0, 0, 0, 0, 0, 59, 41, 0, 0, 0, 45, 56, 0, 0, 34, 42, 0, 10, 0, 0, 0, 0, 12, 0, 0, 0, 57, 8
|0, 12, 0, 39, 0, 0, 0, 1, 20, 0, 30, 0, 0, 0, 0, 2, 0, 0, 0, 0, 0, 0, 0, 0, 0, 63, 0, 25, 0, 0, 60, 0, 0, 0, 0, 0, 0, 8, 0, 0, 0, 0, 50, 19, 0, 51, 0, 0, 0, 0, 40, 0, 5, 23, 0, 0, 49, 34, 0, 0, 0, 0, 27, 21
|0, 0, 0, 30, 0, 0, 0, 0, 0, 33, 0, 45, 27, 52, 0, 31, 0, 0, 0, 0, 10, 0, 0, 63, 0, 0, 16, 0, 55, 12, 32, 0, 0, 0, 0, 0, 0, 0, 11, 0, 0, 0, 37, 0, 20, 40, 0, 0, 35, 0, 0, 0, 9, 0, 7, 0, 17, 29, 50, 62, 0, 0, 0, 1
|23, 26, 4, 0, 0, 51, 0, 0, 19, 0, 10, 54, 0, 56, 0, 0, 0, 8, 22, 0, 0, 0, 7, 33, 0, 29, 15, 0, 0, 0, 9, 0, 0, 49, 0, 0, 63, 60, 0, 0, 0, 0, 46, 0, 0, 0, 21, 0, 0, 0, 43, 0, 0, 0, 0, 0, 0, 0, 40, 5, 0, 0, 39, 0
|55, 0, 0, 5, 27, 37, 20, 0, 0, 40, 0, 0, 0, 0, 0, 0, 24, 16, 0, 0, 0, 62, 21, 6, 0, 13, 53, 49, 0, 47, 0, 0, 12, 0, 0, 22, 0, 0, 0, 0, 8, 0, 60, 0, 0, 14, 58, 0, 11, 29, 17, 0, 54, 31, 0, 0, 0, 0, 0, 0, 0, 28, 0, 0
|0, 0, 0, 8, 0, 0, 0, 0, 0, 0, 5, 22, 0, 0, 46, 0, 0, 59, 55, 0, 0, 20, 1, 0, 0, 0, 43, 0, 0, 26, 11, 50, 0, 0, 10, 0, 0, 0, 0, 0, 12, 0, 2, 0, 9, 0, 48, 0, 0, 0, 21, 0, 36, 0, 0, 0, 0, 0, 41, 0, 0, 52, 0, 0
|0, 0, 0, 0, 0, 6, 0, 0, 0, 0, 0, 39, 0, 0, 0, 0, 0, 0, 30, 35, 0, 0, 31, 0, 38, 0, 21, 0, 17, 22, 0, 46, 0, 48, 62, 0, 0, 0, 0, 41, 11, 54, 0, 18, 0, 0, 0, 0, 0, 0, 0, 8, 2, 0, 0, 26, 0, 23, 0, 0, 0, 0, 0, 0
|0, 0, 0, 0, 0, 0, 0, 0, 0, 0, 0, 0, 0, 0, 12, 0, 11, 0, 0, 53, 29, 26, 0, 0, 8, 0, 0, 59, 0, 0, 0, 54, 0, 56, 5, 0, 64, 0, 0, 61, 0, 0, 0, 0, 39, 0, 0, 22, 0, 0, 41, 0, 13, 0, 0, 44, 0, 42, 55, 0, 0, 0, 47, 0
|56, 13, 0, 48, 1, 0, 0, 0, 43, 0, 46, 0, 18, 0, 0, 0, 0, 0, 2, 0, 0, 0, 0, 0, 0, 50, 0, 0, 0, 0, 0, 38, 20, 0, 0, 49, 0, 0, 19, 60, 0, 37, 0, 0, 0, 55, 0, 0, 0, 63, 44, 35, 0, 0, 64, 7, 0, 0, 0, 0, 0, 0, 0, 0
|0, 0, 0, 0, 63, 50, 0, 0, 13, 3, 0, 0, 6, 0, 29, 0, 0, 0, 28, 0, 0, 25, 27, 0, 64, 0, 19, 0, 0, 0, 0, 0, 2, 0, 0, 0, 0, 0, 38, 32, 0, 0, 0, 0, 30, 0, 0, 0, 0, 0, 0, 0, 33, 0, 46, 43, 0, 47, 0, 0, 0, 0, 35, 22
|0, 0, 0, 4, 49, 0, 60, 6, 0, 64, 0, 8, 0, 0, 0, 0, 36, 23, 0, 5, 0, 0, 43, 0, 0, 0, 7, 0, 18, 0, 0, 0, 0, 0, 0, 0, 29, 41, 0, 62, 0, 0, 15, 0, 0, 0, 0, 0, 0, 0, 0, 0, 0, 19, 0, 11, 0, 0, 0, 32, 0, 51, 0, 53
|0, 0, 35, 0, 0, 0, 0, 0, 37, 0, 0, 0, 0, 0, 0, 0, 0, 0, 0, 0, 61, 57, 0, 13, 0, 47, 46, 30, 39, 63, 51, 0, 0, 42, 0, 27, 0, 0, 0, 0, 0, 0, 0, 45, 0, 52, 62, 0, 20, 0, 0, 0, 29, 0, 0, 0, 0, 0, 0, 0, 0, 43, 0, 15
|14, 37, 18, 59, 0, 0, 0, 0, 0, 0, 0, 0, 0, 20, 0, 0, 0, 0, 0, 0, 8, 0, 0, 0, 0, 0, 52, 0, 0, 0, 0, 0, 0, 0, 0, 30, 6, 0, 4, 17, 0, 0, 0, 0, 0, 0, 0, 0, 0, 0, 0, 0, 47, 32, 0, 49, 0, 0, 0, 0, 0, 0, 0, 0
|0, 44, 0, 0, 0, 32, 0, 61, 0, 0, 0, 0, 34, 36, 0, 0, 35, 0, 0, 24, 0, 17, 0, 0, 0, 0, 0, 40, 0, 14, 0, 48, 0, 0, 0, 11, 0, 0, 0, 0, 0, 0, 0, 0, 13, 0, 39, 64, 0, 0, 0, 15, 0, 0, 6, 0, 5, 38, 0, 0, 3, 0, 52, 37
|43, 0, 39, 0, 47, 0, 0, 0, 0, 0, 0, 0, 0, 0, 0, 16, 38, 0, 0, 0, 0, 0, 48, 0, 0, 0, 37, 0, 0, 0, 0, 0, 52, 0, 50, 59, 58, 18, 0, 0, 0, 63, 7, 0, 0, 0, 9, 0, 0, 0, 4, 1, 0, 0, 0, 51, 0, 0, 0, 0, 0, 44, 40, 0
|0, 0, 0, 0, 33, 0, 53, 0, 0, 56, 0, 38, 0, 0, 0, 0, 0, 0, 0, 0, 39, 0, 0, 0, 11, 0, 0, 0, 0, 0, 0, 10, 5, 12, 0, 0, 0, 0, 0, 46, 0, 0, 43, 0, 3, 0, 0, 0, 0, 22, 0, 13, 0, 0, 58, 0, 54, 0, 0, 0, 0, 6, 0, 20|];