order = 8;
grid = [|0, 0, 0, 0, 0, 0, 33, 0, 0, 0, 0, 0, 40, 0, 0, 0, 2, 0, 0, 17, 0, 0, 15, 0, 0, 45, 35, 20, 0, 0, 56, 0, 41, 0, 0, 0, 0, 0, 39, 28, 0, 0, 0, 58, 6, 0, 0, 14, 30, 0, 55, 0, 0, 0, 0, 0, 0, 0, 0, 0, 0, 0, 0, 0
|0, 0, 4, 62, 0, 0, 56, 0, 0, 0, 0, 60, 0, 0, 6, 0, 0, 0, 0, 0, 0, 11, 0, 63, 0, 38, 0, 64, 0, 42, 0, 0, 0, 0, 0, 0, 26, 0, 0, 0, 9, 0, 0, 0, 0, 0, 0, 34, 0, 0, 0, 0, 0, 0, 0, 0, 0, 0, 0, 10, 0, 0, 0, 0
|0, 18, 0, 0, 0, 39, 0, 0, 59, 22, 0, 0, 0, 0, 0, 0, 0, 50, 0, 0, 52, 9, 0, 0, 44, 0, 0, 0, 0, 5, 0, 26, 53, 11, 0, 0, 0, 0, 0, 0, 37, 8, 31, 0, 0, 0, 4, 0, 0, 3, 0, 10, 0, 0, 0, 41, 2, 25, 51, 0, 0, 0, 35, 0
|0, 0, 0, 16, 0, 0, 0, 0, 0, 0, 24, 0, 56, 0, 0, 0, 0, 0, 22, 0, 62, 0, 6, 46, 0, 4, 33, 0, 31, 41, 0, 0, 0, 0, 0, 0, 0, 55, 12, 0, 0, 2, 51, 0, 0, 0, 0, 0, 0, 0, 39, 0, 0, 1, 0, 0, 14, 0, 0, 0, 0, 9, 0, 0
|0, 0, 0, 36, 0, 0, 0, 2, 0, 0, 35, 0, 52, 0, 0, 0, 0, 0, 0, 0, 0, 0, 0, 0, 58, 0, 0, 57, 0, 0, 0, 0, 0, 0, 0, 0, 0, 0, 6, 0, 0, 0, 0, 29, 0, 18, 0, 0, 0, 0, 0, 0, 50, 63, 22, 53, 0, 0, 28, 0, 0, 45, 31, 0
|0, 0, 0, 0, 0, 0, 0, 40, 0, 0, 38, 0, 0, 0, 0, 0, 25, 0, 0, 26, 0, 0, 5, 3, 0, 39, 0, 0, 52, 0, 0, 0, 0, 2, 9, 0, 0, 0, 62, 0, 0, 46, 0, 0, 0, 0, 0, 0, 0, 0, 0, 0, 0, 0, 0, 32, 58, 36, 0, 0, 0, 15, 30, 0
|29, 52, 53, 0, 0, 42, 0, 0, 0, 43, 0, 0, 0, 0, 49, 0, 0, 0, 0, 39, 0, 0, 0, 0, 40, 0, 0, 0, 0, 0, 19, 0, 0, 47, 0, 4, 46, 0, 0, 57, 0, 0, 0, 0, 0, 0, 0, 0, 0, 0, 0, 0, 56, 0, 11, 61, 6, 0, 0, 0, 0, 0, 0, 0
|0, 0, 47, 0, 54, 28, 0, 0, 0, 9, 50, 0, 0, 0, 32, 0, 36, 0, 0, 57, 0, 0, 56, 0, 3, 0, 60, 0, 0, 21, 0, 0, 0, 0, 0, 0, 0, 29, 0, 31, 19, 0, 0, 0, 0, 0, 53, 0, 62, 0, 0, 0, 0, 0, 0, 0, 0, 0, 39, 46, 0, 0, 0, 0
|59, 0, 35, 0, 0, 0, 0, 24, 0, 11, 0, 0, 0, 0, 41, 0, 16, 0, 0, 0, 9, 0, 0, 0, 0, 0, 0, 0, 39, 62, 0, 19, 33, 0, 0, 0, 27, 4, 0, 0, 36, 0, 2, 0, 0, 49, 0, 0, 0, 0, 0, 0, 0, 56, 0, 0, 1, 30, 0, 48, 0, 7, 0, 0
|40, 6, 3, 9, 29, 30, 0, 42, 31, 0, 0, 49, 0, 56, 15, 0, 0, 0, 10, 0, 0, 0, 7, 0, 0, 54, 14, 0, 0, 0, 0, 4, 20, 44, 0, 51, 5, 13, 18, 0, 0, 0, 0, 0, 0, 62, 0, 0, 0, 0, 0, 0, 19, 0, 33, 0, 0, 23, 0, 0, 0, 0, 0, 0
|0, 46, 0, 0, 7, 0, 0, 0, 51, 24, 0, 0, 0, 0, 0, 2, 0, 62, 0, 0, 0, 0, 64, 0, 0, 0, 0, 31, 0, 0, 0, 0, 0, 38, 29, 0, 42, 41, 0, 34, 18, 0, 0, 0, 0, 0, 28, 0, 0, 0, 23, 0, 0, 4, 0, 0, 0, 0, 0, 0, 21, 0, 10, 0
|0, 0, 37, 0, 11, 5, 0, 27, 0, 0, 0, 0, 0, 0, 0, 0, 0, 0, 61, 0, 0, 0, 3, 0, 0, 60, 43, 0, 0, 13, 0, 0, 0, 0, 63, 0, 0, 0, 0, 30, 7, 1, 19, 22, 0, 0, 0, 8, 0, 0, 0, 0, 0, 0, 0, 0, 0, 0, 0, 6, 46, 58, 38, 0
|0, 15, 31, 0, 0, 0, 0, 56, 0, 27, 0, 9, 0, 0, 64, 0, 20, 0, 11, 0, 0, 0, 12, 0, 0, 0, 0, 0, 0, 0, 0, 0, 0, 0, 0, 0, 0, 0, 0, 0, 0, 52, 0, 35, 0, 0, 0, 0, 21, 0, 0, 0, 0, 0, 0, 24, 0, 2, 63, 28, 0, 0, 5, 0
|0, 0, 0, 0, 0, 62, 0, 43, 0, 16, 61, 42, 0, 0, 0, 0, 1, 0, 59, 0, 0, 0, 0, 0, 0, 0, 10, 24, 64, 0, 0, 0, 0, 0, 35, 57, 0, 0, 58, 15, 0, 29, 30, 0, 51, 0, 50, 0, 0, 0, 0, 0, 3, 0, 0, 0, 11, 0, 0, 55, 37, 0, 0, 0
|19, 0, 0, 0, 0, 0, 1, 0, 21, 63, 0, 54, 0, 29, 0, 39, 50, 0, 0, 0, 0, 0, 0, 0, 0, 0, 0, 0, 0, 0, 0, 55, 0, 3, 0, 61, 47, 0, 7, 37, 0, 31, 0, 0, 0, 0, 0, 15, 0, 0, 0, 0, 0, 48, 0, 35, 0, 27, 0, 0, 40, 18, 0, 0
|49, 21, 0, 50, 0, 0, 0, 0, 0, 0, 0, 0, 0, 0, 0, 0, 24, 0, 31, 0, 0, 0, 0, 0, 0, 0, 6, 0, 0, 0, 11, 58, 0, 0, 0, 0, 19, 0, 10, 0, 0, 0, 0, 63, 0, 0, 0, 0, 0, 0, 0, 0, 25, 0, 0, 0, 22, 0, 45, 0, 0, 51, 0, 54
|0, 41, 0, 0, 0, 0, 9, 28, 0, 57, 3, 38, 19, 0, 42, 0, 8, 0, 17, 61, 11, 0, 0, 48, 0, 0, 5, 0, 0, 0, 25, 21, 0, 0, 0, 0, 0, 0, 0, 0, 0, 0, 26, 0, 0, 34, 0, 0, 0, 0, 0, 0, 0, 53, 0, 0, 0, 0, 0, 0, 0, 0, 0, 0
|0, 63, 26, 0, 0, 0, 0, 62, 0, 0, 0, 32, 0, 0, 31, 56, 0, 0, 0, 47, 44, 15, 43, 0, 0, 0, 20, 0, 0, 0, 0, 0, 0, 0, 0, 21, 0, 0, 0, 41, 0, 50, 0, 0, 0, 0, 0, 23, 8, 51, 0, 0, 0, 0, 0, 0, 38, 0, 46, 0, 0, 0, 22, 18
|0, 0, 0, 0, 0, 0, 0, 0, 0, 20, 0, 23, 0, 7, 40, 0, 19, 0, 0, 0, 0, 57, 0, 0, 64, 0, 0, 0, 47, 0, 0, 9, 30, 62, 36, 0, 0, 0, 0, 39, 0, 0, 0, 38, 0, 0, 0, 0, 0, 10, 50, 0, 0, 0, 0, 0, 0, 0, 6, 0, 33, 0, 28, 13
|0, 57, 0, 22, 0, 0, 0, 0, 0, 0, 0, 0, 14, 0, 0, 0, 0, 0, 0, 0, 0, 0, 0, 45, 24, 0, 0, 61, 0, 0, 33, 0, 29, 0, 0, 0, 16, 0, 53, 13, 28, 21, 40, 62, 0, 37, 59, 0, 0, 17, 0, 31, 0, 20, 2, 0, 0, 60, 0, 39, 49, 0, 0, 43
|0, 0, 0, 0, 0, 18, 0, 0, 2, 0, 0, 0, 0, 0, 0, 0, 6, 0, 0, 0, 0, 0, 0, 0, 0, 0, 0, 3, 0, 0, 43, 0, 0, 0, 0, 0, 11, 0, 0, 0, 64, 0, 42, 0, 63, 0, 0, 0, 0, 36, 0, 46, 58, 37, 41, 0, 21, 0, 0, 0, 54, 0, 17, 30
|0, 0, 0, 0, 0, 37, 0, 0, 0, 44, 0, 0, 0, 0, 55, 0, 0, 0, 0, 0, 30, 0, 0, 22, 0, 42, 0, 0, 62, 0, 0, 0, 0, 0, 0, 0, 0, 0, 0, 0, 6, 0, 0, 0, 0, 0, 8, 0, 0, 0, 0, 0, 0, 0, 0, 0, 0, 0, 0, 0, 25, 0, 0, 0
|42, 0, 0, 0, 0, 0, 0, 0, 0, 0, 0, 0, 63, 59, 29, 0, 0, 0, 0, 0, 20, 53, 37, 0, 0, 0, 0, 0, 0, 0, 60, 0, 47, 0, 0, 0, 25, 0, 0, 0, 0, 0, 55, 0, 0, 30, 0, 0, 1, 44, 0, 13, 0, 0, 0, 6, 0, 8, 0, 34, 57, 0, 36, 35
|7, 0, 0, 25, 0, 0, 0, 0, 0, 0, 0, 0, 0, 0, 24, 0, 0, 0, 0, 63, 0, 0, 21, 0, 0, 0, 0, 0, 22, 0, 0, 30, 0, 6, 20, 0, 43, 0, 0, 0, 0, 0, 0, 13, 15, 0, 0, 0, 23, 57, 0, 0, 0, 0, 0, 0, 51, 0, 47, 0, 16, 19, 0, 0
|22, 0, 30, 10, 0, 0, 0, 0, 0, 0, 0, 0, 0, 0, 0, 0, 33, 15, 58, 51, 56, 0, 0, 0, 0, 0, 0, 0, 0, 4, 52, 0, 0, 0, 0, 0, 0, 0, 14, 0, 0, 0, 0, 0, 0, 43, 0, 0, 0, 0, 0, 0, 36, 25, 0, 0, 0, 0, 0, 0, 9, 0, 39, 0
|13, 47, 0, 0, 0, 0, 0, 59, 0, 0, 0, 52, 0, 0, 46, 63, 0, 48, 0, 0, 0, 41, 20, 19, 36, 0, 0, 0, 0, 0, 0, 0, 0, 50, 0, 0, 0, 0, 0, 26, 0, 4, 0, 0, 0, 0, 0, 0, 0, 53, 0, 0, 17, 0, 0, 0, 56, 0, 0, 0, 15, 44, 0, 0
|0, 0, 0, 0, 55, 0, 0, 0, 0, 42, 0, 0, 0, 0, 20, 19, 0, 0, 0, 0, 0, 0, 0, 44, 32, 0, 0, 9, 0, 0, 63, 0, 0, 0, 33, 0, 31, 0, 0, 0, 34, 0, 59, 0, 61, 0, 0, 0, 0, 0, 0, 0, 21, 8, 0, 0, 0, 5, 0, 0, 0, 0, 0, 0
|0, 0, 0, 0, 0, 0, 0, 0, 0, 0, 33, 0, 2, 0, 0, 0, 5, 11, 42, 22, 0, 0, 0, 0, 0, 0, 0, 0, 0, 0, 0, 37, 0, 0, 0, 16, 10, 0, 0, 0, 63, 0, 0, 44, 0, 0, 0, 0, 0, 15, 0, 50, 0, 26, 0, 9, 0, 4, 0, 14, 0, 0, 61, 0
|0, 0, 2, 0, 3, 0, 0, 7, 0, 0, 12, 0, 0, 0, 0, 0, 0, 0, 0, 31, 0, 0, 25, 43, 35, 0, 0, 0, 0, 50, 0, 0, 0, 0, 0, 0, 15, 0, 0, 0, 0, 57, 0, 9, 0, 0, 0, 0, 0, 0, 0, 4, 5, 0, 0, 0, 0, 0, 0, 0, 0, 10, 0, 0
|0, 0, 16, 0, 63, 56, 34, 0, 26, 0, 0, 0, 24, 0, 0, 0, 0, 0, 0, 0, 7, 28, 38, 0, 0, 0, 42, 0, 0, 0, 0, 0, 22, 0, 0, 41, 51, 0, 0, 46, 35, 19, 0, 8, 48, 0, 0, 0, 0, 0, 0, 0, 2, 0, 0, 3, 64, 0, 23, 0, 6, 0, 21, 29
|0, 0, 64, 0, 0, 0, 44, 57, 0, 4, 40, 0, 0, 0, 35, 0, 39, 0, 2, 0, 13, 0, 0, 18, 0, 0, 34, 0, 55, 0, 0, 0, 21, 0, 0, 0, 30, 63, 0, 0, 0, 14, 0, 0, 0, 0, 6, 0, 0, 11, 0, 0, 0, 0, 0, 42, 0, 0, 0, 62, 22, 20, 0, 24
|0, 0, 20, 0, 0, 0, 26, 0, 0, 59, 0, 0, 5, 0, 0, 0, 0, 0, 63, 0, 14, 52, 0, 17, 0, 56, 0, 11, 0, 0, 24, 0, 9, 0, 64, 0, 0, 57, 3, 60, 39, 0, 0, 0, 0, 0, 0, 0, 0, 0, 0, 0, 0, 0, 0, 0, 28, 0, 0, 45, 0, 0, 0, 0
|0, 0, 49, 18, 0, 0, 58, 0, 53, 0, 0, 0, 50, 42, 17, 0, 0, 0, 56, 0, 2, 31, 0, 0, 0, 0, 0, 0, 30, 51, 35, 40, 0, 46, 14, 23, 0, 24, 0, 0, 0, 3, 64, 0, 32, 57, 0, 0, 0, 25, 0, 48, 0, 0, 0, 0, 0, 44, 61, 0, 45, 33, 0, 0
|0, 0, 0, 0, 0, 36, 39, 45, 62, 55, 0, 27, 15, 0, 0, 54, 0, 0, 13, 0, 16, 0, 29, 0, 0, 0, 0, 0, 0, 22, 26, 0, 0, 0, 0, 0, 0, 0, 0, 0, 0, 0, 0, 61, 31, 0, 33, 0, 0, 0, 24, 52, 0, 38, 0, 0, 0, 11, 48, 0, 8, 0, 0, 0
|0, 0, 50, 0, 13, 0, 0, 0, 34, 40, 0, 0, 0, 0, 21, 0, 43, 0, 0, 0, 0, 0, 53, 62, 0, 8, 4, 0, 18, 0, 0, 0, 5, 0, 0, 52, 0, 0, 0, 59, 0, 0, 0, 0, 0, 0, 0, 0, 6, 20, 0, 0, 0, 0, 44, 0, 12, 1, 55, 23, 60, 0, 0, 28
|0, 0, 0, 0, 0, 0, 0, 0, 47, 0, 41, 11, 0, 0, 0, 0, 0, 0, 0, 0, 35, 0, 45, 0, 0, 17, 13, 0, 0, 0, 46, 0, 0, 0, 0, 0, 0, 0, 15, 1, 0, 48, 0, 0, 0, 0, 0, 36, 0, 0, 0, 0, 61, 0, 0, 0, 0, 0, 0, 4, 0, 0, 59, 0
|31, 28, 0, 29, 0, 0, 0, 0, 0, 0, 0, 19, 0, 0, 0, 8, 38, 36, 25, 15, 0, 33, 58, 37, 0, 0, 23, 50, 0, 10, 0, 0, 44, 61, 0, 0, 0, 0, 0, 0, 27, 6, 0, 0, 0, 0, 1, 0, 0, 0, 12, 0, 35, 0, 0, 59, 0, 0, 21, 0, 0, 54, 0, 52
|2, 1, 0, 0, 0, 43, 57, 0, 0, 0, 0, 35, 0, 0, 38, 0, 0, 0, 0, 18, 0, 0, 48, 0, 45, 0, 0, 12, 15, 31, 0, 0, 0, 0, 0, 50, 0, 0, 8, 0, 21, 0, 44, 0, 0, 0, 0, 28, 0, 0, 0, 49, 27, 40, 55, 0, 0, 0, 42, 0, 0, 37, 0, 58
|0, 0, 0, 0, 0, 0, 0, 10, 63, 0, 0, 0, 7, 0, 0, 0, 0, 28, 8, 0, 50, 59, 44, 0, 0, 33, 0, 5, 61, 0, 58, 0, 0, 0, 45, 0, 0, 0, 27, 11, 0, 0, 0, 0, 0, 15, 0, 0, 37, 0, 0, 16, 0, 0, 0, 36, 0, 0, 0, 0, 0, 31, 0, 0
|0, 0, 0, 44, 0, 0, 12, 0, 45, 0, 0, 0, 0, 13, 0, 0, 0, 22, 1, 0, 0, 0, 0, 0, 0, 0, 0, 0, 0, 0, 14, 0, 38, 0, 56, 31, 0, 58, 0, 0, 0, 0, 0, 0, 18, 5, 0, 0, 63, 0, 47, 0, 0, 0, 0, 0, 0, 0, 9, 0, 0, 16, 3, 0
|0, 26, 0, 0, 57, 40, 0, 19, 0, 35, 0, 0, 0, 54, 0, 0, 0, 0, 15, 52, 0, 0, 0, 0, 0, 0, 0, 0, 0, 64, 0, 0, 61, 22, 0, 45, 55, 0, 0, 53, 0, 0, 0, 0, 0, 11, 34, 30, 0, 48, 8, 0, 0, 0, 5, 0, 0, 0, 0, 32, 0, 0, 0, 0
|0, 35, 13, 0, 0, 59, 0, 0, 32, 0, 0, 0, 0, 0, 62, 0, 0, 17, 0, 36, 0, 0, 0, 0, 42, 63, 53, 0, 0, 24, 0, 0, 52, 0, 0, 29, 50, 19, 0, 0, 0, 0, 47, 0, 12, 44, 0, 0, 7, 0, 40, 0, 9, 0, 14, 0, 0, 0, 64, 0, 31, 57, 0, 4
|0, 64, 0, 0, 31, 0, 0, 0, 0, 37, 8, 0, 0, 0, 0, 0, 22, 0, 0, 58, 0, 0, 0, 11, 0, 0, 0, 0, 0, 0, 12, 0, 0, 0, 0, 0, 0, 0, 4, 0, 43, 0, 0, 0, 24, 0, 51, 19, 0, 0, 0, 0, 23, 0, 0, 0, 0, 0, 0, 0, 0, 0, 25, 34
|51, 0, 0, 0, 2, 0, 0, 4, 0, 0, 0, 0, 23, 0, 0, 9, 26, 56, 0, 62, 1, 0, 0, 0, 0, 0, 0, 0, 34, 0, 0, 38, 0, 0, 0, 0, 58, 0, 43, 0, 0, 0, 0, 0, 25, 0, 63, 61, 20, 0, 0, 45, 28, 13, 35, 0, 0, 0, 0, 0, 0, 6, 48, 0
|0, 7, 62, 0, 0, 10, 50, 0, 0, 0, 0, 0, 0, 0, 0, 0, 45, 0, 0, 46, 0, 0, 0, 35, 25, 0, 49, 0, 0, 11, 47, 31, 34, 23, 0, 0, 0, 0, 0, 0, 58, 0, 0, 0, 8, 0, 9, 56, 0, 0, 0, 0, 0, 19, 0, 0, 41, 26, 0, 0, 51, 27, 0, 0
|0, 33, 0, 0, 0, 0, 0, 0, 0, 19, 0, 0, 0, 0, 0, 61, 0, 14, 0, 16, 0, 0, 0, 64, 5, 50, 0, 60, 0, 0, 0, 0, 0, 0, 59, 0, 0, 0, 0, 27, 0, 7, 0, 0, 0, 0, 26, 35, 38, 0, 0, 11, 0, 10, 0, 0, 0, 20, 0, 0, 0, 21, 0, 45
|0, 0, 0, 0, 12, 8, 0, 0, 0, 38, 0, 22, 0, 0, 52, 0, 0, 0, 34, 0, 0, 0, 0, 0, 0, 0, 0, 45, 0, 0, 0, 0, 0, 0, 0, 0, 0, 0, 0, 63, 0, 0, 5, 60, 0, 27, 0, 53, 0, 0, 41, 6, 62, 17, 0, 0, 35, 0, 0, 0, 0, 0, 19, 16
|17, 49, 0, 37, 41, 1, 45, 0, 56, 2, 0, 0, 25, 0, 0, 0, 18, 0, 0, 0, 59, 0, 0, 0, 52, 0, 0, 0, 0, 0, 0, 0, 54, 0, 0, 0, 0, 0, 44, 0, 0, 0, 10, 0, 0, 29, 0, 0, 0, 0, 0, 0, 0, 0, 0, 0, 0, 0, 0, 8, 0, 0, 0, 0
|0, 0, 17, 57, 0, 25, 0, 47, 0, 0, 0, 0, 0, 41, 0, 34, 58, 0, 0, 0, 46, 42, 0, 0, 16, 0, 0, 0, 27, 0, 0, 0, 45, 0, 0, 0, 0, 37, 5, 0, 0, 28, 0, 48, 44, 0, 0, 54, 4, 0, 0, 14, 53, 3, 0, 1, 0, 0, 0, 0, 0, 0, 0, 0
|0, 38, 6, 0, 0, 0, 0, 0, 0, 0, 0, 0, 9, 0, 0, 7, 0, 0, 18, 0, 0, 0, 47, 0, 0, 0, 0, 0, 0, 0, 0, 0, 32, 0, 0, 0, 63, 0, 0, 0, 0, 0, 0, 0, 0, 0, 24, 2, 0, 43, 25, 0, 0, 28, 52, 0, 0, 0, 13, 0, 48, 0, 0, 0
|26, 0, 0, 55, 0, 7, 0, 36, 64, 33, 51, 0, 0, 0, 1, 0, 0, 31, 0, 0, 0, 0, 23, 13, 18, 0, 28, 38, 0, 0, 0, 0, 0, 20, 0, 0, 62, 0, 29, 0, 0, 0, 34, 0, 0, 50, 5, 0, 54, 0, 63, 0, 0, 22, 0, 0, 47, 9, 0, 41, 0, 25, 0, 0
|8, 42, 41, 0, 53, 32, 0, 0, 0, 0, 0, 0, 0, 0, 0, 0, 4, 0, 0, 0, 0, 64, 0, 0, 34, 0, 0, 0, 0, 2, 0, 0, 39, 14, 0, 59, 6, 0, 0, 16, 0, 0, 0, 17, 0, 0, 0, 62, 26, 0, 0, 0, 0, 0, 0, 0, 33, 0, 0, 0, 0, 0, 40, 21
|0, 51, 0, 0, 0, 0, 0, 0, 0, 13, 0, 0, 0, 0, 48, 0, 44, 0, 0, 0, 41, 0, 22, 0, 0, 0, 45, 0, 0, 54, 4, 63, 0, 0, 0, 64, 1, 31, 0, 0, 0, 0, 0, 18, 0, 0, 56, 0, 0, 0, 21, 0, 57, 16, 0, 0, 0, 0, 0, 0, 0, 0, 0, 0
|0, 0, 46, 59, 0, 0, 0, 0, 0, 0, 6, 0, 42, 22, 0, 0, 0, 51, 0, 0, 0, 43, 2, 15, 0, 0, 0, 0, 17, 0, 0, 47, 0, 0, 0, 0, 0, 0, 0, 0, 0, 0, 0, 0, 0, 0, 0, 21, 0, 0, 0, 60, 0, 0, 36, 0, 0, 0, 16, 0, 0, 0, 0, 0
|0, 0, 0, 0, 0, 0, 0, 33, 14, 0, 0, 0, 0, 0, 0, 0, 0, 21, 0, 0, 0, 0, 0, 0, 0, 0, 0, 0, 19, 0, 0, 0, 13, 0, 41, 0, 28, 0, 17, 0, 51, 0, 0, 64, 0, 46, 0, 0, 27, 0, 34, 0, 0, 0, 0, 0, 0, 6, 0, 0, 0, 0, 0, 39
|45, 0, 19, 0, 0, 15, 0, 0, 0, 0, 0, 0, 0, 36, 0, 0, 0, 0, 0, 0, 0, 0, 0, 50, 0, 22, 0, 0, 0, 56, 0, 0, 0, 0, 49, 11, 0, 0, 0, 0, 0, 37, 0, 0, 0, 33, 0, 0, 44, 0, 0, 59, 0, 18, 13, 0, 0, 51, 5, 0, 0, 0, 2, 38
|15, 43, 0, 0, 0, 58, 0, 0, 41, 0, 0, 0, 0, 0, 50, 0, 0, 0, 38, 29, 0, 56, 0, 0, 0, 0, 2, 0, 8, 60, 0, 13, 63, 48, 0, 0, 3, 0, 22, 36, 16, 51, 0, 0, 0, 0, 7, 39, 49, 32, 0, 0, 0, 21, 23, 0, 0, 53, 0, 0, 0, 0, 0, 0
|0, 0, 42, 41, 52, 0, 0, 0, 0, 0, 56, 0, 0, 0, 0, 0, 0, 0, 12, 0, 0, 55, 46, 0, 0, 40, 0, 0, 0, 0, 53, 0, 11, 0, 6, 1, 0, 0, 0, 0, 29, 0, 0, 2, 0, 4, 0, 57, 34, 0, 19, 0, 0, 36, 64, 17, 0, 0, 0, 0, 0, 48, 8, 0
|0, 54, 0, 51, 0, 63, 0, 0, 0, 32, 0, 0, 16, 34, 0, 0, 0, 0, 23, 0, 0, 0, 0, 0, 0, 0, 48, 0, 0, 0, 50, 0, 0, 0, 0, 0, 0, 47, 0, 0, 61, 0, 0, 0, 28, 0, 0, 0, 0, 0, 1, 0, 0, 0, 0, 33, 0, 0, 57, 0, 0, 0, 0, 0
|0, 31, 0, 7, 19, 53, 0, 0, 13, 0, 0, 20, 48, 0, 26, 24, 0, 0, 47, 0, 15, 0, 40, 0, 0, 0, 21, 0, 0, 0, 0, 0, 0, 42, 0, 0, 0, 18, 33, 64, 0, 0, 0, 0, 0, 0, 0, 0, 0, 0, 0, 0, 0, 0, 43, 0, 0, 58, 49, 0, 0, 0, 0, 32
|0, 27, 0, 0, 45, 34, 47, 0, 0, 0, 59, 3, 0, 0, 0, 0, 63, 52, 21, 14, 0, 10, 0, 33, 51, 0, 0, 0, 0, 35, 0, 25, 0, 0, 0, 0, 0, 54, 0, 62, 0, 0, 0, 0, 36, 0, 17, 6, 56, 31, 48, 0, 13, 0, 0, 0, 0, 40, 0, 19, 0, 0, 44, 0
|0, 56, 57, 0, 0, 0, 10, 35, 60, 0, 63, 0, 0, 18, 0, 0, 32, 1, 0, 2, 0, 0, 0, 0, 0, 36, 0, 0, 0, 26, 0, 46, 49, 21, 19, 0, 0, 53, 30, 0, 0, 0, 0, 0, 0, 0, 31, 0, 0, 16, 0, 55, 0, 39, 0, 0, 43, 0, 50, 27, 0, 64, 54, 0
|33, 0, 0, 0, 0, 0, 0, 64, 0, 0, 21, 45, 0, 19, 10, 0, 0, 0, 0, 24, 0, 58, 41, 0, 0, 0, 0, 0, 0, 52, 0, 0, 0, 40, 0, 0, 0, 0, 60, 4, 55, 9, 0, 49, 38, 0, 0, 0, 3, 0, 53, 0, 0, 5, 0, 0, 0, 0, 0, 11, 0, 0, 0, 0
|3, 32, 55, 0, 0, 0, 24, 0, 9, 0, 0, 0, 0, 57, 44, 0, 7, 0, 0, 0, 36, 0, 0, 0, 11, 0, 0, 17, 0, 0, 45, 0, 27, 0, 0, 0, 0, 0, 38, 52, 56, 43, 0, 0, 53, 0, 0, 0, 0, 26, 0, 0, 0, 0, 59, 0, 0, 0, 33, 0, 0, 0, 0, 0|];