order = 8;
grid = [|28, 0, 0, 0, 0, 50, 15, 0, 39, 45, 0, 0, 0, 0, 0, 32, 0, 0, 0, 0, 53, 0, 0, 0, 0, 20, 0, 0, 30, 0, 0, 0, 0, 0, 0, 35, 0, 0, 0, 0, 0, 44, 36, 62, 0, 0, 63, 43, 0, 0, 12, 0, 3, 0, 0, 0, 0, 0, 0, 0, 0, 0, 1, 0
|0, 0, 0, 0, 0, 23, 0, 0, 2, 0, 0, 0, 49, 27, 0, 0, 0, 0, 0, 0, 0, 0, 39, 0, 12, 0, 0, 24, 31, 0, 36, 0, 0, 0, 0, 0, 8, 51, 44, 0, 45, 0, 0, 0, 0, 0, 18, 29, 0, 0, 0, 0, 0, 0, 0, 0, 0, 0, 0, 0, 11, 0, 0, 0
|0, 2, 0, 1, 43, 0, 0, 0, 0, 8, 0, 50, 0, 0, 0, 4, 0, 3, 0, 0, 41, 0, 47, 0, 0, 0, 0, 0, 0, 0, 0, 40, 0, 0, 16, 0, 49, 0, 0, 0, 0, 0, 0, 56, 31, 0, 0, 0, 0, 0, 0, 0, 0, 0, 0, 0, 0, 0, 60, 0, 0, 0, 0, 48
|0, 45, 55, 0, 0, 0, 0, 19, 0, 0, 0, 58, 0, 0, 0, 42, 0, 0, 26, 0, 0, 0, 0, 62, 0, 0, 47, 34, 59, 0, 11, 0, 0, 29, 0, 0, 0, 0, 6, 46, 0, 20, 5, 0, 0, 0, 0, 0, 0, 0, 2, 0, 0, 0, 0, 0, 0, 0, 0, 9, 21, 0, 0, 0
|0, 0, 0, 31, 0, 0, 51, 0, 0, 0, 0, 25, 0, 0, 0, 64, 0, 56, 0, 17, 0, 0, 9, 0, 6, 0, 0, 3, 0, 0, 0, 0, 41, 0, 0, 0, 63, 0, 0, 0, 0, 0, 28, 0, 0, 0, 0, 2, 0, 0, 0, 0, 0, 0, 0, 0, 0, 10, 47, 0, 0, 46, 0, 0
|0, 39, 0, 0, 0, 20, 56, 0, 5, 0, 18, 0, 35, 0, 0, 0, 0, 22, 0, 14, 0, 42, 37, 0, 0, 43, 0, 15, 0, 16, 27, 0, 40, 0, 0, 0, 30, 12, 0, 0, 0, 0, 46, 0, 24, 0, 0, 0, 0, 0, 0, 0, 0, 0, 62, 0, 0, 0, 0, 63, 0, 0, 0, 0
|21, 0, 0, 0, 0, 58, 0, 0, 17, 0, 15, 0, 0, 0, 0, 0, 0, 0, 0, 0, 0, 0, 12, 31, 0, 0, 0, 48, 0, 2, 0, 0, 0, 0, 0, 0, 0, 0, 0, 0, 0, 0, 59, 60, 0, 0, 0, 0, 24, 0, 0, 0, 0, 0, 49, 0, 0, 0, 0, 43, 0, 0, 0, 0
|0, 10, 0, 63, 0, 46, 0, 9, 0, 0, 40, 0, 0, 0, 0, 0, 2, 0, 57, 0, 50, 20, 36, 0, 0, 0, 0, 0, 0, 37, 0, 0, 47, 28, 0, 0, 3, 0, 0, 0, 64, 0, 0, 0, 26, 0, 48, 0, 0, 34, 0, 43, 0, 0, 0, 0, 12, 0, 0, 0, 0, 51, 0, 0
|34, 38, 8, 35, 0, 0, 0, 0, 0, 18, 0, 5, 0, 49, 0, 0, 41, 33, 0, 53, 0, 58, 0, 0, 0, 0, 0, 26, 0, 29, 0, 51, 11, 0, 62, 0, 0, 0, 0, 0, 0, 0, 0, 0, 0, 6, 36, 16, 19, 0, 37, 0, 0, 0, 0, 57, 0, 0, 0, 0, 0, 0, 0, 0
|27, 13, 19, 0, 0, 0, 0, 0, 0, 32, 0, 0, 3, 0, 0, 0, 0, 0, 54, 0, 0, 0, 0, 0, 0, 0, 0, 0, 1, 11, 0, 0, 43, 0, 0, 0, 0, 7, 0, 0, 0, 0, 14, 0, 0, 0, 0, 0, 0, 0, 0, 0, 0, 39, 0, 0, 0, 63, 0, 0, 22, 59, 0, 18
|0, 0, 56, 23, 0, 0, 0, 0, 1, 14, 61, 2, 0, 0, 0, 0, 0, 62, 64, 0, 19, 0, 40, 0, 0, 0, 0, 0, 0, 0, 0, 0, 35, 0, 0, 0, 0, 46, 0, 0, 32, 0, 0, 0, 0, 63, 0, 13, 43, 0, 0, 0, 0, 0, 0, 0, 0, 0, 0, 0, 0, 0, 0, 0
|42, 25, 0, 0, 0, 0, 0, 0, 63, 0, 20, 0, 0, 0, 48, 0, 0, 0, 0, 23, 0, 44, 0, 0, 0, 6, 0, 4, 0, 0, 8, 0, 0, 0, 0, 0, 0, 0, 45, 26, 0, 0, 0, 41, 27, 0, 0, 0, 0, 0, 0, 3, 0, 0, 0, 24, 0, 0, 0, 64, 0, 0, 0, 0
|59, 61, 0, 16, 54, 0, 52, 47, 26, 0, 6, 0, 0, 0, 0, 0, 49, 0, 0, 0, 55, 0, 0, 0, 0, 0, 0, 0, 0, 64, 12, 0, 0, 0, 0, 0, 17, 0, 0, 3, 0, 0, 0, 0, 0, 0, 0, 0, 0, 0, 0, 0, 1, 58, 0, 2, 43, 0, 0, 0, 0, 8, 45, 21
|0, 0, 0, 0, 22, 9, 0, 0, 0, 0, 0, 0, 0, 59, 0, 0, 0, 0, 0, 0, 0, 0, 0, 0, 36, 0, 0, 0, 0, 0, 23, 0, 33, 0, 0, 0, 0, 37, 0, 0, 0, 43, 0, 0, 0, 0, 0, 12, 0, 0, 0, 0, 0, 0, 0, 38, 14, 0, 34, 0, 62, 0, 0, 0
|0, 3, 0, 17, 0, 0, 0, 0, 0, 58, 31, 55, 0, 22, 0, 0, 47, 24, 0, 48, 0, 5, 0, 9, 0, 0, 0, 56, 10, 0, 0, 0, 0, 0, 0, 27, 0, 60, 0, 0, 21, 0, 0, 0, 0, 0, 19, 0, 0, 0, 62, 0, 0, 0, 0, 0, 0, 41, 0, 0, 0, 0, 0, 35
|0, 0, 0, 40, 0, 0, 0, 12, 0, 43, 0, 0, 47, 0, 0, 9, 0, 0, 0, 0, 0, 0, 20, 52, 0, 0, 0, 0, 18, 58, 3, 0, 49, 4, 0, 0, 21, 0, 0, 0, 0, 0, 0, 0, 7, 46, 0, 0, 63, 48, 0, 0, 0, 0, 0, 0, 0, 0, 0, 0, 0, 26, 0, 0
|0, 0, 0, 0, 0, 0, 0, 0, 0, 37, 11, 0, 61, 0, 0, 0, 32, 17, 47, 0, 64, 3, 0, 0, 0, 12, 0, 0, 0, 43, 0, 0, 0, 22, 0, 7, 36, 0, 0, 38, 0, 0, 0, 0, 0, 45, 5, 0, 0, 0, 0, 0, 0, 0, 25, 16, 0, 35, 0, 33, 15, 44, 60, 0
|0, 0, 0, 45, 0, 0, 19, 0, 20, 23, 0, 0, 60, 0, 0, 0, 0, 0, 46, 0, 0, 0, 0, 0, 0, 0, 0, 0, 0, 0, 0, 15, 0, 0, 0, 0, 0, 0, 0, 0, 8, 0, 0, 0, 0, 43, 0, 0, 0, 0, 0, 0, 30, 4, 0, 34, 0, 0, 0, 0, 57, 61, 36, 0
|0, 48, 0, 0, 0, 47, 0, 0, 36, 0, 46, 0, 16, 0, 0, 0, 0, 0, 53, 0, 0, 0, 0, 0, 0, 0, 0, 0, 51, 0, 22, 0, 0, 0, 6, 0, 0, 0, 3, 0, 0, 59, 31, 7, 0, 2, 0, 0, 57, 0, 0, 0, 0, 0, 0, 43, 0, 0, 0, 0, 0, 0, 42, 0
|61, 30, 0, 0, 0, 0, 0, 0, 0, 0, 0, 0, 0, 0, 5, 0, 0, 58, 0, 0, 0, 0, 0, 0, 40, 42, 38, 0, 0, 0, 0, 7, 0, 14, 0, 0, 0, 0, 4, 0, 0, 0, 64, 0, 15, 1, 10, 0, 0, 28, 0, 35, 0, 11, 0, 0, 0, 0, 0, 0, 0, 0, 0, 0
|0, 51, 50, 28, 0, 7, 0, 0, 0, 0, 0, 48, 57, 4, 0, 0, 30, 0, 22, 0, 0, 0, 55, 16, 0, 0, 0, 6, 0, 21, 24, 47, 44, 0, 40, 0, 0, 0, 0, 62, 0, 12, 0, 0, 0, 0, 0, 53, 0, 0, 0, 0, 0, 5, 0, 0, 0, 3, 32, 0, 0, 56, 0, 0
|0, 0, 53, 0, 0, 0, 18, 0, 0, 0, 0, 0, 40, 0, 7, 0, 0, 0, 0, 0, 0, 0, 0, 0, 0, 36, 9, 16, 0, 49, 0, 0, 23, 30, 0, 0, 0, 0, 0, 0, 0, 13, 0, 0, 0, 0, 0, 0, 0, 0, 0, 0, 62, 50, 41, 8, 0, 0, 43, 0, 0, 0, 0, 0
|0, 1, 39, 0, 0, 0, 0, 0, 0, 0, 28, 0, 0, 0, 0, 31, 0, 0, 0, 0, 0, 0, 0, 21, 0, 0, 0, 59, 0, 57, 0, 0, 0, 0, 0, 0, 46, 0, 0, 0, 26, 0, 29, 0, 0, 0, 0, 9, 0, 47, 0, 18, 0, 0, 52, 40, 4, 0, 16, 0, 0, 0, 2, 0
|0, 0, 0, 0, 0, 0, 0, 0, 0, 0, 55, 0, 0, 0, 1, 0, 0, 0, 7, 0, 0, 11, 0, 63, 0, 0, 0, 0, 0, 30, 0, 0, 0, 0, 0, 0, 0, 0, 0, 0, 61, 0, 0, 0, 39, 0, 0, 0, 0, 0, 45, 0, 0, 0, 0, 48, 0, 0, 0, 0, 0, 27, 19, 24
|0, 0, 36, 0, 0, 0, 9, 0, 0, 0, 23, 0, 0, 0, 0, 0, 3, 0, 0, 26, 0, 40, 30, 0, 0, 0, 59, 0, 22, 51, 0, 60, 18, 0, 0, 0, 0, 0, 0, 0, 0, 0, 0, 0, 0, 0, 0, 0, 0, 0, 0, 0, 0, 0, 0, 0, 0, 0, 63, 0, 0, 0, 29, 0
|0, 0, 17, 0, 0, 0, 8, 0, 30, 27, 0, 0, 0, 0, 0, 0, 0, 0, 62, 0, 0, 0, 0, 0, 0, 0, 54, 64, 56, 0, 0, 0, 14, 0, 0, 11, 43, 0, 0, 0, 0, 0, 0, 0, 0, 0, 0, 0, 0, 0, 5, 0, 50, 19, 4, 0, 0, 24, 7, 0, 32, 0, 0, 55
|0, 0, 0, 0, 0, 38, 0, 27, 0, 0, 0, 10, 0, 0, 0, 0, 60, 0, 0, 0, 21, 0, 0, 0, 0, 33, 0, 0, 0, 0, 0, 37, 0, 0, 0, 24, 0, 53, 48, 0, 0, 0, 0, 5, 0, 0, 0, 19, 0, 13, 0, 0, 0, 0, 11, 22, 0, 44, 12, 0, 0, 0, 0, 0
|16, 0, 0, 0, 0, 0, 4, 29, 35, 15, 51, 42, 0, 0, 8, 0, 18, 0, 0, 61, 0, 13, 0, 24, 62, 26, 31, 0, 57, 47, 14, 12, 3, 0, 0, 0, 39, 0, 0, 30, 0, 52, 45, 0, 0, 49, 0, 0, 27, 0, 0, 0, 0, 1, 0, 0, 0, 0, 0, 0, 0, 0, 0, 0
|0, 22, 0, 0, 0, 5, 0, 0, 0, 0, 0, 0, 6, 0, 0, 61, 19, 0, 0, 0, 39, 0, 0, 0, 52, 9, 55, 0, 7, 0, 0, 0, 0, 31, 20, 0, 40, 44, 60, 59, 0, 37, 0, 0, 0, 23, 0, 56, 0, 0, 0, 0, 0, 0, 18, 0, 0, 49, 0, 0, 0, 3, 27, 54
|3, 62, 0, 43, 6, 0, 0, 0, 0, 0, 0, 0, 0, 0, 0, 58, 53, 42, 0, 0, 0, 0, 0, 8, 0, 0, 0, 0, 16, 0, 0, 63, 0, 7, 47, 0, 0, 0, 0, 0, 0, 0, 0, 27, 41, 26, 9, 54, 0, 0, 55, 60, 0, 0, 14, 0, 0, 0, 0, 0, 30, 0, 0, 0
|0, 0, 0, 0, 7, 39, 0, 42, 49, 0, 0, 0, 0, 0, 59, 33, 14, 0, 0, 0, 0, 50, 17, 0, 0, 0, 0, 0, 8, 6, 53, 25, 0, 0, 28, 0, 0, 0, 46, 0, 0, 0, 12, 43, 0, 0, 64, 0, 0, 23, 0, 0, 10, 0, 0, 0, 41, 0, 62, 0, 0, 0, 0, 0
|52, 0, 59, 0, 0, 56, 0, 13, 0, 0, 14, 46, 63, 0, 0, 0, 0, 41, 44, 0, 0, 0, 43, 0, 23, 49, 0, 0, 0, 0, 0, 36, 0, 0, 0, 4, 0, 54, 22, 6, 0, 0, 42, 0, 0, 0, 0, 38, 39, 16, 0, 0, 0, 0, 0, 64, 0, 0, 0, 26, 0, 10, 0, 61
|0, 0, 24, 0, 0, 54, 0, 0, 0, 10, 5, 49, 0, 0, 36, 0, 0, 0, 60, 0, 0, 0, 0, 0, 63, 0, 0, 0, 0, 0, 0, 0, 0, 0, 0, 0, 33, 0, 43, 0, 0, 0, 0, 0, 0, 0, 0, 0, 0, 0, 42, 0, 9, 0, 0, 18, 0, 0, 0, 0, 34, 0, 28, 0
|22, 0, 0, 0, 33, 0, 0, 0, 0, 52, 0, 0, 0, 0, 19, 0, 0, 43, 49, 0, 0, 57, 0, 28, 0, 0, 0, 0, 0, 0, 0, 0, 0, 0, 0, 9, 44, 5, 0, 0, 2, 0, 0, 0, 0, 0, 0, 0, 0, 0, 0, 39, 0, 23, 0, 0, 0, 0, 0, 61, 0, 0, 0, 0
|0, 0, 0, 0, 0, 0, 36, 0, 0, 0, 0, 0, 0, 0, 0, 59, 29, 20, 12, 0, 0, 22, 0, 0, 0, 47, 0, 2, 0, 40, 0, 52, 0, 0, 0, 0, 0, 0, 34, 0, 0, 0, 49, 13, 0, 0, 32, 1, 0, 0, 0, 0, 0, 41, 46, 58, 9, 0, 26, 0, 0, 0, 0, 0
|0, 0, 0, 0, 9, 0, 0, 0, 11, 0, 0, 0, 0, 0, 40, 0, 0, 0, 6, 0, 0, 33, 0, 0, 0, 0, 5, 0, 0, 4, 0, 0, 0, 47, 0, 0, 41, 0, 59, 53, 0, 0, 63, 45, 38, 7, 0, 0, 0, 0, 0, 16, 60, 0, 0, 0, 0, 0, 0, 0, 0, 37, 0, 1
|63, 0, 0, 0, 0, 0, 0, 0, 24, 0, 60, 32, 0, 55, 17, 56, 0, 0, 0, 0, 0, 0, 27, 0, 0, 0, 0, 54, 0, 0, 1, 0, 6, 0, 0, 0, 0, 20, 0, 0, 0, 29, 0, 9, 0, 0, 0, 0, 0, 0, 64, 0, 0, 0, 0, 0, 0, 0, 0, 16, 0, 57, 0, 0
|49, 34, 31, 0, 10, 0, 0, 0, 0, 22, 0, 6, 0, 46, 0, 0, 0, 0, 0, 0, 0, 0, 0, 0, 0, 0, 0, 32, 0, 14, 0, 0, 21, 26, 58, 19, 42, 0, 0, 0, 0, 53, 0, 47, 52, 62, 0, 0, 0, 12, 0, 0, 17, 0, 0, 51, 0, 0, 3, 30, 0, 23, 0, 0
|0, 0, 0, 52, 0, 0, 0, 17, 14, 0, 0, 1, 27, 50, 0, 0, 0, 0, 0, 38, 51, 0, 45, 0, 0, 22, 0, 12, 20, 0, 0, 0, 32, 18, 0, 0, 62, 0, 0, 60, 0, 0, 15, 0, 0, 40, 54, 0, 0, 0, 0, 0, 0, 3, 30, 0, 0, 0, 36, 0, 0, 0, 48, 0
|0, 0, 0, 0, 0, 48, 0, 0, 0, 0, 0, 0, 58, 0, 0, 0, 24, 0, 30, 0, 0, 53, 62, 26, 0, 35, 0, 0, 0, 0, 42, 0, 0, 0, 7, 22, 0, 0, 0, 54, 0, 0, 43, 0, 0, 0, 0, 0, 0, 0, 20, 0, 0, 0, 0, 1, 0, 12, 0, 0, 0, 0, 0, 0
|0, 0, 0, 0, 0, 0, 0, 0, 37, 0, 52, 0, 45, 0, 11, 0, 36, 0, 0, 0, 0, 15, 0, 0, 32, 56, 0, 0, 0, 62, 49, 0, 20, 0, 14, 0, 60, 0, 0, 41, 0, 0, 0, 0, 0, 50, 0, 0, 0, 0, 59, 19, 0, 0, 0, 0, 38, 23, 42, 0, 0, 0, 12, 4
|33, 63, 0, 57, 0, 0, 0, 59, 0, 0, 0, 0, 0, 0, 13, 0, 0, 30, 0, 44, 0, 0, 7, 0, 50, 60, 0, 0, 0, 0, 0, 0, 0, 0, 0, 0, 0, 0, 0, 40, 0, 0, 35, 0, 0, 20, 0, 32, 0, 27, 0, 0, 52, 0, 0, 41, 0, 0, 0, 0, 0, 0, 26, 0
|0, 0, 60, 0, 0, 0, 0, 0, 0, 34, 0, 0, 0, 7, 0, 0, 0, 0, 0, 0, 18, 6, 0, 0, 0, 0, 0, 42, 0, 0, 51, 0, 5, 0, 39, 0, 24, 59, 0, 0, 0, 0, 0, 0, 14, 0, 0, 0, 44, 0, 0, 0, 0, 0, 0, 0, 0, 61, 0, 35, 0, 11, 0, 0
|0, 0, 0, 0, 0, 41, 49, 0, 0, 33, 38, 0, 0, 0, 31, 0, 0, 9, 0, 0, 0, 0, 60, 34, 0, 0, 0, 17, 46, 0, 0, 8, 0, 19, 0, 0, 0, 0, 53, 36, 0, 24, 0, 3, 0, 64, 0, 45, 10, 0, 0, 0, 0, 0, 0, 0, 0, 51, 0, 0, 0, 0, 0, 0
|1, 31, 0, 0, 0, 0, 35, 0, 0, 61, 0, 0, 0, 29, 0, 0, 0, 0, 24, 16, 0, 21, 0, 0, 18, 0, 0, 0, 0, 0, 0, 0, 0, 0, 56, 0, 0, 0, 0, 0, 0, 9, 19, 0, 0, 0, 51, 0, 0, 40, 0, 0, 34, 15, 32, 60, 0, 0, 0, 0, 10, 0, 64, 0
|0, 0, 0, 0, 48, 0, 42, 0, 0, 46, 0, 0, 0, 0, 21, 0, 0, 0, 31, 0, 0, 52, 8, 0, 0, 0, 0, 0, 0, 0, 0, 0, 0, 0, 0, 0, 11, 0, 0, 0, 0, 0, 37, 0, 0, 17, 0, 0, 0, 0, 0, 0, 22, 0, 0, 0, 0, 0, 0, 0, 0, 0, 0, 60
|0, 0, 0, 0, 14, 0, 0, 61, 0, 0, 0, 0, 0, 0, 0, 0, 0, 0, 40, 0, 12, 56, 49, 39, 0, 0, 0, 0, 0, 0, 0, 0, 0, 0, 0, 0, 0, 0, 0, 0, 0, 10, 34, 0, 0, 0, 0, 0, 0, 33, 30, 0, 7, 8, 0, 5, 0, 0, 17, 0, 0, 0, 0, 46
|11, 0, 0, 0, 40, 0, 38, 0, 0, 0, 43, 0, 0, 6, 0, 15, 0, 0, 0, 0, 0, 2, 0, 0, 7, 0, 0, 23, 24, 0, 52, 28, 30, 0, 0, 48, 35, 0, 0, 0, 60, 26, 56, 0, 0, 0, 0, 0, 18, 0, 0, 0, 0, 46, 45, 0, 0, 0, 0, 0, 0, 0, 0, 0
|0, 0, 0, 36, 0, 0, 0, 39, 0, 0, 0, 0, 38, 0, 43, 40, 61, 0, 0, 0, 32, 0, 0, 0, 0, 18, 63, 9, 0, 0, 0, 30, 0, 0, 0, 0, 0, 23, 0, 42, 0, 0, 10, 0, 0, 53, 6, 0, 51, 0, 0, 0, 0, 0, 0, 0, 0, 0, 0, 0, 0, 24, 0, 12
|0, 0, 0, 15, 0, 0, 0, 0, 0, 0, 1, 0, 0, 58, 0, 0, 42, 0, 0, 0, 0, 59, 28, 0, 0, 0, 0, 0, 0, 36, 0, 0, 25, 53, 57, 0, 0, 0, 7, 0, 0, 0, 60, 12, 0, 0, 0, 0, 0, 39, 21, 0, 4, 52, 44, 0, 0, 0, 56, 0, 23, 0, 0, 27
|0, 0, 12, 0, 0, 55, 7, 26, 0, 6, 9, 0, 0, 0, 27, 23, 0, 37, 50, 57, 45, 14, 31, 0, 47, 10, 0, 21, 0, 33, 5, 0, 0, 41, 35, 0, 2, 15, 0, 0, 49, 0, 0, 51, 0, 0, 0, 0, 0, 0, 0, 0, 0, 0, 0, 0, 0, 0, 0, 0, 54, 0, 0, 0
|0, 0, 4, 0, 0, 0, 0, 0, 0, 0, 0, 44, 0, 62, 0, 22, 0, 0, 0, 0, 24, 0, 58, 0, 56, 0, 0, 7, 0, 0, 0, 0, 0, 0, 1, 0, 0, 0, 0, 52, 0, 0, 0, 0, 0, 0, 0, 14, 0, 0, 0, 0, 0, 0, 0, 0, 11, 0, 0, 31, 0, 0, 0, 0
|0, 0, 0, 32, 0, 62, 5, 0, 0, 0, 0, 59, 2, 42, 47, 0, 0, 0, 0, 0, 0, 0, 53, 0, 0, 14, 0, 0, 0, 0, 0, 0, 27, 0, 0, 0, 29, 30, 0, 0, 0, 0, 0, 0, 11, 0, 0, 0, 0, 0, 19, 0, 0, 0, 10, 6, 0, 0, 0, 49, 0, 1, 0, 0
|20, 0, 0, 0, 0, 10, 0, 31, 4, 36, 7, 8, 0, 3, 0, 0, 62, 19, 0, 0, 43, 47, 0, 0, 0, 0, 0, 61, 0, 0, 0, 0, 0, 0, 64, 0, 0, 0, 0, 0, 0, 0, 0, 0, 0, 0, 58, 0, 0, 0, 0, 0, 0, 0, 27, 0, 30, 0, 0, 0, 0, 0, 0, 0
|0, 0, 0, 51, 23, 0, 0, 0, 54, 0, 0, 0, 0, 0, 0, 0, 64, 0, 0, 6, 0, 0, 0, 0, 4, 0, 0, 0, 0, 3, 0, 0, 0, 0, 0, 21, 0, 0, 0, 0, 0, 47, 0, 42, 0, 61, 0, 0, 0, 0, 0, 0, 0, 7, 13, 0, 0, 0, 0, 45, 0, 22, 0, 0
|6, 0, 0, 0, 0, 0, 0, 0, 0, 0, 0, 0, 48, 0, 0, 0, 0, 0, 0, 1, 11, 0, 5, 0, 0, 0, 12, 0, 0, 0, 46, 0, 16, 0, 0, 40, 32, 0, 0, 31, 0, 0, 0, 26, 20, 0, 0, 0, 0, 0, 0, 0, 41, 0, 0, 0, 0, 0, 0, 37, 0, 0, 0, 0
|0, 0, 0, 0, 0, 0, 0, 0, 0, 47, 0, 0, 0, 0, 12, 10, 0, 0, 0, 0, 0, 0, 6, 0, 31, 0, 0, 0, 0, 0, 59, 0, 46, 0, 48, 60, 28, 0, 0, 0, 0, 0, 62, 0, 0, 0, 0, 0, 34, 19, 0, 0, 0, 42, 0, 0, 33, 40, 0, 0, 0, 18, 30, 0
|0, 16, 0, 0, 0, 0, 64, 0, 29, 0, 0, 0, 0, 0, 0, 0, 0, 0, 0, 27, 56, 62, 0, 33, 22, 23, 0, 0, 0, 0, 0, 0, 0, 0, 0, 42, 26, 0, 0, 9, 0, 0, 20, 0, 0, 0, 0, 0, 7, 59, 0, 0, 8, 51, 6, 45, 0, 0, 0, 0, 0, 0, 0, 53
|10, 0, 0, 26, 51, 0, 55, 44, 0, 0, 0, 16, 0, 57, 0, 0, 1, 0, 4, 50, 60, 8, 42, 0, 0, 0, 0, 38, 0, 0, 0, 0, 0, 0, 17, 0, 0, 0, 0, 0, 0, 22, 0, 0, 0, 0, 7, 30, 0, 62, 0, 0, 32, 24, 43, 0, 2, 0, 37, 0, 28, 0, 0, 0
|0, 18, 33, 7, 0, 0, 0, 50, 0, 0, 0, 54, 37, 0, 0, 0, 0, 0, 58, 0, 0, 25, 0, 0, 0, 27, 0, 0, 0, 8, 0, 0, 55, 0, 44, 0, 0, 14, 0, 0, 0, 61, 0, 0, 0, 0, 45, 0, 0, 0, 0, 0, 20, 0, 0, 0, 0, 6, 10, 39, 17, 0, 0, 0
|0, 0, 63, 0, 0, 0, 0, 48, 0, 0, 39, 0, 0, 23, 0, 11, 0, 0, 18, 0, 0, 0, 0, 15, 0, 0, 0, 62, 14, 0, 25, 33, 45, 0, 0, 0, 61, 0, 0, 0, 0, 0, 1, 0, 40, 51, 0, 0, 0, 0, 0, 50, 0, 0, 0, 26, 24, 0, 0, 0, 0, 9, 0, 0
|0, 0, 0, 0, 0, 0, 0, 6, 0, 0, 0, 0, 59, 0, 2, 0, 0, 0, 0, 40, 57, 0, 0, 45, 0, 44, 0, 0, 0, 17, 0, 0, 0, 0, 0, 41, 0, 0, 13, 49, 0, 48, 0, 0, 0, 0, 0, 0, 0, 38, 0, 0, 0, 0, 0, 0, 0, 0, 0, 0, 0, 64, 8, 0
|0, 0, 0, 0, 0, 59, 0, 0, 0, 0, 27, 21, 0, 0, 0, 0, 0, 0, 0, 9, 0, 0, 64, 0, 0, 0, 0, 0, 0, 0, 0, 0, 2, 0, 15, 0, 0, 10, 0, 0, 0, 0, 0, 0, 50, 0, 0, 0, 0, 53, 57, 0, 25, 0, 28, 0, 0, 0, 0, 0, 16, 0, 44, 0
|23, 0, 0, 0, 2, 0, 0, 0, 0, 0, 0, 0, 0, 15, 9, 17, 43, 0, 37, 24, 0, 26, 0, 0, 0, 0, 0, 0, 0, 0, 32, 0, 0, 0, 0, 29, 0, 0, 0, 0, 0, 25, 0, 59, 0, 0, 56, 35, 48, 0, 0, 0, 0, 60, 39, 44, 0, 45, 0, 55, 0, 0, 0, 52|];