order = 8;
grid = [|0, 0, 0, 0, 4, 0, 0, 16, 0, 0, 0, 0, 25, 0, 0, 0, 0, 21, 31, 0, 0, 0, 0, 0, 19, 0, 0, 0, 0, 35, 0, 0, 0, 48, 37, 43, 0, 0, 33, 38, 0, 0, 0, 0, 0, 0, 39, 0, 62, 12, 0, 0, 0, 32, 14, 0, 0, 0, 1, 0, 0, 0, 6, 0
|0, 58, 0, 0, 0, 0, 0, 39, 0, 0, 0, 0, 0, 0, 5, 0, 0, 0, 0, 34, 0, 0, 10, 0, 0, 0, 4, 2, 6, 36, 0, 0, 0, 20, 8, 0, 0, 0, 13, 0, 0, 0, 38, 0, 33, 0, 0, 0, 0, 0, 0, 19, 0, 9, 0, 0, 0, 0, 12, 0, 0, 0, 60, 52
|0, 24, 10, 0, 0, 20, 0, 0, 0, 62, 0, 0, 0, 57, 0, 7, 60, 0, 0, 0, 0, 0, 0, 56, 13, 0, 0, 0, 14, 0, 0, 0, 0, 0, 0, 53, 0, 0, 0, 0, 0, 0, 36, 0, 0, 0, 0, 0, 52, 0, 30, 48, 0, 0, 17, 0, 0, 0, 0, 0, 15, 19, 0, 0
|0, 34, 31, 0, 0, 0, 19, 0, 0, 41, 35, 51, 0, 0, 0, 0, 33, 0, 0, 0, 57, 0, 0, 0, 0, 0, 0, 0, 0, 0, 0, 0, 4, 0, 0, 0, 6, 0, 61, 0, 25, 15, 0, 0, 0, 7, 58, 0, 0, 0, 0, 0, 0, 43, 0, 0, 0, 44, 9, 0, 0, 0, 0, 0
|0, 0, 0, 0, 0, 0, 15, 0, 0, 0, 0, 0, 0, 0, 0, 43, 0, 29, 0, 0, 28, 0, 0, 14, 9, 37, 0, 0, 0, 3, 0, 16, 0, 0, 0, 0, 41, 0, 0, 0, 13, 0, 4, 0, 44, 0, 0, 0, 0, 0, 11, 0, 0, 42, 0, 0, 7, 17, 31, 0, 0, 0, 55, 0
|0, 0, 0, 0, 0, 2, 0, 0, 0, 14, 36, 10, 0, 0, 0, 18, 0, 46, 0, 42, 9, 0, 0, 64, 0, 48, 0, 0, 0, 0, 24, 54, 0, 0, 15, 0, 0, 60, 32, 31, 19, 0, 0, 0, 0, 0, 0, 0, 0, 0, 1, 0, 0, 0, 0, 51, 0, 41, 3, 0, 47, 5, 43, 0
|33, 0, 61, 0, 0, 17, 0, 0, 0, 0, 0, 52, 22, 0, 15, 0, 0, 0, 0, 0, 0, 19, 0, 0, 0, 0, 0, 25, 58, 0, 0, 0, 0, 0, 0, 64, 0, 0, 0, 0, 0, 0, 0, 30, 0, 0, 0, 0, 0, 34, 0, 0, 0, 0, 0, 0, 39, 0, 0, 40, 0, 37, 0, 62
|22, 41, 62, 0, 27, 51, 53, 0, 0, 32, 0, 33, 0, 0, 0, 0, 0, 16, 13, 0, 0, 0, 30, 0, 0, 0, 0, 55, 0, 0, 0, 0, 0, 0, 0, 0, 0, 0, 0, 0, 0, 0, 0, 0, 0, 0, 64, 56, 0, 29, 0, 28, 0, 0, 0, 0, 0, 0, 0, 8, 42, 0, 0, 0
|0, 0, 0, 0, 0, 1, 0, 17, 0, 0, 0, 15, 0, 0, 6, 0, 0, 0, 0, 0, 0, 0, 0, 0, 59, 47, 0, 0, 10, 0, 0, 0, 48, 0, 58, 0, 43, 0, 0, 0, 0, 44, 0, 0, 0, 0, 0, 0, 0, 0, 0, 0, 49, 33, 0, 54, 60, 0, 0, 0, 0, 0, 0, 0
|0, 0, 9, 0, 0, 0, 0, 0, 54, 0, 0, 0, 0, 33, 0, 0, 0, 0, 49, 0, 0, 0, 29, 0, 0, 0, 46, 5, 19, 0, 0, 0, 0, 0, 7, 35, 0, 56, 14, 0, 0, 0, 0, 13, 0, 0, 0, 0, 0, 0, 0, 31, 25, 0, 0, 50, 3, 0, 0, 0, 0, 12, 58, 10
|48, 0, 44, 0, 59, 7, 0, 0, 0, 0, 0, 0, 0, 55, 0, 0, 0, 0, 0, 51, 0, 0, 52, 0, 0, 0, 62, 0, 0, 16, 0, 0, 30, 0, 0, 0, 0, 39, 0, 0, 0, 0, 45, 63, 0, 0, 0, 0, 0, 0, 32, 0, 56, 0, 0, 40, 0, 21, 0, 0, 0, 43, 61, 0
|0, 0, 0, 33, 0, 0, 0, 0, 11, 0, 0, 0, 2, 59, 0, 0, 0, 0, 27, 0, 0, 0, 0, 30, 0, 0, 0, 0, 0, 0, 29, 56, 0, 0, 20, 0, 0, 0, 63, 0, 0, 0, 49, 0, 0, 0, 24, 0, 0, 39, 0, 0, 0, 0, 0, 58, 16, 0, 0, 0, 44, 0, 0, 1
|0, 0, 2, 0, 0, 0, 0, 0, 0, 0, 0, 0, 0, 0, 53, 4, 6, 31, 47, 0, 0, 37, 0, 0, 1, 20, 7, 58, 0, 0, 0, 0, 0, 0, 0, 0, 0, 0, 0, 0, 0, 64, 0, 0, 0, 0, 0, 0, 0, 0, 52, 0, 0, 0, 36, 0, 0, 35, 0, 0, 0, 13, 0, 0
|0, 0, 35, 37, 0, 0, 0, 62, 0, 0, 0, 0, 0, 48, 29, 0, 0, 14, 0, 2, 0, 0, 0, 0, 0, 11, 30, 0, 0, 22, 0, 0, 0, 0, 0, 4, 49, 0, 21, 0, 3, 0, 0, 0, 0, 0, 27, 0, 0, 28, 8, 44, 0, 0, 46, 0, 15, 0, 41, 45, 7, 23, 0, 0
|0, 0, 0, 0, 0, 0, 0, 0, 0, 36, 0, 39, 0, 0, 0, 0, 0, 0, 0, 0, 0, 15, 16, 0, 0, 34, 0, 0, 0, 0, 0, 48, 29, 55, 38, 0, 0, 0, 60, 0, 0, 0, 0, 0, 8, 47, 0, 0, 6, 0, 0, 0, 0, 11, 0, 0, 0, 0, 0, 0, 53, 0, 0, 18
|0, 0, 0, 0, 0, 13, 0, 0, 0, 0, 38, 0, 0, 0, 0, 0, 0, 28, 0, 57, 10, 0, 0, 0, 24, 0, 15, 6, 0, 0, 40, 0, 0, 0, 0, 32, 0, 0, 0, 44, 0, 55, 0, 23, 0, 0, 0, 0, 0, 4, 0, 29, 0, 0, 0, 18, 0, 0, 0, 0, 0, 14, 0, 0
|0, 0, 0, 0, 48, 0, 0, 0, 0, 27, 11, 0, 0, 0, 0, 0, 0, 0, 0, 0, 0, 0, 0, 49, 0, 0, 0, 0, 0, 0, 0, 0, 0, 0, 0, 21, 0, 0, 0, 61, 0, 0, 0, 0, 24, 0, 0, 0, 0, 25, 29, 39, 0, 0, 64, 0, 20, 0, 0, 0, 0, 0, 0, 0
|0, 0, 0, 0, 0, 0, 39, 0, 0, 0, 0, 0, 0, 19, 0, 49, 4, 0, 10, 0, 3, 51, 20, 24, 0, 0, 0, 0, 0, 55, 0, 0, 0, 42, 32, 0, 34, 33, 0, 43, 0, 22, 0, 0, 11, 0, 0, 0, 0, 0, 0, 13, 0, 45, 0, 0, 0, 0, 0, 0, 50, 28, 0, 0
|62, 0, 0, 0, 0, 32, 38, 0, 0, 6, 0, 0, 0, 22, 0, 0, 0, 0, 0, 0, 0, 0, 0, 52, 0, 0, 24, 0, 0, 0, 56, 0, 0, 0, 1, 20, 0, 0, 0, 39, 0, 41, 0, 0, 0, 40, 0, 0, 0, 58, 0, 0, 0, 0, 0, 0, 0, 0, 25, 0, 0, 59, 27, 46
|0, 0, 47, 0, 25, 0, 0, 0, 0, 12, 0, 0, 0, 0, 0, 1, 0, 0, 0, 0, 0, 0, 0, 0, 0, 35, 0, 60, 38, 0, 8, 0, 0, 0, 0, 0, 31, 49, 0, 0, 7, 30, 20, 0, 0, 0, 0, 51, 0, 0, 0, 0, 24, 37, 0, 0, 41, 0, 0, 9, 0, 0, 0, 0
|0, 1, 0, 0, 35, 28, 0, 0, 0, 0, 0, 0, 0, 0, 0, 40, 0, 0, 0, 58, 0, 0, 0, 0, 53, 0, 0, 0, 34, 0, 0, 0, 0, 0, 0, 0, 0, 0, 41, 30, 18, 0, 0, 0, 16, 0, 0, 9, 0, 0, 12, 0, 0, 0, 8, 26, 0, 0, 0, 0, 0, 45, 0, 0
|0, 0, 46, 0, 0, 12, 0, 0, 0, 0, 51, 0, 0, 16, 0, 0, 0, 0, 8, 0, 0, 45, 0, 22, 0, 54, 0, 0, 18, 0, 0, 0, 0, 0, 9, 24, 0, 0, 0, 0, 0, 4, 0, 21, 37, 0, 0, 0, 0, 0, 40, 6, 0, 0, 7, 0, 0, 0, 0, 0, 39, 0, 33, 0
|0, 45, 22, 0, 0, 0, 0, 7, 0, 0, 3, 0, 13, 0, 0, 0, 0, 0, 0, 16, 0, 0, 0, 35, 0, 44, 0, 36, 0, 0, 0, 0, 0, 0, 0, 46, 0, 0, 0, 17, 0, 0, 61, 0, 0, 0, 50, 0, 0, 0, 0, 0, 57, 20, 0, 9, 8, 37, 55, 54, 0, 0, 63, 0
|0, 0, 0, 0, 24, 29, 0, 0, 0, 0, 0, 0, 0, 0, 0, 0, 0, 0, 0, 0, 0, 30, 41, 0, 63, 0, 0, 0, 16, 0, 46, 0, 0, 0, 52, 0, 0, 18, 37, 0, 0, 0, 0, 0, 0, 0, 0, 31, 0, 0, 0, 0, 0, 0, 0, 61, 0, 51, 0, 0, 48, 0, 0, 11
|0, 0, 0, 28, 0, 0, 0, 0, 0, 0, 0, 0, 0, 0, 0, 0, 12, 0, 0, 49, 0, 0, 0, 4, 0, 0, 0, 19, 0, 0, 0, 0, 0, 60, 24, 8, 0, 0, 0, 0, 1, 0, 0, 0, 0, 38, 0, 44, 0, 18, 0, 0, 0, 0, 0, 0, 45, 0, 26, 0, 0, 0, 0, 41
|0, 48, 0, 45, 0, 0, 0, 0, 0, 0, 62, 1, 0, 0, 63, 0, 0, 13, 0, 60, 0, 0, 0, 0, 35, 0, 0, 0, 0, 0, 0, 21, 0, 0, 0, 0, 0, 0, 0, 32, 36, 0, 30, 0, 0, 18, 0, 40, 8, 0, 16, 0, 39, 0, 0, 0, 38, 47, 0, 53, 0, 0, 46, 0
|0, 0, 0, 56, 18, 0, 9, 0, 55, 34, 50, 0, 42, 0, 0, 51, 8, 0, 0, 64, 0, 0, 47, 0, 0, 0, 0, 37, 53, 0, 59, 0, 49, 0, 0, 0, 7, 0, 0, 0, 0, 0, 0, 0, 0, 0, 6, 0, 0, 0, 0, 0, 45, 0, 0, 0, 0, 60, 0, 57, 0, 0, 2, 0
|0, 0, 0, 0, 0, 0, 0, 61, 40, 0, 23, 0, 60, 49, 0, 0, 0, 0, 22, 10, 0, 0, 0, 0, 0, 0, 0, 42, 1, 0, 0, 0, 0, 0, 0, 0, 0, 0, 0, 13, 45, 0, 0, 0, 0, 0, 0, 0, 0, 0, 0, 0, 0, 0, 0, 0, 0, 0, 0, 0, 0, 16, 11, 5
|0, 40, 0, 32, 0, 0, 52, 0, 0, 0, 26, 0, 0, 0, 47, 0, 0, 0, 0, 0, 0, 0, 0, 25, 14, 30, 0, 0, 62, 0, 2, 0, 0, 0, 0, 0, 0, 0, 4, 0, 54, 8, 0, 0, 0, 0, 0, 17, 5, 24, 0, 0, 37, 13, 0, 20, 27, 63, 42, 0, 0, 7, 0, 0
|0, 51, 1, 58, 2, 0, 5, 0, 0, 48, 0, 54, 0, 37, 46, 0, 0, 0, 0, 0, 0, 18, 61, 0, 12, 63, 28, 0, 20, 0, 0, 3, 0, 0, 0, 0, 36, 0, 0, 0, 0, 19, 0, 64, 0, 0, 0, 0, 56, 0, 0, 0, 0, 49, 0, 0, 0, 0, 0, 0, 0, 0, 0, 0
|0, 0, 30, 0, 0, 0, 14, 24, 0, 0, 29, 13, 0, 0, 0, 0, 27, 51, 0, 0, 0, 0, 0, 0, 0, 60, 32, 22, 15, 0, 0, 0, 0, 0, 0, 2, 0, 0, 0, 45, 47, 0, 0, 0, 0, 58, 0, 0, 55, 0, 0, 0, 6, 0, 26, 0, 0, 0, 0, 0, 31, 0, 0, 0
|0, 0, 0, 0, 0, 0, 22, 36, 0, 43, 5, 0, 14, 0, 0, 2, 17, 0, 0, 0, 1, 0, 0, 0, 16, 0, 0, 45, 0, 0, 49, 0, 0, 0, 0, 0, 0, 0, 9, 0, 0, 32, 13, 0, 35, 0, 0, 0, 0, 40, 0, 0, 0, 0, 3, 0, 61, 0, 0, 0, 0, 0, 12, 0
|0, 0, 0, 40, 0, 37, 0, 56, 48, 0, 0, 53, 46, 61, 18, 58, 13, 62, 0, 0, 16, 0, 59, 34, 0, 0, 0, 54, 0, 0, 63, 12, 0, 0, 47, 0, 0, 0, 0, 0, 55, 0, 0, 43, 0, 0, 0, 0, 0, 0, 0, 64, 0, 0, 0, 21, 0, 0, 0, 0, 0, 0, 0, 0
|61, 0, 54, 15, 60, 9, 0, 0, 0, 0, 0, 27, 50, 0, 0, 36, 0, 56, 0, 48, 0, 0, 0, 0, 42, 0, 0, 0, 0, 0, 0, 0, 0, 0, 0, 62, 0, 63, 0, 24, 0, 11, 1, 7, 0, 0, 0, 0, 35, 0, 20, 0, 0, 0, 33, 0, 0, 0, 0, 0, 28, 64, 0, 26
|0, 0, 0, 0, 0, 0, 0, 0, 0, 0, 0, 0, 0, 0, 0, 0, 36, 0, 14, 0, 0, 60, 0, 0, 0, 27, 0, 35, 7, 0, 28, 0, 0, 0, 46, 0, 32, 0, 0, 12, 0, 0, 0, 25, 0, 0, 0, 59, 0, 0, 0, 0, 0, 0, 0, 0, 0, 0, 0, 0, 0, 31, 15, 51
|0, 31, 0, 0, 0, 0, 0, 25, 21, 0, 0, 11, 0, 20, 2, 63, 0, 41, 0, 0, 0, 61, 0, 0, 0, 56, 48, 0, 44, 34, 0, 0, 0, 0, 4, 0, 30, 0, 0, 35, 29, 54, 14, 0, 9, 10, 0, 0, 13, 0, 0, 0, 0, 0, 0, 8, 0, 0, 0, 0, 0, 0, 42, 47
|0, 3, 0, 0, 0, 0, 0, 0, 0, 0, 0, 0, 0, 0, 0, 0, 0, 0, 19, 0, 33, 0, 0, 0, 57, 52, 0, 0, 0, 0, 0, 38, 0, 0, 0, 0, 0, 20, 25, 21, 0, 0, 0, 58, 0, 60, 0, 0, 0, 56, 0, 0, 0, 23, 0, 0, 11, 0, 46, 0, 43, 10, 54, 29
|0, 0, 0, 0, 0, 0, 0, 32, 0, 0, 0, 0, 0, 0, 51, 44, 20, 0, 0, 0, 0, 24, 28, 0, 0, 0, 0, 62, 0, 0, 23, 26, 22, 0, 36, 0, 48, 0, 0, 0, 35, 34, 0, 0, 0, 0, 0, 0, 1, 0, 38, 54, 41, 0, 10, 46, 0, 59, 63, 0, 0, 4, 0, 0
|0, 0, 0, 0, 0, 35, 62, 0, 42, 0, 25, 0, 0, 0, 13, 8, 0, 57, 32, 0, 0, 10, 0, 0, 3, 0, 0, 0, 0, 0, 0, 0, 54, 0, 0, 52, 0, 0, 0, 0, 46, 0, 12, 0, 38, 23, 0, 0, 28, 45, 0, 0, 47, 0, 22, 0, 0, 56, 0, 60, 0, 0, 0, 61
|0, 5, 0, 0, 0, 48, 28, 0, 0, 23, 0, 0, 0, 0, 0, 26, 0, 8, 0, 0, 0, 0, 0, 55, 25, 0, 59, 0, 13, 0, 0, 0, 0, 56, 0, 0, 0, 45, 34, 0, 0, 0, 31, 0, 42, 0, 0, 0, 0, 61, 0, 0, 12, 0, 58, 17, 0, 57, 0, 0, 0, 22, 0, 44
|12, 17, 0, 2, 41, 16, 0, 0, 0, 0, 0, 0, 29, 58, 0, 0, 18, 0, 64, 32, 45, 59, 0, 0, 0, 0, 0, 30, 23, 19, 0, 0, 0, 0, 0, 22, 0, 0, 0, 0, 0, 52, 0, 24, 54, 0, 0, 50, 31, 0, 0, 1, 9, 0, 0, 0, 0, 28, 0, 0, 63, 61, 0, 0
|0, 0, 0, 0, 0, 63, 0, 0, 60, 0, 34, 14, 0, 0, 0, 0, 0, 0, 0, 0, 0, 0, 46, 0, 0, 0, 52, 0, 3, 0, 0, 0, 0, 0, 0, 0, 33, 0, 0, 55, 0, 0, 0, 0, 0, 0, 0, 0, 27, 8, 0, 22, 0, 44, 54, 0, 0, 48, 47, 1, 0, 0, 23, 0
|0, 0, 0, 0, 0, 0, 0, 57, 0, 0, 0, 0, 12, 0, 0, 0, 15, 0, 0, 0, 0, 0, 0, 0, 0, 0, 0, 0, 47, 0, 62, 0, 0, 0, 0, 0, 0, 0, 0, 54, 30, 0, 0, 0, 0, 19, 0, 0, 0, 0, 0, 20, 0, 0, 0, 36, 0, 34, 0, 0, 0, 0, 24, 0
|0, 23, 0, 0, 0, 54, 0, 0, 0, 0, 0, 0, 0, 0, 41, 53, 0, 0, 6, 0, 0, 0, 43, 47, 0, 0, 0, 0, 49, 0, 0, 0, 0, 0, 39, 0, 0, 15, 0, 0, 0, 0, 0, 0, 64, 0, 0, 0, 0, 0, 58, 40, 0, 52, 55, 0, 0, 0, 0, 0, 8, 0, 0, 0
|3, 46, 0, 0, 34, 55, 0, 0, 0, 0, 44, 0, 43, 0, 0, 0, 0, 0, 0, 0, 0, 0, 39, 0, 51, 0, 0, 0, 0, 0, 11, 0, 0, 0, 25, 0, 0, 0, 31, 0, 0, 49, 0, 0, 0, 0, 0, 47, 0, 63, 14, 0, 0, 0, 0, 15, 0, 0, 0, 33, 29, 0, 0, 0
|0, 0, 0, 0, 0, 0, 0, 26, 0, 0, 10, 0, 0, 0, 0, 0, 0, 0, 0, 0, 0, 27, 0, 0, 0, 0, 0, 0, 28, 0, 0, 0, 12, 0, 0, 0, 0, 0, 0, 20, 0, 0, 6, 0, 0, 0, 0, 60, 0, 0, 0, 0, 0, 0, 0, 29, 0, 0, 0, 0, 0, 51, 0, 0
|0, 60, 0, 0, 0, 0, 0, 19, 0, 0, 0, 0, 0, 0, 0, 52, 37, 4, 0, 0, 0, 0, 0, 63, 0, 0, 14, 0, 61, 0, 0, 15, 0, 0, 0, 0, 18, 0, 0, 0, 0, 0, 23, 42, 0, 0, 0, 0, 0, 0, 45, 0, 0, 0, 12, 25, 0, 54, 0, 0, 0, 0, 0, 0
|45, 0, 0, 0, 0, 0, 0, 0, 36, 0, 0, 0, 0, 23, 0, 0, 54, 0, 0, 0, 0, 0, 0, 9, 0, 33, 0, 31, 0, 27, 0, 0, 0, 41, 3, 0, 0, 0, 0, 0, 0, 0, 0, 0, 0, 15, 0, 0, 0, 11, 0, 5, 0, 57, 28, 38, 35, 0, 58, 0, 0, 0, 0, 0
|0, 0, 11, 52, 0, 26, 0, 0, 0, 38, 0, 49, 0, 0, 0, 0, 0, 0, 0, 0, 39, 0, 0, 0, 0, 0, 6, 12, 64, 15, 0, 0, 0, 0, 14, 0, 0, 0, 0, 18, 0, 0, 55, 0, 0, 0, 0, 23, 0, 0, 0, 2, 0, 0, 0, 0, 37, 40, 0, 51, 0, 0, 0, 0
|0, 0, 56, 0, 0, 0, 0, 0, 28, 0, 0, 0, 30, 0, 0, 0, 0, 0, 0, 0, 22, 0, 0, 57, 0, 4, 0, 38, 0, 20, 0, 0, 44, 0, 51, 0, 0, 0, 39, 0, 0, 0, 0, 0, 59, 0, 43, 0, 15, 0, 36, 52, 0, 0, 9, 0, 0, 0, 0, 0, 0, 0, 0, 0
|0, 0, 19, 0, 33, 0, 0, 0, 0, 46, 15, 0, 0, 0, 12, 0, 32, 2, 0, 0, 0, 0, 64, 11, 62, 0, 0, 0, 0, 0, 30, 61, 8, 0, 0, 26, 0, 0, 0, 0, 0, 57, 27, 16, 0, 44, 14, 0, 0, 0, 22, 7, 0, 50, 0, 0, 0, 0, 0, 56, 55, 0, 1, 28
|0, 50, 34, 54, 0, 46, 0, 51, 0, 0, 0, 0, 0, 35, 0, 17, 0, 0, 58, 0, 0, 36, 0, 8, 0, 0, 56, 0, 26, 28, 0, 0, 1, 6, 0, 0, 0, 0, 0, 0, 11, 0, 0, 0, 0, 0, 0, 0, 0, 0, 25, 0, 64, 0, 0, 0, 63, 0, 0, 13, 0, 0, 0, 0
|37, 0, 0, 42, 0, 57, 30, 0, 0, 2, 0, 31, 34, 0, 0, 0, 0, 0, 56, 7, 0, 0, 0, 0, 0, 18, 0, 0, 0, 0, 0, 0, 35, 0, 0, 12, 0, 0, 15, 0, 0, 0, 0, 51, 0, 0, 0, 0, 0, 0, 23, 32, 61, 0, 0, 16, 0, 0, 0, 0, 11, 0, 0, 33
|0, 0, 39, 16, 0, 61, 0, 0, 0, 0, 0, 4, 0, 32, 52, 0, 0, 0, 0, 44, 0, 26, 48, 0, 0, 0, 0, 0, 0, 0, 0, 0, 0, 0, 0, 0, 0, 0, 56, 0, 0, 0, 0, 29, 28, 0, 0, 0, 46, 37, 0, 0, 11, 0, 1, 0, 0, 0, 17, 12, 58, 0, 0, 0
|0, 0, 23, 10, 0, 0, 0, 49, 8, 39, 6, 37, 48, 0, 0, 0, 9, 0, 59, 15, 0, 0, 0, 1, 0, 0, 0, 0, 0, 51, 0, 0, 0, 0, 54, 0, 0, 0, 0, 0, 0, 0, 0, 0, 0, 0, 19, 0, 0, 27, 0, 0, 26, 0, 0, 24, 0, 53, 0, 0, 60, 20, 0, 2
|0, 0, 0, 0, 0, 0, 0, 0, 0, 51, 0, 47, 5, 0, 0, 56, 0, 45, 0, 0, 0, 0, 23, 0, 37, 0, 0, 40, 9, 0, 42, 0, 0, 0, 63, 38, 0, 0, 0, 0, 0, 0, 0, 0, 0, 4, 0, 0, 21, 0, 0, 0, 0, 60, 57, 0, 50, 0, 0, 59, 0, 0, 0, 39
|15, 20, 38, 0, 0, 0, 0, 0, 0, 0, 33, 60, 0, 0, 0, 0, 0, 0, 0, 0, 63, 0, 12, 21, 0, 0, 42, 48, 0, 25, 9, 0, 10, 0, 61, 0, 0, 0, 0, 0, 2, 0, 0, 0, 0, 43, 0, 4, 57, 31, 0, 11, 0, 0, 51, 34, 5, 1, 22, 0, 27, 0, 0, 0
|0, 0, 0, 59, 0, 0, 0, 0, 0, 0, 0, 7, 0, 0, 39, 0, 0, 0, 0, 0, 19, 0, 55, 0, 0, 0, 43, 0, 0, 0, 0, 0, 0, 31, 0, 0, 0, 0, 0, 0, 0, 0, 0, 0, 56, 0, 62, 0, 0, 0, 0, 0, 52, 0, 0, 0, 0, 8, 53, 0, 0, 0, 17, 0
|0, 0, 21, 0, 37, 0, 0, 0, 0, 0, 0, 0, 52, 0, 44, 0, 0, 0, 0, 0, 60, 0, 0, 0, 0, 0, 0, 63, 0, 0, 0, 32, 33, 0, 0, 42, 0, 9, 0, 0, 0, 0, 10, 3, 0, 1, 0, 0, 0, 0, 2, 0, 0, 0, 0, 0, 36, 0, 0, 0, 0, 0, 0, 40
|25, 0, 36, 0, 0, 42, 0, 0, 0, 0, 0, 0, 0, 0, 55, 14, 0, 15, 0, 0, 0, 0, 0, 0, 0, 0, 3, 0, 0, 13, 53, 62, 0, 24, 0, 0, 0, 0, 5, 0, 0, 0, 0, 0, 26, 0, 0, 0, 0, 0, 0, 0, 32, 63, 47, 0, 0, 12, 0, 0, 0, 0, 0, 0
|0, 0, 0, 46, 0, 0, 0, 0, 38, 0, 37, 0, 3, 0, 21, 5, 0, 0, 0, 0, 0, 0, 32, 0, 0, 0, 0, 0, 0, 44, 0, 0, 41, 0, 0, 0, 13, 0, 0, 0, 0, 0, 0, 0, 0, 0, 42, 0, 0, 0, 53, 0, 0, 39, 0, 0, 0, 6, 0, 0, 0, 0, 0, 0
|18, 0, 0, 39, 0, 0, 0, 52, 22, 0, 0, 0, 0, 0, 48, 0, 0, 36, 45, 0, 49, 0, 56, 0, 31, 0, 33, 0, 0, 0, 0, 0, 0, 0, 0, 0, 0, 30, 0, 0, 50, 0, 0, 55, 53, 0, 0, 0, 0, 0, 41, 0, 0, 46, 0, 0, 0, 0, 0, 0, 61, 0, 59, 0
|40, 29, 16, 0, 58, 0, 33, 0, 50, 45, 0, 0, 0, 34, 0, 0, 0, 0, 0, 25, 64, 0, 0, 28, 15, 0, 0, 0, 0, 0, 61, 0, 0, 12, 0, 0, 0, 0, 49, 0, 0, 0, 7, 0, 0, 0, 0, 0, 0, 22, 0, 0, 54, 0, 0, 0, 0, 38, 0, 0, 0, 0, 0, 14
|0, 0, 24, 6, 0, 0, 13, 0, 2, 61, 0, 20, 51, 0, 0, 0, 0, 0, 0, 0, 0, 0, 0, 0, 0, 0, 0, 0, 0, 41, 0, 0, 0, 0, 0, 56, 44, 0, 0, 37, 0, 0, 0, 0, 0, 0, 0, 0, 4, 0, 10, 17, 30, 28, 0, 0, 64, 31, 54, 0, 3, 0, 0, 0|];