order = 8;
grid = [|50, 0, 0, 0, 0, 0, 7, 0, 0, 0, 0, 0, 0, 0, 9, 0, 52, 0, 0, 0, 42, 0, 0, 0, 23, 0, 0, 39, 0, 0, 0, 15, 0, 59, 63, 54, 0, 0, 0, 29, 4, 0, 31, 0, 30, 0, 0, 0, 0, 0, 0, 0, 0, 56, 0, 0, 0, 40, 0, 0, 0, 11, 0, 0
|0, 0, 0, 0, 28, 34, 30, 0, 0, 54, 13, 0, 0, 0, 0, 0, 53, 58, 0, 0, 17, 43, 0, 0, 49, 55, 0, 0, 4, 0, 40, 0, 0, 0, 10, 0, 0, 0, 46, 56, 0, 0, 0, 0, 0, 12, 0, 0, 42, 21, 31, 0, 0, 0, 45, 0, 0, 0, 0, 0, 0, 0, 0, 62
|0, 0, 0, 52, 0, 0, 54, 18, 39, 0, 20, 58, 0, 0, 0, 45, 0, 0, 0, 0, 9, 0, 0, 0, 0, 61, 0, 0, 0, 0, 41, 27, 0, 0, 0, 64, 0, 0, 0, 0, 60, 0, 0, 37, 22, 0, 0, 0, 44, 0, 24, 19, 0, 0, 32, 0, 0, 0, 42, 31, 0, 30, 50, 0
|0, 0, 0, 0, 9, 0, 0, 64, 2, 53, 28, 60, 0, 8, 0, 0, 55, 0, 0, 57, 45, 0, 0, 0, 37, 0, 0, 0, 0, 31, 63, 0, 0, 0, 0, 0, 0, 22, 0, 0, 20, 0, 0, 18, 0, 0, 0, 46, 48, 0, 0, 0, 0, 0, 61, 59, 0, 13, 0, 0, 10, 0, 3, 0
|0, 0, 0, 63, 0, 16, 0, 0, 0, 0, 1, 0, 12, 0, 0, 61, 2, 0, 0, 59, 40, 0, 0, 44, 0, 18, 0, 0, 0, 0, 54, 32, 0, 0, 9, 0, 0, 57, 0, 0, 0, 0, 0, 0, 0, 0, 0, 0, 0, 0, 0, 0, 47, 26, 0, 0, 0, 0, 4, 64, 0, 0, 58, 0
|17, 33, 3, 0, 44, 0, 58, 0, 0, 0, 0, 23, 0, 63, 0, 25, 0, 0, 0, 0, 0, 0, 34, 32, 0, 20, 0, 22, 0, 0, 0, 0, 0, 0, 0, 0, 0, 0, 0, 0, 48, 55, 0, 0, 0, 0, 0, 0, 0, 0, 0, 0, 0, 0, 0, 0, 0, 53, 0, 0, 0, 0, 0, 61
|43, 0, 27, 0, 0, 0, 0, 0, 0, 0, 0, 4, 0, 57, 0, 0, 0, 61, 0, 0, 0, 0, 0, 0, 0, 0, 0, 0, 0, 0, 8, 0, 0, 0, 0, 45, 42, 0, 17, 0, 63, 0, 0, 38, 0, 0, 0, 0, 0, 25, 0, 0, 0, 0, 53, 0, 0, 0, 0, 0, 0, 0, 0, 35
|0, 0, 0, 0, 0, 36, 0, 0, 0, 0, 0, 0, 0, 0, 0, 31, 0, 0, 0, 5, 0, 0, 0, 0, 0, 0, 0, 0, 43, 0, 3, 28, 0, 20, 0, 0, 0, 0, 0, 0, 64, 0, 0, 0, 0, 32, 0, 39, 0, 0, 0, 0, 0, 50, 35, 0, 9, 45, 0, 0, 0, 0, 0, 59
|0, 0, 10, 26, 0, 0, 34, 0, 36, 0, 45, 0, 0, 0, 0, 0, 0, 44, 0, 0, 5, 0, 0, 0, 28, 12, 0, 0, 0, 11, 0, 50, 0, 0, 0, 0, 38, 0, 0, 2, 32, 0, 0, 41, 15, 0, 0, 0, 0, 0, 0, 0, 54, 0, 0, 18, 3, 0, 0, 0, 0, 0, 64, 0
|0, 0, 0, 0, 0, 0, 0, 4, 0, 0, 62, 0, 30, 0, 0, 0, 23, 57, 46, 0, 0, 0, 0, 0, 45, 0, 48, 0, 0, 63, 0, 21, 0, 0, 0, 43, 0, 0, 49, 0, 1, 0, 0, 36, 0, 0, 0, 0, 0, 52, 0, 47, 0, 0, 0, 33, 0, 0, 0, 0, 0, 0, 0, 60
|0, 0, 0, 0, 0, 0, 0, 0, 0, 0, 5, 0, 0, 42, 0, 0, 48, 0, 1, 0, 54, 0, 0, 63, 0, 0, 22, 0, 9, 0, 0, 0, 0, 0, 0, 0, 11, 0, 0, 34, 33, 0, 27, 0, 0, 18, 0, 0, 0, 24, 0, 0, 0, 0, 0, 0, 37, 0, 0, 55, 29, 14, 0, 0
|24, 17, 48, 0, 0, 0, 0, 0, 0, 0, 0, 0, 0, 6, 56, 0, 0, 9, 0, 0, 0, 0, 33, 0, 36, 0, 0, 42, 0, 0, 0, 0, 0, 0, 13, 22, 20, 0, 0, 0, 0, 0, 61, 0, 0, 43, 59, 10, 0, 26, 0, 0, 2, 0, 0, 50, 52, 0, 8, 46, 0, 0, 54, 40
|5, 52, 32, 6, 0, 0, 37, 0, 49, 17, 0, 0, 0, 0, 0, 0, 0, 0, 0, 0, 0, 0, 0, 0, 0, 0, 0, 4, 30, 0, 55, 0, 54, 26, 0, 0, 57, 0, 33, 0, 0, 0, 28, 20, 0, 53, 0, 0, 0, 0, 0, 0, 10, 36, 0, 0, 0, 0, 0, 0, 0, 0, 0, 0
|0, 36, 0, 0, 0, 0, 20, 0, 26, 37, 0, 0, 4, 0, 0, 0, 0, 0, 0, 0, 0, 55, 10, 0, 0, 0, 46, 1, 6, 0, 0, 0, 0, 0, 0, 25, 0, 28, 0, 0, 0, 62, 0, 0, 0, 56, 0, 0, 0, 0, 0, 0, 0, 0, 0, 0, 0, 0, 0, 0, 34, 57, 47, 0
|28, 0, 60, 30, 0, 0, 0, 12, 0, 0, 0, 0, 0, 14, 0, 0, 0, 0, 0, 0, 0, 0, 0, 62, 0, 15, 0, 0, 49, 0, 0, 0, 5, 0, 0, 0, 0, 56, 0, 47, 0, 54, 0, 0, 0, 55, 0, 0, 4, 0, 0, 0, 0, 0, 0, 20, 0, 0, 0, 0, 0, 9, 0, 0
|0, 63, 64, 45, 1, 0, 0, 0, 0, 0, 0, 0, 0, 2, 54, 46, 0, 56, 0, 40, 0, 0, 13, 0, 0, 0, 0, 43, 27, 58, 0, 14, 0, 0, 62, 0, 0, 0, 12, 15, 0, 34, 24, 0, 0, 3, 0, 0, 55, 30, 17, 0, 0, 0, 48, 0, 10, 0, 0, 0, 0, 4, 20, 53
|0, 0, 0, 0, 0, 0, 0, 0, 0, 0, 0, 24, 0, 12, 31, 0, 0, 6, 0, 48, 0, 8, 0, 0, 0, 0, 0, 52, 0, 49, 0, 0, 0, 30, 60, 34, 7, 0, 0, 11, 25, 4, 22, 0, 43, 13, 28, 0, 0, 0, 0, 0, 0, 0, 0, 0, 0, 0, 0, 0, 0, 32, 42, 38
|0, 0, 7, 0, 0, 0, 0, 61, 0, 0, 0, 0, 0, 0, 0, 0, 0, 0, 0, 0, 0, 0, 0, 26, 0, 0, 0, 0, 0, 0, 0, 0, 55, 0, 42, 0, 0, 0, 0, 51, 0, 31, 20, 0, 0, 11, 0, 3, 0, 0, 0, 56, 0, 10, 54, 30, 0, 0, 0, 0, 0, 0, 53, 0
|64, 0, 9, 0, 0, 0, 0, 0, 0, 0, 22, 0, 45, 0, 0, 0, 29, 0, 42, 0, 0, 44, 32, 50, 0, 0, 0, 0, 0, 0, 25, 0, 0, 0, 6, 20, 0, 0, 0, 39, 0, 0, 0, 0, 61, 46, 0, 0, 0, 0, 8, 0, 0, 4, 0, 34, 19, 0, 0, 30, 0, 0, 0, 0
|0, 0, 0, 0, 0, 0, 0, 0, 18, 15, 3, 7, 60, 0, 0, 21, 0, 0, 0, 45, 0, 0, 0, 0, 5, 0, 0, 0, 0, 0, 0, 0, 0, 0, 8, 0, 0, 0, 0, 0, 0, 0, 0, 6, 0, 0, 24, 62, 0, 0, 0, 0, 0, 0, 11, 0, 0, 0, 0, 0, 0, 0, 0, 0
|0, 0, 0, 34, 38, 0, 0, 52, 17, 0, 35, 0, 39, 58, 0, 0, 33, 0, 37, 0, 0, 54, 0, 3, 29, 0, 51, 0, 63, 0, 36, 0, 0, 0, 61, 15, 0, 0, 4, 22, 53, 0, 0, 64, 0, 0, 0, 0, 0, 0, 48, 45, 0, 20, 31, 0, 0, 23, 0, 0, 0, 0, 0, 0
|0, 0, 0, 0, 4, 0, 0, 24, 62, 46, 40, 0, 0, 0, 33, 29, 0, 0, 0, 0, 0, 0, 0, 0, 0, 56, 0, 0, 0, 0, 0, 3, 0, 0, 2, 1, 0, 0, 63, 0, 0, 0, 0, 23, 0, 51, 30, 37, 0, 0, 0, 64, 0, 0, 49, 0, 0, 22, 0, 12, 0, 0, 0, 0
|6, 0, 0, 0, 46, 0, 0, 0, 0, 0, 0, 34, 0, 0, 51, 0, 20, 0, 0, 7, 0, 24, 0, 0, 0, 0, 0, 38, 22, 12, 0, 0, 0, 29, 0, 0, 0, 0, 0, 0, 0, 0, 0, 39, 0, 44, 21, 0, 0, 0, 0, 0, 62, 0, 1, 0, 4, 0, 0, 28, 0, 40, 0, 0
|18, 35, 0, 0, 0, 0, 0, 1, 0, 0, 55, 43, 0, 61, 0, 64, 63, 0, 0, 17, 38, 0, 0, 0, 11, 0, 10, 14, 0, 0, 0, 0, 0, 28, 0, 0, 0, 12, 0, 45, 0, 48, 41, 0, 0, 0, 0, 0, 0, 3, 0, 33, 0, 0, 24, 0, 0, 0, 0, 0, 0, 29, 0, 0
|19, 0, 0, 0, 13, 0, 0, 14, 0, 0, 0, 0, 0, 49, 46, 0, 51, 0, 0, 0, 0, 22, 0, 39, 0, 6, 0, 8, 0, 5, 0, 0, 3, 0, 17, 2, 0, 0, 0, 27, 23, 45, 0, 0, 42, 0, 35, 0, 0, 0, 33, 0, 0, 0, 62, 15, 0, 0, 44, 0, 0, 0, 0, 30
|0, 0, 6, 0, 0, 0, 0, 44, 0, 0, 0, 0, 0, 54, 39, 0, 0, 48, 0, 0, 0, 0, 0, 0, 0, 0, 0, 0, 0, 0, 0, 4, 0, 0, 0, 0, 33, 0, 0, 0, 22, 0, 0, 0, 0, 49, 63, 0, 45, 0, 0, 43, 0, 58, 0, 16, 61, 0, 0, 0, 15, 42, 0, 12
|0, 0, 0, 0, 0, 0, 0, 0, 0, 0, 0, 0, 0, 0, 50, 55, 0, 0, 0, 0, 0, 0, 57, 0, 0, 0, 17, 0, 0, 2, 0, 0, 63, 0, 0, 56, 0, 0, 0, 0, 0, 44, 0, 0, 0, 0, 0, 0, 0, 0, 0, 0, 0, 0, 0, 0, 0, 0, 0, 21, 49, 0, 0, 8
|15, 0, 63, 54, 0, 0, 64, 20, 0, 0, 0, 0, 0, 35, 8, 0, 0, 0, 0, 0, 0, 33, 27, 0, 34, 0, 0, 55, 0, 0, 28, 0, 0, 0, 36, 0, 6, 0, 0, 0, 37, 51, 0, 0, 0, 0, 1, 29, 24, 0, 0, 13, 0, 0, 0, 0, 0, 46, 0, 4, 0, 0, 0, 0
|0, 0, 0, 0, 0, 0, 0, 40, 0, 0, 0, 56, 0, 0, 11, 0, 59, 0, 0, 0, 0, 0, 12, 0, 0, 0, 0, 0, 0, 0, 0, 0, 0, 0, 37, 0, 52, 44, 0, 32, 0, 0, 15, 0, 0, 50, 0, 0, 0, 31, 0, 0, 0, 0, 0, 0, 0, 0, 0, 0, 0, 0, 0, 0
|4, 0, 0, 0, 0, 0, 35, 0, 22, 0, 18, 0, 0, 0, 0, 0, 46, 0, 60, 0, 0, 0, 0, 6, 0, 0, 63, 0, 0, 0, 0, 13, 30, 0, 0, 0, 0, 0, 0, 0, 0, 0, 0, 47, 0, 0, 0, 8, 0, 0, 39, 0, 0, 0, 0, 5, 0, 0, 0, 0, 2, 0, 0, 20
|32, 0, 17, 0, 0, 0, 50, 0, 0, 0, 0, 29, 0, 37, 0, 0, 44, 47, 61, 0, 0, 0, 0, 36, 0, 0, 0, 0, 0, 21, 20, 0, 0, 12, 0, 46, 0, 0, 19, 13, 39, 0, 14, 0, 0, 5, 0, 0, 0, 1, 0, 26, 0, 0, 30, 0, 0, 0, 0, 60, 0, 0, 0, 9
|0, 0, 0, 11, 0, 0, 0, 0, 41, 0, 0, 26, 0, 24, 61, 12, 4, 0, 32, 0, 0, 14, 3, 0, 0, 0, 0, 0, 0, 0, 0, 0, 18, 0, 0, 0, 0, 29, 0, 0, 0, 0, 0, 28, 0, 0, 13, 0, 0, 0, 0, 0, 0, 0, 19, 23, 0, 0, 0, 17, 0, 34, 0, 39
|0, 0, 61, 7, 0, 0, 0, 2, 0, 0, 42, 39, 6, 0, 0, 27, 0, 0, 0, 21, 0, 0, 0, 0, 53, 0, 0, 0, 0, 0, 0, 0, 58, 0, 0, 0, 0, 0, 0, 19, 45, 0, 0, 0, 0, 20, 0, 0, 0, 0, 0, 0, 0, 0, 0, 0, 62, 31, 0, 48, 0, 24, 0, 26
|0, 0, 0, 0, 0, 32, 0, 57, 0, 0, 0, 0, 54, 0, 26, 0, 0, 12, 36, 20, 0, 0, 0, 0, 0, 0, 0, 0, 0, 15, 0, 19, 0, 40, 0, 0, 60, 0, 0, 0, 0, 0, 63, 0, 48, 0, 7, 5, 0, 9, 21, 0, 0, 0, 18, 0, 0, 0, 34, 53, 0, 0, 0, 0
|16, 28, 18, 24, 0, 0, 0, 0, 47, 0, 2, 13, 10, 32, 20, 0, 0, 62, 45, 0, 0, 0, 0, 0, 0, 43, 0, 40, 0, 8, 0, 35, 22, 0, 33, 0, 0, 0, 50, 0, 0, 0, 59, 0, 0, 64, 0, 34, 0, 0, 0, 3, 1, 6, 0, 0, 25, 0, 0, 7, 0, 37, 0, 0
|27, 0, 49, 0, 0, 0, 0, 0, 0, 0, 23, 0, 0, 0, 0, 0, 0, 26, 29, 0, 44, 0, 55, 0, 24, 0, 0, 0, 20, 62, 0, 0, 8, 0, 32, 0, 37, 0, 0, 48, 30, 0, 0, 0, 0, 0, 0, 0, 19, 0, 0, 0, 0, 0, 0, 0, 0, 0, 0, 45, 54, 0, 18, 0
|0, 11, 1, 0, 0, 0, 0, 9, 53, 21, 0, 0, 0, 0, 0, 0, 13, 63, 0, 0, 0, 27, 0, 0, 58, 0, 0, 0, 0, 57, 0, 0, 0, 0, 0, 26, 0, 20, 45, 0, 18, 0, 0, 0, 0, 0, 0, 0, 0, 0, 0, 0, 0, 0, 0, 0, 0, 0, 50, 0, 0, 0, 0, 0
|0, 0, 0, 0, 20, 25, 0, 0, 0, 0, 36, 0, 0, 0, 55, 52, 61, 0, 0, 0, 30, 0, 0, 0, 0, 0, 60, 0, 3, 0, 29, 0, 0, 0, 0, 0, 0, 47, 0, 0, 0, 0, 54, 51, 1, 31, 26, 53, 0, 0, 0, 0, 0, 17, 0, 56, 0, 0, 0, 0, 0, 0, 0, 0
|0, 48, 0, 0, 0, 53, 43, 26, 0, 57, 8, 0, 14, 22, 0, 0, 0, 0, 35, 0, 0, 0, 0, 0, 0, 0, 32, 0, 37, 0, 0, 0, 0, 52, 0, 0, 17, 0, 0, 0, 0, 0, 9, 0, 0, 0, 19, 0, 0, 0, 0, 50, 15, 0, 0, 63, 0, 0, 0, 0, 0, 0, 36, 0
|37, 0, 0, 42, 0, 0, 0, 0, 0, 0, 0, 0, 0, 0, 15, 0, 41, 0, 0, 0, 0, 53, 0, 48, 0, 0, 0, 0, 0, 0, 0, 0, 0, 1, 0, 0, 0, 0, 0, 0, 43, 56, 25, 0, 29, 27, 0, 6, 0, 0, 0, 32, 0, 0, 0, 0, 0, 0, 0, 39, 0, 0, 0, 64
|0, 0, 5, 0, 0, 0, 0, 0, 0, 0, 0, 0, 0, 62, 45, 0, 0, 0, 0, 0, 0, 60, 0, 0, 0, 11, 3, 0, 0, 0, 0, 0, 20, 0, 50, 41, 51, 0, 0, 0, 55, 0, 0, 42, 0, 0, 0, 0, 8, 0, 36, 0, 0, 12, 0, 29, 0, 0, 0, 34, 23, 0, 0, 27
|0, 0, 31, 0, 0, 45, 0, 0, 0, 0, 0, 0, 17, 44, 27, 34, 0, 8, 0, 0, 0, 2, 0, 0, 0, 0, 0, 0, 0, 0, 0, 0, 0, 0, 0, 37, 0, 53, 0, 23, 0, 5, 0, 0, 0, 0, 0, 0, 56, 0, 0, 0, 0, 54, 33, 0, 0, 36, 0, 0, 0, 0, 0, 28
|0, 0, 0, 28, 0, 22, 42, 0, 12, 0, 41, 0, 0, 0, 0, 0, 30, 0, 0, 0, 0, 0, 0, 0, 0, 0, 0, 0, 0, 0, 0, 16, 0, 0, 1, 58, 0, 0, 0, 0, 0, 0, 35, 0, 0, 0, 46, 0, 0, 0, 0, 0, 0, 0, 0, 0, 0, 0, 0, 54, 0, 61, 0, 0
|0, 0, 13, 0, 0, 54, 0, 0, 0, 0, 0, 0, 42, 0, 0, 0, 0, 0, 0, 12, 0, 41, 0, 16, 52, 37, 7, 9, 19, 1, 5, 0, 25, 0, 0, 0, 0, 0, 0, 60, 0, 11, 0, 0, 44, 48, 64, 0, 0, 0, 0, 0, 0, 45, 0, 0, 47, 0, 0, 0, 0, 0, 0, 0
|40, 0, 0, 0, 64, 30, 0, 0, 0, 0, 9, 0, 51, 0, 0, 3, 26, 22, 0, 0, 0, 7, 46, 0, 0, 4, 0, 0, 0, 0, 0, 25, 0, 33, 0, 0, 0, 0, 0, 0, 0, 0, 0, 63, 20, 0, 61, 0, 0, 0, 0, 0, 0, 0, 0, 0, 0, 2, 45, 0, 0, 0, 0, 0
|26, 9, 20, 61, 0, 0, 0, 0, 0, 6, 0, 0, 0, 0, 0, 0, 34, 0, 0, 0, 0, 0, 49, 0, 0, 13, 28, 0, 0, 0, 0, 0, 0, 8, 0, 0, 0, 0, 0, 36, 0, 0, 0, 0, 12, 38, 0, 56, 0, 51, 52, 0, 23, 35, 0, 24, 0, 0, 0, 0, 55, 15, 0, 0
|63, 51, 58, 29, 0, 0, 0, 6, 23, 0, 0, 57, 0, 0, 0, 59, 0, 42, 0, 0, 0, 0, 0, 0, 0, 21, 54, 32, 12, 26, 0, 0, 0, 0, 34, 30, 0, 0, 35, 0, 0, 7, 0, 60, 0, 0, 0, 36, 28, 0, 0, 22, 0, 0, 0, 61, 0, 0, 49, 0, 0, 0, 0, 5
|0, 0, 8, 0, 0, 0, 0, 0, 0, 0, 0, 0, 0, 0, 0, 0, 38, 0, 0, 61, 43, 11, 0, 0, 0, 64, 47, 31, 0, 0, 0, 0, 0, 0, 0, 44, 0, 0, 0, 42, 0, 0, 33, 0, 0, 62, 0, 0, 0, 0, 0, 16, 0, 0, 0, 25, 53, 0, 0, 51, 0, 0, 60, 0
|0, 0, 0, 0, 41, 0, 0, 0, 0, 24, 0, 14, 50, 0, 0, 0, 22, 0, 0, 0, 49, 0, 43, 17, 0, 58, 36, 29, 0, 0, 0, 0, 0, 0, 54, 0, 4, 1, 21, 0, 56, 0, 0, 35, 0, 0, 0, 0, 6, 0, 0, 18, 0, 0, 37, 0, 0, 0, 0, 0, 0, 0, 0, 0
|0, 0, 0, 0, 0, 0, 0, 0, 0, 2, 0, 0, 0, 0, 0, 0, 0, 27, 0, 0, 0, 0, 36, 0, 0, 9, 0, 0, 0, 0, 15, 0, 0, 0, 0, 0, 0, 45, 0, 0, 0, 10, 0, 8, 0, 0, 0, 61, 0, 0, 0, 0, 0, 0, 22, 0, 0, 0, 32, 13, 0, 0, 0, 6
|0, 30, 0, 0, 0, 0, 0, 0, 0, 0, 0, 8, 0, 0, 43, 0, 0, 0, 0, 29, 24, 0, 0, 0, 0, 0, 0, 0, 17, 37, 0, 0, 9, 2, 0, 0, 0, 41, 52, 40, 36, 0, 0, 0, 28, 6, 39, 1, 0, 0, 61, 0, 0, 0, 0, 4, 35, 56, 16, 25, 42, 0, 38, 55
|0, 0, 0, 0, 0, 0, 0, 49, 0, 0, 0, 0, 0, 0, 0, 0, 0, 0, 48, 0, 41, 0, 0, 25, 0, 0, 0, 0, 0, 0, 0, 0, 37, 3, 0, 0, 0, 5, 0, 0, 0, 0, 0, 0, 0, 0, 27, 0, 0, 0, 12, 0, 0, 0, 0, 2, 0, 18, 0, 22, 0, 0, 26, 0
|0, 0, 44, 0, 0, 37, 0, 48, 0, 7, 0, 0, 19, 0, 0, 0, 64, 0, 14, 0, 61, 0, 35, 0, 0, 0, 0, 59, 0, 0, 0, 0, 0, 0, 0, 10, 0, 39, 0, 0, 42, 2, 12, 49, 0, 0, 0, 45, 0, 0, 0, 0, 0, 0, 27, 32, 0, 0, 0, 0, 57, 53, 0, 0
|0, 50, 0, 0, 34, 52, 0, 56, 0, 0, 0, 0, 1, 18, 0, 0, 0, 10, 53, 0, 26, 0, 0, 0, 12, 0, 0, 0, 0, 0, 0, 0, 0, 0, 0, 0, 0, 43, 6, 0, 0, 0, 40, 0, 0, 0, 0, 0, 0, 0, 0, 0, 0, 11, 7, 48, 0, 20, 27, 23, 0, 0, 0, 0
|0, 0, 0, 22, 0, 0, 0, 0, 0, 0, 0, 49, 20, 0, 0, 0, 18, 0, 59, 9, 0, 56, 0, 34, 1, 0, 4, 0, 0, 0, 0, 6, 19, 44, 48, 0, 0, 55, 0, 0, 0, 0, 0, 0, 0, 0, 60, 0, 0, 0, 0, 0, 0, 0, 0, 0, 0, 0, 0, 24, 43, 10, 17, 29
|53, 0, 0, 0, 0, 0, 32, 58, 15, 0, 0, 0, 41, 0, 57, 0, 6, 0, 0, 0, 0, 0, 54, 28, 10, 0, 61, 35, 0, 0, 52, 0, 0, 0, 0, 0, 59, 0, 26, 64, 38, 0, 0, 0, 0, 0, 0, 0, 0, 20, 0, 25, 0, 31, 0, 0, 0, 0, 0, 0, 0, 0, 0, 1
|0, 31, 47, 0, 0, 13, 0, 0, 0, 28, 0, 63, 0, 0, 25, 22, 0, 0, 18, 62, 0, 0, 0, 0, 0, 0, 43, 0, 0, 0, 0, 58, 0, 0, 0, 33, 0, 0, 0, 5, 0, 0, 7, 0, 0, 61, 0, 0, 0, 0, 4, 0, 0, 0, 0, 51, 0, 0, 0, 0, 0, 0, 0, 0
|0, 0, 50, 0, 27, 0, 0, 16, 0, 0, 0, 0, 0, 0, 0, 39, 0, 0, 26, 0, 29, 0, 0, 0, 0, 0, 64, 0, 0, 59, 0, 0, 49, 57, 0, 0, 0, 9, 0, 0, 0, 13, 30, 0, 0, 0, 0, 58, 21, 0, 45, 38, 20, 0, 0, 0, 0, 0, 0, 0, 0, 0, 46, 0
|58, 0, 0, 0, 0, 56, 0, 0, 0, 0, 53, 30, 49, 0, 1, 41, 0, 31, 57, 0, 37, 0, 0, 0, 0, 0, 0, 0, 0, 0, 21, 0, 11, 0, 0, 0, 0, 0, 13, 0, 0, 0, 0, 0, 0, 0, 40, 0, 0, 44, 0, 0, 0, 18, 0, 0, 0, 0, 0, 0, 47, 0, 0, 0
|0, 0, 0, 0, 0, 0, 0, 17, 40, 27, 19, 0, 0, 50, 0, 0, 1, 0, 41, 0, 0, 0, 0, 0, 32, 0, 0, 16, 0, 0, 42, 0, 0, 0, 0, 0, 0, 0, 0, 28, 0, 3, 0, 21, 0, 0, 0, 22, 0, 0, 0, 0, 0, 0, 0, 0, 0, 0, 0, 0, 0, 0, 23, 0
|48, 0, 0, 0, 0, 0, 55, 29, 0, 3, 0, 51, 24, 0, 2, 0, 0, 0, 28, 0, 16, 0, 47, 8, 0, 0, 14, 0, 0, 0, 0, 0, 0, 0, 0, 0, 56, 0, 0, 0, 0, 0, 0, 0, 0, 0, 0, 0, 0, 0, 0, 0, 41, 0, 0, 0, 0, 32, 0, 0, 25, 0, 49, 52
|0, 0, 0, 0, 0, 0, 0, 30, 0, 0, 0, 59, 0, 45, 48, 36, 0, 0, 0, 0, 0, 0, 44, 20, 0, 0, 0, 0, 0, 0, 0, 49, 47, 10, 0, 0, 0, 0, 0, 0, 0, 0, 0, 0, 63, 0, 0, 0, 0, 0, 0, 23, 0, 0, 8, 0, 29, 0, 0, 0, 0, 0, 56, 0
|0, 0, 0, 0, 0, 0, 28, 0, 8, 0, 16, 0, 9, 0, 0, 0, 58, 0, 0, 42, 0, 0, 0, 64, 0, 0, 0, 0, 0, 46, 0, 55, 0, 0, 0, 39, 0, 40, 0, 0, 0, 0, 0, 0, 0, 24, 47, 15, 0, 0, 0, 0, 6, 0, 0, 62, 48, 0, 0, 0, 0, 0, 0, 31
|0, 0, 53, 0, 0, 0, 21, 0, 29, 44, 0, 17, 0, 26, 0, 0, 0, 0, 63, 0, 0, 0, 0, 0, 0, 0, 1, 56, 36, 0, 10, 0, 0, 38, 55, 32, 0, 0, 0, 0, 59, 23, 0, 9, 0, 16, 0, 0, 43, 0, 0, 0, 0, 0, 0, 0, 0, 0, 0, 14, 0, 0, 0, 0|];