order = 8;
grid = [|0, 0, 0, 41, 8, 0, 0, 0, 0, 0, 0, 0, 57, 0, 0, 59, 63, 0, 0, 0, 56, 0, 0, 0, 0, 0, 0, 0, 27, 0, 0, 0, 42, 0, 0, 0, 0, 20, 3, 0, 0, 54, 43, 0, 0, 6, 0, 0, 0, 0, 55, 0, 0, 0, 2, 0, 0, 0, 19, 0, 52, 0, 0, 29
|0, 0, 0, 0, 0, 0, 0, 0, 0, 0, 0, 1, 0, 0, 0, 5, 0, 0, 0, 0, 64, 61, 0, 48, 0, 36, 0, 0, 0, 0, 0, 14, 7, 57, 15, 0, 0, 0, 16, 0, 31, 0, 0, 0, 13, 35, 0, 0, 0, 0, 0, 0, 40, 52, 0, 0, 0, 0, 18, 25, 45, 0, 12, 49
|0, 22, 0, 0, 0, 0, 0, 53, 9, 0, 0, 29, 0, 0, 64, 0, 5, 47, 43, 0, 7, 0, 0, 0, 0, 0, 0, 0, 0, 0, 0, 52, 0, 17, 0, 0, 0, 12, 0, 0, 57, 26, 0, 0, 0, 0, 3, 0, 0, 0, 0, 0, 23, 0, 15, 0, 0, 0, 0, 63, 24, 0, 55, 0
|0, 18, 58, 0, 0, 0, 7, 0, 0, 0, 0, 0, 0, 0, 0, 0, 0, 0, 36, 0, 0, 0, 38, 0, 0, 0, 0, 0, 64, 20, 0, 0, 2, 0, 41, 0, 0, 0, 52, 0, 0, 59, 1, 0, 0, 60, 45, 15, 0, 0, 30, 9, 0, 0, 19, 0, 0, 0, 0, 0, 0, 0, 62, 61
|6, 0, 0, 16, 0, 0, 0, 17, 0, 14, 43, 0, 0, 0, 37, 0, 0, 11, 0, 0, 25, 0, 0, 0, 0, 0, 0, 48, 0, 0, 24, 0, 5, 0, 0, 40, 56, 0, 35, 0, 0, 0, 0, 0, 0, 0, 27, 0, 0, 0, 0, 0, 0, 0, 44, 0, 23, 0, 15, 0, 0, 36, 21, 0
|0, 0, 0, 0, 14, 0, 43, 0, 39, 0, 0, 0, 0, 0, 0, 38, 0, 13, 0, 19, 0, 0, 0, 0, 7, 0, 0, 0, 26, 0, 28, 51, 0, 0, 0, 0, 31, 0, 10, 0, 50, 61, 42, 0, 0, 0, 0, 16, 0, 62, 8, 5, 0, 0, 6, 0, 0, 0, 0, 0, 0, 0, 0, 0
|0, 5, 52, 26, 1, 0, 0, 0, 42, 0, 0, 0, 0, 31, 45, 0, 17, 18, 0, 0, 51, 0, 0, 0, 29, 0, 0, 0, 59, 2, 63, 3, 0, 0, 0, 43, 0, 64, 25, 0, 0, 0, 0, 0, 0, 0, 0, 0, 0, 37, 0, 0, 0, 0, 0, 0, 0, 20, 58, 0, 7, 56, 0, 0
|0, 0, 0, 0, 45, 0, 0, 0, 61, 60, 0, 0, 0, 0, 0, 0, 0, 24, 0, 0, 42, 26, 0, 29, 0, 0, 0, 37, 0, 0, 0, 0, 0, 0, 0, 11, 0, 0, 0, 0, 0, 0, 0, 0, 0, 0, 0, 52, 27, 0, 49, 14, 0, 0, 33, 1, 40, 0, 0, 0, 0, 0, 0, 0
|0, 25, 0, 0, 0, 55, 0, 37, 0, 0, 0, 60, 0, 0, 36, 0, 0, 43, 0, 0, 0, 0, 0, 0, 0, 0, 59, 0, 0, 0, 0, 0, 0, 0, 0, 0, 0, 0, 0, 53, 0, 0, 39, 0, 0, 0, 0, 0, 0, 34, 0, 10, 0, 0, 0, 0, 0, 0, 45, 0, 0, 0, 0, 11
|62, 0, 0, 0, 0, 0, 0, 2, 0, 0, 0, 0, 41, 33, 0, 0, 9, 0, 0, 50, 0, 8, 0, 49, 55, 0, 0, 0, 47, 0, 0, 0, 35, 0, 0, 58, 0, 0, 0, 60, 0, 64, 0, 34, 14, 0, 0, 0, 0, 0, 56, 0, 0, 0, 0, 0, 0, 0, 0, 43, 0, 0, 0, 0
|0, 31, 43, 46, 0, 0, 38, 49, 0, 0, 20, 0, 0, 0, 0, 0, 54, 0, 0, 11, 26, 29, 0, 36, 0, 12, 24, 0, 0, 0, 57, 0, 0, 6, 0, 0, 0, 0, 0, 0, 47, 0, 0, 0, 17, 0, 0, 0, 0, 0, 0, 53, 0, 41, 45, 0, 42, 27, 0, 16, 0, 0, 0, 0
|0, 0, 0, 0, 19, 0, 5, 0, 0, 0, 3, 0, 0, 0, 0, 0, 0, 22, 56, 0, 58, 15, 0, 42, 0, 43, 53, 0, 0, 0, 0, 0, 36, 51, 46, 0, 0, 28, 0, 0, 0, 63, 6, 45, 54, 0, 0, 18, 0, 0, 0, 50, 0, 0, 0, 48, 0, 0, 0, 0, 49, 0, 0, 0
|20, 48, 0, 0, 0, 0, 0, 26, 0, 0, 59, 0, 0, 0, 0, 0, 14, 0, 0, 0, 0, 0, 0, 31, 0, 0, 0, 0, 0, 8, 0, 17, 0, 0, 0, 0, 27, 0, 0, 0, 0, 0, 0, 13, 0, 16, 43, 0, 0, 0, 0, 35, 0, 0, 28, 0, 0, 0, 0, 0, 60, 0, 57, 0
|0, 0, 44, 0, 54, 0, 0, 0, 0, 7, 0, 40, 0, 0, 26, 15, 0, 52, 47, 0, 0, 0, 0, 0, 0, 0, 0, 0, 0, 0, 0, 0, 10, 0, 62, 48, 0, 57, 0, 0, 0, 0, 0, 0, 0, 0, 0, 0, 0, 20, 0, 55, 0, 23, 27, 0, 0, 0, 2, 0, 46, 33, 18, 0
|0, 28, 0, 0, 22, 0, 0, 0, 45, 0, 5, 0, 0, 0, 46, 0, 0, 0, 0, 0, 0, 0, 16, 0, 0, 20, 0, 0, 25, 0, 38, 0, 0, 0, 4, 0, 0, 0, 43, 0, 0, 0, 0, 0, 0, 0, 0, 0, 59, 0, 0, 0, 26, 0, 0, 0, 0, 0, 14, 0, 0, 0, 0, 0
|0, 6, 0, 0, 39, 0, 0, 0, 0, 0, 42, 0, 0, 0, 0, 0, 21, 0, 12, 0, 0, 0, 0, 51, 0, 14, 0, 0, 0, 35, 0, 0, 0, 0, 19, 23, 0, 25, 0, 0, 0, 0, 5, 10, 0, 0, 0, 0, 0, 0, 0, 0, 9, 0, 49, 58, 0, 0, 0, 0, 0, 26, 0, 0
|0, 0, 18, 28, 0, 0, 0, 24, 36, 0, 32, 0, 0, 0, 9, 52, 50, 6, 5, 0, 0, 54, 10, 0, 0, 0, 0, 58, 0, 46, 8, 13, 0, 60, 34, 0, 0, 63, 27, 0, 0, 20, 0, 0, 0, 0, 0, 0, 0, 0, 0, 0, 0, 25, 0, 38, 0, 0, 0, 64, 0, 0, 0, 40
|0, 0, 1, 0, 0, 36, 0, 0, 0, 0, 0, 0, 0, 0, 31, 0, 0, 0, 0, 49, 0, 0, 0, 0, 0, 0, 0, 57, 21, 27, 0, 0, 0, 0, 0, 0, 0, 0, 0, 41, 0, 0, 0, 0, 43, 48, 0, 0, 0, 0, 0, 0, 0, 0, 5, 0, 0, 0, 53, 0, 18, 0, 37, 0
|15, 3, 0, 0, 0, 0, 0, 0, 8, 0, 0, 43, 0, 0, 0, 0, 29, 64, 0, 0, 4, 56, 0, 0, 0, 0, 0, 5, 0, 0, 0, 24, 0, 0, 0, 0, 16, 0, 0, 0, 36, 6, 0, 0, 0, 54, 31, 0, 42, 0, 46, 11, 0, 0, 0, 0, 0, 34, 0, 60, 0, 0, 0, 0
|0, 0, 0, 0, 0, 0, 0, 0, 0, 33, 0, 55, 0, 0, 0, 0, 0, 0, 0, 0, 0, 44, 0, 0, 0, 10, 0, 0, 42, 0, 0, 0, 0, 0, 0, 22, 0, 0, 0, 0, 0, 0, 0, 46, 0, 0, 0, 58, 39, 0, 0, 0, 0, 0, 0, 0, 0, 0, 0, 0, 0, 0, 0, 54
|0, 0, 48, 0, 0, 50, 0, 0, 60, 0, 0, 58, 0, 54, 0, 0, 0, 0, 0, 0, 0, 0, 0, 0, 0, 18, 0, 0, 0, 0, 0, 0, 0, 0, 0, 0, 5, 0, 0, 0, 55, 10, 0, 0, 26, 0, 0, 0, 1, 0, 0, 0, 0, 32, 13, 23, 0, 0, 0, 8, 43, 0, 0, 0
|0, 0, 0, 0, 51, 25, 0, 0, 0, 64, 53, 0, 0, 13, 0, 0, 0, 30, 0, 0, 0, 0, 48, 0, 0, 0, 0, 0, 0, 0, 0, 0, 0, 0, 61, 47, 0, 0, 8, 57, 22, 0, 0, 0, 0, 7, 18, 12, 0, 0, 0, 43, 0, 0, 0, 0, 21, 0, 0, 0, 0, 29, 5, 0
|42, 7, 0, 0, 11, 0, 47, 0, 0, 0, 0, 0, 0, 0, 0, 0, 0, 53, 13, 0, 0, 0, 0, 0, 2, 0, 64, 0, 29, 0, 0, 26, 0, 0, 0, 0, 0, 0, 0, 0, 25, 0, 16, 21, 0, 19, 0, 0, 28, 0, 0, 0, 0, 0, 0, 0, 6, 0, 0, 0, 35, 50, 0, 0
|4, 0, 0, 0, 0, 23, 37, 0, 0, 25, 0, 0, 0, 0, 14, 0, 0, 0, 0, 1, 0, 55, 0, 0, 0, 0, 0, 0, 0, 0, 0, 0, 40, 26, 6, 0, 62, 0, 33, 0, 0, 0, 8, 0, 32, 47, 0, 0, 0, 0, 0, 0, 7, 20, 0, 0, 0, 0, 0, 36, 0, 0, 0, 0
|10, 0, 39, 0, 52, 33, 64, 0, 0, 4, 45, 8, 51, 0, 0, 0, 0, 15, 17, 0, 48, 0, 29, 0, 0, 0, 0, 0, 0, 0, 0, 0, 21, 0, 0, 3, 0, 0, 0, 0, 42, 0, 0, 0, 53, 0, 11, 0, 0, 46, 0, 0, 0, 0, 0, 0, 0, 0, 0, 19, 0, 0, 0, 0
|0, 0, 5, 0, 0, 0, 0, 0, 10, 0, 0, 0, 0, 0, 0, 0, 0, 0, 0, 0, 0, 0, 42, 0, 0, 0, 0, 60, 3, 0, 0, 0, 0, 0, 0, 35, 41, 0, 0, 1, 0, 17, 0, 0, 31, 52, 37, 0, 0, 22, 0, 57, 6, 0, 9, 0, 24, 39, 0, 27, 0, 8, 2, 4
|0, 0, 46, 62, 20, 0, 23, 0, 0, 0, 0, 0, 0, 44, 0, 17, 6, 0, 0, 31, 0, 0, 0, 0, 0, 0, 0, 2, 0, 0, 32, 0, 0, 38, 0, 0, 0, 0, 0, 0, 10, 0, 58, 0, 0, 0, 0, 0, 0, 11, 64, 0, 0, 0, 0, 33, 14, 0, 35, 0, 0, 13, 0, 0
|59, 0, 8, 40, 41, 0, 0, 31, 0, 0, 0, 28, 18, 0, 0, 0, 0, 0, 0, 0, 14, 0, 0, 0, 0, 0, 17, 15, 0, 0, 0, 61, 0, 0, 0, 0, 0, 45, 0, 0, 0, 0, 0, 0, 21, 0, 0, 0, 0, 0, 7, 0, 0, 4, 0, 39, 0, 0, 0, 0, 0, 0, 0, 9
|0, 0, 0, 0, 0, 0, 29, 50, 0, 0, 0, 0, 2, 27, 22, 48, 0, 61, 0, 51, 0, 0, 63, 0, 18, 0, 0, 0, 56, 0, 0, 19, 0, 40, 0, 0, 0, 10, 0, 28, 0, 0, 0, 0, 0, 0, 0, 0, 0, 0, 0, 0, 38, 0, 0, 24, 47, 0, 0, 0, 0, 0, 0, 0
|0, 0, 0, 0, 0, 0, 0, 38, 0, 0, 0, 64, 30, 0, 0, 0, 62, 0, 25, 44, 0, 0, 0, 0, 0, 39, 0, 0, 0, 0, 14, 0, 0, 0, 0, 17, 52, 54, 46, 0, 0, 0, 0, 0, 29, 0, 0, 9, 0, 21, 0, 0, 0, 0, 0, 50, 0, 56, 0, 55, 0, 0, 0, 0
|0, 51, 0, 58, 0, 0, 19, 0, 14, 0, 9, 46, 0, 59, 39, 0, 53, 0, 0, 0, 41, 0, 0, 0, 0, 0, 0, 0, 10, 0, 0, 50, 0, 22, 0, 0, 0, 5, 0, 0, 0, 0, 24, 0, 0, 8, 6, 0, 0, 0, 48, 0, 45, 0, 37, 30, 0, 0, 0, 0, 61, 0, 0, 0
|34, 0, 0, 0, 0, 0, 0, 0, 0, 0, 0, 0, 0, 0, 0, 0, 27, 0, 1, 0, 0, 39, 0, 0, 0, 0, 0, 0, 0, 0, 0, 0, 8, 36, 50, 0, 0, 0, 0, 49, 0, 0, 45, 0, 0, 0, 0, 0, 0, 55, 0, 56, 0, 0, 0, 62, 7, 0, 57, 0, 0, 0, 44, 0
|0, 0, 0, 24, 0, 0, 0, 3, 0, 62, 0, 0, 29, 0, 0, 0, 0, 0, 34, 0, 0, 0, 31, 0, 12, 27, 0, 0, 0, 0, 0, 0, 0, 0, 0, 49, 0, 0, 0, 64, 8, 0, 0, 39, 0, 23, 0, 30, 0, 0, 51, 0, 0, 55, 52, 0, 0, 37, 0, 33, 0, 0, 7, 0
|0, 0, 0, 0, 28, 43, 0, 41, 35, 45, 40, 0, 26, 25, 0, 0, 0, 0, 0, 0, 0, 0, 37, 13, 0, 0, 0, 32, 60, 42, 0, 0, 0, 0, 2, 44, 0, 0, 0, 0, 0, 0, 0, 0, 0, 0, 51, 0, 0, 0, 4, 0, 0, 59, 23, 53, 0, 55, 3, 0, 0, 0, 0, 0
|1, 0, 61, 0, 0, 46, 42, 0, 0, 49, 0, 0, 4, 0, 0, 0, 48, 0, 0, 0, 0, 0, 0, 0, 0, 0, 37, 0, 0, 0, 0, 0, 9, 0, 23, 6, 0, 3, 15, 0, 26, 35, 0, 47, 0, 0, 63, 0, 33, 0, 0, 0, 44, 0, 0, 0, 45, 0, 0, 0, 0, 0, 0, 0
|25, 15, 0, 0, 0, 0, 26, 0, 0, 0, 0, 0, 0, 0, 0, 0, 30, 20, 61, 52, 0, 14, 0, 0, 0, 2, 0, 0, 0, 0, 49, 0, 0, 0, 0, 0, 47, 0, 0, 0, 0, 21, 27, 0, 0, 0, 29, 0, 0, 0, 0, 0, 0, 0, 42, 63, 0, 0, 0, 0, 0, 0, 40, 0
|9, 0, 0, 27, 0, 0, 0, 0, 0, 5, 0, 0, 0, 0, 56, 0, 0, 0, 0, 6, 49, 0, 62, 0, 0, 0, 58, 44, 0, 63, 0, 0, 0, 0, 0, 0, 0, 0, 0, 13, 0, 0, 22, 0, 42, 0, 0, 0, 64, 47, 0, 0, 0, 0, 0, 40, 0, 59, 60, 0, 29, 4, 24, 15
|0, 0, 0, 0, 62, 0, 57, 14, 54, 63, 31, 0, 0, 0, 0, 0, 0, 59, 0, 7, 0, 0, 0, 0, 0, 0, 50, 0, 0, 1, 0, 0, 38, 0, 0, 0, 48, 0, 37, 20, 0, 36, 28, 0, 0, 0, 10, 0, 0, 0, 0, 0, 43, 0, 0, 0, 19, 0, 0, 0, 0, 0, 0, 0
|0, 0, 0, 0, 0, 0, 0, 6, 0, 20, 0, 0, 0, 0, 0, 55, 0, 29, 0, 0, 0, 0, 0, 0, 0, 0, 0, 10, 54, 0, 0, 36, 16, 0, 31, 0, 51, 59, 0, 58, 7, 0, 0, 0, 61, 0, 0, 0, 0, 0, 0, 26, 32, 0, 0, 17, 0, 0, 0, 0, 2, 47, 0, 35
|0, 19, 0, 0, 0, 0, 0, 0, 0, 37, 0, 0, 0, 42, 13, 0, 0, 0, 8, 0, 0, 0, 22, 0, 51, 34, 0, 7, 17, 0, 0, 0, 0, 63, 35, 57, 0, 0, 50, 55, 0, 0, 0, 0, 0, 0, 0, 0, 0, 0, 36, 0, 30, 9, 0, 20, 0, 25, 0, 0, 0, 0, 26, 0
|0, 1, 51, 0, 0, 17, 0, 0, 0, 10, 0, 18, 0, 48, 0, 0, 0, 0, 0, 0, 0, 27, 0, 0, 0, 47, 45, 0, 0, 0, 0, 0, 0, 0, 0, 0, 0, 56, 7, 0, 0, 0, 9, 52, 0, 0, 64, 0, 0, 0, 59, 16, 0, 0, 0, 32, 0, 0, 0, 0, 0, 0, 0, 0
|52, 0, 0, 0, 0, 0, 46, 0, 0, 50, 0, 0, 0, 0, 51, 57, 0, 1, 0, 0, 0, 19, 0, 0, 0, 0, 0, 0, 0, 0, 0, 0, 28, 0, 25, 64, 0, 26, 39, 32, 0, 0, 0, 0, 0, 0, 0, 0, 0, 24, 0, 0, 8, 0, 0, 0, 0, 0, 16, 0, 4, 0, 0, 0
|0, 38, 50, 19, 0, 5, 0, 0, 0, 55, 4, 0, 0, 0, 7, 0, 0, 0, 59, 0, 0, 21, 0, 3, 0, 0, 30, 0, 0, 0, 0, 63, 0, 0, 0, 0, 0, 0, 0, 6, 0, 0, 0, 0, 0, 0, 0, 46, 0, 0, 0, 0, 0, 57, 0, 0, 0, 0, 39, 0, 0, 0, 0, 0
|0, 62, 0, 20, 0, 0, 41, 0, 53, 0, 22, 0, 0, 0, 0, 0, 0, 7, 0, 32, 0, 0, 44, 37, 0, 8, 0, 0, 0, 3, 0, 60, 1, 0, 40, 0, 0, 0, 63, 0, 0, 0, 56, 0, 0, 0, 0, 0, 0, 33, 0, 28, 0, 0, 0, 0, 0, 0, 0, 0, 10, 27, 0, 2
|0, 0, 0, 25, 0, 53, 0, 28, 38, 0, 0, 0, 37, 40, 0, 0, 42, 0, 0, 0, 0, 41, 0, 0, 0, 54, 0, 0, 0, 33, 0, 0, 27, 0, 0, 50, 0, 0, 0, 0, 0, 44, 0, 0, 0, 0, 0, 6, 0, 0, 0, 51, 12, 0, 0, 60, 0, 0, 0, 0, 0, 0, 0, 0
|0, 0, 0, 0, 42, 9, 0, 0, 0, 0, 52, 0, 0, 0, 0, 0, 0, 0, 0, 48, 45, 0, 15, 0, 0, 0, 0, 0, 0, 18, 53, 0, 0, 0, 0, 0, 0, 0, 5, 0, 0, 0, 62, 26, 25, 4, 0, 8, 0, 6, 38, 0, 1, 39, 43, 0, 0, 0, 0, 0, 0, 0, 56, 37
|0, 0, 0, 37, 34, 10, 0, 0, 0, 15, 0, 0, 32, 64, 0, 0, 51, 0, 0, 0, 0, 0, 57, 0, 0, 0, 0, 0, 13, 0, 0, 0, 0, 53, 33, 0, 11, 0, 0, 0, 27, 60, 0, 18, 0, 0, 0, 0, 7, 61, 0, 0, 19, 0, 14, 4, 0, 0, 0, 0, 0, 0, 0, 0
|8, 0, 0, 0, 0, 0, 0, 0, 0, 0, 0, 47, 0, 19, 0, 0, 0, 0, 0, 12, 0, 0, 64, 6, 0, 0, 0, 0, 0, 14, 0, 0, 0, 0, 0, 2, 0, 0, 0, 0, 0, 0, 0, 0, 0, 41, 0, 0, 0, 0, 0, 52, 34, 0, 53, 0, 0, 0, 5, 0, 59, 0, 0, 0
|40, 17, 55, 0, 0, 0, 25, 0, 0, 0, 46, 53, 0, 0, 0, 29, 20, 0, 35, 62, 0, 1, 0, 38, 0, 0, 28, 0, 14, 0, 0, 30, 0, 0, 0, 8, 0, 0, 0, 0, 60, 0, 0, 0, 6, 32, 0, 57, 0, 0, 11, 0, 0, 0, 0, 0, 5, 0, 0, 23, 0, 0, 0, 0
|0, 0, 0, 0, 6, 0, 0, 0, 0, 0, 62, 0, 0, 0, 60, 0, 0, 0, 10, 40, 0, 0, 0, 43, 0, 4, 0, 0, 53, 0, 0, 0, 44, 0, 0, 0, 0, 36, 0, 0, 58, 0, 0, 0, 0, 0, 0, 0, 0, 0, 0, 0, 0, 0, 0, 0, 0, 21, 0, 0, 34, 0, 31, 0
|41, 0, 0, 0, 44, 28, 0, 0, 0, 0, 0, 0, 0, 63, 0, 0, 0, 0, 0, 17, 0, 0, 0, 0, 0, 0, 51, 0, 0, 50, 0, 0, 3, 34, 0, 0, 0, 22, 0, 0, 0, 0, 0, 4, 0, 46, 0, 0, 0, 59, 0, 62, 0, 0, 0, 0, 0, 0, 0, 2, 0, 0, 0, 0
|0, 0, 0, 0, 0, 0, 34, 46, 0, 0, 6, 44, 0, 0, 0, 31, 0, 0, 51, 0, 0, 0, 53, 0, 11, 0, 0, 0, 0, 15, 16, 42, 0, 0, 0, 0, 9, 0, 0, 0, 17, 0, 29, 0, 12, 0, 0, 0, 45, 0, 33, 22, 0, 10, 0, 0, 0, 0, 28, 0, 0, 0, 0, 0
|53, 0, 0, 0, 0, 42, 60, 0, 56, 57, 0, 54, 11, 55, 0, 45, 0, 0, 0, 0, 0, 0, 0, 0, 49, 0, 0, 33, 36, 25, 0, 0, 0, 0, 0, 0, 0, 15, 32, 46, 41, 0, 0, 62, 0, 31, 20, 0, 0, 28, 0, 0, 0, 0, 0, 0, 0, 0, 0, 0, 50, 0, 61, 0
|57, 0, 0, 0, 0, 0, 0, 0, 15, 0, 0, 0, 0, 0, 0, 0, 0, 32, 23, 42, 0, 0, 0, 46, 24, 0, 0, 22, 8, 0, 0, 20, 0, 0, 49, 62, 25, 0, 0, 0, 61, 28, 30, 0, 0, 0, 26, 0, 0, 0, 0, 27, 0, 60, 58, 0, 0, 10, 6, 0, 0, 0, 0, 45
|0, 0, 20, 2, 27, 0, 0, 0, 34, 0, 0, 0, 0, 0, 1, 0, 0, 0, 48, 0, 0, 16, 0, 41, 19, 0, 0, 56, 6, 0, 59, 62, 0, 0, 54, 0, 0, 0, 26, 0, 0, 42, 7, 51, 0, 0, 9, 0, 0, 0, 0, 25, 0, 0, 8, 0, 0, 0, 0, 0, 11, 0, 0, 0
|26, 0, 3, 29, 59, 22, 0, 0, 0, 0, 0, 27, 8, 49, 0, 14, 0, 0, 37, 0, 0, 31, 0, 44, 0, 0, 0, 0, 0, 0, 0, 0, 57, 0, 0, 0, 0, 0, 0, 61, 0, 0, 38, 0, 0, 0, 0, 0, 0, 0, 0, 30, 54, 0, 39, 0, 0, 0, 0, 0, 9, 18, 0, 42
|0, 63, 0, 0, 53, 61, 0, 0, 13, 0, 0, 14, 0, 0, 0, 0, 0, 0, 46, 16, 0, 33, 0, 34, 0, 32, 0, 0, 40, 0, 0, 0, 17, 24, 39, 20, 0, 0, 0, 9, 0, 0, 18, 0, 0, 0, 0, 0, 6, 0, 0, 0, 0, 0, 59, 54, 0, 0, 0, 0, 0, 0, 0, 0
|0, 0, 0, 33, 40, 20, 55, 35, 0, 36, 0, 0, 0, 47, 0, 0, 0, 0, 0, 59, 30, 0, 41, 0, 0, 0, 31, 1, 0, 0, 0, 15, 0, 58, 0, 0, 12, 0, 11, 54, 0, 0, 0, 0, 0, 0, 24, 61, 0, 0, 2, 0, 13, 0, 0, 0, 0, 0, 0, 48, 27, 0, 0, 0
|0, 0, 0, 0, 0, 0, 0, 0, 58, 0, 0, 0, 0, 45, 0, 63, 0, 0, 0, 0, 0, 13, 11, 0, 0, 0, 0, 0, 0, 0, 12, 0, 15, 0, 38, 0, 0, 18, 49, 0, 0, 0, 0, 0, 64, 0, 0, 0, 5, 51, 52, 0, 35, 0, 56, 0, 0, 0, 55, 0, 44, 6, 22, 36
|0, 0, 0, 0, 0, 6, 0, 0, 55, 0, 0, 56, 59, 0, 0, 43, 0, 0, 0, 38, 24, 18, 0, 0, 0, 0, 0, 0, 0, 19, 4, 0, 45, 10, 27, 0, 0, 0, 0, 0, 0, 0, 0, 0, 0, 22, 0, 0, 0, 0, 0, 0, 0, 31, 17, 57, 0, 49, 1, 0, 0, 0, 0, 21
|0, 0, 0, 0, 0, 0, 51, 0, 0, 0, 0, 0, 0, 0, 0, 0, 0, 3, 0, 37, 0, 0, 49, 45, 0, 0, 0, 0, 0, 17, 50, 25, 0, 0, 0, 0, 59, 0, 0, 8, 14, 0, 34, 0, 0, 28, 0, 0, 61, 0, 0, 0, 0, 36, 0, 0, 0, 0, 0, 0, 0, 12, 0, 0
|0, 0, 25, 0, 43, 0, 0, 0, 0, 8, 19, 35, 28, 0, 0, 20, 4, 0, 0, 0, 23, 57, 0, 0, 0, 0, 22, 0, 0, 5, 0, 0, 0, 0, 0, 0, 0, 0, 0, 0, 0, 27, 0, 0, 0, 0, 0, 0, 0, 49, 58, 45, 0, 63, 0, 0, 0, 0, 0, 0, 0, 0, 0, 0
|0, 46, 0, 22, 0, 0, 0, 0, 17, 0, 0, 0, 3, 29, 0, 53, 0, 0, 32, 0, 0, 0, 0, 0, 0, 0, 27, 45, 0, 0, 0, 0, 0, 35, 0, 0, 0, 0, 0, 0, 56, 33, 0, 0, 0, 21, 0, 0, 0, 0, 0, 0, 0, 0, 0, 0, 0, 0, 0, 0, 0, 0, 0, 0
|0, 0, 0, 0, 0, 38, 0, 44, 0, 51, 0, 0, 12, 9, 0, 0, 0, 0, 0, 43, 0, 0, 0, 17, 0, 11, 0, 0, 0, 47, 0, 0, 0, 25, 0, 14, 57, 46, 31, 0, 49, 0, 4, 42, 0, 0, 0, 0, 0, 0, 0, 0, 27, 28, 0, 0, 61, 0, 8, 35, 0, 0, 0, 0|];