order = 8;
grid = [|0, 0, 0, 0, 0, 26, 0, 0, 0, 0, 0, 43, 20, 0, 12, 0, 0, 0, 0, 0, 0, 0, 0, 0, 0, 0, 0, 0, 0, 0, 27, 0, 18, 51, 54, 0, 37, 0, 0, 0, 46, 17, 0, 56, 0, 0, 53, 0, 5, 0, 0, 0, 0, 0, 0, 39, 0, 0, 0, 0, 0, 0, 0, 0
|0, 37, 0, 0, 0, 0, 0, 0, 0, 49, 0, 0, 11, 0, 54, 0, 0, 0, 0, 0, 0, 31, 0, 0, 0, 0, 0, 5, 12, 0, 0, 0, 0, 0, 0, 62, 0, 0, 0, 0, 0, 0, 0, 0, 40, 0, 60, 0, 0, 0, 45, 0, 0, 0, 0, 0, 27, 0, 0, 35, 0, 20, 0, 0
|0, 0, 0, 0, 0, 0, 0, 0, 0, 31, 0, 0, 64, 0, 9, 0, 11, 0, 0, 0, 0, 6, 0, 0, 63, 0, 0, 0, 0, 0, 22, 0, 50, 30, 0, 0, 0, 45, 53, 1, 0, 0, 0, 0, 0, 0, 49, 34, 0, 0, 0, 0, 0, 52, 16, 24, 0, 0, 0, 0, 0, 0, 21, 0
|0, 0, 3, 51, 63, 0, 0, 0, 0, 0, 40, 0, 0, 56, 0, 25, 0, 12, 0, 0, 0, 0, 0, 0, 0, 0, 0, 0, 0, 0, 62, 0, 27, 17, 0, 47, 0, 0, 0, 0, 0, 0, 30, 0, 0, 0, 39, 0, 0, 0, 6, 0, 0, 0, 0, 46, 48, 0, 0, 0, 61, 0, 0, 45
|0, 0, 32, 16, 45, 0, 0, 57, 0, 0, 29, 59, 0, 0, 0, 19, 0, 0, 0, 0, 0, 0, 0, 0, 64, 50, 0, 0, 0, 0, 52, 0, 0, 0, 0, 0, 49, 0, 0, 0, 10, 13, 0, 0, 0, 8, 15, 0, 0, 0, 27, 0, 22, 0, 26, 0, 55, 0, 0, 0, 54, 0, 58, 0
|0, 0, 5, 0, 0, 1, 54, 0, 15, 0, 0, 0, 0, 2, 0, 33, 0, 0, 63, 47, 0, 40, 0, 0, 0, 21, 0, 0, 0, 0, 0, 61, 55, 14, 0, 0, 0, 0, 0, 0, 0, 41, 28, 57, 11, 0, 0, 0, 0, 35, 0, 32, 51, 0, 0, 0, 0, 0, 60, 12, 0, 0, 0, 43
|0, 21, 0, 0, 23, 0, 0, 0, 0, 0, 0, 39, 0, 0, 18, 0, 0, 29, 4, 0, 19, 0, 0, 0, 0, 45, 0, 0, 59, 57, 0, 0, 15, 0, 0, 38, 0, 46, 0, 16, 0, 0, 0, 0, 5, 0, 0, 0, 0, 0, 0, 0, 0, 0, 0, 0, 49, 0, 0, 26, 0, 28, 32, 0
|0, 0, 0, 0, 0, 0, 0, 0, 0, 27, 0, 0, 0, 0, 0, 0, 0, 0, 0, 0, 0, 0, 24, 0, 0, 0, 0, 0, 0, 0, 49, 0, 21, 0, 0, 0, 0, 0, 41, 0, 0, 0, 62, 59, 0, 0, 0, 0, 44, 0, 55, 0, 0, 0, 19, 29, 0, 0, 0, 0, 14, 37, 0, 51
|0, 0, 0, 0, 0, 0, 0, 0, 0, 0, 0, 0, 0, 0, 0, 0, 0, 0, 0, 0, 58, 0, 0, 0, 0, 17, 6, 0, 23, 0, 31, 0, 0, 0, 44, 56, 57, 0, 0, 0, 0, 0, 0, 0, 37, 0, 36, 40, 0, 0, 0, 1, 0, 0, 0, 0, 0, 0, 34, 0, 0, 0, 0, 13
|0, 0, 58, 0, 0, 61, 45, 0, 0, 0, 0, 26, 0, 0, 49, 11, 2, 0, 62, 0, 0, 4, 27, 0, 0, 57, 0, 36, 0, 0, 46, 10, 0, 0, 0, 0, 0, 0, 0, 0, 30, 0, 0, 55, 13, 0, 21, 48, 35, 31, 0, 0, 0, 0, 0, 53, 0, 0, 0, 60, 0, 0, 0, 23
|60, 64, 0, 0, 0, 0, 22, 24, 0, 0, 9, 0, 0, 52, 0, 0, 32, 0, 61, 0, 0, 0, 0, 0, 0, 0, 0, 0, 0, 0, 8, 0, 0, 0, 59, 0, 0, 0, 0, 0, 45, 0, 1, 0, 0, 0, 0, 0, 63, 0, 15, 0, 0, 0, 0, 30, 0, 0, 40, 21, 0, 33, 0, 0
|0, 0, 48, 57, 35, 0, 0, 51, 56, 47, 0, 0, 0, 30, 0, 0, 19, 0, 0, 0, 13, 0, 0, 0, 0, 27, 0, 37, 0, 59, 0, 53, 17, 0, 18, 0, 0, 0, 8, 0, 0, 26, 64, 0, 0, 3, 24, 0, 0, 0, 29, 0, 40, 0, 0, 0, 11, 0, 0, 0, 2, 49, 61, 0
|0, 0, 0, 20, 0, 0, 0, 0, 0, 0, 0, 0, 19, 0, 0, 0, 0, 0, 36, 0, 0, 0, 0, 0, 51, 0, 0, 21, 0, 0, 0, 0, 0, 0, 0, 0, 0, 25, 0, 42, 0, 0, 0, 0, 50, 0, 38, 0, 13, 59, 0, 0, 0, 0, 43, 0, 0, 0, 0, 0, 0, 0, 0, 0
|53, 3, 0, 0, 11, 0, 0, 0, 0, 10, 59, 0, 0, 62, 31, 41, 0, 0, 0, 0, 38, 7, 0, 0, 0, 0, 56, 0, 0, 0, 0, 0, 0, 0, 0, 0, 30, 0, 19, 0, 0, 0, 0, 0, 0, 0, 4, 2, 27, 0, 0, 21, 0, 0, 61, 0, 39, 0, 0, 0, 0, 0, 63, 0
|0, 0, 0, 36, 16, 30, 0, 0, 0, 29, 0, 44, 0, 0, 0, 0, 0, 0, 0, 0, 0, 0, 0, 0, 0, 0, 45, 0, 0, 0, 18, 34, 0, 1, 14, 0, 21, 37, 38, 0, 53, 0, 0, 0, 19, 10, 6, 0, 48, 0, 0, 0, 0, 50, 62, 3, 0, 51, 0, 7, 0, 0, 0, 0
|0, 0, 0, 0, 0, 0, 0, 0, 0, 0, 58, 0, 57, 13, 0, 0, 0, 0, 0, 0, 0, 0, 21, 6, 0, 0, 62, 0, 0, 26, 0, 0, 0, 0, 0, 64, 0, 0, 0, 0, 9, 0, 0, 42, 0, 0, 44, 31, 0, 0, 0, 47, 0, 0, 60, 0, 0, 0, 32, 27, 35, 36, 0, 0
|0, 0, 0, 0, 0, 0, 0, 6, 0, 0, 51, 0, 2, 0, 0, 0, 0, 0, 0, 36, 24, 0, 0, 0, 0, 12, 0, 0, 0, 1, 0, 0, 0, 0, 0, 40, 0, 0, 0, 0, 0, 0, 25, 0, 10, 0, 0, 0, 0, 0, 0, 0, 44, 0, 0, 0, 0, 0, 0, 0, 0, 0, 0, 0
|0, 45, 0, 0, 0, 37, 0, 62, 0, 0, 0, 0, 0, 49, 0, 0, 0, 0, 0, 0, 0, 0, 54, 27, 0, 0, 0, 0, 0, 0, 0, 0, 16, 13, 0, 0, 0, 0, 0, 46, 0, 9, 0, 0, 0, 0, 0, 41, 0, 26, 0, 0, 0, 0, 0, 0, 0, 0, 51, 48, 23, 0, 0, 59
|0, 0, 0, 0, 38, 0, 0, 0, 0, 37, 61, 0, 55, 0, 59, 0, 0, 0, 51, 6, 12, 0, 0, 2, 49, 0, 17, 0, 0, 0, 0, 0, 5, 36, 43, 25, 0, 0, 0, 0, 0, 0, 0, 0, 44, 0, 0, 0, 0, 0, 0, 0, 0, 10, 0, 0, 0, 0, 0, 0, 19, 27, 0, 21
|0, 0, 0, 0, 0, 0, 0, 53, 0, 0, 11, 0, 0, 0, 42, 0, 0, 0, 16, 21, 0, 0, 0, 0, 0, 0, 10, 6, 0, 0, 0, 0, 45, 0, 0, 0, 0, 26, 0, 44, 0, 0, 0, 0, 2, 32, 29, 0, 0, 51, 0, 0, 0, 0, 0, 0, 12, 0, 0, 61, 50, 0, 56, 0
|42, 0, 0, 0, 0, 51, 0, 0, 0, 48, 0, 0, 0, 0, 52, 0, 0, 0, 0, 0, 0, 0, 41, 0, 22, 0, 0, 45, 0, 0, 0, 0, 31, 12, 33, 0, 29, 0, 0, 0, 0, 59, 49, 20, 0, 0, 0, 0, 0, 0, 54, 43, 0, 35, 0, 0, 46, 40, 0, 0, 0, 44, 0, 0
|47, 0, 0, 0, 0, 0, 0, 49, 0, 0, 23, 0, 0, 0, 0, 22, 0, 0, 42, 43, 0, 0, 0, 0, 11, 0, 0, 0, 0, 0, 0, 0, 0, 21, 0, 0, 0, 0, 0, 0, 26, 64, 0, 0, 0, 0, 0, 0, 0, 3, 0, 20, 0, 41, 0, 0, 0, 5, 2, 62, 0, 15, 0, 0
|0, 0, 10, 9, 44, 57, 0, 17, 34, 0, 0, 0, 0, 0, 0, 0, 0, 0, 25, 0, 0, 0, 49, 0, 0, 43, 0, 0, 0, 3, 59, 0, 0, 19, 0, 0, 47, 50, 0, 51, 21, 0, 0, 0, 0, 45, 0, 0, 0, 0, 0, 0, 0, 0, 0, 0, 1, 0, 0, 0, 0, 0, 0, 60
|0, 16, 0, 55, 4, 0, 0, 8, 7, 0, 0, 0, 0, 6, 0, 45, 0, 22, 0, 0, 0, 0, 0, 63, 0, 0, 60, 0, 0, 0, 34, 0, 0, 0, 0, 0, 0, 0, 56, 2, 0, 0, 11, 47, 0, 0, 27, 0, 0, 0, 13, 36, 0, 0, 31, 14, 0, 0, 53, 0, 37, 17, 0, 41
|0, 0, 0, 0, 0, 17, 10, 0, 0, 54, 0, 0, 0, 0, 48, 0, 0, 40, 9, 56, 23, 21, 57, 0, 0, 0, 0, 0, 0, 0, 0, 50, 0, 0, 0, 0, 59, 0, 13, 0, 24, 18, 55, 0, 0, 1, 0, 28, 0, 0, 2, 0, 0, 0, 0, 20, 0, 0, 0, 33, 45, 0, 0, 52
|0, 0, 0, 0, 0, 6, 35, 0, 0, 0, 57, 0, 0, 0, 0, 0, 0, 0, 34, 0, 0, 0, 42, 39, 62, 0, 0, 9, 0, 48, 10, 52, 0, 0, 0, 0, 0, 0, 0, 0, 0, 0, 0, 0, 0, 0, 25, 58, 0, 37, 0, 0, 0, 0, 0, 0, 0, 55, 0, 8, 26, 13, 0, 22
|0, 60, 0, 0, 0, 16, 0, 0, 58, 0, 0, 0, 0, 0, 0, 0, 0, 0, 0, 13, 0, 8, 0, 11, 0, 0, 0, 0, 0, 0, 0, 0, 0, 0, 0, 0, 0, 0, 27, 0, 0, 0, 12, 0, 0, 0, 0, 0, 0, 0, 43, 0, 1, 0, 0, 0, 0, 0, 0, 0, 0, 50, 38, 17
|0, 30, 0, 0, 0, 0, 61, 0, 0, 0, 0, 0, 26, 12, 0, 0, 0, 46, 0, 18, 0, 50, 0, 59, 0, 0, 0, 0, 0, 11, 0, 0, 41, 7, 0, 0, 55, 0, 0, 0, 0, 0, 0, 3, 0, 0, 0, 0, 0, 60, 0, 0, 52, 0, 0, 28, 0, 0, 0, 4, 0, 0, 0, 0
|24, 13, 0, 0, 49, 56, 7, 27, 0, 0, 0, 0, 36, 55, 0, 0, 0, 0, 0, 53, 0, 51, 64, 0, 0, 0, 0, 0, 31, 0, 39, 0, 0, 0, 0, 0, 0, 0, 0, 0, 8, 0, 50, 0, 33, 0, 0, 0, 0, 0, 0, 0, 0, 0, 0, 0, 57, 0, 0, 0, 0, 41, 0, 0
|0, 0, 0, 0, 0, 55, 0, 15, 0, 0, 0, 0, 9, 0, 0, 0, 63, 62, 0, 0, 10, 0, 0, 0, 47, 0, 0, 0, 0, 0, 6, 0, 0, 0, 0, 0, 0, 0, 0, 0, 0, 23, 0, 0, 0, 0, 0, 0, 0, 39, 3, 0, 0, 0, 0, 0, 58, 0, 11, 0, 30, 0, 0, 0
|0, 0, 0, 0, 0, 0, 0, 0, 0, 0, 0, 60, 29, 0, 30, 0, 0, 0, 0, 19, 0, 0, 0, 0, 20, 0, 25, 0, 24, 28, 3, 0, 0, 0, 64, 31, 45, 0, 0, 0, 0, 35, 0, 0, 0, 38, 0, 0, 0, 32, 0, 0, 50, 0, 0, 26, 0, 18, 0, 0, 34, 0, 0, 0
|11, 0, 51, 0, 57, 18, 3, 0, 62, 64, 0, 0, 45, 0, 0, 0, 0, 0, 0, 0, 0, 0, 16, 0, 54, 37, 40, 61, 0, 0, 33, 0, 30, 60, 0, 22, 56, 6, 0, 0, 7, 29, 0, 0, 0, 0, 43, 0, 0, 49, 0, 0, 4, 0, 10, 0, 0, 44, 27, 0, 0, 24, 0, 0
|0, 0, 0, 0, 0, 0, 0, 0, 0, 11, 0, 0, 0, 0, 14, 0, 0, 0, 0, 0, 20, 0, 0, 0, 0, 0, 0, 0, 0, 29, 0, 44, 0, 0, 0, 0, 0, 40, 60, 52, 34, 2, 0, 0, 0, 0, 0, 0, 0, 0, 0, 0, 0, 61, 0, 33, 0, 0, 0, 0, 0, 30, 0, 0
|0, 0, 0, 28, 0, 0, 47, 0, 0, 0, 30, 0, 0, 0, 5, 24, 0, 0, 15, 0, 0, 0, 40, 0, 0, 56, 55, 33, 0, 41, 0, 0, 0, 0, 0, 0, 0, 0, 0, 34, 58, 0, 0, 0, 45, 0, 0, 0, 0, 0, 0, 0, 39, 19, 54, 0, 0, 3, 0, 0, 0, 0, 0, 0
|36, 0, 35, 62, 0, 0, 37, 0, 16, 0, 64, 0, 0, 31, 0, 0, 0, 49, 0, 0, 33, 0, 0, 0, 0, 0, 24, 0, 0, 0, 0, 19, 42, 0, 0, 0, 0, 0, 10, 21, 0, 0, 0, 50, 41, 60, 0, 0, 0, 0, 0, 8, 0, 0, 0, 0, 0, 27, 17, 0, 0, 51, 18, 0
|0, 0, 2, 3, 0, 11, 0, 0, 0, 45, 0, 0, 60, 0, 32, 37, 0, 0, 0, 0, 63, 0, 62, 0, 12, 0, 0, 0, 0, 0, 58, 15, 0, 0, 0, 0, 0, 0, 0, 0, 0, 20, 10, 0, 0, 28, 0, 0, 0, 27, 49, 0, 0, 0, 0, 0, 0, 0, 0, 0, 0, 0, 0, 6
|0, 15, 0, 7, 0, 49, 0, 61, 0, 0, 0, 22, 8, 0, 0, 0, 0, 39, 0, 23, 6, 0, 0, 0, 0, 5, 0, 50, 0, 60, 57, 64, 0, 0, 0, 9, 0, 43, 24, 38, 0, 21, 63, 0, 0, 0, 12, 1, 0, 0, 0, 55, 11, 62, 0, 0, 59, 31, 0, 0, 58, 0, 0, 0
|0, 0, 0, 45, 13, 0, 0, 0, 0, 57, 0, 0, 0, 0, 0, 0, 0, 0, 0, 0, 0, 0, 50, 0, 0, 0, 54, 0, 0, 0, 11, 0, 0, 0, 0, 0, 0, 0, 0, 0, 0, 43, 0, 0, 0, 0, 17, 42, 58, 0, 0, 0, 0, 0, 0, 0, 0, 0, 62, 0, 46, 0, 0, 0
|0, 0, 1, 46, 0, 0, 0, 0, 0, 0, 0, 4, 0, 0, 23, 0, 0, 0, 57, 0, 0, 0, 0, 0, 0, 0, 0, 0, 0, 0, 0, 0, 0, 0, 58, 11, 0, 0, 0, 0, 0, 54, 29, 0, 0, 24, 0, 49, 41, 0, 0, 0, 0, 0, 52, 0, 0, 0, 0, 56, 0, 0, 14, 0
|0, 53, 0, 0, 0, 0, 0, 0, 0, 0, 0, 0, 25, 0, 0, 44, 0, 0, 0, 48, 0, 0, 43, 18, 14, 0, 0, 49, 4, 6, 0, 0, 0, 63, 0, 27, 0, 0, 0, 33, 0, 8, 0, 0, 59, 0, 0, 0, 0, 0, 0, 26, 10, 0, 45, 21, 60, 0, 19, 0, 0, 0, 22, 0
|0, 0, 0, 5, 0, 0, 0, 0, 0, 0, 26, 0, 1, 0, 0, 0, 35, 4, 0, 24, 0, 0, 10, 0, 0, 3, 0, 0, 0, 0, 0, 0, 0, 61, 0, 59, 0, 47, 0, 0, 0, 0, 0, 0, 0, 64, 0, 0, 2, 15, 0, 0, 0, 0, 0, 0, 0, 0, 52, 0, 60, 0, 51, 0
|0, 35, 0, 0, 26, 0, 0, 10, 51, 20, 0, 0, 16, 0, 0, 0, 0, 0, 50, 0, 0, 0, 25, 55, 0, 0, 0, 52, 0, 0, 0, 23, 0, 58, 0, 0, 0, 0, 0, 0, 0, 0, 0, 0, 17, 0, 0, 0, 0, 0, 0, 0, 0, 0, 0, 0, 0, 21, 0, 0, 0, 2, 0, 0
|0, 40, 0, 18, 0, 22, 0, 0, 0, 0, 0, 0, 46, 64, 0, 0, 0, 0, 53, 0, 17, 0, 19, 26, 48, 0, 0, 0, 0, 33, 0, 0, 0, 0, 0, 45, 43, 21, 0, 0, 0, 50, 0, 9, 7, 0, 0, 11, 0, 0, 0, 0, 0, 0, 0, 0, 0, 0, 58, 0, 0, 0, 0, 0
|0, 44, 62, 0, 0, 43, 0, 30, 0, 0, 56, 0, 0, 0, 0, 0, 0, 0, 21, 0, 0, 0, 0, 0, 0, 0, 64, 47, 27, 0, 0, 0, 0, 0, 0, 50, 6, 0, 0, 0, 57, 0, 0, 0, 0, 55, 0, 0, 0, 0, 16, 0, 29, 0, 0, 59, 0, 0, 0, 0, 39, 0, 24, 0
|0, 0, 15, 0, 60, 4, 0, 0, 0, 22, 0, 0, 34, 0, 0, 32, 0, 7, 0, 0, 0, 0, 0, 0, 24, 0, 50, 57, 0, 39, 0, 20, 44, 0, 0, 0, 8, 56, 0, 0, 16, 0, 19, 0, 0, 0, 0, 0, 0, 61, 0, 0, 6, 25, 0, 55, 5, 0, 54, 0, 0, 62, 0, 0
|0, 9, 7, 0, 0, 0, 0, 0, 0, 0, 4, 0, 33, 0, 17, 0, 0, 0, 0, 0, 0, 0, 0, 0, 0, 0, 19, 0, 0, 0, 15, 0, 62, 0, 0, 0, 0, 34, 0, 0, 0, 3, 24, 0, 0, 43, 0, 44, 0, 58, 0, 0, 60, 0, 39, 0, 0, 45, 13, 0, 0, 0, 59, 0
|0, 25, 0, 0, 0, 32, 0, 50, 0, 0, 0, 0, 0, 0, 0, 0, 0, 0, 0, 0, 0, 0, 11, 0, 0, 55, 22, 0, 18, 0, 0, 0, 0, 0, 0, 0, 0, 0, 0, 0, 40, 0, 60, 29, 0, 0, 0, 0, 46, 44, 34, 3, 0, 51, 0, 0, 41, 0, 30, 57, 43, 0, 15, 0
|0, 0, 0, 1, 0, 0, 0, 0, 0, 60, 21, 0, 0, 0, 0, 0, 0, 0, 0, 0, 0, 0, 0, 9, 0, 0, 58, 0, 0, 0, 25, 0, 0, 40, 0, 0, 0, 0, 0, 13, 0, 0, 0, 0, 42, 0, 0, 0, 33, 0, 24, 27, 0, 0, 35, 0, 0, 49, 0, 17, 7, 0, 48, 0
|0, 19, 0, 48, 21, 0, 0, 0, 57, 38, 0, 3, 0, 4, 0, 0, 0, 0, 59, 34, 0, 0, 0, 0, 0, 0, 0, 0, 22, 0, 41, 0, 0, 0, 36, 0, 0, 0, 0, 0, 0, 0, 0, 0, 0, 0, 0, 0, 0, 0, 0, 62, 0, 0, 0, 0, 0, 0, 0, 0, 0, 0, 0, 0
|0, 0, 0, 0, 0, 0, 0, 0, 0, 0, 0, 36, 17, 18, 7, 0, 0, 0, 0, 0, 0, 0, 0, 0, 0, 0, 35, 26, 0, 0, 0, 12, 0, 47, 0, 0, 0, 0, 0, 0, 63, 16, 0, 39, 23, 0, 0, 0, 0, 0, 31, 0, 0, 21, 0, 0, 24, 0, 0, 38, 40, 0, 29, 58
|0, 57, 0, 11, 0, 0, 18, 0, 0, 0, 0, 0, 0, 19, 0, 0, 0, 0, 0, 2, 0, 0, 0, 0, 0, 0, 0, 0, 0, 0, 0, 0, 0, 54, 0, 21, 7, 0, 0, 0, 37, 15, 0, 58, 28, 0, 3, 0, 0, 0, 0, 4, 0, 0, 0, 48, 0, 32, 0, 0, 0, 52, 0, 0
|14, 0, 0, 0, 0, 60, 59, 58, 40, 0, 41, 51, 0, 46, 0, 0, 0, 0, 0, 0, 0, 0, 0, 0, 17, 0, 0, 0, 0, 0, 53, 0, 38, 0, 13, 29, 0, 49, 30, 0, 0, 24, 0, 0, 55, 0, 26, 50, 0, 56, 0, 0, 0, 0, 33, 0, 0, 0, 48, 0, 0, 19, 44, 0
|0, 41, 0, 10, 0, 0, 0, 0, 45, 56, 16, 24, 0, 23, 53, 0, 27, 0, 0, 0, 0, 0, 52, 0, 0, 0, 42, 25, 0, 0, 13, 0, 28, 0, 0, 0, 0, 14, 59, 0, 0, 0, 0, 54, 0, 46, 0, 0, 0, 0, 57, 0, 0, 0, 0, 0, 0, 0, 0, 2, 0, 0, 0, 0
|0, 0, 38, 17, 0, 0, 0, 0, 0, 0, 55, 0, 0, 39, 8, 12, 0, 21, 0, 0, 0, 0, 0, 25, 50, 0, 11, 0, 0, 0, 0, 57, 2, 0, 60, 0, 40, 0, 0, 0, 0, 0, 0, 36, 0, 0, 45, 0, 0, 0, 52, 41, 20, 0, 1, 0, 0, 16, 3, 0, 0, 0, 0, 0
|0, 0, 0, 54, 1, 0, 50, 0, 0, 0, 0, 33, 0, 0, 0, 0, 0, 18, 0, 0, 0, 0, 0, 0, 0, 0, 36, 0, 0, 0, 55, 0, 56, 41, 0, 0, 63, 58, 51, 31, 0, 0, 0, 25, 0, 57, 0, 0, 45, 0, 32, 0, 13, 0, 40, 0, 43, 12, 0, 0, 0, 0, 34, 0
|0, 0, 8, 0, 0, 0, 0, 12, 0, 34, 13, 0, 58, 0, 0, 48, 0, 0, 0, 0, 44, 33, 0, 17, 0, 40, 0, 0, 0, 0, 1, 7, 0, 0, 52, 0, 0, 0, 0, 0, 0, 56, 41, 0, 0, 0, 42, 10, 0, 0, 0, 0, 0, 0, 0, 0, 54, 0, 47, 0, 9, 53, 0, 0
|18, 0, 0, 64, 0, 14, 0, 0, 48, 0, 0, 0, 0, 0, 0, 0, 0, 0, 33, 61, 0, 0, 0, 12, 10, 0, 0, 0, 0, 0, 9, 11, 0, 0, 29, 58, 0, 0, 0, 0, 0, 44, 38, 0, 0, 50, 0, 0, 0, 0, 0, 0, 8, 0, 0, 0, 63, 57, 0, 42, 0, 0, 36, 0
|0, 48, 0, 0, 0, 0, 0, 20, 0, 0, 0, 0, 12, 43, 0, 0, 0, 0, 58, 0, 0, 0, 0, 5, 0, 63, 37, 64, 0, 0, 26, 0, 0, 46, 0, 0, 0, 38, 0, 49, 33, 0, 0, 62, 0, 0, 0, 27, 0, 0, 0, 0, 0, 0, 0, 18, 0, 0, 0, 19, 0, 0, 0, 0
|0, 0, 0, 0, 0, 45, 0, 0, 0, 0, 0, 0, 0, 0, 0, 0, 0, 0, 0, 0, 40, 39, 0, 0, 0, 7, 0, 0, 50, 0, 0, 0, 0, 0, 57, 0, 0, 15, 9, 0, 0, 34, 0, 0, 0, 0, 0, 0, 0, 0, 0, 0, 0, 0, 0, 63, 0, 28, 0, 0, 22, 0, 37, 0
|23, 55, 0, 0, 0, 0, 0, 0, 0, 0, 5, 0, 0, 0, 0, 0, 0, 24, 41, 17, 0, 0, 0, 0, 61, 62, 0, 0, 0, 0, 43, 0, 0, 11, 0, 36, 0, 0, 0, 25, 47, 0, 42, 0, 0, 0, 31, 0, 49, 22, 0, 0, 0, 12, 0, 0, 0, 8, 0, 0, 0, 0, 0, 0
|4, 10, 0, 0, 0, 62, 0, 0, 53, 0, 32, 0, 0, 25, 0, 0, 0, 0, 0, 0, 0, 0, 34, 0, 0, 0, 0, 0, 0, 0, 0, 0, 0, 0, 0, 0, 0, 63, 0, 0, 0, 0, 0, 0, 0, 0, 14, 29, 0, 0, 0, 0, 55, 0, 0, 0, 0, 26, 39, 0, 47, 56, 46, 0
|0, 12, 29, 0, 0, 0, 0, 0, 0, 0, 0, 6, 0, 0, 0, 18, 0, 0, 0, 0, 0, 0, 7, 21, 0, 0, 0, 0, 0, 0, 19, 58, 0, 0, 0, 0, 62, 64, 0, 0, 0, 0, 0, 0, 22, 0, 0, 0, 0, 0, 0, 14, 0, 16, 34, 0, 0, 0, 0, 43, 59, 35, 2, 0
|0, 63, 0, 0, 59, 3, 0, 0, 4, 30, 31, 0, 0, 0, 46, 0, 0, 0, 0, 64, 0, 0, 0, 0, 35, 0, 0, 24, 0, 0, 0, 0, 0, 6, 0, 0, 0, 0, 0, 0, 0, 0, 0, 0, 0, 0, 7, 0, 0, 0, 0, 0, 0, 0, 0, 0, 0, 0, 0, 15, 11, 0, 0, 0
|0, 0, 11, 0, 0, 0, 57, 56, 10, 61, 0, 0, 0, 0, 64, 0, 62, 25, 0, 4, 0, 0, 0, 0, 0, 0, 0, 0, 0, 0, 0, 36, 47, 0, 0, 0, 39, 0, 0, 12, 0, 0, 0, 0, 58, 41, 0, 53, 0, 48, 20, 0, 0, 0, 0, 27, 0, 0, 0, 34, 0, 0, 0, 0|];