order = 8;
grid = [|17, 0, 0, 39, 2, 0, 0, 34, 0, 0, 0, 1, 57, 0, 0, 0, 0, 5, 55, 0, 0, 0, 0, 0, 0, 59, 0, 0, 0, 0, 0, 0, 0, 50, 0, 0, 0, 0, 0, 38, 0, 0, 24, 15, 0, 0, 40, 46, 64, 0, 0, 0, 0, 36, 0, 12, 0, 45, 0, 20, 28, 0, 52, 0
|0, 0, 8, 54, 0, 0, 44, 0, 0, 40, 0, 0, 0, 0, 0, 0, 0, 0, 0, 0, 52, 3, 0, 0, 45, 0, 0, 22, 0, 0, 0, 25, 35, 28, 41, 0, 0, 48, 31, 0, 0, 0, 0, 0, 0, 0, 0, 0, 0, 0, 0, 0, 0, 0, 0, 0, 5, 51, 0, 0, 0, 0, 32, 0
|0, 63, 47, 0, 45, 0, 42, 0, 54, 27, 0, 0, 0, 62, 0, 0, 0, 0, 2, 0, 41, 10, 22, 32, 0, 0, 51, 0, 11, 0, 0, 0, 18, 0, 7, 14, 36, 0, 0, 39, 0, 0, 0, 0, 0, 0, 0, 0, 0, 0, 0, 0, 0, 0, 0, 20, 0, 0, 37, 0, 0, 0, 17, 0
|0, 7, 0, 0, 0, 4, 0, 0, 0, 0, 0, 0, 0, 0, 0, 0, 0, 0, 28, 48, 0, 26, 0, 35, 0, 44, 0, 0, 0, 0, 52, 58, 0, 0, 0, 0, 0, 0, 0, 0, 0, 8, 0, 0, 0, 0, 0, 0, 0, 61, 0, 0, 24, 39, 0, 22, 14, 36, 0, 9, 0, 0, 56, 43
|0, 0, 0, 0, 25, 31, 48, 38, 19, 0, 0, 0, 0, 0, 0, 0, 0, 0, 0, 0, 0, 24, 0, 0, 0, 0, 0, 0, 54, 0, 28, 0, 11, 0, 0, 63, 0, 0, 10, 47, 0, 0, 0, 0, 57, 0, 0, 0, 0, 50, 0, 0, 2, 0, 16, 0, 7, 0, 0, 8, 0, 55, 0, 0
|0, 10, 0, 0, 16, 0, 0, 40, 0, 0, 0, 0, 0, 3, 28, 0, 64, 0, 0, 0, 0, 0, 0, 0, 0, 0, 0, 36, 0, 0, 0, 0, 27, 0, 33, 22, 55, 0, 0, 0, 0, 0, 0, 0, 60, 0, 43, 0, 30, 0, 0, 0, 44, 47, 0, 0, 13, 0, 0, 0, 0, 0, 39, 0
|0, 0, 0, 0, 64, 0, 0, 0, 0, 0, 0, 17, 16, 0, 0, 49, 0, 36, 0, 0, 57, 0, 63, 39, 0, 0, 0, 33, 29, 0, 0, 0, 54, 42, 3, 21, 0, 0, 0, 0, 13, 0, 0, 22, 50, 37, 0, 0, 0, 0, 0, 34, 0, 0, 0, 14, 0, 0, 0, 0, 47, 0, 60, 0
|0, 0, 0, 37, 0, 60, 0, 0, 0, 52, 55, 0, 34, 0, 0, 7, 0, 0, 0, 0, 31, 0, 0, 0, 47, 43, 0, 0, 0, 0, 0, 0, 0, 6, 0, 0, 29, 0, 0, 0, 0, 0, 0, 0, 61, 0, 0, 0, 0, 0, 10, 0, 0, 45, 0, 0, 53, 0, 0, 0, 0, 0, 0, 27
|0, 4, 0, 0, 0, 0, 7, 0, 0, 0, 0, 12, 43, 0, 0, 0, 0, 0, 0, 0, 0, 0, 39, 0, 0, 49, 0, 0, 0, 57, 0, 30, 0, 40, 11, 16, 0, 0, 0, 52, 32, 0, 0, 3, 0, 0, 0, 0, 0, 31, 0, 48, 0, 0, 0, 27, 0, 0, 0, 0, 0, 18, 0, 0
|0, 0, 0, 0, 0, 0, 5, 0, 0, 55, 28, 0, 0, 0, 35, 0, 0, 0, 0, 0, 0, 0, 0, 0, 60, 41, 0, 0, 0, 0, 0, 0, 0, 0, 0, 0, 0, 0, 58, 0, 0, 17, 15, 0, 0, 10, 0, 0, 0, 0, 0, 0, 0, 0, 0, 2, 0, 0, 0, 0, 37, 25, 30, 0
|0, 0, 0, 47, 0, 52, 0, 22, 13, 0, 0, 58, 0, 51, 0, 0, 0, 0, 0, 0, 0, 0, 59, 7, 0, 0, 0, 0, 0, 0, 3, 45, 0, 0, 0, 0, 34, 0, 0, 15, 0, 0, 0, 0, 0, 25, 0, 0, 0, 28, 0, 0, 0, 0, 0, 62, 54, 0, 0, 0, 0, 0, 2, 0
|0, 0, 0, 0, 0, 0, 0, 0, 11, 46, 0, 0, 47, 18, 0, 0, 0, 0, 51, 0, 0, 0, 0, 0, 0, 63, 0, 0, 0, 0, 61, 28, 0, 0, 0, 29, 0, 0, 53, 0, 0, 22, 35, 0, 58, 0, 0, 0, 0, 0, 40, 0, 0, 0, 0, 0, 0, 0, 59, 31, 0, 52, 0, 1
|44, 0, 0, 0, 0, 0, 18, 0, 0, 0, 48, 0, 52, 49, 0, 0, 0, 0, 58, 31, 28, 1, 0, 0, 0, 5, 0, 0, 47, 14, 0, 27, 0, 0, 0, 12, 24, 0, 0, 0, 0, 56, 0, 0, 0, 0, 0, 0, 53, 60, 0, 37, 64, 0, 0, 0, 0, 0, 0, 0, 0, 0, 15, 0
|20, 0, 0, 29, 0, 0, 0, 43, 0, 14, 0, 0, 0, 27, 0, 0, 0, 0, 56, 0, 6, 0, 41, 0, 18, 0, 0, 55, 0, 0, 0, 0, 0, 0, 36, 25, 0, 0, 3, 0, 0, 0, 40, 0, 0, 0, 0, 0, 0, 0, 0, 0, 0, 58, 0, 0, 0, 0, 62, 0, 0, 0, 0, 0
|0, 0, 0, 0, 0, 59, 0, 36, 0, 3, 0, 2, 56, 0, 57, 0, 15, 0, 52, 0, 0, 0, 0, 0, 0, 0, 20, 0, 1, 0, 0, 0, 0, 0, 47, 0, 0, 0, 0, 17, 0, 0, 27, 0, 13, 61, 29, 0, 0, 0, 0, 0, 0, 0, 14, 0, 16, 22, 0, 0, 0, 41, 0, 5
|0, 0, 0, 60, 10, 0, 0, 0, 0, 23, 0, 0, 0, 0, 0, 0, 0, 0, 0, 0, 36, 20, 0, 34, 0, 26, 0, 0, 0, 0, 0, 8, 64, 0, 2, 0, 0, 9, 27, 0, 45, 0, 0, 59, 0, 0, 0, 0, 35, 0, 0, 1, 43, 5, 0, 0, 58, 14, 0, 0, 0, 0, 0, 0
|50, 8, 0, 0, 63, 0, 31, 0, 64, 0, 0, 0, 0, 23, 34, 60, 36, 0, 0, 0, 0, 0, 0, 0, 0, 0, 6, 0, 0, 0, 20, 0, 0, 0, 0, 0, 0, 0, 0, 0, 0, 0, 32, 0, 0, 0, 0, 0, 5, 0, 0, 0, 0, 0, 0, 0, 0, 17, 0, 0, 0, 0, 14, 18
|0, 0, 0, 33, 20, 0, 0, 26, 0, 0, 0, 0, 0, 0, 0, 0, 29, 22, 0, 0, 0, 35, 34, 0, 31, 0, 0, 0, 0, 28, 0, 0, 0, 8, 51, 0, 0, 17, 0, 0, 0, 0, 0, 55, 0, 9, 0, 0, 0, 0, 25, 12, 10, 0, 0, 0, 0, 58, 3, 0, 0, 0, 0, 40
|0, 0, 0, 34, 0, 0, 0, 0, 12, 0, 0, 0, 0, 0, 0, 37, 0, 0, 0, 0, 46, 32, 0, 0, 0, 0, 0, 0, 0, 0, 0, 0, 61, 0, 59, 0, 0, 0, 14, 0, 15, 0, 22, 0, 56, 0, 0, 0, 0, 0, 0, 0, 0, 0, 0, 0, 0, 0, 33, 0, 7, 0, 0, 0
|0, 0, 0, 0, 37, 0, 38, 0, 0, 0, 39, 0, 0, 58, 0, 46, 0, 17, 0, 0, 0, 0, 56, 45, 0, 15, 0, 54, 0, 0, 0, 0, 0, 0, 18, 0, 42, 27, 0, 0, 0, 0, 0, 2, 16, 35, 3, 0, 0, 0, 0, 0, 0, 0, 0, 0, 0, 50, 0, 0, 13, 0, 0, 0
|12, 0, 0, 0, 0, 0, 56, 44, 0, 0, 31, 0, 51, 0, 0, 48, 0, 0, 16, 42, 0, 0, 0, 11, 0, 0, 0, 27, 0, 0, 0, 0, 5, 0, 0, 0, 4, 41, 0, 0, 0, 0, 20, 0, 39, 0, 0, 0, 9, 0, 0, 0, 0, 32, 0, 0, 22, 0, 0, 0, 0, 10, 0, 0
|0, 0, 0, 0, 0, 0, 58, 16, 0, 17, 0, 0, 0, 0, 0, 0, 0, 0, 41, 52, 0, 0, 0, 0, 0, 9, 55, 1, 60, 0, 26, 0, 2, 0, 49, 0, 0, 57, 0, 0, 0, 0, 0, 0, 0, 0, 0, 0, 56, 0, 0, 0, 0, 0, 42, 0, 0, 0, 6, 0, 0, 19, 0, 47
|0, 0, 0, 15, 0, 41, 0, 32, 0, 0, 0, 0, 24, 44, 0, 4, 0, 39, 0, 0, 10, 0, 0, 0, 0, 0, 0, 0, 0, 0, 0, 0, 0, 55, 0, 0, 28, 29, 0, 0, 0, 0, 0, 0, 0, 46, 60, 0, 0, 0, 64, 2, 7, 0, 17, 0, 49, 26, 0, 0, 0, 0, 5, 0
|7, 0, 0, 2, 0, 0, 0, 54, 0, 22, 53, 0, 42, 5, 0, 0, 0, 0, 0, 0, 0, 58, 0, 0, 21, 0, 45, 0, 0, 35, 34, 0, 0, 0, 0, 0, 0, 44, 0, 33, 18, 0, 0, 0, 0, 0, 0, 0, 0, 0, 63, 0, 0, 0, 0, 19, 36, 56, 0, 0, 59, 0, 41, 0
|0, 0, 9, 0, 0, 0, 50, 0, 0, 0, 0, 49, 0, 11, 0, 52, 0, 0, 0, 0, 19, 0, 0, 27, 0, 0, 0, 0, 8, 59, 0, 0, 0, 0, 0, 0, 0, 0, 2, 0, 0, 15, 28, 0, 0, 0, 0, 0, 32, 29, 0, 16, 0, 0, 0, 60, 10, 1, 0, 46, 42, 0, 0, 0
|0, 0, 0, 0, 40, 0, 0, 0, 51, 48, 0, 61, 0, 0, 0, 0, 37, 0, 0, 0, 0, 16, 31, 0, 62, 28, 9, 18, 0, 0, 0, 55, 0, 0, 0, 0, 0, 0, 43, 0, 0, 0, 0, 0, 0, 34, 57, 0, 12, 0, 0, 25, 41, 0, 6, 21, 0, 0, 0, 0, 0, 8, 0, 0
|0, 14, 28, 18, 0, 0, 0, 0, 0, 10, 0, 0, 29, 0, 0, 40, 0, 59, 0, 0, 0, 0, 0, 0, 0, 7, 42, 0, 0, 0, 0, 60, 17, 9, 62, 0, 0, 0, 0, 41, 0, 48, 0, 0, 0, 0, 0, 0, 0, 20, 0, 0, 0, 0, 0, 0, 0, 0, 0, 36, 0, 0, 0, 0
|0, 0, 0, 57, 11, 0, 16, 0, 0, 0, 0, 0, 0, 0, 0, 0, 0, 0, 0, 7, 0, 9, 0, 61, 0, 4, 0, 0, 0, 0, 0, 22, 39, 0, 31, 49, 3, 18, 0, 0, 0, 33, 5, 0, 0, 30, 45, 0, 0, 0, 0, 26, 53, 0, 0, 43, 0, 0, 0, 0, 0, 0, 0, 0
|0, 0, 0, 0, 27, 1, 21, 0, 0, 31, 0, 0, 0, 0, 0, 6, 0, 0, 0, 62, 0, 0, 0, 0, 0, 0, 0, 0, 0, 0, 32, 11, 0, 51, 0, 0, 0, 0, 7, 0, 4, 0, 0, 0, 0, 50, 0, 0, 0, 0, 0, 0, 0, 10, 30, 18, 0, 0, 0, 13, 0, 0, 29, 0
|0, 0, 0, 0, 0, 0, 0, 0, 0, 0, 14, 32, 0, 0, 0, 0, 0, 0, 0, 20, 60, 51, 0, 0, 0, 0, 0, 58, 38, 0, 0, 0, 0, 0, 57, 11, 21, 0, 0, 0, 62, 0, 0, 0, 0, 1, 0, 0, 0, 24, 35, 0, 0, 0, 50, 42, 0, 0, 0, 0, 27, 0, 0, 0
|0, 0, 0, 0, 0, 53, 55, 0, 28, 0, 7, 0, 0, 0, 0, 0, 0, 0, 10, 47, 54, 0, 0, 22, 50, 0, 0, 56, 0, 41, 0, 21, 0, 12, 0, 48, 0, 0, 0, 0, 0, 0, 0, 61, 0, 24, 0, 60, 0, 0, 0, 0, 0, 0, 0, 0, 0, 0, 0, 35, 0, 0, 16, 57
|0, 0, 0, 0, 0, 23, 37, 0, 30, 0, 0, 0, 0, 0, 0, 0, 0, 0, 29, 0, 0, 0, 45, 0, 46, 0, 0, 0, 31, 0, 19, 0, 0, 34, 0, 0, 0, 0, 63, 0, 12, 53, 0, 47, 0, 0, 51, 0, 0, 40, 0, 11, 0, 0, 0, 59, 0, 0, 0, 0, 0, 0, 3, 0
|24, 31, 27, 63, 0, 0, 0, 0, 0, 11, 0, 5, 0, 0, 0, 35, 26, 0, 1, 23, 0, 0, 44, 30, 0, 0, 0, 0, 0, 0, 0, 0, 0, 0, 0, 0, 47, 34, 0, 0, 0, 2, 0, 19, 0, 0, 49, 0, 0, 0, 0, 0, 0, 0, 0, 0, 0, 6, 7, 55, 0, 0, 0, 42
|53, 0, 0, 0, 56, 0, 0, 0, 0, 0, 0, 0, 41, 0, 55, 0, 0, 0, 0, 32, 0, 8, 0, 51, 13, 0, 19, 0, 43, 0, 0, 49, 0, 0, 0, 0, 46, 62, 6, 0, 0, 0, 0, 0, 24, 0, 0, 0, 4, 0, 0, 52, 0, 64, 0, 0, 0, 0, 0, 0, 0, 11, 34, 0
|0, 0, 2, 38, 0, 46, 0, 0, 0, 21, 29, 0, 0, 0, 39, 0, 24, 0, 0, 0, 62, 0, 0, 0, 0, 0, 0, 0, 27, 0, 0, 0, 30, 0, 0, 0, 0, 0, 26, 0, 0, 52, 0, 0, 0, 31, 0, 0, 20, 7, 0, 0, 0, 0, 0, 6, 0, 0, 9, 0, 44, 0, 0, 0
|0, 47, 0, 40, 0, 0, 0, 21, 0, 0, 60, 0, 0, 0, 0, 0, 0, 0, 0, 34, 0, 5, 0, 55, 0, 0, 0, 0, 0, 36, 0, 46, 0, 0, 50, 0, 0, 0, 0, 0, 14, 0, 0, 0, 32, 0, 13, 0, 0, 0, 0, 0, 0, 3, 0, 0, 24, 0, 0, 45, 0, 1, 53, 0
|33, 0, 0, 11, 0, 0, 4, 3, 8, 0, 0, 0, 0, 0, 0, 0, 0, 0, 0, 14, 0, 0, 0, 0, 5, 30, 0, 38, 0, 0, 0, 53, 0, 0, 0, 0, 32, 64, 0, 25, 0, 0, 0, 0, 0, 15, 0, 0, 0, 0, 0, 9, 60, 0, 39, 0, 0, 0, 20, 0, 0, 46, 0, 0
|0, 5, 23, 0, 42, 0, 0, 0, 0, 15, 0, 0, 0, 0, 0, 0, 0, 0, 0, 0, 0, 0, 0, 38, 1, 0, 0, 0, 0, 20, 0, 0, 0, 0, 0, 0, 0, 0, 0, 0, 0, 0, 45, 0, 0, 0, 0, 0, 25, 0, 0, 0, 0, 63, 0, 47, 43, 57, 0, 0, 0, 32, 40, 0
|0, 0, 29, 0, 0, 0, 12, 0, 49, 47, 0, 0, 0, 0, 18, 0, 61, 0, 0, 0, 0, 13, 0, 0, 0, 42, 7, 60, 37, 0, 0, 17, 0, 0, 0, 0, 19, 8, 0, 20, 0, 0, 0, 1, 0, 0, 0, 0, 0, 0, 58, 36, 55, 0, 0, 41, 56, 0, 0, 21, 0, 23, 31, 2
|0, 1, 0, 0, 54, 43, 0, 0, 0, 0, 0, 63, 0, 19, 0, 0, 0, 0, 0, 0, 0, 29, 0, 0, 0, 21, 0, 0, 0, 0, 31, 0, 0, 0, 10, 0, 0, 0, 23, 0, 35, 0, 0, 0, 0, 0, 34, 0, 0, 0, 32, 0, 0, 0, 46, 0, 28, 0, 5, 0, 14, 39, 0, 0
|0, 0, 0, 0, 0, 0, 8, 0, 0, 49, 0, 0, 39, 0, 11, 44, 0, 6, 0, 0, 0, 0, 0, 2, 0, 47, 0, 0, 51, 0, 0, 0, 16, 0, 48, 0, 13, 22, 0, 28, 0, 0, 0, 0, 0, 0, 0, 20, 0, 0, 52, 0, 50, 40, 0, 0, 0, 0, 0, 0, 29, 14, 33, 0
|0, 9, 54, 0, 53, 0, 0, 0, 0, 0, 0, 0, 0, 33, 0, 50, 0, 57, 15, 0, 58, 0, 35, 0, 0, 62, 0, 0, 0, 0, 0, 0, 0, 0, 0, 17, 51, 0, 0, 0, 0, 32, 0, 13, 48, 0, 0, 0, 0, 45, 0, 43, 14, 0, 25, 0, 0, 0, 28, 0, 0, 0, 0, 20
|0, 0, 60, 0, 49, 0, 0, 0, 0, 0, 59, 0, 26, 0, 51, 41, 0, 0, 0, 10, 0, 0, 0, 0, 0, 0, 39, 17, 30, 0, 0, 0, 0, 0, 0, 0, 0, 0, 0, 0, 52, 0, 55, 62, 0, 58, 0, 0, 0, 0, 34, 0, 46, 0, 0, 31, 64, 0, 0, 0, 32, 0, 0, 53
|29, 0, 0, 61, 36, 50, 0, 0, 0, 0, 0, 0, 0, 0, 0, 34, 0, 0, 0, 0, 13, 52, 0, 3, 0, 8, 18, 0, 0, 0, 0, 57, 49, 0, 1, 0, 0, 0, 0, 0, 56, 0, 0, 0, 0, 14, 0, 0, 0, 42, 0, 0, 20, 0, 0, 0, 0, 0, 17, 62, 0, 16, 0, 48
|0, 0, 0, 22, 0, 0, 0, 0, 0, 1, 42, 0, 23, 0, 0, 0, 0, 21, 32, 0, 0, 0, 4, 0, 0, 0, 0, 0, 0, 0, 0, 63, 0, 0, 53, 24, 44, 0, 0, 0, 0, 0, 0, 0, 0, 0, 0, 0, 0, 0, 0, 8, 0, 0, 0, 0, 40, 0, 15, 0, 0, 0, 0, 6
|40, 0, 46, 24, 57, 0, 0, 0, 36, 0, 0, 31, 0, 43, 0, 0, 0, 55, 0, 0, 0, 0, 19, 0, 0, 0, 0, 0, 0, 0, 0, 0, 6, 0, 0, 0, 12, 58, 41, 0, 0, 0, 0, 0, 0, 8, 0, 0, 0, 54, 0, 17, 0, 0, 47, 53, 60, 0, 21, 0, 0, 0, 0, 0
|18, 41, 0, 20, 0, 0, 13, 30, 47, 19, 0, 0, 60, 14, 7, 0, 0, 0, 0, 37, 0, 0, 29, 0, 42, 0, 0, 0, 0, 0, 55, 61, 0, 0, 0, 0, 0, 0, 0, 0, 0, 1, 0, 0, 0, 0, 0, 0, 0, 0, 22, 49, 0, 0, 0, 0, 50, 9, 0, 27, 0, 24, 0, 0
|0, 0, 39, 44, 0, 16, 0, 0, 0, 25, 0, 0, 0, 0, 0, 0, 11, 0, 0, 0, 0, 0, 0, 0, 0, 0, 0, 0, 0, 49, 0, 0, 0, 0, 0, 0, 23, 0, 0, 0, 0, 0, 0, 0, 0, 63, 0, 24, 0, 0, 0, 30, 0, 0, 0, 0, 0, 31, 0, 7, 22, 5, 0, 0
|8, 56, 0, 43, 35, 40, 0, 0, 0, 0, 18, 0, 0, 0, 0, 45, 21, 58, 64, 30, 0, 0, 32, 0, 0, 0, 0, 0, 0, 25, 37, 0, 0, 0, 0, 59, 0, 28, 0, 27, 0, 0, 0, 7, 0, 0, 62, 0, 0, 15, 0, 14, 0, 0, 0, 0, 0, 0, 60, 22, 0, 6, 0, 4
|0, 0, 36, 0, 60, 0, 0, 0, 0, 0, 0, 8, 0, 0, 0, 28, 0, 0, 39, 0, 61, 0, 0, 0, 27, 0, 0, 0, 0, 0, 0, 0, 10, 33, 0, 44, 62, 0, 0, 0, 0, 0, 0, 0, 46, 52, 0, 21, 0, 0, 0, 0, 0, 16, 0, 0, 0, 35, 31, 0, 0, 34, 23, 0
|41, 0, 0, 0, 0, 0, 10, 0, 31, 0, 23, 0, 0, 0, 0, 0, 0, 0, 0, 46, 0, 0, 0, 0, 38, 60, 35, 0, 59, 42, 0, 0, 0, 0, 34, 0, 0, 50, 0, 0, 0, 0, 43, 16, 0, 0, 24, 8, 58, 0, 0, 40, 0, 0, 0, 0, 0, 0, 0, 0, 26, 0, 0, 0
|0, 0, 64, 0, 0, 0, 45, 0, 0, 50, 0, 0, 0, 26, 0, 0, 0, 0, 0, 0, 0, 0, 0, 9, 0, 14, 0, 0, 0, 8, 0, 34, 0, 2, 21, 0, 17, 20, 49, 0, 6, 38, 0, 0, 22, 0, 0, 0, 0, 0, 30, 0, 51, 0, 0, 0, 0, 0, 0, 5, 0, 0, 0, 0
|0, 0, 0, 0, 0, 26, 14, 0, 60, 9, 0, 0, 0, 0, 0, 0, 0, 0, 11, 0, 0, 0, 24, 29, 20, 0, 0, 0, 0, 0, 40, 2, 42, 0, 0, 0, 0, 0, 0, 0, 50, 0, 0, 0, 51, 0, 41, 0, 0, 0, 0, 0, 0, 0, 0, 0, 0, 0, 0, 0, 21, 0, 0, 0
|30, 0, 0, 0, 24, 28, 0, 52, 0, 0, 0, 0, 0, 0, 0, 47, 0, 0, 0, 60, 0, 0, 0, 0, 0, 45, 22, 50, 0, 0, 0, 0, 55, 0, 54, 7, 0, 0, 0, 0, 10, 0, 44, 0, 0, 23, 0, 0, 13, 0, 0, 29, 0, 0, 62, 0, 0, 0, 0, 0, 0, 0, 0, 0
|0, 0, 0, 31, 0, 0, 0, 0, 0, 0, 0, 0, 0, 22, 0, 0, 34, 13, 0, 0, 0, 59, 18, 12, 0, 0, 15, 0, 0, 0, 21, 0, 4, 0, 38, 0, 0, 0, 35, 0, 48, 0, 0, 0, 0, 0, 0, 0, 0, 0, 36, 10, 1, 0, 64, 0, 0, 42, 0, 0, 0, 0, 55, 0
|0, 62, 13, 0, 0, 55, 0, 0, 0, 0, 0, 0, 12, 0, 17, 0, 0, 0, 57, 0, 0, 0, 49, 0, 0, 0, 58, 41, 0, 7, 0, 0, 8, 0, 0, 0, 0, 0, 0, 0, 0, 60, 0, 0, 0, 0, 1, 15, 44, 22, 0, 0, 0, 0, 0, 0, 48, 0, 0, 59, 0, 0, 0, 0
|0, 0, 0, 0, 0, 0, 0, 0, 10, 0, 0, 0, 0, 64, 0, 0, 0, 0, 0, 0, 0, 25, 0, 0, 0, 0, 0, 0, 0, 0, 36, 0, 0, 0, 60, 2, 0, 0, 0, 0, 37, 18, 0, 0, 43, 40, 0, 0, 0, 0, 0, 0, 0, 0, 0, 0, 0, 0, 0, 0, 0, 0, 0, 19
|0, 0, 0, 0, 0, 48, 52, 53, 18, 0, 0, 0, 0, 25, 6, 0, 58, 0, 0, 0, 0, 0, 15, 0, 32, 61, 0, 0, 0, 24, 0, 43, 0, 0, 0, 38, 0, 55, 47, 62, 22, 0, 0, 0, 0, 0, 56, 0, 0, 0, 0, 0, 37, 0, 0, 0, 0, 0, 0, 0, 0, 7, 0, 0
|0, 0, 56, 0, 41, 0, 28, 2, 0, 0, 0, 14, 0, 0, 0, 0, 0, 19, 0, 0, 0, 44, 0, 10, 0, 0, 0, 0, 0, 0, 0, 0, 32, 0, 16, 42, 0, 35, 0, 0, 0, 0, 0, 60, 0, 0, 0, 17, 0, 0, 0, 27, 0, 0, 7, 0, 30, 0, 0, 0, 0, 26, 61, 62
|0, 0, 0, 0, 0, 0, 0, 60, 0, 54, 0, 41, 0, 8, 0, 0, 0, 47, 0, 0, 0, 55, 0, 0, 0, 0, 0, 0, 0, 0, 22, 0, 0, 56, 0, 28, 0, 0, 15, 57, 0, 0, 46, 32, 0, 0, 20, 0, 0, 0, 0, 0, 0, 0, 53, 4, 44, 12, 0, 0, 0, 0, 0, 0
|11, 26, 0, 0, 21, 0, 30, 0, 0, 44, 47, 0, 0, 39, 0, 0, 0, 0, 0, 0, 0, 0, 0, 0, 14, 0, 0, 0, 0, 63, 57, 0, 0, 0, 8, 0, 0, 0, 20, 5, 2, 7, 52, 0, 1, 0, 10, 0, 0, 55, 0, 60, 17, 61, 0, 0, 0, 0, 51, 0, 0, 42, 50, 0
|0, 40, 61, 27, 15, 63, 0, 17, 0, 0, 0, 0, 7, 0, 42, 0, 57, 0, 0, 0, 0, 0, 0, 0, 0, 0, 10, 23, 53, 0, 0, 0, 0, 0, 0, 0, 54, 14, 0, 0, 0, 0, 0, 0, 0, 0, 0, 0, 0, 0, 0, 46, 11, 0, 0, 0, 0, 0, 0, 0, 0, 0, 0, 41
|0, 59, 0, 0, 6, 0, 0, 50, 0, 51, 19, 0, 55, 0, 58, 2, 35, 28, 0, 9, 0, 0, 8, 52, 64, 0, 0, 47, 0, 56, 0, 0, 3, 11, 26, 0, 0, 0, 0, 43, 0, 0, 0, 0, 62, 0, 0, 53, 0, 44, 49, 0, 0, 57, 0, 0, 20, 0, 63, 1, 45, 0, 0, 0
|0, 0, 0, 0, 0, 0, 0, 20, 0, 0, 0, 0, 0, 0, 0, 23, 0, 0, 0, 0, 0, 12, 0, 0, 0, 0, 0, 0, 0, 0, 0, 41, 0, 0, 0, 61, 0, 0, 0, 0, 47, 34, 0, 24, 0, 64, 0, 0, 0, 59, 0, 0, 16, 0, 0, 0, 31, 53, 0, 0, 17, 0, 54, 0|];