order = 8;
grid = [|0, 0, 0, 0, 0, 0, 53, 0, 0, 19, 0, 44, 1, 0, 0, 0, 0, 0, 45, 0, 0, 0, 29, 2, 0, 0, 46, 33, 0, 0, 0, 11, 0, 0, 0, 0, 26, 0, 56, 0, 0, 40, 0, 0, 0, 0, 0, 0, 0, 0, 0, 0, 0, 0, 17, 55, 38, 0, 52, 0, 34, 0, 0, 48
|16, 0, 0, 0, 0, 0, 0, 0, 0, 6, 0, 59, 0, 3, 0, 36, 48, 32, 0, 0, 0, 0, 0, 0, 55, 0, 0, 22, 0, 0, 62, 0, 28, 39, 0, 0, 0, 0, 0, 0, 0, 0, 0, 0, 0, 0, 0, 19, 64, 43, 54, 0, 0, 0, 0, 0, 0, 0, 0, 0, 0, 0, 14, 0
|0, 57, 0, 0, 0, 0, 0, 0, 0, 62, 0, 0, 0, 0, 20, 0, 0, 0, 0, 26, 37, 0, 0, 0, 28, 0, 5, 0, 0, 0, 0, 0, 24, 0, 0, 0, 0, 0, 0, 0, 0, 0, 0, 0, 0, 47, 22, 0, 0, 0, 0, 0, 0, 0, 46, 41, 0, 0, 10, 0, 0, 54, 0, 0
|52, 0, 0, 8, 0, 0, 0, 0, 0, 0, 37, 0, 0, 17, 49, 0, 0, 0, 0, 0, 0, 13, 62, 0, 0, 0, 0, 58, 0, 0, 19, 0, 57, 0, 0, 47, 0, 54, 34, 41, 0, 31, 0, 0, 14, 0, 0, 0, 3, 5, 0, 0, 21, 0, 0, 0, 0, 0, 0, 0, 18, 0, 0, 0
|10, 59, 0, 0, 13, 0, 0, 0, 0, 43, 0, 0, 0, 0, 21, 0, 0, 0, 0, 0, 0, 0, 0, 0, 0, 0, 24, 0, 0, 0, 17, 60, 4, 0, 0, 0, 0, 0, 0, 0, 0, 0, 0, 33, 0, 0, 0, 0, 0, 0, 35, 0, 0, 58, 0, 0, 0, 0, 6, 0, 0, 55, 37, 5
|0, 0, 0, 0, 44, 0, 0, 0, 0, 0, 0, 58, 4, 0, 0, 0, 0, 0, 49, 18, 0, 0, 0, 0, 42, 0, 23, 2, 47, 8, 0, 0, 0, 0, 0, 0, 0, 21, 0, 0, 0, 62, 48, 0, 0, 0, 11, 63, 13, 0, 59, 0, 0, 0, 0, 51, 0, 0, 33, 0, 0, 0, 0, 1
|0, 0, 0, 0, 0, 0, 21, 0, 0, 35, 28, 41, 0, 0, 40, 0, 0, 0, 33, 0, 9, 0, 0, 0, 0, 0, 4, 18, 0, 0, 54, 0, 0, 0, 63, 20, 0, 8, 0, 0, 12, 0, 0, 0, 56, 0, 2, 0, 0, 24, 7, 0, 0, 0, 0, 42, 0, 29, 57, 61, 0, 0, 0, 44
|0, 0, 42, 0, 0, 0, 0, 0, 7, 0, 2, 57, 0, 26, 0, 0, 41, 0, 16, 0, 0, 0, 0, 0, 0, 0, 0, 0, 0, 0, 0, 0, 33, 0, 0, 0, 32, 0, 0, 43, 0, 0, 25, 0, 0, 0, 37, 0, 0, 61, 0, 0, 0, 0, 0, 47, 0, 36, 0, 0, 0, 0, 13, 11
|0, 0, 0, 0, 60, 4, 0, 0, 0, 0, 31, 0, 63, 38, 16, 15, 46, 0, 2, 0, 0, 0, 0, 0, 0, 42, 0, 0, 0, 0, 29, 17, 0, 0, 0, 64, 51, 0, 0, 0, 58, 0, 6, 0, 0, 28, 48, 0, 0, 0, 0, 0, 0, 0, 0, 9, 0, 0, 0, 0, 0, 0, 0, 0
|0, 0, 53, 0, 0, 0, 0, 64, 24, 0, 21, 0, 40, 0, 0, 0, 0, 33, 0, 47, 0, 0, 28, 0, 0, 0, 9, 10, 46, 0, 52, 0, 43, 0, 0, 0, 0, 0, 0, 0, 56, 0, 19, 0, 5, 0, 0, 0, 0, 54, 0, 57, 0, 0, 0, 0, 0, 0, 0, 0, 16, 0, 0, 0
|0, 2, 0, 0, 0, 54, 38, 0, 0, 49, 0, 12, 0, 0, 0, 0, 18, 20, 0, 0, 0, 0, 4, 0, 5, 0, 0, 51, 0, 0, 0, 0, 0, 0, 0, 0, 21, 0, 13, 39, 0, 0, 36, 0, 35, 0, 14, 0, 0, 0, 28, 0, 60, 0, 0, 0, 0, 0, 0, 0, 0, 0, 0, 62
|0, 0, 48, 0, 0, 0, 0, 50, 0, 0, 0, 0, 43, 54, 62, 0, 42, 29, 0, 0, 52, 0, 0, 0, 0, 0, 0, 0, 0, 0, 0, 13, 0, 0, 19, 0, 38, 0, 5, 0, 0, 0, 0, 16, 31, 46, 0, 30, 0, 0, 0, 40, 0, 0, 0, 0, 0, 0, 0, 0, 0, 0, 0, 12
|0, 0, 0, 0, 32, 0, 15, 0, 0, 2, 0, 0, 51, 64, 0, 50, 0, 1, 0, 0, 0, 11, 48, 0, 19, 0, 0, 0, 0, 41, 0, 0, 0, 0, 27, 0, 0, 0, 35, 7, 0, 0, 0, 0, 0, 0, 0, 0, 0, 12, 3, 37, 4, 10, 0, 0, 0, 0, 0, 54, 0, 5, 0, 47
|0, 0, 0, 17, 35, 0, 10, 0, 0, 0, 0, 19, 0, 0, 41, 27, 0, 12, 57, 0, 61, 0, 58, 0, 24, 0, 0, 0, 0, 21, 26, 0, 40, 0, 0, 6, 16, 0, 0, 48, 0, 52, 62, 59, 0, 60, 0, 0, 33, 7, 20, 42, 0, 18, 0, 0, 0, 64, 0, 0, 0, 0, 51, 0
|30, 0, 0, 0, 0, 0, 0, 0, 0, 0, 0, 61, 0, 0, 0, 0, 0, 0, 38, 13, 0, 0, 32, 0, 0, 0, 54, 0, 64, 0, 0, 0, 29, 0, 0, 0, 34, 58, 28, 0, 0, 0, 0, 0, 0, 0, 24, 0, 21, 44, 0, 0, 0, 0, 0, 0, 6, 0, 0, 17, 52, 0, 0, 43
|13, 0, 0, 0, 0, 0, 16, 21, 37, 7, 0, 0, 0, 0, 0, 0, 55, 0, 0, 0, 0, 0, 0, 0, 0, 0, 14, 0, 0, 0, 0, 0, 0, 42, 4, 41, 0, 9, 0, 0, 20, 51, 0, 0, 0, 22, 0, 0, 0, 53, 38, 0, 0, 0, 24, 50, 0, 15, 0, 0, 0, 0, 36, 30
|8, 0, 0, 0, 57, 0, 63, 29, 0, 39, 0, 7, 0, 0, 0, 0, 0, 0, 36, 50, 0, 0, 0, 0, 0, 46, 0, 0, 32, 0, 0, 0, 0, 1, 0, 0, 0, 0, 0, 0, 26, 0, 0, 0, 0, 0, 0, 0, 20, 0, 0, 0, 0, 0, 12, 0, 0, 25, 0, 18, 0, 62, 0, 17
|0, 1, 0, 0, 3, 22, 0, 0, 0, 0, 0, 0, 0, 0, 0, 32, 0, 39, 0, 0, 0, 58, 10, 0, 56, 0, 0, 0, 0, 44, 6, 0, 0, 0, 0, 13, 0, 20, 12, 18, 0, 61, 0, 0, 0, 0, 0, 0, 0, 0, 0, 0, 0, 0, 60, 0, 51, 0, 0, 0, 27, 0, 0, 52
|0, 0, 25, 0, 2, 12, 0, 0, 0, 0, 0, 46, 0, 0, 0, 0, 0, 0, 0, 0, 31, 0, 0, 0, 51, 0, 41, 0, 0, 0, 0, 3, 21, 0, 0, 0, 0, 10, 9, 64, 0, 7, 14, 1, 63, 0, 0, 53, 0, 50, 40, 0, 0, 0, 32, 0, 28, 0, 0, 0, 0, 42, 0, 0
|0, 0, 9, 60, 45, 0, 0, 0, 34, 54, 0, 13, 0, 0, 0, 0, 0, 0, 63, 62, 0, 0, 0, 0, 0, 0, 0, 0, 29, 0, 25, 0, 0, 37, 0, 0, 61, 16, 39, 3, 6, 0, 0, 0, 52, 0, 0, 0, 0, 18, 0, 0, 0, 0, 59, 0, 23, 0, 44, 50, 53, 0, 0, 0
|0, 0, 0, 0, 0, 0, 50, 0, 62, 4, 0, 48, 0, 0, 0, 0, 0, 0, 0, 0, 0, 28, 0, 46, 0, 0, 47, 0, 0, 0, 0, 0, 53, 0, 56, 0, 27, 34, 63, 30, 0, 0, 0, 60, 0, 0, 0, 59, 0, 0, 0, 6, 0, 54, 0, 0, 0, 0, 0, 0, 0, 0, 0, 0
|0, 33, 0, 0, 0, 0, 23, 0, 26, 0, 0, 0, 0, 0, 0, 0, 34, 0, 0, 0, 0, 0, 0, 0, 0, 0, 59, 0, 0, 0, 60, 0, 38, 0, 0, 0, 0, 0, 44, 0, 25, 0, 0, 0, 58, 45, 0, 0, 0, 11, 0, 0, 30, 47, 0, 0, 0, 0, 0, 0, 0, 0, 0, 0
|0, 16, 58, 36, 0, 32, 0, 0, 0, 24, 0, 0, 61, 0, 0, 0, 0, 0, 0, 0, 0, 0, 0, 0, 0, 19, 35, 23, 0, 0, 0, 0, 59, 0, 0, 0, 0, 42, 0, 0, 41, 0, 28, 9, 3, 0, 0, 13, 0, 39, 29, 15, 37, 0, 0, 0, 0, 0, 0, 0, 0, 0, 0, 0
|0, 61, 13, 31, 0, 0, 0, 0, 0, 0, 0, 0, 0, 0, 51, 0, 0, 0, 0, 41, 0, 0, 0, 0, 39, 0, 0, 0, 0, 10, 0, 0, 32, 0, 0, 0, 0, 36, 0, 0, 0, 0, 0, 0, 62, 0, 0, 56, 0, 42, 0, 0, 0, 52, 0, 0, 0, 0, 0, 0, 0, 0, 7, 0
|44, 39, 34, 0, 43, 0, 0, 0, 25, 0, 20, 56, 5, 45, 61, 0, 0, 24, 0, 63, 48, 0, 0, 0, 0, 14, 30, 0, 57, 0, 49, 40, 0, 0, 11, 0, 0, 0, 0, 0, 31, 0, 21, 62, 0, 0, 0, 0, 29, 0, 0, 32, 0, 50, 0, 0, 10, 37, 0, 0, 0, 0, 0, 0
|0, 0, 0, 57, 0, 0, 56, 0, 8, 38, 0, 62, 23, 0, 43, 0, 0, 0, 0, 0, 17, 7, 0, 0, 0, 0, 0, 0, 21, 37, 64, 0, 0, 45, 0, 58, 0, 0, 0, 0, 5, 0, 0, 0, 0, 0, 0, 0, 0, 0, 48, 27, 18, 0, 0, 0, 26, 2, 0, 39, 59, 51, 0, 0
|0, 0, 0, 0, 0, 0, 0, 0, 0, 0, 0, 0, 0, 30, 0, 34, 0, 0, 42, 15, 53, 0, 51, 0, 0, 39, 0, 0, 0, 17, 0, 0, 0, 57, 0, 44, 0, 0, 0, 0, 0, 0, 63, 0, 0, 0, 0, 0, 7, 0, 0, 0, 0, 20, 0, 0, 31, 41, 0, 0, 13, 36, 58, 45
|64, 13, 3, 49, 0, 0, 0, 0, 0, 0, 0, 0, 53, 0, 19, 29, 0, 0, 0, 0, 20, 0, 0, 5, 0, 0, 0, 0, 0, 0, 0, 36, 0, 0, 34, 51, 0, 0, 0, 0, 2, 44, 61, 22, 0, 0, 0, 0, 9, 37, 56, 55, 0, 0, 26, 0, 0, 0, 0, 0, 30, 0, 0, 0
|0, 0, 0, 0, 0, 0, 0, 0, 0, 0, 0, 0, 0, 0, 0, 41, 0, 61, 59, 34, 0, 0, 0, 0, 0, 23, 63, 0, 0, 0, 46, 0, 0, 0, 0, 0, 0, 0, 14, 53, 0, 0, 0, 0, 0, 0, 0, 25, 0, 0, 5, 0, 42, 0, 0, 0, 0, 0, 0, 0, 0, 33, 44, 38
|0, 50, 0, 0, 0, 0, 0, 0, 0, 0, 0, 0, 37, 0, 0, 0, 0, 0, 0, 0, 0, 54, 43, 0, 45, 0, 61, 0, 0, 9, 0, 0, 56, 16, 0, 23, 0, 4, 2, 0, 0, 0, 0, 0, 0, 14, 17, 0, 0, 0, 19, 0, 53, 39, 0, 64, 0, 0, 0, 0, 0, 0, 0, 0
|0, 37, 0, 0, 26, 0, 0, 0, 0, 16, 0, 0, 33, 0, 0, 0, 0, 0, 0, 0, 0, 0, 0, 0, 15, 7, 0, 0, 0, 0, 0, 0, 0, 48, 0, 0, 0, 0, 0, 38, 0, 46, 30, 0, 0, 0, 0, 1, 0, 0, 0, 0, 0, 35, 44, 0, 62, 0, 18, 0, 0, 0, 0, 0
|28, 0, 17, 19, 0, 0, 18, 16, 0, 10, 1, 0, 0, 0, 26, 0, 0, 0, 52, 0, 0, 21, 0, 0, 0, 0, 0, 0, 0, 0, 43, 41, 0, 0, 0, 33, 0, 6, 0, 0, 55, 0, 0, 0, 0, 0, 8, 0, 0, 62, 0, 0, 0, 0, 0, 0, 25, 0, 0, 0, 0, 0, 0, 7
|0, 0, 0, 0, 0, 0, 0, 0, 38, 40, 54, 0, 32, 20, 39, 0, 0, 0, 0, 5, 11, 0, 18, 64, 63, 0, 0, 0, 0, 0, 0, 0, 0, 4, 0, 0, 0, 59, 0, 0, 0, 0, 55, 25, 0, 0, 0, 0, 0, 0, 0, 0, 28, 0, 50, 36, 0, 33, 0, 0, 0, 0, 0, 0
|0, 35, 0, 4, 0, 0, 0, 0, 22, 0, 56, 0, 0, 0, 0, 0, 30, 0, 0, 0, 0, 0, 0, 0, 0, 54, 0, 0, 0, 0, 0, 19, 0, 0, 0, 18, 0, 0, 0, 0, 13, 0, 0, 38, 0, 0, 34, 0, 0, 0, 0, 0, 0, 63, 20, 0, 53, 0, 28, 0, 17, 0, 0, 0
|0, 0, 44, 0, 14, 0, 0, 0, 0, 50, 0, 0, 0, 0, 7, 0, 0, 0, 0, 31, 46, 0, 0, 0, 0, 0, 11, 0, 4, 0, 0, 18, 37, 0, 0, 9, 52, 23, 0, 45, 40, 29, 0, 5, 0, 62, 0, 43, 12, 0, 0, 47, 0, 0, 0, 57, 0, 0, 0, 16, 3, 21, 19, 0
|0, 0, 0, 55, 34, 0, 0, 31, 0, 0, 0, 0, 0, 6, 33, 0, 17, 50, 0, 7, 0, 0, 20, 0, 0, 0, 0, 0, 0, 0, 39, 16, 0, 0, 0, 0, 1, 0, 0, 0, 51, 0, 32, 0, 9, 0, 56, 0, 0, 59, 46, 0, 64, 48, 0, 52, 0, 0, 23, 0, 0, 57, 0, 0
|0, 0, 0, 0, 16, 27, 0, 39, 9, 0, 0, 5, 0, 0, 0, 44, 0, 0, 0, 0, 0, 0, 0, 0, 0, 0, 0, 50, 0, 48, 0, 31, 0, 0, 0, 0, 0, 0, 0, 0, 45, 0, 0, 0, 0, 0, 0, 0, 24, 0, 0, 0, 0, 0, 0, 0, 4, 0, 0, 0, 0, 0, 0, 0
|0, 0, 10, 21, 0, 0, 0, 0, 45, 0, 16, 28, 58, 36, 0, 60, 0, 54, 0, 12, 0, 56, 0, 0, 0, 0, 0, 0, 53, 0, 27, 0, 0, 51, 0, 0, 0, 0, 0, 2, 0, 0, 41, 0, 0, 0, 0, 0, 0, 33, 0, 38, 0, 0, 0, 29, 0, 0, 55, 0, 8, 34, 0, 0
|19, 0, 41, 53, 0, 0, 8, 61, 0, 25, 0, 0, 0, 0, 0, 0, 29, 28, 1, 0, 0, 44, 0, 55, 0, 0, 0, 0, 0, 59, 0, 0, 0, 0, 0, 0, 33, 0, 0, 0, 0, 4, 11, 23, 0, 36, 58, 0, 18, 45, 21, 0, 0, 0, 0, 0, 0, 12, 63, 10, 0, 0, 0, 9
|58, 0, 0, 9, 0, 50, 0, 0, 63, 0, 0, 0, 0, 0, 0, 0, 52, 0, 0, 0, 0, 0, 13, 0, 57, 30, 0, 0, 0, 23, 0, 0, 0, 36, 0, 55, 47, 0, 0, 0, 22, 17, 20, 48, 0, 0, 0, 0, 0, 1, 0, 49, 0, 0, 0, 0, 39, 0, 0, 0, 0, 0, 0, 0
|0, 0, 0, 34, 0, 35, 7, 0, 0, 0, 61, 16, 0, 0, 0, 0, 0, 0, 0, 0, 30, 0, 2, 4, 0, 0, 0, 0, 0, 0, 0, 50, 0, 0, 26, 0, 0, 0, 0, 58, 0, 47, 60, 0, 0, 0, 0, 0, 0, 22, 0, 63, 3, 40, 21, 0, 0, 0, 49, 0, 55, 56, 0, 0
|0, 0, 0, 0, 0, 18, 0, 0, 47, 0, 0, 0, 0, 12, 17, 0, 0, 0, 0, 0, 0, 0, 41, 0, 48, 0, 42, 0, 30, 0, 23, 0, 0, 0, 0, 38, 3, 0, 0, 50, 0, 58, 27, 0, 6, 51, 36, 0, 46, 0, 37, 0, 2, 0, 57, 0, 0, 0, 0, 0, 0, 0, 0, 54
|0, 0, 21, 47, 0, 0, 0, 10, 46, 31, 0, 34, 0, 0, 0, 0, 0, 0, 0, 58, 3, 0, 0, 0, 0, 4, 49, 0, 0, 0, 14, 0, 0, 0, 39, 54, 0, 0, 20, 0, 0, 0, 17, 41, 0, 0, 0, 0, 0, 0, 0, 0, 24, 0, 18, 11, 0, 62, 0, 0, 0, 0, 0, 53
|0, 0, 0, 0, 0, 0, 0, 0, 0, 51, 59, 0, 0, 0, 0, 0, 19, 6, 0, 61, 0, 0, 15, 0, 37, 35, 0, 0, 24, 43, 0, 0, 0, 5, 0, 29, 0, 0, 18, 0, 0, 25, 0, 0, 0, 0, 0, 0, 0, 0, 0, 0, 0, 12, 0, 53, 52, 0, 0, 23, 0, 0, 31, 0
|0, 0, 0, 45, 0, 0, 0, 0, 0, 20, 0, 0, 0, 57, 0, 11, 0, 62, 0, 0, 51, 39, 42, 40, 0, 47, 53, 0, 0, 54, 63, 9, 0, 0, 0, 0, 0, 0, 23, 6, 0, 0, 56, 0, 0, 0, 0, 0, 0, 0, 0, 0, 0, 0, 0, 0, 0, 0, 0, 0, 0, 0, 0, 0
|0, 0, 0, 0, 0, 0, 0, 0, 60, 0, 0, 0, 18, 7, 35, 0, 0, 0, 17, 0, 0, 0, 0, 52, 0, 59, 0, 0, 0, 0, 0, 55, 0, 0, 0, 0, 56, 43, 8, 51, 0, 0, 0, 0, 0, 0, 0, 0, 28, 0, 45, 0, 0, 23, 0, 0, 11, 0, 0, 0, 0, 58, 0, 0
|0, 12, 0, 0, 55, 0, 0, 4, 0, 0, 10, 0, 0, 0, 0, 0, 0, 44, 53, 0, 0, 0, 0, 43, 0, 8, 0, 21, 15, 0, 0, 0, 0, 0, 0, 0, 31, 33, 0, 0, 0, 0, 18, 0, 0, 0, 57, 0, 0, 0, 13, 0, 41, 0, 0, 0, 0, 0, 0, 0, 0, 0, 42, 0
|0, 0, 0, 16, 0, 53, 0, 0, 0, 0, 0, 0, 50, 0, 0, 0, 0, 0, 0, 0, 47, 55, 0, 0, 11, 27, 45, 0, 0, 58, 0, 0, 0, 0, 0, 10, 0, 41, 21, 40, 0, 0, 5, 0, 0, 0, 0, 62, 0, 0, 0, 0, 0, 0, 14, 15, 0, 0, 0, 0, 44, 37, 0, 0
|0, 63, 0, 0, 10, 62, 43, 0, 0, 28, 0, 38, 0, 0, 52, 45, 0, 30, 0, 48, 0, 0, 0, 0, 9, 0, 12, 36, 0, 19, 31, 51, 60, 2, 23, 26, 53, 0, 58, 0, 34, 0, 0, 0, 0, 0, 0, 0, 0, 0, 0, 0, 0, 0, 0, 0, 47, 0, 0, 0, 0, 0, 0, 0
|0, 0, 22, 0, 0, 0, 0, 0, 0, 0, 0, 0, 0, 61, 18, 0, 28, 0, 35, 0, 0, 0, 0, 0, 0, 16, 58, 0, 0, 0, 0, 0, 5, 0, 25, 0, 30, 0, 51, 0, 8, 0, 59, 0, 13, 0, 0, 0, 41, 0, 53, 0, 0, 0, 0, 10, 0, 0, 0, 21, 0, 26, 0, 0
|0, 0, 50, 0, 0, 21, 28, 18, 64, 0, 55, 42, 0, 0, 0, 17, 5, 0, 0, 0, 8, 0, 0, 0, 54, 61, 0, 15, 33, 32, 0, 0, 0, 0, 0, 0, 11, 0, 0, 0, 0, 0, 0, 0, 0, 0, 0, 0, 37, 56, 0, 3, 0, 44, 0, 0, 14, 0, 0, 0, 0, 0, 0, 29
|39, 0, 0, 40, 0, 0, 0, 0, 0, 0, 22, 6, 0, 37, 57, 0, 0, 0, 0, 0, 0, 17, 45, 0, 43, 0, 0, 0, 50, 63, 0, 49, 0, 59, 18, 0, 0, 0, 38, 44, 0, 24, 42, 0, 0, 0, 60, 0, 0, 0, 0, 0, 0, 0, 47, 0, 0, 0, 0, 0, 0, 10, 0, 0
|42, 0, 0, 0, 0, 25, 0, 8, 48, 0, 0, 0, 0, 0, 0, 0, 62, 51, 46, 0, 0, 0, 0, 0, 14, 0, 0, 53, 0, 0, 0, 0, 0, 0, 0, 0, 0, 0, 0, 0, 17, 43, 0, 0, 0, 0, 0, 41, 0, 0, 0, 0, 49, 0, 0, 28, 13, 0, 16, 0, 0, 0, 0, 0
|31, 0, 0, 0, 0, 16, 35, 32, 29, 0, 0, 0, 0, 51, 53, 21, 60, 0, 0, 42, 0, 0, 37, 0, 0, 3, 0, 0, 0, 0, 10, 0, 0, 0, 55, 0, 0, 47, 0, 0, 0, 0, 0, 58, 0, 0, 0, 0, 52, 0, 0, 2, 0, 0, 0, 0, 0, 0, 0, 64, 0, 0, 0, 34
|0, 0, 0, 0, 0, 0, 34, 54, 0, 0, 0, 60, 0, 0, 0, 0, 0, 16, 0, 29, 0, 0, 50, 0, 0, 0, 1, 6, 0, 0, 22, 47, 0, 0, 0, 0, 28, 0, 0, 0, 62, 0, 0, 46, 0, 2, 45, 15, 59, 55, 33, 0, 58, 0, 0, 0, 0, 0, 0, 0, 0, 0, 0, 20
|0, 55, 0, 0, 0, 0, 48, 0, 0, 0, 25, 0, 0, 35, 0, 0, 11, 0, 0, 20, 57, 0, 0, 56, 0, 64, 0, 0, 0, 38, 0, 0, 34, 21, 0, 0, 0, 3, 0, 0, 0, 0, 0, 0, 0, 0, 0, 0, 62, 0, 0, 1, 0, 43, 0, 0, 0, 0, 0, 28, 0, 18, 0, 0
|0, 0, 4, 56, 0, 0, 0, 14, 51, 47, 0, 0, 16, 46, 0, 0, 20, 15, 0, 0, 0, 0, 0, 0, 25, 0, 0, 0, 0, 0, 0, 0, 0, 0, 0, 0, 0, 38, 0, 0, 59, 0, 0, 0, 0, 42, 0, 0, 0, 27, 36, 0, 0, 0, 0, 0, 49, 0, 0, 0, 0, 0, 0, 57
|0, 0, 12, 0, 0, 6, 0, 0, 0, 0, 3, 0, 0, 0, 10, 0, 0, 0, 0, 8, 0, 0, 5, 60, 0, 0, 0, 0, 0, 0, 0, 32, 23, 0, 31, 0, 0, 0, 41, 20, 0, 33, 0, 45, 0, 0, 0, 52, 47, 28, 0, 14, 0, 0, 55, 0, 0, 17, 0, 0, 0, 0, 0, 0
|0, 0, 0, 27, 0, 9, 0, 13, 54, 21, 58, 0, 0, 15, 0, 39, 50, 0, 51, 36, 0, 0, 12, 0, 38, 0, 33, 0, 0, 28, 34, 0, 0, 64, 0, 60, 0, 52, 29, 0, 0, 63, 40, 61, 23, 0, 20, 46, 35, 0, 18, 0, 0, 4, 0, 0, 0, 0, 0, 0, 0, 0, 0, 3
|0, 41, 0, 0, 0, 20, 0, 0, 42, 0, 0, 33, 0, 14, 31, 0, 45, 0, 0, 0, 0, 0, 54, 0, 0, 0, 52, 0, 35, 0, 0, 0, 0, 0, 47, 0, 0, 5, 32, 0, 0, 13, 0, 0, 0, 0, 49, 60, 0, 0, 0, 0, 0, 0, 16, 0, 0, 0, 0, 0, 0, 64, 18, 39
|0, 0, 0, 61, 0, 24, 0, 58, 13, 0, 0, 55, 0, 0, 34, 0, 3, 0, 56, 0, 0, 0, 0, 0, 0, 63, 0, 0, 0, 0, 0, 0, 0, 0, 0, 0, 0, 30, 0, 0, 0, 0, 0, 0, 0, 0, 0, 0, 53, 0, 0, 0, 57, 0, 0, 0, 35, 0, 51, 0, 0, 0, 0, 0
|38, 0, 0, 0, 0, 29, 22, 0, 0, 0, 0, 27, 7, 0, 0, 24, 0, 23, 0, 0, 62, 42, 0, 0, 20, 0, 0, 0, 0, 0, 0, 0, 0, 0, 0, 0, 0, 0, 46, 0, 44, 0, 0, 36, 0, 0, 0, 58, 0, 8, 0, 17, 0, 0, 11, 49, 12, 0, 0, 0, 0, 0, 45, 0
|0, 0, 8, 0, 36, 63, 0, 34, 0, 0, 0, 17, 0, 0, 44, 0, 0, 0, 4, 6, 0, 35, 31, 0, 27, 0, 16, 0, 0, 51, 50, 0, 0, 56, 1, 0, 15, 0, 0, 0, 24, 3, 22, 0, 0, 18, 0, 0, 40, 0, 0, 61, 0, 0, 0, 0, 32, 0, 37, 33, 0, 28, 0, 0
|0, 0, 0, 0, 0, 0, 0, 0, 0, 0, 0, 0, 62, 29, 0, 59, 0, 0, 0, 0, 0, 0, 0, 0, 0, 41, 0, 0, 0, 0, 0, 0, 0, 0, 51, 12, 45, 0, 0, 16, 0, 1, 0, 4, 30, 21, 6, 0, 0, 0, 0, 0, 0, 0, 0, 44, 0, 0, 0, 60, 0, 19, 0, 0|];