order = 8;
grid = [|0, 0, 0, 54, 52, 0, 0, 0, 0, 45, 0, 0, 0, 34, 43, 0, 0, 0, 0, 49, 0, 0, 0, 0, 63, 0, 0, 0, 0, 0, 26, 0, 0, 0, 0, 0, 0, 0, 0, 13, 2, 57, 0, 0, 0, 0, 0, 0, 0, 8, 20, 30, 0, 0, 0, 0, 0, 0, 0, 19, 53, 0, 0, 32
|30, 0, 0, 0, 36, 0, 0, 0, 0, 0, 23, 63, 0, 0, 49, 32, 0, 0, 31, 5, 0, 16, 0, 0, 60, 0, 0, 0, 0, 0, 0, 12, 0, 0, 0, 0, 28, 0, 8, 0, 0, 29, 0, 41, 15, 0, 0, 0, 0, 0, 64, 38, 0, 0, 0, 0, 48, 0, 0, 0, 26, 0, 0, 0
|0, 61, 0, 0, 0, 0, 21, 0, 0, 2, 0, 0, 0, 0, 0, 0, 0, 0, 0, 0, 13, 0, 0, 0, 15, 0, 44, 19, 0, 17, 0, 5, 41, 0, 0, 0, 30, 0, 0, 31, 0, 7, 0, 0, 0, 33, 0, 10, 0, 0, 18, 0, 0, 0, 0, 6, 0, 22, 0, 0, 0, 0, 0, 38
|0, 10, 0, 0, 0, 0, 0, 0, 0, 44, 0, 0, 4, 0, 0, 0, 0, 0, 30, 0, 54, 37, 0, 56, 45, 0, 0, 38, 32, 0, 42, 0, 0, 0, 25, 0, 0, 0, 2, 0, 0, 0, 0, 0, 18, 20, 64, 1, 0, 53, 24, 60, 0, 0, 0, 0, 0, 0, 33, 0, 12, 0, 0, 9
|8, 20, 0, 31, 48, 0, 49, 0, 25, 0, 0, 0, 58, 16, 0, 0, 0, 0, 0, 0, 0, 0, 0, 0, 0, 53, 0, 0, 0, 0, 0, 0, 0, 0, 0, 0, 0, 0, 37, 0, 28, 0, 61, 63, 0, 0, 0, 47, 62, 0, 0, 0, 0, 0, 0, 0, 0, 5, 0, 0, 0, 0, 45, 0
|0, 0, 2, 0, 0, 0, 0, 24, 0, 0, 0, 0, 0, 0, 0, 0, 28, 0, 39, 0, 0, 0, 6, 0, 0, 0, 0, 0, 0, 0, 0, 0, 0, 0, 0, 0, 61, 0, 0, 16, 0, 42, 0, 0, 0, 0, 0, 43, 0, 0, 0, 44, 0, 0, 0, 0, 0, 60, 0, 7, 0, 0, 0, 0
|0, 0, 13, 0, 0, 0, 0, 0, 0, 0, 0, 59, 0, 0, 0, 0, 62, 0, 0, 0, 0, 50, 32, 27, 36, 0, 0, 0, 47, 0, 8, 0, 0, 0, 64, 0, 17, 0, 0, 23, 14, 24, 31, 0, 0, 0, 0, 0, 1, 0, 0, 0, 0, 0, 0, 0, 58, 28, 0, 0, 0, 0, 41, 0
|0, 0, 44, 0, 0, 0, 0, 0, 0, 38, 17, 0, 0, 0, 0, 0, 22, 0, 0, 0, 0, 24, 46, 0, 0, 0, 0, 0, 31, 0, 29, 0, 0, 0, 0, 49, 58, 0, 0, 57, 0, 0, 0, 0, 0, 54, 60, 0, 0, 5, 0, 0, 0, 48, 0, 0, 0, 0, 36, 0, 16, 59, 0, 0
|0, 45, 0, 0, 0, 0, 0, 0, 1, 0, 18, 60, 0, 13, 0, 0, 0, 0, 0, 0, 0, 54, 0, 30, 0, 0, 0, 41, 0, 0, 0, 0, 57, 0, 33, 0, 3, 0, 0, 43, 0, 0, 0, 24, 0, 29, 0, 2, 0, 0, 0, 21, 20, 4, 6, 0, 0, 0, 0, 0, 0, 0, 0, 0
|0, 0, 0, 0, 6, 59, 0, 38, 0, 64, 0, 0, 0, 0, 0, 0, 0, 10, 0, 0, 16, 0, 0, 18, 0, 0, 37, 29, 52, 0, 0, 0, 0, 0, 36, 30, 0, 0, 21, 0, 0, 0, 0, 0, 45, 0, 0, 0, 0, 44, 47, 0, 0, 0, 0, 63, 0, 0, 0, 0, 0, 0, 0, 0
|0, 0, 54, 21, 0, 0, 0, 8, 0, 25, 0, 0, 0, 0, 51, 0, 3, 0, 26, 0, 0, 64, 0, 0, 13, 0, 0, 0, 0, 0, 0, 0, 0, 0, 45, 61, 0, 0, 9, 0, 0, 0, 55, 28, 0, 0, 0, 0, 0, 29, 0, 0, 30, 0, 0, 53, 0, 0, 0, 0, 0, 38, 0, 0
|0, 0, 0, 0, 20, 12, 16, 0, 0, 0, 0, 0, 0, 45, 0, 0, 46, 0, 28, 0, 0, 29, 0, 42, 0, 0, 0, 24, 27, 0, 64, 0, 0, 58, 7, 0, 59, 0, 0, 0, 0, 44, 37, 0, 0, 0, 3, 0, 0, 0, 0, 0, 0, 0, 8, 0, 0, 0, 0, 0, 0, 0, 52, 0
|0, 0, 14, 0, 0, 0, 0, 0, 0, 0, 0, 19, 0, 0, 0, 0, 21, 0, 49, 0, 0, 40, 0, 0, 0, 0, 6, 0, 60, 54, 20, 0, 0, 44, 0, 0, 0, 0, 29, 0, 0, 0, 0, 0, 0, 0, 12, 0, 22, 0, 0, 0, 0, 0, 37, 0, 0, 24, 0, 0, 0, 0, 0, 0
|0, 0, 0, 55, 0, 0, 0, 28, 0, 58, 0, 0, 0, 0, 0, 0, 6, 0, 19, 39, 56, 8, 20, 0, 0, 0, 0, 0, 61, 0, 50, 0, 0, 0, 0, 0, 0, 11, 0, 0, 25, 0, 0, 0, 30, 0, 47, 0, 0, 0, 0, 0, 45, 0, 0, 0, 35, 33, 17, 0, 3, 60, 0, 0
|0, 27, 43, 41, 11, 0, 0, 0, 12, 36, 0, 16, 6, 0, 61, 0, 0, 0, 0, 0, 45, 55, 5, 0, 39, 0, 0, 44, 0, 30, 0, 0, 28, 0, 0, 0, 48, 17, 0, 49, 4, 0, 54, 0, 0, 64, 0, 14, 0, 0, 0, 0, 0, 24, 0, 60, 51, 0, 8, 0, 0, 0, 0, 0
|0, 39, 0, 0, 23, 0, 0, 44, 0, 0, 63, 0, 35, 0, 0, 21, 0, 0, 0, 0, 0, 0, 0, 0, 0, 0, 12, 0, 55, 0, 62, 36, 60, 0, 0, 64, 0, 0, 10, 0, 0, 49, 0, 0, 0, 0, 0, 11, 0, 0, 0, 0, 0, 0, 25, 0, 53, 6, 9, 0, 0, 29, 48, 0
|0, 0, 0, 0, 8, 0, 0, 0, 29, 0, 25, 0, 28, 0, 44, 0, 0, 0, 18, 0, 0, 0, 0, 0, 64, 46, 0, 0, 0, 0, 0, 0, 0, 40, 9, 0, 0, 0, 14, 0, 0, 39, 0, 0, 0, 0, 0, 32, 0, 0, 0, 0, 0, 0, 20, 0, 0, 0, 0, 0, 0, 0, 0, 34
|7, 0, 0, 0, 0, 0, 0, 0, 0, 17, 5, 57, 0, 0, 8, 12, 42, 0, 0, 0, 59, 45, 0, 13, 49, 33, 0, 0, 19, 0, 0, 3, 0, 0, 0, 0, 0, 0, 0, 0, 0, 6, 0, 0, 0, 0, 0, 0, 43, 0, 0, 14, 0, 0, 51, 0, 0, 0, 0, 58, 0, 23, 0, 0
|0, 33, 20, 35, 0, 23, 0, 13, 0, 0, 0, 0, 9, 0, 0, 0, 1, 3, 0, 64, 0, 0, 0, 0, 38, 29, 28, 0, 0, 0, 0, 0, 0, 5, 0, 0, 0, 0, 0, 0, 0, 18, 14, 0, 0, 40, 17, 0, 0, 0, 0, 0, 0, 21, 22, 0, 0, 53, 0, 0, 0, 0, 0, 0
|0, 0, 0, 0, 0, 0, 58, 0, 50, 0, 0, 0, 0, 0, 31, 0, 33, 0, 0, 0, 0, 30, 0, 0, 0, 0, 27, 54, 43, 14, 9, 0, 35, 0, 0, 0, 0, 0, 0, 0, 0, 62, 20, 0, 0, 2, 0, 0, 0, 0, 23, 0, 0, 0, 34, 0, 21, 0, 0, 45, 39, 0, 0, 44
|0, 21, 0, 30, 59, 0, 0, 54, 0, 11, 22, 0, 33, 0, 23, 0, 35, 0, 0, 0, 0, 58, 0, 0, 0, 26, 0, 0, 37, 0, 0, 0, 0, 0, 0, 0, 0, 0, 0, 29, 0, 0, 0, 0, 0, 0, 0, 0, 0, 0, 1, 46, 0, 0, 2, 0, 0, 0, 0, 0, 48, 0, 0, 0
|0, 0, 4, 0, 41, 0, 0, 0, 0, 0, 0, 0, 0, 30, 0, 0, 0, 49, 0, 28, 0, 0, 0, 15, 0, 55, 0, 0, 0, 57, 0, 18, 0, 0, 0, 0, 13, 0, 0, 0, 0, 0, 0, 0, 0, 0, 0, 0, 24, 0, 0, 0, 0, 35, 0, 0, 0, 0, 40, 0, 0, 0, 0, 0
|0, 18, 0, 16, 0, 15, 0, 40, 0, 0, 0, 0, 61, 1, 13, 51, 0, 39, 0, 4, 0, 0, 63, 0, 0, 0, 0, 11, 0, 0, 48, 0, 0, 0, 0, 59, 0, 0, 58, 0, 0, 0, 0, 0, 0, 0, 57, 49, 0, 0, 0, 0, 0, 0, 0, 0, 0, 0, 0, 0, 0, 0, 0, 0
|0, 17, 0, 0, 0, 29, 0, 0, 0, 62, 0, 39, 0, 60, 10, 49, 0, 0, 0, 0, 23, 19, 0, 40, 0, 0, 0, 21, 16, 5, 0, 0, 6, 0, 0, 0, 42, 1, 0, 0, 13, 30, 0, 0, 0, 35, 0, 7, 0, 0, 0, 0, 47, 64, 0, 0, 0, 31, 0, 0, 22, 43, 0, 59
|0, 52, 0, 0, 0, 0, 0, 41, 0, 22, 0, 0, 0, 0, 0, 0, 0, 13, 0, 0, 0, 0, 33, 0, 62, 0, 0, 0, 0, 26, 28, 0, 58, 0, 0, 7, 0, 0, 0, 12, 0, 54, 0, 0, 64, 0, 0, 0, 0, 0, 0, 0, 0, 0, 0, 0, 0, 19, 0, 63, 0, 0, 0, 0
|17, 15, 0, 0, 0, 0, 0, 49, 45, 0, 0, 0, 0, 0, 58, 0, 0, 0, 1, 31, 0, 0, 0, 12, 0, 0, 51, 0, 10, 16, 55, 30, 0, 0, 0, 0, 0, 0, 24, 26, 35, 0, 0, 0, 61, 0, 27, 0, 53, 6, 0, 0, 0, 40, 0, 13, 0, 0, 0, 0, 0, 44, 0, 4
|0, 0, 58, 0, 16, 0, 0, 23, 0, 32, 11, 0, 5, 26, 0, 0, 40, 0, 0, 0, 24, 38, 0, 0, 0, 0, 20, 0, 0, 31, 0, 0, 0, 42, 48, 0, 6, 0, 0, 0, 0, 0, 0, 39, 0, 0, 0, 0, 0, 63, 0, 0, 0, 46, 1, 14, 0, 59, 0, 56, 64, 0, 0, 0
|39, 0, 0, 59, 0, 34, 0, 63, 0, 0, 0, 0, 29, 0, 0, 0, 0, 0, 47, 17, 0, 23, 45, 5, 58, 37, 41, 0, 11, 0, 0, 0, 54, 0, 0, 0, 0, 0, 0, 0, 0, 0, 6, 0, 0, 0, 0, 0, 15, 0, 0, 0, 28, 2, 60, 30, 0, 0, 43, 0, 0, 35, 0, 0
|0, 8, 35, 0, 0, 11, 0, 0, 0, 0, 0, 0, 0, 0, 1, 54, 0, 0, 0, 0, 0, 0, 0, 0, 14, 0, 0, 63, 0, 52, 0, 0, 0, 0, 0, 21, 0, 0, 0, 0, 31, 0, 33, 0, 0, 3, 0, 18, 0, 0, 0, 0, 0, 9, 0, 0, 0, 0, 0, 0, 0, 40, 51, 0
|0, 0, 12, 0, 24, 0, 0, 7, 46, 63, 13, 0, 30, 0, 0, 0, 0, 0, 0, 14, 0, 0, 0, 59, 0, 15, 0, 0, 34, 27, 0, 0, 0, 62, 0, 0, 0, 0, 0, 0, 0, 0, 51, 0, 0, 0, 11, 0, 39, 35, 0, 0, 0, 23, 58, 0, 38, 0, 0, 31, 0, 53, 26, 0
|37, 0, 0, 0, 0, 0, 2, 26, 31, 0, 0, 0, 42, 0, 18, 0, 0, 0, 35, 48, 28, 3, 0, 34, 0, 0, 0, 0, 5, 0, 0, 0, 0, 0, 51, 0, 56, 0, 0, 0, 0, 21, 0, 0, 0, 0, 20, 0, 0, 0, 0, 0, 64, 8, 0, 59, 52, 0, 0, 0, 0, 0, 0, 14
|0, 0, 0, 0, 31, 6, 0, 0, 9, 60, 28, 20, 0, 0, 0, 23, 0, 0, 0, 0, 0, 0, 0, 0, 0, 0, 0, 0, 0, 4, 0, 29, 49, 0, 0, 0, 0, 0, 0, 0, 0, 0, 0, 12, 43, 47, 34, 0, 0, 0, 0, 0, 18, 5, 0, 0, 0, 0, 0, 0, 17, 0, 3, 11
|0, 47, 16, 0, 0, 0, 0, 37, 0, 0, 35, 0, 0, 20, 0, 55, 2, 0, 0, 0, 0, 5, 58, 52, 41, 0, 0, 0, 0, 0, 0, 48, 0, 3, 0, 36, 0, 0, 15, 17, 0, 10, 0, 0, 0, 0, 0, 19, 0, 0, 0, 0, 0, 0, 0, 0, 0, 0, 0, 0, 0, 22, 0, 63
|11, 0, 0, 0, 0, 0, 0, 45, 0, 0, 0, 0, 0, 0, 25, 0, 0, 0, 6, 20, 0, 0, 0, 0, 0, 0, 0, 0, 0, 8, 0, 0, 0, 0, 39, 0, 50, 43, 0, 35, 0, 0, 27, 51, 0, 46, 0, 0, 0, 0, 0, 0, 0, 0, 0, 0, 26, 0, 53, 32, 0, 0, 0, 0
|0, 28, 9, 0, 0, 0, 0, 0, 2, 0, 0, 30, 64, 0, 0, 0, 0, 63, 0, 32, 0, 0, 0, 54, 0, 0, 62, 57, 7, 0, 0, 0, 0, 0, 0, 0, 0, 0, 16, 0, 0, 0, 0, 0, 0, 0, 0, 0, 13, 60, 0, 0, 0, 0, 0, 43, 15, 0, 12, 0, 0, 0, 0, 0
|0, 0, 56, 0, 0, 58, 0, 30, 0, 0, 0, 0, 0, 44, 0, 0, 38, 9, 0, 0, 0, 0, 0, 0, 32, 0, 0, 0, 0, 0, 0, 0, 4, 0, 0, 0, 0, 0, 0, 19, 0, 28, 0, 0, 13, 57, 0, 31, 12, 52, 0, 0, 0, 26, 0, 0, 0, 27, 0, 62, 0, 0, 0, 0
|34, 24, 0, 0, 0, 0, 0, 0, 0, 61, 0, 0, 40, 17, 0, 0, 0, 47, 0, 0, 57, 0, 13, 0, 0, 59, 0, 0, 0, 0, 44, 0, 0, 0, 54, 0, 0, 0, 0, 0, 0, 0, 0, 0, 0, 0, 2, 5, 0, 23, 0, 4, 0, 0, 0, 0, 0, 0, 64, 3, 55, 0, 0, 0
|13, 0, 25, 6, 17, 40, 0, 0, 0, 48, 0, 0, 0, 0, 0, 0, 0, 18, 0, 24, 0, 0, 0, 0, 0, 0, 0, 0, 15, 0, 0, 52, 10, 0, 58, 0, 0, 32, 28, 0, 7, 0, 0, 55, 0, 0, 0, 4, 0, 0, 53, 0, 0, 11, 45, 0, 0, 0, 0, 0, 0, 0, 0, 0
|0, 31, 0, 0, 53, 49, 0, 0, 0, 0, 0, 0, 0, 0, 0, 0, 48, 0, 0, 0, 0, 0, 0, 0, 0, 0, 0, 0, 0, 33, 25, 0, 64, 12, 0, 0, 18, 0, 0, 0, 0, 15, 21, 59, 0, 0, 23, 0, 17, 0, 10, 0, 0, 3, 16, 8, 54, 0, 0, 0, 0, 0, 0, 0
|0, 35, 0, 62, 38, 0, 0, 0, 0, 0, 0, 0, 0, 0, 4, 0, 45, 15, 53, 0, 0, 21, 0, 0, 0, 0, 19, 0, 24, 0, 0, 27, 0, 0, 55, 0, 33, 0, 0, 0, 0, 0, 0, 26, 0, 0, 0, 0, 0, 0, 0, 0, 0, 0, 64, 5, 0, 43, 13, 0, 0, 0, 0, 0
|0, 0, 0, 0, 0, 0, 0, 29, 61, 0, 0, 0, 7, 0, 53, 0, 0, 0, 0, 0, 0, 0, 0, 22, 0, 0, 0, 0, 0, 0, 0, 0, 3, 0, 0, 0, 0, 0, 0, 0, 0, 0, 5, 0, 0, 52, 48, 59, 0, 0, 55, 0, 0, 0, 13, 54, 0, 0, 0, 0, 9, 0, 42, 45
|0, 0, 0, 0, 0, 0, 0, 0, 0, 0, 0, 49, 0, 0, 0, 0, 0, 34, 0, 0, 0, 0, 0, 0, 0, 35, 0, 0, 0, 51, 0, 39, 0, 6, 0, 0, 0, 21, 0, 0, 0, 0, 0, 0, 0, 22, 0, 0, 0, 46, 14, 0, 0, 0, 23, 0, 0, 0, 18, 37, 0, 0, 0, 53
|58, 50, 0, 0, 0, 7, 6, 15, 0, 0, 0, 0, 31, 42, 27, 25, 0, 30, 0, 0, 0, 0, 40, 0, 0, 61, 0, 0, 0, 55, 0, 62, 36, 0, 0, 4, 0, 0, 0, 48, 0, 0, 0, 0, 0, 0, 0, 0, 0, 0, 0, 0, 17, 0, 0, 0, 0, 51, 20, 0, 56, 0, 0, 21
|33, 19, 0, 0, 13, 0, 0, 0, 0, 0, 29, 9, 57, 0, 0, 0, 0, 0, 0, 62, 0, 0, 0, 0, 0, 34, 43, 0, 0, 0, 0, 20, 32, 0, 0, 0, 45, 0, 0, 0, 0, 0, 0, 0, 0, 30, 0, 0, 21, 61, 0, 0, 0, 0, 0, 0, 0, 0, 44, 0, 0, 0, 0, 0
|0, 0, 0, 0, 57, 0, 0, 0, 0, 0, 0, 10, 0, 59, 0, 0, 0, 27, 0, 0, 0, 0, 0, 9, 0, 0, 0, 14, 0, 0, 0, 0, 0, 0, 0, 0, 15, 0, 0, 0, 45, 0, 0, 0, 0, 32, 31, 39, 0, 16, 0, 0, 0, 43, 0, 22, 61, 52, 5, 1, 0, 0, 0, 0
|23, 0, 22, 0, 0, 0, 0, 0, 0, 0, 6, 14, 0, 0, 0, 0, 0, 0, 0, 44, 0, 1, 54, 35, 42, 0, 29, 15, 41, 0, 0, 0, 0, 0, 0, 0, 0, 0, 0, 0, 58, 0, 0, 0, 25, 37, 0, 0, 0, 3, 0, 0, 48, 0, 0, 4, 30, 13, 32, 55, 0, 0, 0, 28
|2, 0, 47, 0, 14, 0, 24, 5, 52, 33, 0, 15, 41, 0, 0, 0, 19, 28, 0, 0, 0, 13, 0, 0, 27, 0, 0, 0, 0, 0, 45, 0, 12, 56, 34, 0, 0, 0, 39, 0, 0, 9, 0, 0, 0, 0, 42, 0, 0, 0, 0, 63, 0, 10, 0, 0, 0, 0, 0, 0, 0, 0, 23, 0
|0, 0, 0, 0, 0, 0, 45, 0, 0, 0, 16, 0, 19, 32, 0, 0, 0, 0, 0, 42, 0, 14, 0, 50, 0, 0, 0, 18, 0, 0, 5, 0, 0, 0, 0, 29, 0, 0, 47, 0, 63, 46, 0, 0, 55, 0, 0, 0, 0, 40, 62, 0, 0, 0, 0, 34, 43, 0, 27, 0, 0, 0, 0, 0
|57, 22, 0, 0, 0, 0, 0, 51, 0, 1, 64, 0, 0, 0, 0, 31, 53, 0, 0, 0, 47, 0, 0, 33, 0, 0, 56, 36, 0, 0, 0, 0, 0, 0, 23, 2, 52, 0, 42, 0, 0, 0, 15, 16, 10, 0, 0, 62, 49, 0, 0, 55, 0, 0, 4, 35, 0, 30, 11, 0, 0, 0, 0, 0
|0, 0, 3, 0, 0, 52, 0, 4, 16, 0, 0, 0, 21, 0, 0, 15, 0, 0, 61, 59, 0, 39, 0, 0, 29, 0, 0, 0, 9, 0, 22, 0, 50, 17, 18, 0, 60, 12, 0, 0, 0, 53, 0, 0, 0, 0, 0, 0, 0, 0, 0, 42, 63, 38, 47, 0, 0, 0, 0, 0, 54, 0, 0, 57
|0, 63, 0, 0, 0, 27, 0, 55, 0, 0, 7, 4, 0, 0, 0, 0, 0, 0, 0, 0, 0, 0, 0, 0, 0, 0, 0, 0, 0, 0, 0, 0, 8, 0, 0, 0, 0, 0, 0, 47, 0, 0, 41, 0, 0, 0, 0, 51, 0, 0, 0, 0, 0, 6, 0, 2, 0, 0, 0, 59, 0, 0, 0, 0
|0, 0, 0, 0, 0, 0, 0, 0, 0, 0, 0, 0, 0, 0, 0, 0, 0, 0, 0, 0, 0, 0, 0, 0, 44, 41, 0, 0, 38, 0, 0, 0, 14, 0, 37, 0, 27, 0, 56, 0, 42, 0, 0, 0, 0, 11, 18, 0, 0, 0, 29, 0, 54, 0, 39, 0, 0, 0, 0, 0, 0, 0, 63, 17
|0, 32, 0, 60, 0, 0, 0, 0, 0, 0, 38, 0, 56, 10, 17, 0, 0, 5, 0, 0, 0, 34, 18, 0, 0, 0, 0, 0, 0, 0, 0, 0, 0, 0, 0, 0, 39, 64, 45, 0, 0, 37, 1, 23, 0, 0, 0, 0, 0, 0, 9, 0, 40, 58, 27, 0, 0, 0, 0, 26, 4, 62, 0, 0
|0, 0, 0, 0, 0, 9, 56, 0, 0, 0, 0, 0, 49, 62, 60, 37, 0, 0, 0, 0, 0, 12, 0, 0, 0, 0, 31, 0, 0, 50, 0, 13, 0, 11, 0, 48, 34, 36, 0, 0, 0, 0, 0, 0, 0, 0, 0, 0, 46, 0, 57, 0, 0, 0, 0, 15, 0, 0, 38, 0, 0, 0, 0, 27
|0, 0, 30, 0, 0, 0, 0, 0, 42, 0, 0, 0, 34, 0, 41, 57, 0, 0, 0, 0, 46, 0, 50, 0, 0, 0, 0, 64, 0, 0, 0, 0, 0, 0, 13, 19, 43, 0, 0, 0, 0, 0, 24, 0, 0, 12, 0, 0, 0, 31, 0, 0, 11, 16, 0, 0, 0, 0, 0, 0, 0, 9, 0, 15
|0, 59, 0, 0, 33, 0, 0, 12, 0, 0, 0, 0, 36, 58, 0, 0, 27, 0, 60, 51, 0, 0, 0, 0, 0, 0, 5, 46, 0, 39, 0, 0, 44, 0, 0, 53, 21, 55, 0, 0, 3, 0, 0, 57, 47, 0, 0, 35, 0, 0, 0, 0, 0, 0, 0, 0, 0, 0, 1, 0, 0, 0, 0, 24
|0, 2, 40, 0, 56, 0, 0, 0, 0, 0, 0, 50, 0, 0, 0, 0, 0, 0, 12, 0, 0, 0, 0, 0, 43, 62, 0, 20, 0, 23, 19, 0, 0, 36, 0, 0, 0, 0, 0, 0, 47, 58, 0, 0, 42, 0, 0, 0, 0, 9, 0, 0, 0, 0, 0, 31, 0, 0, 16, 38, 0, 0, 0, 0
|0, 0, 48, 44, 0, 0, 0, 50, 28, 10, 0, 0, 0, 3, 0, 6, 5, 0, 24, 21, 36, 0, 26, 0, 0, 0, 0, 0, 0, 0, 41, 0, 0, 0, 0, 0, 51, 34, 0, 55, 29, 0, 59, 0, 0, 0, 13, 52, 0, 14, 39, 0, 0, 0, 18, 0, 0, 0, 0, 0, 43, 30, 58, 31
|36, 0, 59, 0, 0, 0, 0, 0, 0, 0, 0, 52, 0, 0, 21, 56, 0, 57, 0, 30, 0, 0, 0, 0, 0, 0, 48, 0, 0, 28, 0, 0, 0, 0, 0, 0, 0, 0, 53, 42, 0, 0, 32, 0, 20, 5, 0, 0, 51, 0, 0, 0, 43, 44, 0, 0, 0, 0, 0, 0, 0, 0, 0, 1
|0, 0, 0, 57, 0, 0, 35, 0, 64, 42, 4, 24, 0, 0, 0, 14, 0, 0, 51, 0, 0, 0, 15, 17, 16, 0, 0, 0, 0, 59, 38, 0, 0, 0, 0, 28, 11, 0, 0, 0, 0, 0, 0, 0, 0, 0, 0, 0, 0, 0, 5, 23, 0, 0, 21, 0, 44, 0, 0, 0, 0, 0, 13, 39
|28, 23, 8, 0, 0, 0, 0, 42, 0, 0, 0, 11, 0, 0, 0, 0, 64, 0, 0, 35, 4, 0, 0, 61, 0, 51, 0, 26, 0, 0, 0, 63, 0, 0, 0, 0, 16, 0, 0, 0, 0, 0, 0, 0, 40, 0, 62, 0, 45, 0, 13, 0, 0, 20, 0, 0, 27, 2, 0, 0, 14, 0, 0, 0
|0, 41, 0, 0, 0, 45, 0, 9, 0, 0, 0, 0, 48, 0, 0, 0, 20, 0, 0, 0, 0, 0, 62, 39, 0, 18, 0, 5, 0, 0, 31, 0, 0, 0, 0, 0, 0, 0, 0, 0, 0, 35, 7, 25, 0, 0, 0, 0, 0, 0, 61, 8, 0, 0, 53, 0, 60, 0, 23, 0, 0, 0, 0, 0
|0, 0, 29, 0, 0, 0, 0, 0, 0, 0, 0, 61, 0, 2, 0, 0, 0, 0, 0, 3, 0, 0, 0, 0, 24, 0, 58, 60, 0, 0, 0, 4, 52, 0, 0, 0, 5, 54, 0, 0, 6, 31, 0, 0, 0, 0, 51, 0, 32, 0, 0, 0, 0, 0, 0, 0, 0, 0, 0, 0, 0, 55, 0, 0
|0, 0, 31, 0, 5, 0, 0, 0, 0, 35, 0, 0, 0, 0, 0, 0, 0, 0, 0, 0, 63, 0, 0, 0, 47, 56, 57, 0, 6, 0, 33, 0, 0, 0, 20, 0, 0, 0, 19, 0, 0, 0, 43, 0, 0, 0, 21, 30, 0, 0, 0, 0, 0, 0, 0, 0, 0, 0, 0, 0, 0, 0, 0, 0|];