order = 6;
grid = [|25, 6, 0, 4, 0, 8, 14, 35, 30, 18, 0, 0, 0, 31, 1, 20, 0, 5, 0, 15, 0, 36, 9, 3, 16, 0, 0, 12, 0, 32, 23, 11, 19, 27, 0, 10
|21, 0, 22, 23, 16, 0, 0, 0, 13, 0, 20, 0, 32, 0, 36, 0, 9, 10, 0, 26, 0, 1, 0, 29, 0, 27, 18, 4, 19, 24, 3, 2, 31, 33, 6, 12
|14, 2, 20, 0, 18, 19, 11, 1, 32, 27, 0, 0, 25, 16, 21, 26, 17, 0, 13, 24, 22, 6, 8, 10, 9, 28, 15, 31, 23, 30, 7, 34, 36, 29, 0, 5
|24, 27, 15, 28, 9, 5, 0, 12, 0, 19, 0, 0, 13, 7, 0, 4, 29, 8, 16, 2, 34, 0, 31, 0, 0, 33, 0, 3, 35, 17, 1, 20, 0, 18, 0, 21
|26, 36, 13, 0, 11, 29, 0, 21, 0, 0, 9, 0, 0, 34, 27, 18, 2, 33, 20, 19, 12, 0, 28, 0, 8, 0, 1, 0, 0, 7, 0, 0, 30, 35, 0, 14
|12, 31, 33, 1, 32, 0, 4, 5, 26, 2, 22, 0, 24, 23, 0, 0, 0, 0, 0, 17, 14, 0, 0, 18, 0, 0, 0, 36, 0, 0, 13, 8, 9, 0, 25, 28
|0, 23, 14, 7, 0, 30, 0, 31, 35, 0, 6, 17, 2, 0, 0, 32, 0, 0, 28, 0, 8, 24, 11, 4, 0, 0, 0, 0, 26, 0, 0, 3, 1, 22, 5, 25
|28, 10, 26, 27, 0, 13, 23, 24, 33, 34, 15, 0, 9, 14, 7, 6, 4, 22, 1, 25, 19, 5, 30, 36, 0, 32, 0, 8, 16, 12, 11, 21, 0, 20, 0, 29
|0, 11, 0, 0, 35, 33, 22, 13, 7, 0, 30, 0, 15, 0, 18, 25, 0, 27, 2, 16, 0, 26, 0, 0, 1, 31, 0, 29, 10, 14, 0, 0, 23, 34, 17, 0
|32, 24, 34, 0, 19, 36, 0, 3, 0, 1, 21, 9, 0, 26, 29, 28, 0, 20, 0, 23, 6, 0, 17, 13, 4, 30, 33, 2, 0, 0, 14, 18, 12, 15, 7, 27
|4, 15, 31, 9, 2, 0, 0, 29, 20, 14, 11, 0, 33, 17, 30, 12, 0, 23, 0, 3, 18, 34, 7, 0, 0, 24, 28, 0, 0, 5, 0, 10, 16, 8, 32, 0
|17, 0, 0, 16, 0, 1, 32, 0, 8, 26, 0, 0, 21, 0, 24, 5, 0, 31, 9, 0, 0, 35, 29, 33, 20, 34, 23, 7, 0, 11, 6, 0, 28, 0, 36, 0
|0, 0, 17, 0, 34, 26, 0, 32, 36, 0, 0, 23, 14, 0, 0, 0, 0, 28, 30, 12, 31, 0, 4, 15, 10, 7, 25, 19, 0, 2, 8, 0, 13, 24, 3, 0
|23, 20, 12, 31, 36, 28, 25, 11, 27, 16, 8, 0, 7, 6, 0, 13, 0, 30, 0, 0, 24, 0, 19, 14, 18, 4, 0, 9, 32, 29, 17, 15, 10, 21, 1, 34
|0, 0, 0, 22, 8, 0, 19, 34, 3, 35, 0, 30, 1, 12, 15, 21, 20, 32, 0, 36, 29, 23, 0, 7, 0, 0, 11, 6, 24, 0, 0, 0, 27, 26, 28, 4
|19, 0, 0, 13, 24, 32, 26, 15, 14, 12, 31, 2, 23, 9, 0, 10, 0, 17, 18, 0, 11, 25, 0, 21, 34, 5, 30, 28, 27, 0, 36, 33, 29, 7, 0, 35
|0, 7, 0, 0, 0, 2, 29, 20, 22, 0, 17, 13, 4, 0, 26, 24, 19, 0, 32, 0, 1, 3, 0, 5, 0, 36, 0, 16, 14, 15, 0, 0, 0, 9, 11, 23
|1, 0, 11, 15, 30, 14, 10, 28, 24, 9, 4, 7, 31, 33, 22, 0, 27, 29, 34, 8, 17, 0, 16, 20, 12, 23, 35, 21, 0, 0, 0, 25, 0, 19, 2, 32
|0, 0, 21, 24, 15, 0, 2, 0, 11, 0, 35, 0, 0, 0, 23, 30, 33, 16, 6, 4, 0, 0, 12, 0, 0, 0, 29, 32, 31, 0, 0, 36, 0, 17, 14, 18
|31, 8, 1, 2, 22, 0, 13, 16, 29, 32, 0, 6, 12, 28, 17, 14, 26, 9, 24, 0, 5, 20, 34, 0, 15, 21, 36, 0, 33, 27, 0, 7, 35, 11, 19, 3
|0, 28, 32, 17, 20, 9, 0, 36, 12, 0, 23, 33, 27, 0, 19, 0, 13, 4, 3, 10, 0, 18, 14, 1, 0, 35, 2, 5, 11, 8, 29, 0, 0, 0, 26, 31
|0, 14, 10, 36, 0, 0, 5, 30, 0, 3, 0, 34, 29, 22, 6, 0, 11, 2, 0, 32, 0, 21, 15, 31, 24, 18, 0, 17, 9, 20, 16, 28, 8, 0, 23, 13
|0, 5, 4, 19, 0, 0, 17, 0, 0, 15, 27, 14, 36, 24, 34, 3, 25, 0, 7, 29, 2, 8, 26, 11, 28, 0, 12, 30, 1, 0, 22, 32, 21, 10, 33, 0
|3, 0, 0, 30, 6, 11, 28, 18, 21, 0, 0, 20, 5, 35, 31, 0, 32, 0, 33, 0, 23, 17, 36, 0, 0, 16, 0, 0, 34, 10, 0, 9, 0, 2, 27, 0
|0, 0, 23, 5, 1, 0, 35, 0, 0, 0, 0, 8, 18, 2, 0, 0, 24, 0, 17, 11, 32, 22, 6, 26, 0, 25, 9, 34, 4, 0, 15, 31, 7, 12, 16, 0
|2, 17, 24, 0, 0, 35, 0, 4, 0, 0, 12, 22, 30, 0, 9, 0, 8, 7, 23, 0, 28, 0, 33, 0, 5, 15, 13, 0, 36, 16, 27, 26, 32, 3, 18, 1
|15, 3, 8, 34, 26, 0, 9, 0, 2, 0, 0, 0, 22, 0, 5, 0, 12, 0, 0, 31, 27, 14, 18, 35, 32, 29, 20, 0, 21, 28, 10, 23, 0, 0, 30, 0
|9, 13, 19, 0, 28, 22, 3, 0, 0, 33, 0, 31, 0, 29, 4, 0, 15, 21, 36, 7, 0, 2, 0, 16, 0, 8, 24, 18, 12, 0, 20, 0, 14, 25, 0, 17
|0, 32, 36, 18, 10, 0, 0, 26, 15, 23, 0, 21, 35, 20, 25, 34, 6, 14, 0, 9, 4, 12, 3, 0, 0, 11, 7, 0, 0, 31, 28, 29, 22, 13, 8, 2
|7, 12, 30, 33, 31, 0, 18, 0, 0, 29, 5, 16, 17, 32, 10, 27, 0, 0, 8, 1, 20, 15, 13, 24, 26, 0, 0, 0, 22, 35, 0, 4, 0, 0, 9, 11
|0, 0, 0, 12, 14, 0, 0, 0, 9, 25, 28, 32, 16, 1, 13, 0, 18, 0, 15, 34, 0, 0, 0, 0, 36, 10, 5, 0, 8, 19, 0, 30, 0, 23, 21, 22
|10, 33, 9, 0, 13, 15, 0, 23, 0, 22, 7, 35, 3, 27, 32, 2, 14, 24, 0, 5, 0, 19, 1, 6, 30, 12, 31, 20, 0, 0, 0, 16, 11, 0, 34, 8
|30, 16, 2, 0, 5, 24, 34, 0, 0, 0, 0, 0, 10, 0, 33, 17, 0, 15, 35, 27, 0, 32, 21, 9, 29, 26, 0, 22, 0, 0, 18, 1, 0, 31, 0, 36
|0, 19, 0, 20, 0, 0, 15, 10, 1, 5, 0, 26, 8, 30, 11, 0, 31, 0, 12, 0, 13, 16, 0, 2, 0, 14, 34, 35, 0, 0, 9, 0, 17, 32, 29, 0
|8, 1, 0, 29, 0, 0, 0, 0, 0, 20, 16, 24, 34, 0, 12, 9, 0, 25, 14, 22, 26, 11, 23, 30, 33, 3, 32, 27, 13, 21, 19, 35, 0, 0, 10, 6
|0, 0, 27, 0, 0, 0, 30, 6, 17, 36, 29, 12, 19, 5, 20, 23, 21, 0, 0, 0, 10, 28, 25, 8, 0, 1, 16, 11, 15, 9, 26, 0, 3, 14, 13, 33|];