order = 6;
grid = [|3, 0, 0, 17, 27, 0, 0, 28, 13, 8, 6, 22, 16, 5, 0, 29, 26, 0, 23, 25, 10, 0, 0, 0, 4, 7, 24, 20, 9, 0, 1, 34, 12, 30, 32, 11
|1, 4, 14, 33, 0, 10, 0, 27, 18, 0, 31, 7, 12, 0, 15, 24, 11, 0, 30, 0, 32, 3, 2, 35, 21, 36, 19, 8, 26, 5, 0, 0, 0, 9, 13, 0
|9, 0, 0, 30, 0, 8, 16, 1, 0, 32, 19, 35, 6, 2, 0, 0, 0, 33, 7, 0, 17, 28, 31, 29, 10, 12, 27, 0, 13, 15, 3, 0, 23, 26, 24, 18
|15, 26, 0, 0, 0, 28, 0, 30, 36, 9, 20, 25, 0, 0, 13, 0, 3, 10, 1, 0, 33, 34, 0, 12, 0, 18, 0, 23, 14, 11, 0, 17, 31, 19, 2, 16
|0, 23, 0, 13, 11, 7, 14, 12, 3, 21, 0, 24, 34, 0, 28, 22, 32, 27, 26, 9, 8, 19, 15, 5, 2, 25, 16, 0, 0, 0, 33, 6, 0, 0, 0, 29
|29, 24, 12, 0, 0, 0, 33, 0, 11, 0, 2, 0, 9, 0, 1, 25, 21, 30, 0, 6, 0, 0, 18, 4, 0, 17, 31, 3, 0, 0, 0, 7, 27, 14, 0, 0
|0, 34, 0, 31, 21, 23, 12, 33, 0, 22, 8, 19, 0, 25, 3, 26, 7, 5, 0, 0, 0, 20, 36, 28, 0, 27, 0, 0, 15, 14, 0, 2, 0, 18, 17, 0
|14, 3, 0, 8, 0, 32, 1, 13, 0, 0, 0, 0, 20, 0, 0, 35, 23, 29, 0, 7, 16, 17, 0, 33, 24, 30, 2, 0, 19, 12, 21, 27, 6, 34, 25, 0
|0, 28, 17, 27, 25, 0, 7, 14, 32, 0, 16, 29, 0, 36, 10, 13, 12, 18, 19, 0, 0, 4, 8, 0, 34, 0, 22, 21, 31, 0, 11, 0, 30, 15, 23, 0
|16, 7, 0, 24, 1, 0, 0, 31, 23, 25, 21, 0, 22, 6, 4, 8, 0, 0, 0, 27, 0, 10, 9, 0, 36, 3, 0, 28, 5, 26, 14, 0, 13, 12, 35, 0
|10, 11, 0, 9, 0, 12, 30, 0, 35, 26, 0, 20, 32, 0, 2, 0, 28, 19, 0, 34, 0, 24, 23, 15, 29, 0, 0, 0, 7, 18, 16, 31, 8, 3, 0, 0
|33, 0, 0, 0, 15, 0, 6, 9, 27, 18, 36, 34, 14, 16, 0, 11, 30, 0, 3, 0, 31, 25, 0, 1, 0, 4, 0, 0, 10, 0, 28, 24, 0, 32, 0, 0
|27, 0, 10, 0, 35, 0, 2, 0, 0, 12, 7, 30, 0, 0, 16, 18, 19, 25, 0, 3, 28, 0, 34, 0, 32, 13, 0, 0, 0, 0, 0, 0, 24, 36, 0, 0
|17, 9, 11, 2, 23, 1, 26, 0, 15, 0, 34, 36, 28, 0, 22, 0, 31, 12, 4, 0, 30, 8, 0, 0, 20, 16, 0, 0, 0, 21, 19, 0, 35, 0, 0, 0
|34, 30, 0, 19, 0, 0, 0, 5, 28, 11, 25, 33, 36, 0, 0, 17, 10, 7, 20, 29, 0, 0, 6, 13, 18, 9, 1, 0, 12, 3, 23, 14, 16, 8, 31, 22
|0, 0, 3, 15, 14, 0, 4, 18, 22, 19, 29, 9, 35, 0, 23, 30, 27, 13, 32, 31, 1, 2, 33, 21, 0, 34, 0, 0, 0, 0, 0, 20, 0, 7, 12, 17
|0, 18, 7, 28, 22, 0, 3, 20, 16, 0, 32, 0, 5, 0, 21, 34, 2, 1, 12, 36, 9, 11, 0, 14, 15, 23, 0, 0, 24, 17, 0, 30, 26, 33, 6, 0
|0, 0, 0, 12, 33, 31, 0, 0, 21, 35, 10, 17, 29, 14, 8, 9, 0, 0, 16, 0, 19, 27, 5, 0, 0, 22, 30, 0, 28, 36, 34, 0, 3, 11, 1, 2
|32, 0, 29, 0, 0, 15, 0, 19, 9, 0, 0, 16, 0, 3, 18, 21, 5, 36, 0, 12, 4, 13, 0, 11, 27, 31, 6, 34, 17, 1, 30, 23, 10, 2, 14, 35
|22, 2, 1, 26, 0, 3, 28, 36, 8, 29, 13, 15, 0, 35, 0, 23, 0, 0, 0, 17, 27, 33, 14, 30, 16, 10, 21, 18, 20, 32, 6, 12, 11, 0, 0, 7
|11, 33, 24, 4, 10, 9, 25, 22, 17, 5, 1, 6, 26, 0, 0, 0, 16, 2, 36, 0, 23, 31, 28, 0, 0, 0, 12, 0, 3, 0, 0, 32, 0, 21, 0, 0
|23, 17, 0, 0, 31, 0, 18, 35, 12, 0, 14, 21, 27, 28, 0, 0, 20, 8, 0, 0, 0, 0, 1, 16, 0, 11, 0, 0, 2, 19, 26, 0, 33, 22, 0, 0
|21, 35, 0, 18, 30, 0, 34, 11, 31, 33, 3, 10, 15, 9, 12, 32, 0, 14, 24, 0, 0, 7, 19, 0, 0, 0, 8, 26, 36, 22, 4, 0, 0, 29, 16, 1
|5, 12, 16, 0, 36, 0, 32, 0, 0, 0, 4, 0, 0, 1, 11, 7, 0, 17, 15, 0, 0, 0, 3, 0, 0, 24, 33, 0, 0, 0, 0, 0, 19, 31, 34, 8
|7, 0, 0, 3, 0, 0, 0, 4, 33, 36, 27, 23, 18, 8, 0, 0, 25, 16, 0, 28, 35, 26, 0, 31, 30, 21, 20, 12, 0, 2, 32, 0, 15, 1, 0, 0
|36, 0, 9, 32, 0, 17, 0, 7, 2, 16, 12, 5, 3, 0, 19, 1, 0, 6, 33, 8, 0, 0, 11, 20, 14, 26, 34, 24, 22, 28, 31, 29, 0, 0, 0, 0
|31, 15, 23, 34, 0, 14, 19, 21, 30, 17, 26, 8, 10, 22, 27, 2, 33, 32, 0, 0, 0, 18, 25, 9, 3, 0, 13, 36, 1, 0, 0, 11, 5, 20, 28, 12
|2, 0, 13, 11, 8, 0, 31, 0, 29, 20, 35, 0, 17, 0, 0, 0, 0, 28, 10, 14, 34, 5, 7, 23, 19, 6, 9, 32, 25, 27, 22, 26, 18, 16, 33, 30
|19, 25, 0, 5, 20, 26, 24, 32, 14, 0, 9, 1, 0, 34, 7, 31, 0, 0, 21, 22, 12, 0, 30, 27, 33, 8, 0, 0, 18, 4, 0, 36, 2, 35, 3, 13
|30, 21, 33, 16, 12, 35, 22, 34, 0, 0, 18, 11, 0, 20, 26, 15, 4, 9, 0, 1, 3, 36, 32, 19, 31, 0, 7, 17, 29, 0, 24, 10, 14, 0, 8, 6
|18, 0, 0, 22, 3, 33, 17, 26, 20, 24, 11, 14, 31, 23, 0, 5, 0, 4, 27, 0, 15, 0, 35, 0, 9, 2, 36, 0, 0, 25, 12, 0, 21, 28, 7, 10
|13, 14, 0, 23, 0, 25, 21, 10, 34, 15, 22, 12, 19, 11, 30, 6, 17, 26, 31, 0, 2, 32, 16, 0, 0, 29, 0, 0, 0, 7, 36, 8, 0, 24, 20, 3
|4, 0, 15, 0, 7, 11, 0, 25, 5, 0, 0, 0, 2, 12, 35, 28, 1, 0, 8, 10, 0, 9, 13, 0, 17, 20, 3, 31, 21, 24, 29, 0, 0, 0, 18, 0
|0, 31, 26, 1, 17, 19, 0, 29, 6, 2, 23, 0, 21, 0, 0, 36, 34, 24, 11, 5, 7, 12, 20, 0, 22, 15, 18, 27, 16, 0, 0, 0, 0, 13, 0, 0
|12, 29, 0, 0, 0, 34, 8, 16, 7, 13, 33, 18, 25, 32, 20, 27, 0, 0, 28, 21, 0, 0, 4, 0, 1, 19, 26, 14, 0, 30, 15, 5, 22, 17, 11, 31
|24, 20, 0, 0, 5, 0, 35, 0, 19, 1, 28, 31, 7, 13, 14, 0, 18, 0, 25, 0, 22, 0, 29, 17, 0, 32, 11, 33, 34, 10, 0, 0, 9, 6, 27, 0|];