order = 6;
grid = [|23, 0, 3, 34, 0, 28, 11, 25, 13, 20, 16, 29, 17, 19, 6, 36, 5, 0, 0, 30, 32, 0, 0, 0, 27, 26, 2, 0, 21, 1, 4, 18, 22, 14, 8, 0
|9, 29, 7, 0, 4, 32, 3, 21, 0, 6, 0, 0, 14, 25, 33, 10, 8, 0, 0, 1, 5, 2, 0, 18, 0, 0, 16, 0, 17, 0, 11, 24, 28, 0, 20, 0
|21, 0, 20, 0, 30, 0, 31, 0, 8, 0, 0, 0, 32, 0, 0, 7, 13, 11, 0, 0, 25, 29, 6, 14, 34, 5, 4, 15, 0, 12, 33, 23, 0, 27, 0, 36
|0, 31, 0, 16, 22, 0, 33, 32, 7, 0, 23, 27, 34, 0, 26, 29, 12, 24, 17, 20, 13, 28, 8, 11, 14, 19, 0, 25, 35, 0, 15, 21, 1, 5, 3, 30
|0, 1, 11, 15, 18, 25, 24, 2, 10, 17, 14, 19, 21, 3, 16, 30, 23, 0, 35, 33, 34, 4, 7, 0, 0, 0, 20, 0, 28, 0, 0, 0, 29, 12, 26, 13
|0, 8, 33, 10, 14, 13, 0, 0, 5, 34, 26, 30, 31, 20, 0, 28, 0, 35, 3, 15, 0, 21, 27, 0, 11, 0, 0, 24, 32, 0, 9, 0, 0, 25, 16, 19
|13, 0, 35, 14, 0, 30, 0, 0, 12, 3, 18, 0, 28, 24, 25, 5, 0, 16, 33, 10, 31, 34, 29, 17, 0, 11, 21, 0, 0, 36, 2, 4, 26, 32, 7, 15
|11, 3, 24, 20, 31, 1, 10, 34, 0, 28, 5, 0, 18, 0, 0, 0, 0, 29, 0, 0, 0, 14, 32, 35, 4, 2, 25, 7, 8, 27, 12, 0, 33, 17, 30, 0
|0, 7, 5, 0, 16, 0, 8, 0, 0, 15, 33, 2, 19, 21, 31, 35, 34, 26, 11, 3, 0, 0, 28, 23, 12, 18, 0, 0, 0, 0, 0, 0, 6, 0, 24, 10
|33, 10, 29, 12, 28, 0, 0, 1, 0, 0, 25, 17, 11, 36, 30, 2, 20, 3, 15, 27, 0, 0, 9, 5, 0, 23, 14, 0, 6, 26, 19, 16, 13, 18, 0, 34
|0, 2, 0, 23, 9, 21, 0, 26, 0, 36, 30, 0, 4, 0, 12, 33, 27, 10, 0, 24, 16, 0, 25, 1, 17, 15, 0, 3, 22, 35, 0, 29, 0, 28, 11, 5
|15, 27, 26, 18, 0, 4, 19, 20, 0, 35, 11, 24, 8, 17, 0, 32, 0, 0, 0, 2, 12, 0, 13, 7, 10, 16, 5, 28, 30, 0, 21, 0, 9, 0, 22, 0
|18, 17, 34, 0, 23, 0, 27, 29, 0, 14, 0, 0, 0, 4, 0, 11, 26, 36, 28, 5, 8, 1, 0, 31, 19, 33, 30, 20, 13, 2, 16, 0, 10, 6, 12, 22
|28, 0, 14, 22, 0, 19, 4, 0, 20, 0, 35, 36, 15, 0, 0, 0, 31, 13, 30, 29, 18, 0, 0, 27, 0, 1, 26, 17, 12, 3, 23, 33, 0, 7, 0, 0
|29, 0, 8, 26, 25, 0, 22, 11, 34, 0, 24, 0, 3, 33, 23, 27, 28, 0, 0, 0, 10, 0, 0, 9, 0, 35, 0, 0, 14, 21, 30, 1, 19, 2, 32, 0
|1, 11, 12, 7, 21, 0, 0, 0, 33, 13, 0, 10, 25, 18, 19, 0, 32, 0, 34, 14, 0, 3, 0, 22, 0, 29, 31, 8, 0, 0, 5, 35, 4, 0, 27, 24
|10, 0, 36, 31, 6, 0, 0, 17, 1, 0, 0, 18, 30, 14, 35, 8, 16, 12, 2, 13, 26, 32, 11, 15, 7, 0, 24, 0, 5, 25, 0, 0, 21, 0, 34, 29
|0, 30, 15, 0, 3, 27, 26, 0, 0, 0, 7, 21, 6, 22, 5, 0, 29, 20, 0, 19, 0, 23, 0, 33, 9, 0, 10, 18, 11, 4, 0, 31, 36, 13, 0, 14
|0, 0, 19, 6, 0, 12, 0, 0, 0, 1, 27, 20, 22, 8, 9, 4, 30, 31, 0, 0, 0, 18, 10, 29, 26, 17, 11, 16, 33, 23, 0, 28, 32, 0, 14, 0
|22, 32, 1, 13, 10, 18, 5, 0, 19, 0, 21, 23, 0, 0, 0, 0, 0, 6, 16, 0, 2, 26, 30, 24, 35, 0, 28, 14, 0, 9, 17, 27, 11, 8, 0, 20
|14, 20, 25, 9, 0, 26, 0, 10, 32, 7, 29, 4, 35, 16, 11, 0, 17, 33, 36, 8, 0, 31, 15, 3, 5, 6, 13, 0, 0, 22, 18, 30, 24, 21, 19, 12
|27, 28, 0, 0, 35, 0, 0, 0, 9, 0, 31, 14, 0, 13, 0, 25, 3, 0, 32, 0, 19, 22, 23, 0, 0, 20, 0, 2, 0, 15, 1, 7, 16, 0, 4, 26
|0, 5, 30, 4, 0, 8, 0, 0, 6, 26, 22, 11, 20, 1, 2, 15, 24, 19, 14, 0, 9, 17, 33, 13, 25, 12, 27, 21, 7, 0, 35, 10, 0, 23, 29, 0
|31, 33, 23, 0, 0, 0, 25, 24, 17, 16, 2, 8, 26, 32, 27, 0, 18, 28, 20, 12, 11, 35, 1, 0, 30, 0, 3, 36, 0, 19, 0, 0, 0, 22, 13, 0
|0, 15, 31, 0, 27, 7, 0, 4, 14, 0, 20, 33, 0, 5, 28, 22, 19, 0, 29, 0, 0, 16, 12, 6, 0, 0, 17, 0, 0, 18, 36, 34, 3, 35, 21, 1
|12, 9, 0, 30, 13, 0, 0, 31, 0, 21, 17, 32, 36, 0, 24, 16, 0, 14, 7, 23, 33, 10, 5, 25, 8, 3, 6, 34, 15, 11, 0, 22, 20, 19, 18, 0
|35, 0, 22, 0, 20, 10, 12, 7, 18, 0, 9, 6, 33, 26, 0, 13, 21, 0, 0, 4, 3, 0, 17, 28, 29, 0, 19, 5, 36, 24, 0, 14, 27, 0, 2, 16
|32, 19, 21, 28, 1, 0, 0, 36, 30, 27, 34, 15, 23, 31, 4, 3, 6, 8, 24, 18, 14, 9, 26, 20, 22, 0, 0, 0, 2, 0, 0, 0, 7, 11, 33, 17
|26, 36, 0, 3, 29, 14, 0, 13, 23, 25, 10, 0, 2, 30, 0, 17, 11, 0, 0, 0, 0, 27, 34, 19, 28, 7, 33, 9, 0, 20, 0, 0, 12, 15, 31, 0
|0, 16, 0, 17, 33, 34, 35, 19, 28, 0, 3, 5, 12, 29, 15, 20, 0, 7, 0, 11, 0, 0, 22, 2, 21, 27, 32, 30, 0, 0, 0, 26, 0, 9, 0, 4
|0, 0, 13, 1, 15, 31, 20, 5, 0, 0, 4, 25, 16, 28, 8, 26, 2, 32, 23, 17, 0, 0, 35, 0, 0, 14, 9, 29, 18, 0, 3, 0, 34, 0, 6, 0
|20, 14, 0, 8, 19, 0, 30, 6, 3, 0, 12, 26, 5, 0, 29, 24, 0, 9, 4, 34, 28, 33, 0, 16, 0, 21, 22, 11, 25, 7, 13, 0, 0, 31, 1, 32
|30, 18, 0, 2, 32, 29, 17, 9, 11, 31, 15, 0, 13, 10, 22, 0, 25, 21, 1, 7, 6, 5, 0, 0, 3, 0, 23, 26, 27, 0, 20, 0, 35, 4, 36, 33
|36, 21, 0, 24, 11, 3, 32, 33, 2, 22, 0, 34, 1, 0, 17, 19, 14, 30, 0, 0, 0, 12, 18, 26, 0, 0, 35, 4, 0, 6, 7, 8, 0, 29, 0, 25
|34, 25, 0, 33, 17, 35, 14, 0, 24, 0, 0, 7, 0, 6, 20, 0, 0, 4, 13, 22, 0, 19, 3, 0, 2, 0, 36, 12, 0, 0, 0, 0, 30, 16, 28, 21
|0, 0, 0, 5, 26, 6, 0, 16, 0, 0, 8, 35, 7, 0, 3, 0, 33, 34, 0, 31, 15, 0, 36, 30, 20, 32, 1, 0, 19, 17, 22, 2, 14, 0, 23, 0|];