order = 6;
grid = [|23, 19, 17, 0, 0, 25, 9, 0, 28, 0, 32, 30, 6, 0, 29, 10, 33, 13, 16, 24, 0, 0, 0, 0, 0, 22, 3, 0, 0, 0, 35, 1, 0, 2, 0, 26
|0, 0, 4, 0, 31, 27, 12, 36, 29, 10, 13, 26, 2, 17, 20, 22, 8, 0, 3, 0, 35, 25, 28, 0, 19, 0, 1, 6, 14, 0, 5, 34, 24, 0, 33, 9
|2, 36, 6, 5, 0, 13, 0, 1, 0, 0, 0, 0, 0, 0, 9, 0, 0, 0, 4, 29, 0, 0, 23, 20, 10, 18, 0, 33, 12, 7, 3, 19, 0, 16, 0, 14
|1, 33, 0, 0, 22, 9, 23, 27, 16, 6, 0, 25, 15, 11, 0, 0, 3, 4, 30, 0, 2, 18, 0, 19, 21, 36, 24, 34, 0, 35, 0, 0, 0, 0, 20, 12
|3, 10, 24, 26, 34, 29, 22, 15, 17, 20, 0, 0, 1, 35, 16, 12, 28, 18, 5, 33, 0, 0, 7, 14, 0, 9, 30, 32, 13, 0, 23, 25, 21, 27, 11, 8
|11, 21, 35, 30, 0, 20, 0, 0, 4, 5, 3, 34, 0, 23, 19, 36, 24, 27, 0, 12, 1, 9, 13, 26, 31, 0, 0, 0, 29, 16, 32, 0, 22, 18, 0, 10
|0, 0, 18, 14, 35, 0, 5, 0, 0, 0, 30, 28, 0, 0, 0, 23, 1, 33, 0, 0, 0, 0, 0, 0, 0, 0, 0, 11, 2, 22, 0, 20, 16, 36, 3, 17
|26, 3, 12, 1, 23, 0, 20, 29, 0, 35, 25, 16, 13, 22, 6, 28, 0, 19, 0, 10, 33, 5, 0, 0, 7, 0, 9, 17, 0, 36, 0, 27, 0, 21, 24, 0
|0, 0, 0, 2, 27, 22, 15, 10, 32, 9, 36, 33, 0, 7, 0, 0, 0, 17, 6, 0, 20, 11, 26, 16, 0, 35, 23, 18, 28, 0, 14, 12, 0, 0, 31, 4
|0, 0, 28, 17, 21, 0, 7, 0, 19, 22, 0, 0, 31, 3, 0, 0, 0, 0, 0, 18, 32, 35, 0, 13, 0, 10, 20, 0, 0, 27, 33, 0, 9, 25, 26, 5
|10, 0, 7, 0, 24, 16, 14, 23, 1, 4, 27, 2, 36, 0, 0, 5, 0, 0, 22, 0, 0, 12, 9, 0, 0, 25, 31, 0, 0, 30, 19, 18, 6, 13, 34, 0
|13, 30, 0, 33, 0, 0, 17, 18, 0, 21, 34, 3, 9, 27, 12, 4, 11, 35, 0, 1, 24, 23, 0, 25, 16, 29, 0, 14, 19, 0, 28, 10, 32, 0, 8, 22
|0, 35, 31, 7, 29, 21, 0, 32, 0, 17, 22, 8, 0, 14, 11, 19, 34, 1, 28, 26, 12, 13, 3, 0, 25, 33, 2, 10, 0, 0, 16, 0, 36, 0, 0, 0
|32, 0, 27, 11, 0, 2, 26, 28, 12, 31, 1, 0, 0, 4, 0, 33, 29, 8, 0, 0, 19, 36, 0, 7, 30, 17, 0, 23, 22, 0, 34, 0, 14, 5, 0, 25
|19, 6, 36, 13, 0, 0, 34, 4, 0, 3, 15, 23, 30, 28, 26, 27, 0, 25, 35, 8, 16, 29, 32, 0, 0, 5, 7, 1, 0, 14, 2, 0, 17, 9, 22, 21
|12, 0, 16, 20, 0, 30, 29, 14, 21, 0, 6, 19, 23, 32, 0, 0, 0, 2, 1, 25, 0, 0, 5, 33, 18, 0, 28, 24, 4, 8, 11, 35, 0, 31, 0, 15
|0, 22, 0, 3, 33, 0, 16, 30, 35, 0, 7, 5, 18, 0, 21, 20, 9, 0, 11, 23, 0, 24, 0, 0, 34, 0, 6, 0, 31, 29, 4, 32, 8, 19, 27, 1
|0, 8, 5, 25, 1, 23, 2, 11, 9, 33, 10, 0, 17, 24, 36, 6, 22, 15, 27, 34, 4, 0, 31, 21, 35, 0, 26, 16, 32, 19, 12, 0, 28, 0, 29, 18
|33, 23, 30, 27, 32, 7, 11, 20, 3, 1, 0, 0, 28, 0, 34, 15, 0, 5, 0, 0, 29, 8, 18, 12, 14, 6, 0, 0, 17, 25, 31, 26, 35, 24, 0, 2
|0, 20, 13, 4, 26, 12, 10, 34, 5, 0, 0, 7, 29, 0, 27, 17, 6, 9, 21, 22, 3, 31, 1, 23, 15, 16, 0, 0, 18, 32, 8, 0, 19, 33, 28, 30
|0, 31, 22, 36, 0, 6, 21, 35, 0, 30, 29, 17, 24, 19, 4, 11, 23, 0, 26, 2, 7, 28, 27, 10, 0, 20, 8, 13, 9, 1, 15, 16, 25, 12, 5, 32
|17, 0, 9, 16, 11, 0, 32, 26, 0, 0, 31, 27, 20, 0, 18, 21, 0, 7, 0, 0, 0, 0, 0, 0, 29, 12, 0, 35, 0, 3, 0, 22, 1, 0, 4, 34
|24, 2, 10, 29, 25, 5, 0, 0, 15, 19, 9, 0, 0, 26, 1, 35, 0, 31, 17, 0, 6, 32, 20, 4, 23, 0, 34, 7, 0, 0, 13, 14, 3, 11, 18, 27
|0, 1, 8, 21, 0, 28, 13, 22, 6, 0, 2, 36, 12, 33, 3, 0, 0, 16, 25, 35, 0, 15, 14, 11, 24, 0, 0, 0, 27, 5, 17, 29, 7, 0, 9, 20
|20, 14, 33, 0, 18, 3, 19, 17, 8, 12, 28, 32, 4, 30, 25, 13, 0, 6, 0, 7, 23, 26, 0, 24, 0, 2, 0, 31, 16, 15, 10, 21, 27, 0, 1, 0
|9, 12, 34, 32, 2, 36, 0, 21, 23, 13, 33, 20, 0, 18, 0, 31, 35, 28, 29, 30, 0, 0, 16, 0, 22, 14, 25, 4, 7, 11, 26, 5, 15, 3, 17, 19
|27, 24, 26, 19, 5, 15, 30, 25, 34, 7, 35, 22, 3, 1, 0, 29, 20, 11, 0, 4, 18, 2, 0, 0, 6, 21, 13, 28, 23, 10, 9, 0, 0, 14, 0, 16
|21, 7, 11, 6, 13, 0, 3, 0, 36, 16, 0, 29, 10, 0, 33, 2, 27, 0, 15, 0, 5, 0, 25, 31, 26, 34, 0, 8, 0, 17, 0, 0, 20, 22, 0, 23
|0, 17, 0, 0, 4, 0, 27, 0, 10, 15, 11, 14, 0, 36, 22, 0, 7, 26, 0, 32, 0, 0, 35, 9, 20, 0, 18, 3, 0, 12, 24, 2, 34, 29, 6, 13
|30, 28, 29, 35, 16, 10, 0, 31, 2, 26, 0, 0, 32, 0, 14, 34, 0, 23, 0, 17, 13, 3, 0, 6, 27, 24, 36, 0, 5, 0, 25, 4, 11, 0, 0, 7
|29, 5, 2, 28, 0, 35, 0, 16, 0, 8, 23, 0, 0, 21, 0, 26, 4, 3, 24, 14, 25, 20, 12, 36, 11, 32, 22, 0, 10, 18, 0, 9, 0, 17, 19, 33
|15, 32, 0, 9, 20, 17, 4, 19, 22, 2, 26, 18, 0, 0, 31, 8, 0, 29, 13, 0, 27, 0, 0, 0, 0, 0, 0, 30, 0, 24, 36, 0, 5, 34, 0, 0
|0, 27, 21, 0, 12, 19, 0, 9, 30, 29, 17, 1, 0, 0, 23, 25, 15, 0, 32, 11, 26, 4, 34, 3, 0, 8, 35, 20, 0, 0, 22, 13, 18, 7, 0, 28
|0, 0, 0, 24, 0, 33, 28, 3, 11, 0, 0, 6, 35, 0, 0, 0, 14, 0, 18, 9, 0, 0, 8, 30, 36, 19, 0, 29, 34, 13, 27, 15, 12, 4, 2, 31
|0, 0, 1, 34, 8, 18, 36, 0, 14, 27, 0, 35, 0, 6, 0, 9, 19, 32, 0, 5, 31, 7, 29, 0, 17, 15, 33, 12, 0, 2, 21, 24, 10, 26, 16, 3
|36, 13, 14, 31, 30, 11, 25, 12, 33, 0, 0, 0, 0, 5, 0, 18, 17, 24, 2, 6, 0, 1, 0, 22, 4, 7, 16, 9, 3, 26, 20, 8, 0, 32, 35, 29|];