order = 6;
grid = [|0, 23, 34, 0, 13, 10, 0, 11, 0, 20, 17, 12, 2, 31, 35, 26, 3, 0, 30, 0, 24, 15, 33, 19, 0, 14, 8, 0, 36, 28, 9, 1, 0, 0, 0, 0
|30, 0, 25, 0, 11, 0, 31, 22, 0, 0, 0, 8, 17, 0, 20, 19, 36, 0, 6, 14, 0, 0, 28, 5, 15, 23, 12, 2, 10, 21, 0, 16, 26, 33, 13, 7
|8, 7, 36, 26, 20, 32, 15, 34, 0, 0, 13, 33, 30, 4, 23, 28, 1, 24, 2, 16, 0, 0, 3, 9, 6, 31, 22, 35, 11, 0, 10, 0, 12, 29, 0, 19
|28, 4, 0, 17, 1, 12, 21, 24, 2, 23, 3, 5, 0, 18, 33, 29, 0, 6, 34, 0, 10, 26, 7, 0, 0, 9, 19, 27, 16, 25, 35, 20, 0, 32, 31, 0
|0, 2, 9, 33, 0, 22, 10, 0, 7, 0, 30, 26, 0, 0, 27, 14, 0, 5, 0, 35, 31, 23, 12, 25, 20, 3, 1, 32, 13, 17, 0, 36, 4, 0, 34, 24
|14, 0, 5, 3, 35, 19, 0, 16, 0, 36, 9, 27, 21, 22, 25, 10, 7, 12, 0, 0, 13, 29, 20, 0, 26, 4, 24, 0, 34, 18, 17, 23, 2, 6, 30, 15
|22, 10, 26, 13, 19, 6, 29, 30, 23, 17, 25, 32, 1, 27, 0, 18, 15, 28, 3, 4, 12, 0, 21, 8, 35, 16, 34, 14, 33, 0, 11, 0, 9, 0, 0, 2
|31, 17, 27, 0, 28, 0, 0, 1, 0, 0, 16, 2, 34, 30, 0, 9, 25, 0, 14, 22, 20, 10, 0, 0, 0, 0, 13, 0, 0, 11, 7, 4, 0, 3, 0, 8
|9, 0, 30, 7, 15, 0, 33, 10, 8, 0, 35, 34, 0, 2, 11, 13, 20, 22, 0, 0, 0, 16, 32, 0, 0, 36, 0, 18, 4, 23, 6, 29, 28, 26, 12, 0
|11, 0, 24, 4, 0, 25, 14, 6, 36, 9, 7, 28, 19, 3, 32, 0, 5, 23, 0, 29, 0, 35, 0, 26, 0, 0, 0, 10, 1, 20, 22, 13, 34, 27, 0, 16
|12, 5, 14, 29, 0, 36, 3, 18, 20, 19, 11, 31, 0, 16, 24, 4, 10, 21, 7, 34, 30, 2, 9, 13, 27, 8, 28, 22, 0, 6, 15, 25, 0, 1, 17, 33
|34, 33, 0, 0, 16, 20, 4, 0, 15, 12, 22, 0, 7, 26, 17, 6, 29, 0, 19, 23, 28, 1, 24, 0, 5, 2, 21, 25, 9, 31, 14, 0, 0, 35, 36, 0
|5, 0, 0, 0, 14, 28, 0, 35, 13, 31, 8, 0, 0, 10, 3, 0, 0, 26, 0, 1, 19, 21, 2, 18, 4, 0, 0, 7, 0, 24, 12, 11, 23, 0, 25, 22
|23, 0, 10, 8, 17, 0, 36, 33, 22, 30, 27, 0, 0, 6, 29, 1, 0, 0, 24, 7, 4, 5, 25, 14, 0, 0, 32, 13, 18, 16, 26, 31, 3, 28, 15, 20
|0, 32, 13, 20, 0, 0, 2, 4, 17, 0, 24, 7, 27, 0, 36, 22, 12, 18, 23, 0, 33, 0, 0, 15, 1, 19, 14, 0, 31, 29, 0, 34, 5, 0, 6, 0
|35, 11, 7, 0, 0, 15, 23, 21, 18, 3, 28, 1, 24, 0, 14, 16, 33, 30, 0, 0, 0, 0, 13, 6, 0, 22, 26, 8, 25, 0, 0, 0, 0, 0, 4, 0
|29, 0, 21, 25, 24, 0, 32, 12, 14, 10, 0, 0, 4, 13, 7, 17, 23, 0, 26, 3, 22, 31, 27, 34, 28, 11, 35, 20, 0, 36, 0, 9, 33, 30, 18, 1
|0, 19, 4, 1, 22, 18, 0, 26, 0, 11, 20, 16, 25, 0, 8, 15, 34, 31, 28, 32, 9, 30, 35, 29, 3, 10, 17, 12, 23, 33, 36, 14, 24, 7, 2, 13
|0, 0, 16, 19, 27, 4, 17, 0, 0, 1, 34, 30, 36, 7, 15, 2, 14, 0, 18, 0, 35, 25, 10, 28, 32, 6, 23, 31, 24, 0, 5, 3, 0, 0, 9, 21
|0, 21, 0, 9, 36, 33, 24, 15, 0, 4, 0, 3, 0, 12, 0, 34, 0, 13, 0, 0, 32, 7, 0, 17, 8, 0, 16, 0, 29, 0, 0, 6, 31, 0, 35, 23
|1, 15, 22, 31, 5, 3, 7, 0, 0, 0, 32, 6, 0, 0, 18, 23, 35, 0, 13, 19, 0, 0, 0, 36, 0, 26, 2, 0, 12, 0, 0, 27, 17, 25, 16, 0
|7, 34, 0, 10, 29, 0, 0, 2, 35, 0, 0, 22, 0, 8, 16, 31, 32, 25, 4, 0, 0, 0, 1, 3, 13, 30, 0, 36, 0, 27, 18, 24, 20, 0, 26, 0
|0, 28, 18, 12, 30, 24, 11, 14, 0, 13, 31, 25, 5, 0, 0, 3, 27, 19, 15, 6, 0, 34, 16, 23, 33, 0, 20, 4, 0, 9, 0, 7, 22, 36, 1, 0
|0, 35, 0, 14, 32, 8, 18, 28, 0, 16, 0, 23, 9, 24, 30, 21, 11, 1, 27, 26, 0, 22, 29, 31, 34, 17, 25, 0, 0, 15, 13, 33, 0, 4, 19, 0
|36, 22, 31, 35, 25, 17, 16, 3, 0, 15, 29, 0, 23, 33, 19, 11, 0, 0, 0, 21, 18, 0, 34, 0, 12, 0, 10, 26, 8, 13, 2, 0, 0, 0, 5, 4
|32, 20, 28, 0, 8, 7, 25, 0, 31, 6, 1, 21, 12, 0, 22, 0, 0, 3, 0, 0, 29, 13, 0, 30, 18, 33, 27, 24, 0, 14, 19, 0, 0, 0, 10, 9
|10, 14, 23, 6, 0, 30, 12, 9, 19, 2, 4, 24, 20, 0, 21, 0, 0, 17, 0, 25, 27, 32, 5, 7, 22, 0, 11, 0, 28, 34, 31, 15, 35, 13, 0, 3
|24, 9, 29, 21, 12, 13, 22, 32, 0, 34, 14, 0, 16, 1, 0, 7, 8, 15, 36, 0, 23, 28, 0, 10, 25, 0, 31, 17, 3, 0, 0, 26, 0, 18, 11, 30
|3, 18, 0, 11, 0, 1, 13, 7, 26, 0, 5, 36, 0, 32, 0, 30, 0, 10, 0, 0, 14, 8, 22, 16, 23, 15, 29, 6, 20, 35, 21, 12, 25, 24, 0, 34
|33, 0, 2, 15, 0, 27, 0, 17, 11, 0, 10, 18, 26, 0, 13, 5, 31, 14, 0, 0, 3, 20, 4, 12, 36, 7, 0, 21, 30, 19, 23, 0, 1, 22, 29, 6
|0, 25, 0, 28, 9, 0, 0, 31, 3, 0, 0, 15, 13, 23, 0, 32, 26, 0, 1, 8, 16, 14, 0, 35, 10, 29, 4, 34, 0, 30, 0, 22, 6, 19, 0, 5
|6, 3, 20, 0, 33, 5, 0, 29, 12, 32, 21, 0, 18, 0, 4, 0, 28, 16, 10, 9, 34, 27, 15, 2, 31, 25, 36, 11, 0, 8, 1, 0, 13, 23, 0, 26
|0, 36, 32, 0, 0, 31, 9, 0, 16, 0, 23, 4, 33, 0, 10, 0, 30, 11, 22, 13, 5, 0, 17, 20, 24, 0, 18, 1, 6, 12, 0, 35, 21, 34, 14, 29
|4, 27, 0, 30, 10, 34, 28, 13, 0, 7, 19, 14, 31, 35, 1, 0, 17, 29, 0, 18, 6, 0, 23, 21, 0, 20, 0, 5, 22, 26, 25, 0, 11, 0, 0, 36
|16, 29, 35, 0, 21, 26, 30, 0, 0, 8, 2, 0, 0, 36, 0, 0, 0, 20, 25, 28, 7, 19, 31, 0, 0, 13, 0, 9, 17, 0, 4, 10, 15, 12, 32, 18
|0, 13, 1, 24, 18, 14, 20, 36, 34, 0, 6, 0, 3, 0, 5, 25, 21, 0, 29, 30, 26, 12, 11, 0, 2, 0, 7, 0, 27, 32, 33, 0, 16, 31, 28, 17|];