order = 6;
grid = [|0, 5, 35, 30, 18, 29, 27, 15, 0, 0, 31, 0, 0, 28, 21, 34, 7, 33, 0, 14, 2, 23, 9, 3, 10, 19, 36, 0, 16, 4, 24, 25, 8, 12, 32, 0
|0, 12, 1, 0, 17, 0, 0, 13, 35, 6, 16, 0, 19, 2, 10, 0, 31, 3, 18, 0, 8, 0, 11, 28, 0, 30, 15, 0, 9, 0, 23, 4, 20, 26, 14, 34
|0, 16, 2, 31, 14, 0, 0, 0, 24, 0, 5, 8, 0, 0, 32, 35, 4, 15, 36, 7, 0, 0, 10, 0, 6, 0, 0, 0, 20, 18, 21, 13, 0, 28, 11, 19
|36, 13, 10, 21, 0, 23, 32, 0, 14, 7, 0, 0, 0, 9, 12, 5, 0, 26, 16, 35, 0, 1, 25, 0, 34, 0, 0, 33, 0, 0, 0, 0, 27, 0, 0, 17
|19, 34, 0, 8, 0, 9, 3, 0, 0, 12, 29, 17, 14, 30, 20, 25, 22, 16, 27, 15, 4, 0, 0, 13, 0, 23, 35, 0, 32, 24, 0, 33, 5, 36, 18, 6
|4, 22, 20, 15, 0, 25, 18, 19, 36, 33, 34, 2, 27, 11, 29, 13, 23, 8, 0, 0, 26, 0, 0, 5, 17, 14, 28, 12, 0, 21, 1, 10, 16, 7, 9, 35
|1, 14, 28, 0, 0, 15, 0, 0, 8, 19, 18, 24, 20, 31, 25, 0, 0, 2, 34, 5, 12, 33, 3, 9, 36, 17, 22, 10, 0, 27, 0, 29, 26, 23, 0, 32
|2, 3, 36, 29, 0, 4, 0, 5, 34, 25, 20, 23, 33, 0, 0, 16, 13, 1, 6, 0, 0, 0, 26, 24, 14, 0, 0, 18, 19, 0, 22, 12, 11, 9, 10, 27
|0, 23, 0, 34, 10, 6, 7, 3, 32, 9, 14, 33, 11, 5, 4, 24, 8, 30, 0, 0, 22, 0, 0, 27, 12, 16, 21, 35, 1, 26, 20, 17, 25, 31, 13, 36
|0, 0, 12, 32, 30, 33, 1, 0, 4, 10, 26, 0, 17, 0, 36, 0, 19, 29, 0, 11, 31, 0, 7, 16, 13, 0, 9, 20, 15, 34, 0, 6, 21, 35, 3, 8
|0, 20, 7, 26, 0, 22, 0, 17, 6, 28, 13, 12, 35, 0, 0, 9, 0, 27, 0, 30, 23, 8, 0, 36, 11, 2, 31, 24, 29, 33, 0, 0, 14, 19, 0, 16
|9, 31, 0, 17, 8, 21, 15, 0, 0, 36, 30, 29, 0, 0, 22, 0, 10, 12, 4, 19, 0, 20, 18, 0, 0, 25, 0, 23, 5, 0, 33, 2, 28, 34, 24, 0
|8, 0, 0, 0, 32, 2, 34, 0, 9, 0, 0, 0, 16, 0, 17, 33, 11, 21, 0, 0, 5, 0, 28, 22, 29, 0, 0, 15, 25, 1, 31, 23, 0, 27, 36, 12
|23, 25, 0, 27, 16, 0, 36, 4, 22, 11, 1, 0, 31, 12, 0, 0, 30, 24, 7, 18, 34, 0, 14, 0, 0, 21, 0, 28, 33, 8, 17, 26, 0, 6, 20, 9
|34, 0, 0, 9, 20, 1, 30, 0, 10, 0, 25, 35, 0, 22, 2, 3, 28, 13, 21, 8, 0, 15, 33, 6, 26, 27, 0, 0, 17, 31, 14, 19, 32, 18, 0, 24
|35, 29, 30, 28, 0, 5, 0, 18, 17, 2, 0, 6, 0, 0, 1, 19, 0, 4, 0, 0, 3, 0, 12, 32, 24, 20, 13, 0, 14, 11, 16, 22, 34, 33, 0, 15
|14, 21, 18, 0, 0, 31, 28, 33, 0, 0, 23, 19, 36, 0, 6, 15, 32, 0, 11, 27, 25, 24, 16, 0, 30, 0, 4, 3, 22, 35, 10, 5, 2, 1, 8, 13
|10, 17, 13, 22, 0, 36, 20, 24, 15, 16, 21, 0, 8, 27, 0, 14, 35, 18, 26, 0, 1, 0, 0, 30, 0, 5, 6, 2, 0, 0, 28, 7, 4, 0, 25, 11
|30, 0, 3, 20, 36, 0, 29, 0, 2, 17, 15, 18, 0, 0, 0, 12, 21, 0, 14, 9, 24, 0, 23, 0, 35, 10, 11, 6, 27, 16, 13, 0, 31, 22, 28, 5
|0, 0, 31, 6, 24, 28, 10, 25, 33, 23, 9, 0, 32, 13, 11, 0, 26, 5, 0, 2, 0, 0, 22, 8, 4, 0, 0, 7, 0, 30, 0, 0, 29, 14, 15, 18
|0, 1, 8, 25, 0, 16, 0, 28, 5, 0, 22, 0, 9, 33, 0, 0, 27, 10, 0, 31, 6, 0, 0, 0, 0, 32, 0, 14, 13, 0, 34, 24, 7, 21, 26, 2
|0, 0, 5, 0, 0, 7, 6, 30, 1, 24, 12, 0, 0, 20, 23, 0, 29, 0, 35, 28, 27, 11, 13, 10, 0, 15, 33, 21, 8, 0, 36, 9, 0, 0, 16, 4
|0, 0, 29, 33, 15, 10, 14, 8, 0, 27, 0, 0, 4, 24, 0, 0, 2, 0, 12, 0, 0, 5, 0, 34, 9, 0, 1, 0, 0, 0, 3, 0, 6, 20, 19, 23
|17, 2, 22, 23, 0, 0, 0, 31, 0, 21, 0, 0, 3, 36, 15, 8, 14, 6, 19, 20, 32, 7, 29, 4, 0, 24, 12, 5, 26, 25, 11, 30, 1, 10, 27, 33
|7, 26, 34, 3, 19, 32, 35, 0, 0, 0, 0, 30, 2, 25, 0, 0, 36, 31, 22, 0, 9, 4, 5, 21, 15, 18, 0, 0, 0, 17, 0, 11, 10, 16, 23, 14
|24, 15, 33, 1, 0, 8, 26, 21, 25, 0, 0, 5, 22, 16, 0, 11, 0, 0, 29, 12, 14, 6, 30, 23, 0, 36, 2, 0, 28, 3, 32, 27, 13, 17, 35, 0
|29, 30, 0, 36, 2, 14, 17, 6, 12, 13, 0, 11, 10, 21, 8, 1, 0, 35, 0, 16, 0, 18, 20, 0, 22, 4, 0, 26, 23, 0, 0, 0, 0, 15, 5, 0
|0, 10, 23, 0, 0, 13, 24, 0, 0, 32, 7, 9, 15, 29, 0, 0, 17, 0, 8, 34, 0, 25, 2, 19, 1, 35, 0, 0, 0, 0, 0, 3, 12, 0, 22, 20
|20, 0, 21, 5, 22, 35, 4, 29, 18, 14, 8, 16, 0, 0, 27, 28, 34, 23, 0, 24, 15, 17, 36, 11, 33, 0, 25, 0, 7, 10, 26, 0, 19, 2, 6, 30
|0, 28, 16, 18, 12, 17, 22, 1, 23, 0, 2, 15, 30, 0, 19, 0, 5, 32, 0, 26, 35, 10, 27, 0, 8, 0, 0, 9, 6, 14, 25, 36, 24, 29, 33, 21
|16, 19, 14, 2, 1, 12, 0, 0, 0, 15, 17, 28, 29, 35, 0, 0, 0, 9, 23, 22, 0, 27, 0, 25, 18, 0, 7, 34, 0, 13, 0, 31, 36, 5, 0, 3
|3, 8, 0, 10, 29, 34, 5, 20, 19, 31, 6, 27, 25, 18, 14, 23, 33, 36, 28, 13, 7, 2, 24, 15, 21, 1, 0, 4, 30, 9, 35, 16, 0, 11, 12, 26
|0, 36, 17, 35, 21, 0, 0, 23, 0, 22, 24, 0, 13, 6, 31, 10, 0, 34, 33, 3, 18, 16, 4, 26, 27, 29, 0, 8, 2, 28, 19, 0, 15, 32, 1, 7
|15, 33, 0, 4, 31, 30, 0, 34, 13, 8, 0, 14, 0, 0, 3, 2, 1, 22, 0, 36, 0, 19, 35, 29, 16, 26, 0, 11, 0, 23, 27, 28, 18, 24, 0, 25
|22, 0, 0, 0, 23, 20, 0, 26, 29, 0, 36, 0, 28, 0, 30, 4, 15, 17, 0, 6, 11, 0, 34, 0, 25, 12, 0, 0, 35, 19, 0, 21, 33, 0, 2, 10
|28, 0, 0, 0, 25, 0, 2, 7, 3, 35, 4, 0, 5, 19, 24, 27, 16, 11, 30, 0, 21, 0, 32, 1, 31, 33, 14, 22, 36, 15, 6, 20, 23, 8, 0, 0|];