order = 6;
grid = [|17, 29, 0, 0, 0, 0, 0, 36, 7, 8, 28, 0, 11, 0, 10, 4, 0, 0, 0, 23, 2, 6, 33, 3, 24, 12, 1, 22, 21, 18, 0, 27, 0, 0, 25, 5
|35, 12, 0, 2, 19, 8, 23, 18, 31, 26, 6, 22, 24, 7, 25, 21, 0, 16, 0, 27, 15, 20, 1, 0, 0, 32, 17, 0, 11, 29, 3, 28, 10, 33, 13, 34
|28, 7, 25, 18, 0, 0, 33, 20, 17, 24, 12, 0, 9, 31, 34, 2, 0, 6, 32, 11, 10, 14, 35, 0, 13, 0, 16, 8, 0, 27, 23, 26, 0, 0, 15, 22
|9, 26, 27, 24, 0, 3, 21, 5, 0, 0, 0, 0, 0, 22, 12, 19, 15, 0, 31, 25, 4, 29, 0, 13, 0, 30, 10, 28, 0, 34, 0, 6, 0, 7, 0, 0
|31, 11, 23, 20, 0, 34, 0, 29, 10, 2, 19, 27, 0, 33, 17, 30, 5, 18, 7, 28, 22, 12, 21, 36, 25, 26, 15, 3, 0, 9, 16, 24, 14, 0, 1, 4
|15, 5, 10, 21, 22, 4, 3, 25, 11, 32, 9, 30, 23, 29, 27, 0, 0, 28, 26, 24, 34, 18, 0, 8, 0, 6, 33, 20, 14, 0, 0, 2, 12, 0, 17, 35
|30, 15, 35, 17, 9, 0, 7, 31, 0, 34, 13, 21, 19, 25, 0, 16, 0, 22, 36, 29, 20, 0, 0, 6, 14, 4, 8, 10, 27, 0, 0, 12, 24, 18, 28, 0
|0, 23, 33, 0, 29, 12, 1, 17, 28, 5, 0, 11, 14, 6, 0, 0, 0, 0, 8, 26, 19, 10, 25, 7, 0, 9, 24, 0, 30, 32, 0, 0, 21, 2, 31, 0
|27, 0, 0, 7, 0, 0, 0, 35, 0, 23, 0, 36, 13, 21, 15, 32, 31, 0, 30, 2, 0, 0, 0, 1, 29, 18, 11, 0, 0, 16, 14, 33, 8, 25, 0, 0
|0, 32, 26, 13, 11, 0, 16, 6, 30, 18, 10, 8, 3, 27, 5, 33, 2, 17, 28, 9, 0, 35, 14, 0, 15, 0, 0, 21, 22, 12, 20, 7, 0, 19, 34, 0
|8, 25, 28, 14, 4, 0, 2, 27, 32, 0, 20, 19, 10, 30, 0, 0, 7, 29, 24, 0, 0, 11, 12, 0, 0, 0, 0, 23, 5, 1, 0, 13, 9, 15, 6, 16
|6, 2, 1, 22, 10, 0, 0, 12, 25, 0, 29, 3, 0, 0, 23, 24, 26, 0, 16, 0, 0, 15, 13, 0, 19, 17, 31, 7, 33, 20, 36, 32, 11, 0, 0, 30
|19, 18, 32, 15, 28, 9, 14, 8, 6, 13, 11, 35, 4, 0, 0, 17, 0, 25, 20, 5, 0, 31, 7, 0, 30, 24, 34, 1, 0, 33, 0, 23, 0, 0, 0, 0
|2, 4, 7, 36, 0, 13, 30, 9, 16, 33, 24, 32, 1, 23, 18, 29, 20, 8, 22, 15, 26, 28, 19, 10, 6, 35, 27, 5, 3, 21, 31, 34, 17, 11, 0, 25
|26, 21, 6, 11, 0, 27, 36, 15, 2, 4, 5, 0, 33, 0, 9, 31, 0, 0, 23, 13, 12, 0, 30, 35, 22, 0, 0, 29, 0, 0, 8, 1, 0, 14, 3, 0
|5, 8, 0, 23, 35, 29, 10, 0, 3, 27, 0, 20, 21, 16, 11, 22, 0, 0, 33, 0, 25, 0, 2, 18, 12, 14, 0, 9, 0, 17, 24, 19, 32, 0, 7, 15
|33, 22, 20, 34, 30, 24, 17, 23, 19, 28, 0, 12, 27, 0, 0, 35, 6, 7, 0, 0, 32, 8, 9, 16, 0, 10, 18, 31, 0, 0, 21, 5, 13, 0, 36, 26
|0, 3, 12, 10, 25, 16, 26, 22, 0, 0, 31, 7, 0, 24, 28, 15, 19, 36, 0, 0, 14, 0, 11, 0, 32, 20, 0, 0, 0, 8, 30, 35, 4, 9, 18, 33
|13, 17, 22, 33, 21, 7, 12, 11, 0, 19, 36, 0, 26, 0, 20, 6, 0, 31, 2, 10, 3, 23, 27, 32, 0, 28, 14, 35, 16, 0, 0, 30, 34, 1, 29, 9
|0, 10, 2, 25, 34, 0, 35, 7, 0, 0, 33, 23, 0, 14, 0, 0, 29, 0, 12, 17, 28, 21, 15, 19, 9, 11, 0, 30, 0, 6, 0, 0, 18, 8, 24, 32
|32, 0, 36, 35, 1, 28, 0, 21, 29, 17, 0, 0, 16, 3, 0, 5, 0, 33, 14, 34, 11, 0, 26, 0, 0, 13, 0, 0, 0, 24, 6, 0, 0, 0, 10, 7
|29, 9, 24, 5, 0, 23, 22, 16, 18, 15, 14, 26, 35, 0, 8, 7, 28, 0, 4, 30, 13, 1, 6, 20, 10, 21, 32, 25, 17, 3, 2, 36, 33, 0, 19, 0
|4, 14, 15, 6, 8, 30, 0, 24, 20, 0, 27, 9, 25, 0, 2, 0, 0, 0, 18, 31, 5, 16, 29, 33, 0, 22, 0, 36, 12, 0, 13, 21, 35, 28, 26, 3
|3, 0, 11, 12, 18, 0, 6, 34, 13, 0, 0, 28, 0, 15, 19, 0, 10, 21, 0, 8, 0, 7, 36, 9, 23, 2, 29, 33, 1, 26, 25, 0, 16, 17, 5, 0
|0, 20, 16, 30, 12, 0, 0, 0, 0, 36, 32, 1, 0, 19, 21, 9, 25, 3, 10, 22, 29, 33, 18, 0, 0, 15, 35, 0, 6, 4, 0, 11, 0, 34, 8, 13
|34, 27, 0, 0, 15, 6, 19, 4, 0, 7, 35, 0, 20, 1, 29, 0, 16, 2, 0, 0, 0, 0, 0, 26, 33, 36, 3, 11, 0, 22, 5, 9, 0, 24, 14, 18
|21, 0, 8, 9, 24, 0, 31, 0, 0, 25, 0, 0, 7, 35, 0, 11, 36, 14, 0, 1, 0, 0, 5, 2, 16, 0, 12, 26, 10, 28, 33, 17, 3, 0, 23, 19
|14, 1, 5, 29, 31, 11, 28, 33, 15, 9, 21, 17, 30, 34, 0, 10, 0, 24, 3, 7, 35, 19, 23, 0, 20, 0, 2, 0, 8, 13, 12, 4, 26, 0, 32, 0
|0, 0, 19, 4, 0, 22, 20, 2, 27, 11, 3, 6, 0, 28, 33, 12, 8, 15, 13, 16, 9, 32, 24, 0, 5, 0, 0, 17, 34, 7, 29, 31, 30, 35, 21, 0
|0, 35, 18, 3, 7, 33, 29, 13, 24, 12, 0, 0, 31, 5, 32, 26, 0, 23, 11, 20, 36, 4, 34, 0, 21, 0, 30, 19, 9, 0, 28, 10, 0, 22, 2, 6
|7, 30, 0, 27, 5, 35, 9, 28, 8, 31, 22, 0, 29, 0, 0, 14, 0, 11, 6, 33, 16, 17, 0, 0, 1, 0, 0, 15, 18, 23, 34, 0, 36, 26, 20, 0
|20, 0, 0, 19, 0, 25, 0, 14, 34, 0, 7, 13, 15, 36, 31, 0, 23, 27, 5, 0, 0, 26, 4, 0, 17, 8, 22, 0, 24, 30, 32, 29, 6, 10, 33, 21
|11, 24, 0, 8, 3, 17, 0, 32, 36, 0, 23, 0, 0, 13, 0, 25, 0, 0, 27, 14, 0, 0, 31, 0, 26, 33, 9, 16, 0, 10, 0, 18, 0, 0, 30, 28
|22, 16, 29, 31, 13, 18, 11, 3, 0, 0, 1, 33, 2, 0, 26, 8, 21, 19, 34, 0, 0, 9, 10, 24, 28, 0, 0, 32, 25, 0, 0, 14, 5, 0, 0, 17
|12, 0, 0, 0, 32, 15, 27, 10, 4, 0, 17, 0, 6, 9, 7, 20, 0, 0, 25, 19, 8, 0, 28, 0, 11, 31, 21, 14, 29, 36, 1, 16, 2, 3, 0, 24
|36, 0, 14, 1, 23, 10, 25, 19, 0, 0, 30, 24, 12, 17, 0, 28, 0, 35, 29, 32, 18, 0, 0, 15, 27, 0, 4, 34, 0, 0, 11, 8, 7, 0, 9, 0|];