order = 6;
grid = [|18, 4, 0, 10, 36, 22, 24, 35, 13, 28, 17, 23, 15, 29, 32, 14, 16, 19, 0, 6, 26, 0, 20, 2, 5, 11, 9, 33, 12, 1, 0, 0, 25, 0, 0, 0
|15, 14, 0, 25, 34, 0, 29, 11, 30, 2, 6, 36, 13, 10, 0, 12, 0, 26, 1, 4, 22, 28, 3, 0, 20, 0, 0, 27, 8, 0, 0, 19, 0, 0, 0, 33
|26, 11, 6, 2, 21, 27, 7, 0, 32, 0, 19, 0, 0, 35, 33, 3, 0, 31, 5, 0, 17, 24, 0, 0, 0, 0, 14, 16, 34, 25, 12, 22, 15, 29, 23, 13
|28, 32, 0, 8, 33, 0, 34, 31, 16, 15, 12, 0, 0, 0, 36, 21, 11, 22, 0, 0, 9, 0, 10, 19, 0, 18, 29, 2, 30, 6, 17, 14, 1, 24, 5, 4
|0, 29, 16, 0, 19, 35, 27, 33, 25, 22, 18, 0, 0, 30, 0, 5, 8, 4, 13, 0, 15, 0, 14, 7, 0, 0, 24, 36, 0, 3, 0, 31, 21, 26, 20, 0
|17, 1, 23, 24, 20, 0, 4, 5, 26, 21, 0, 8, 25, 7, 34, 9, 27, 2, 29, 33, 0, 0, 11, 12, 15, 0, 0, 0, 13, 0, 0, 35, 6, 10, 36, 0
|24, 0, 0, 9, 4, 0, 28, 0, 34, 19, 5, 6, 12, 0, 0, 36, 0, 3, 32, 8, 0, 25, 0, 0, 35, 15, 11, 14, 0, 26, 21, 7, 30, 20, 2, 0
|0, 5, 32, 35, 0, 0, 0, 25, 24, 0, 26, 0, 0, 0, 0, 20, 0, 0, 28, 0, 16, 18, 7, 13, 0, 0, 36, 1, 0, 17, 0, 33, 0, 6, 9, 31
|19, 0, 36, 1, 23, 0, 10, 21, 31, 13, 0, 12, 0, 22, 18, 29, 4, 0, 14, 20, 6, 11, 33, 34, 9, 3, 28, 25, 7, 5, 27, 0, 26, 32, 35, 15
|0, 26, 0, 20, 0, 0, 0, 27, 4, 0, 36, 32, 14, 0, 35, 8, 7, 15, 0, 17, 0, 0, 21, 29, 16, 10, 2, 13, 22, 24, 34, 23, 0, 25, 18, 12
|0, 3, 0, 21, 27, 10, 35, 8, 0, 7, 23, 18, 5, 0, 9, 0, 0, 6, 36, 12, 2, 26, 0, 15, 33, 0, 4, 31, 32, 20, 0, 0, 19, 14, 1, 22
|7, 0, 11, 34, 25, 2, 0, 9, 29, 20, 22, 0, 0, 26, 0, 0, 32, 13, 10, 0, 30, 4, 35, 27, 18, 0, 6, 0, 21, 12, 5, 0, 0, 0, 24, 17
|16, 21, 19, 36, 28, 11, 0, 22, 27, 0, 4, 0, 24, 6, 13, 35, 0, 0, 23, 0, 25, 33, 0, 5, 0, 14, 12, 26, 9, 10, 3, 32, 20, 0, 34, 0
|32, 31, 34, 0, 3, 1, 20, 7, 35, 23, 21, 26, 0, 0, 0, 10, 15, 27, 0, 13, 8, 12, 0, 16, 24, 2, 30, 0, 11, 29, 36, 18, 5, 0, 25, 0
|0, 27, 9, 26, 35, 6, 13, 18, 19, 24, 3, 29, 0, 2, 28, 25, 30, 8, 11, 31, 34, 0, 32, 20, 0, 0, 5, 21, 33, 0, 1, 10, 7, 12, 0, 0
|20, 17, 4, 7, 18, 23, 5, 15, 9, 14, 0, 0, 0, 1, 11, 19, 26, 12, 0, 36, 28, 10, 0, 3, 22, 31, 8, 35, 6, 34, 16, 29, 13, 0, 30, 21
|0, 24, 8, 13, 10, 15, 0, 32, 0, 1, 31, 16, 0, 34, 3, 18, 5, 29, 2, 0, 4, 0, 30, 17, 0, 19, 25, 23, 0, 36, 35, 26, 0, 11, 22, 9
|0, 2, 29, 0, 30, 0, 0, 10, 0, 34, 8, 28, 4, 23, 20, 33, 22, 16, 9, 35, 0, 0, 26, 21, 27, 32, 13, 3, 18, 7, 6, 17, 0, 0, 0, 24
|1, 36, 20, 11, 16, 0, 0, 0, 10, 6, 25, 2, 26, 3, 0, 15, 13, 35, 18, 0, 0, 29, 9, 0, 8, 33, 21, 0, 23, 0, 30, 0, 12, 0, 14, 0
|4, 0, 24, 0, 31, 0, 18, 3, 21, 35, 11, 20, 16, 36, 29, 0, 2, 23, 34, 0, 10, 27, 25, 32, 12, 0, 1, 0, 15, 30, 9, 0, 22, 8, 0, 0
|0, 6, 0, 0, 22, 5, 9, 0, 1, 30, 7, 0, 28, 27, 12, 17, 0, 0, 35, 21, 0, 8, 0, 4, 0, 29, 0, 0, 14, 0, 25, 36, 2, 3, 0, 20
|21, 0, 25, 29, 0, 0, 15, 24, 0, 4, 13, 0, 19, 11, 0, 0, 0, 0, 0, 1, 31, 0, 12, 6, 3, 9, 22, 0, 28, 27, 0, 0, 35, 0, 16, 18
|13, 8, 18, 27, 12, 0, 32, 26, 22, 29, 34, 5, 33, 31, 14, 1, 6, 9, 20, 3, 36, 2, 23, 30, 25, 24, 16, 10, 35, 4, 19, 0, 11, 0, 17, 0
|3, 35, 33, 23, 9, 0, 19, 14, 8, 12, 16, 27, 22, 4, 25, 30, 18, 21, 17, 0, 13, 5, 28, 0, 0, 0, 20, 7, 26, 0, 24, 0, 0, 31, 10, 34
|0, 28, 1, 19, 7, 0, 0, 12, 23, 32, 24, 31, 20, 0, 30, 11, 36, 0, 26, 29, 3, 0, 15, 0, 13, 6, 10, 22, 2, 21, 33, 4, 8, 0, 27, 5
|0, 0, 2, 33, 15, 20, 8, 34, 0, 0, 0, 0, 6, 0, 0, 0, 10, 32, 0, 0, 35, 19, 0, 0, 4, 17, 27, 12, 3, 18, 23, 0, 24, 7, 29, 36
|11, 10, 12, 6, 0, 0, 0, 2, 15, 0, 20, 0, 0, 8, 0, 27, 19, 14, 30, 5, 21, 36, 13, 0, 32, 0, 35, 0, 31, 28, 22, 25, 34, 1, 3, 16
|25, 23, 27, 4, 32, 24, 21, 0, 0, 0, 0, 7, 3, 0, 22, 13, 0, 18, 8, 10, 33, 20, 2, 9, 0, 5, 34, 30, 29, 0, 15, 12, 31, 28, 26, 14
|22, 34, 0, 0, 29, 8, 3, 0, 18, 27, 0, 13, 0, 33, 0, 24, 0, 5, 7, 32, 12, 0, 17, 28, 36, 25, 26, 15, 0, 9, 0, 21, 0, 30, 6, 11
|36, 0, 0, 3, 0, 30, 22, 0, 28, 0, 10, 9, 0, 15, 0, 31, 12, 25, 27, 0, 11, 0, 4, 24, 14, 8, 23, 20, 1, 33, 32, 2, 17, 13, 19, 35
|0, 9, 15, 0, 1, 21, 16, 30, 5, 26, 0, 35, 17, 13, 31, 6, 0, 20, 4, 2, 32, 3, 8, 0, 0, 0, 19, 18, 0, 0, 0, 24, 33, 34, 28, 0
|0, 25, 3, 32, 13, 36, 0, 0, 7, 0, 9, 21, 8, 24, 15, 23, 29, 0, 19, 11, 27, 0, 22, 35, 34, 0, 0, 0, 5, 0, 0, 6, 18, 17, 12, 0
|34, 0, 35, 0, 8, 0, 23, 0, 0, 18, 15, 24, 11, 0, 19, 2, 14, 1, 12, 0, 20, 17, 0, 0, 7, 0, 31, 9, 25, 13, 29, 30, 32, 22, 21, 0
|2, 12, 10, 0, 0, 0, 17, 1, 20, 8, 32, 19, 35, 18, 27, 0, 9, 28, 15, 7, 0, 31, 0, 33, 21, 0, 3, 6, 24, 23, 4, 13, 36, 16, 0, 25
|27, 0, 0, 18, 11, 26, 12, 0, 2, 25, 28, 22, 0, 32, 16, 0, 3, 33, 21, 0, 24, 13, 5, 36, 30, 1, 15, 29, 4, 14, 31, 20, 9, 0, 8, 19
|0, 20, 0, 28, 24, 19, 11, 13, 33, 31, 27, 0, 7, 0, 26, 4, 0, 0, 16, 9, 29, 30, 18, 0, 2, 0, 17, 32, 10, 8, 14, 3, 23, 0, 0, 1|];