order = 6;
grid = [|3, 0, 11, 21, 35, 0, 15, 34, 0, 32, 14, 0, 0, 0, 8, 31, 18, 19, 17, 0, 0, 20, 0, 28, 9, 12, 23, 0, 0, 0, 2, 5, 4, 26, 1, 33
|6, 33, 5, 0, 0, 8, 0, 0, 0, 3, 17, 16, 1, 4, 7, 23, 32, 0, 25, 26, 0, 10, 18, 0, 0, 0, 2, 19, 14, 28, 0, 22, 0, 12, 20, 0
|15, 31, 12, 19, 4, 29, 20, 8, 0, 0, 0, 21, 2, 14, 36, 24, 27, 28, 32, 23, 13, 9, 6, 16, 5, 26, 25, 1, 17, 0, 0, 0, 35, 30, 3, 10
|0, 28, 25, 18, 36, 7, 19, 0, 0, 0, 24, 27, 12, 0, 26, 22, 13, 30, 35, 34, 21, 5, 15, 14, 0, 31, 11, 10, 3, 8, 0, 6, 0, 16, 0, 0
|0, 0, 0, 32, 20, 23, 10, 0, 0, 6, 26, 1, 0, 35, 3, 33, 5, 0, 19, 31, 0, 12, 30, 11, 29, 21, 36, 0, 16, 18, 0, 14, 0, 15, 8, 24
|30, 26, 14, 24, 0, 34, 31, 12, 0, 0, 0, 4, 11, 0, 10, 17, 9, 21, 8, 1, 7, 3, 0, 0, 35, 27, 20, 32, 0, 22, 28, 36, 0, 25, 19, 23
|10, 0, 35, 29, 0, 36, 4, 13, 30, 0, 3, 17, 9, 0, 21, 18, 0, 5, 22, 24, 0, 0, 11, 0, 26, 6, 0, 33, 12, 7, 0, 0, 27, 0, 16, 28
|4, 15, 0, 0, 28, 12, 2, 0, 23, 22, 27, 0, 8, 11, 0, 26, 14, 20, 0, 9, 33, 0, 1, 35, 13, 3, 0, 17, 0, 0, 29, 31, 7, 24, 0, 0
|0, 32, 20, 0, 11, 0, 7, 16, 29, 21, 0, 0, 19, 0, 0, 0, 17, 35, 0, 12, 26, 0, 34, 0, 0, 2, 0, 0, 25, 0, 15, 3, 0, 0, 0, 18
|24, 17, 22, 0, 33, 26, 5, 32, 28, 9, 0, 0, 6, 0, 4, 34, 30, 13, 2, 3, 20, 0, 29, 10, 23, 11, 0, 31, 15, 21, 36, 0, 19, 0, 0, 25
|0, 18, 6, 0, 0, 19, 14, 36, 26, 20, 31, 15, 3, 0, 0, 32, 2, 0, 27, 28, 16, 4, 5, 7, 0, 0, 10, 0, 9, 0, 13, 17, 12, 0, 11, 30
|0, 0, 3, 0, 0, 30, 25, 0, 0, 35, 0, 24, 33, 36, 0, 15, 12, 16, 0, 8, 6, 13, 17, 21, 20, 32, 0, 28, 27, 5, 4, 0, 0, 10, 26, 9
|19, 0, 13, 4, 0, 25, 29, 27, 8, 0, 0, 14, 36, 2, 20, 6, 22, 33, 0, 32, 23, 1, 16, 26, 17, 0, 5, 34, 11, 0, 0, 0, 0, 35, 7, 31
|20, 6, 2, 26, 27, 14, 13, 7, 21, 30, 25, 5, 31, 12, 0, 29, 8, 0, 15, 0, 0, 0, 28, 34, 16, 0, 24, 3, 32, 9, 0, 0, 11, 18, 10, 17
|7, 29, 0, 36, 5, 24, 35, 3, 16, 10, 28, 23, 34, 32, 0, 0, 26, 17, 0, 25, 2, 6, 4, 0, 18, 33, 15, 21, 30, 19, 12, 0, 20, 1, 0, 8
|0, 8, 0, 3, 23, 0, 0, 15, 22, 0, 20, 0, 5, 19, 0, 0, 25, 10, 0, 0, 0, 17, 12, 30, 36, 0, 0, 0, 31, 2, 0, 0, 0, 0, 0, 16
|35, 0, 34, 16, 12, 10, 0, 0, 4, 31, 0, 6, 18, 9, 0, 28, 0, 23, 5, 21, 8, 0, 19, 3, 1, 0, 0, 0, 29, 0, 0, 32, 0, 2, 30, 27
|0, 0, 28, 0, 15, 0, 0, 2, 19, 0, 0, 36, 0, 3, 11, 0, 16, 24, 29, 0, 10, 14, 9, 0, 8, 23, 0, 26, 7, 0, 33, 25, 5, 13, 6, 4
|36, 0, 26, 11, 7, 35, 30, 19, 33, 1, 18, 0, 23, 0, 6, 12, 28, 9, 4, 0, 29, 0, 0, 0, 27, 24, 34, 0, 20, 32, 22, 10, 8, 0, 17, 3
|27, 1, 29, 0, 0, 16, 3, 26, 34, 0, 0, 0, 0, 0, 17, 2, 15, 25, 6, 18, 31, 36, 21, 0, 0, 0, 28, 23, 10, 11, 30, 0, 33, 0, 35, 32
|28, 0, 4, 6, 0, 33, 32, 0, 0, 0, 16, 10, 27, 29, 34, 20, 3, 22, 1, 2, 0, 26, 23, 17, 0, 36, 0, 12, 35, 30, 9, 18, 24, 7, 13, 0
|25, 34, 0, 10, 24, 2, 9, 35, 0, 4, 0, 29, 14, 0, 30, 19, 11, 0, 13, 0, 3, 8, 0, 12, 0, 5, 33, 0, 1, 17, 0, 0, 16, 21, 28, 36
|0, 20, 0, 22, 3, 17, 28, 11, 24, 15, 12, 7, 0, 0, 33, 35, 10, 0, 0, 16, 30, 34, 32, 0, 0, 29, 8, 25, 13, 26, 1, 23, 0, 27, 0, 14
|14, 23, 30, 15, 19, 31, 17, 21, 13, 27, 0, 20, 32, 8, 16, 0, 1, 26, 33, 10, 35, 28, 24, 0, 6, 18, 9, 2, 4, 3, 11, 12, 25, 34, 29, 5
|23, 16, 36, 30, 17, 28, 0, 9, 0, 19, 2, 26, 0, 0, 18, 3, 34, 6, 0, 11, 15, 0, 0, 4, 0, 13, 22, 27, 5, 0, 10, 1, 0, 14, 31, 35
|5, 9, 0, 0, 10, 18, 22, 24, 0, 33, 4, 0, 15, 0, 14, 36, 0, 2, 34, 0, 28, 16, 31, 27, 25, 1, 35, 6, 26, 23, 0, 0, 30, 11, 12, 0
|11, 4, 0, 13, 0, 0, 23, 31, 12, 17, 0, 35, 7, 0, 9, 0, 21, 32, 0, 19, 24, 0, 26, 6, 33, 15, 0, 0, 18, 20, 3, 27, 2, 28, 36, 34
|34, 25, 0, 7, 26, 3, 0, 29, 1, 36, 15, 30, 22, 10, 19, 27, 4, 0, 18, 35, 14, 0, 20, 5, 32, 9, 31, 11, 0, 16, 6, 0, 23, 0, 24, 0
|29, 0, 27, 0, 31, 0, 0, 0, 0, 28, 0, 0, 0, 0, 5, 0, 0, 8, 3, 0, 9, 0, 7, 32, 24, 10, 12, 0, 21, 4, 16, 0, 0, 0, 18, 19
|12, 24, 15, 33, 32, 0, 27, 6, 0, 16, 0, 18, 26, 28, 31, 13, 0, 0, 36, 30, 1, 23, 0, 0, 3, 19, 17, 14, 2, 0, 25, 29, 9, 5, 4, 20
|0, 3, 0, 0, 0, 0, 16, 5, 15, 7, 10, 13, 21, 0, 0, 0, 31, 0, 20, 4, 0, 27, 0, 0, 0, 0, 26, 24, 36, 1, 18, 30, 0, 6, 0, 2
|33, 12, 0, 1, 30, 15, 6, 4, 27, 34, 0, 19, 20, 26, 2, 0, 24, 18, 0, 14, 0, 7, 3, 23, 28, 0, 29, 13, 22, 25, 0, 8, 10, 36, 0, 21
|0, 27, 10, 28, 22, 4, 33, 1, 0, 29, 35, 31, 17, 30, 12, 16, 36, 0, 21, 15, 0, 0, 0, 18, 11, 20, 3, 0, 23, 6, 0, 0, 34, 9, 25, 0
|26, 35, 7, 14, 6, 5, 18, 23, 36, 0, 0, 28, 10, 25, 32, 11, 0, 0, 16, 0, 34, 19, 13, 29, 12, 4, 21, 0, 8, 0, 0, 24, 31, 20, 15, 1
|16, 36, 0, 0, 0, 0, 12, 20, 0, 25, 0, 0, 28, 1, 35, 4, 19, 27, 26, 6, 5, 0, 8, 0, 10, 0, 32, 0, 34, 0, 0, 11, 29, 0, 23, 22
|17, 19, 0, 34, 21, 20, 24, 22, 3, 0, 0, 0, 29, 13, 0, 9, 6, 15, 28, 36, 0, 11, 10, 0, 2, 0, 7, 35, 33, 0, 0, 16, 14, 4, 27, 12|];