order = 6;
grid = [|23, 31, 0, 0, 15, 7, 25, 13, 0, 11, 0, 0, 33, 16, 20, 32, 24, 4, 0, 0, 18, 0, 35, 3, 0, 0, 30, 22, 9, 0, 6, 0, 10, 34, 1, 17
|34, 0, 16, 27, 0, 2, 30, 21, 0, 35, 31, 0, 22, 0, 29, 23, 9, 28, 0, 26, 0, 0, 0, 5, 3, 0, 12, 0, 6, 8, 33, 14, 11, 4, 36, 7
|5, 11, 13, 0, 6, 9, 0, 0, 14, 4, 0, 0, 1, 15, 7, 26, 3, 0, 0, 0, 23, 0, 27, 21, 2, 18, 0, 34, 0, 32, 22, 0, 35, 0, 0, 12
|8, 10, 0, 33, 0, 22, 23, 6, 26, 5, 7, 3, 0, 0, 11, 21, 13, 0, 28, 34, 0, 0, 0, 20, 15, 25, 17, 1, 0, 24, 29, 0, 27, 16, 32, 0
|0, 35, 21, 0, 32, 24, 20, 9, 36, 1, 34, 15, 0, 5, 12, 0, 18, 27, 8, 7, 16, 31, 6, 0, 0, 33, 11, 0, 4, 0, 0, 0, 28, 2, 0, 3
|0, 20, 4, 0, 0, 17, 22, 0, 0, 0, 18, 16, 31, 34, 0, 10, 19, 8, 1, 25, 2, 0, 0, 0, 0, 23, 0, 0, 7, 35, 21, 5, 0, 0, 9, 0
|13, 6, 22, 2, 23, 11, 0, 15, 20, 0, 26, 0, 3, 8, 0, 0, 17, 0, 24, 29, 31, 12, 0, 0, 1, 28, 0, 7, 34, 14, 10, 18, 36, 21, 25, 33
|21, 8, 0, 29, 20, 18, 32, 33, 3, 12, 5, 30, 0, 0, 2, 7, 1, 19, 0, 4, 34, 0, 36, 0, 24, 11, 6, 0, 0, 22, 35, 23, 0, 0, 26, 31
|0, 0, 25, 12, 24, 36, 1, 35, 27, 0, 10, 14, 23, 0, 16, 15, 34, 0, 2, 0, 33, 8, 0, 26, 0, 0, 0, 29, 0, 4, 7, 22, 32, 6, 0, 19
|1, 33, 34, 35, 4, 16, 31, 11, 7, 0, 0, 8, 36, 26, 14, 0, 0, 21, 6, 23, 9, 3, 19, 0, 0, 30, 32, 18, 10, 17, 0, 0, 0, 0, 15, 5
|7, 0, 31, 10, 27, 30, 13, 23, 19, 0, 0, 0, 0, 11, 32, 9, 0, 29, 0, 0, 1, 16, 5, 0, 33, 21, 20, 25, 36, 0, 34, 4, 8, 0, 0, 2
|0, 26, 5, 0, 14, 0, 0, 0, 6, 36, 0, 34, 4, 28, 24, 0, 0, 0, 10, 27, 11, 0, 22, 13, 0, 0, 2, 15, 23, 16, 12, 1, 20, 17, 30, 9
|20, 0, 0, 9, 0, 0, 2, 28, 15, 0, 0, 21, 30, 22, 26, 0, 7, 0, 0, 0, 0, 1, 14, 24, 4, 12, 34, 0, 32, 0, 0, 0, 0, 0, 19, 0
|17, 28, 0, 0, 0, 0, 0, 36, 0, 27, 32, 0, 0, 0, 9, 4, 0, 0, 22, 5, 12, 0, 0, 23, 6, 0, 7, 13, 30, 15, 20, 0, 31, 0, 0, 26
|6, 22, 3, 31, 36, 21, 9, 16, 8, 30, 0, 5, 11, 18, 33, 0, 15, 12, 0, 0, 0, 0, 0, 17, 19, 0, 0, 35, 0, 20, 2, 27, 23, 0, 14, 34
|32, 2, 10, 15, 30, 13, 18, 17, 12, 0, 0, 4, 0, 0, 0, 25, 23, 0, 26, 6, 0, 34, 0, 27, 0, 9, 14, 0, 0, 0, 1, 7, 5, 0, 0, 35
|25, 23, 7, 4, 29, 19, 34, 3, 0, 6, 1, 26, 0, 0, 0, 14, 32, 17, 0, 0, 20, 9, 0, 35, 11, 0, 36, 21, 5, 2, 8, 16, 15, 30, 0, 24
|26, 18, 12, 1, 11, 34, 10, 0, 0, 0, 20, 19, 29, 6, 31, 8, 5, 3, 21, 36, 15, 0, 0, 0, 17, 27, 25, 28, 24, 23, 9, 0, 22, 0, 0, 13
|4, 30, 0, 0, 21, 8, 0, 27, 2, 3, 0, 0, 26, 17, 23, 6, 31, 32, 36, 20, 0, 25, 15, 34, 0, 16, 0, 0, 12, 7, 0, 0, 0, 0, 0, 0
|35, 29, 20, 17, 22, 3, 33, 32, 13, 10, 12, 31, 16, 24, 0, 19, 4, 30, 0, 0, 6, 0, 0, 7, 14, 0, 21, 0, 25, 28, 0, 0, 9, 23, 34, 36
|15, 25, 19, 0, 0, 33, 36, 14, 1, 22, 17, 0, 0, 13, 0, 29, 0, 9, 12, 30, 24, 0, 4, 31, 0, 3, 8, 10, 20, 27, 0, 35, 0, 7, 2, 21
|10, 7, 0, 0, 9, 0, 26, 30, 0, 8, 25, 6, 2, 21, 0, 12, 36, 0, 5, 35, 29, 33, 0, 11, 0, 31, 22, 24, 0, 13, 17, 0, 0, 0, 27, 20
|27, 32, 6, 34, 5, 12, 0, 0, 0, 19, 16, 28, 7, 0, 0, 20, 33, 11, 23, 0, 0, 22, 21, 9, 0, 36, 29, 0, 2, 30, 3, 31, 25, 8, 13, 1
|0, 16, 24, 28, 2, 31, 0, 20, 0, 34, 0, 0, 8, 1, 0, 0, 0, 10, 3, 0, 13, 0, 26, 0, 35, 6, 0, 32, 17, 5, 4, 11, 12, 0, 0, 0
|0, 27, 8, 32, 3, 6, 28, 0, 5, 20, 0, 1, 14, 29, 0, 0, 0, 31, 18, 0, 26, 13, 0, 2, 25, 7, 4, 17, 35, 9, 23, 12, 0, 19, 22, 0
|24, 0, 0, 22, 0, 4, 17, 0, 23, 0, 6, 33, 19, 0, 13, 5, 11, 34, 0, 32, 30, 15, 31, 12, 21, 0, 16, 20, 18, 0, 27, 0, 2, 0, 0, 28
|31, 21, 9, 0, 25, 20, 11, 19, 24, 18, 0, 32, 12, 3, 17, 2, 0, 22, 0, 33, 27, 35, 0, 29, 23, 0, 10, 0, 0, 0, 0, 0, 34, 0, 7, 16
|12, 0, 1, 0, 17, 0, 0, 31, 16, 0, 0, 7, 32, 0, 30, 0, 10, 24, 25, 22, 36, 5, 3, 0, 0, 34, 33, 0, 11, 19, 0, 13, 0, 9, 8, 29
|0, 34, 18, 7, 19, 35, 12, 10, 0, 0, 0, 0, 27, 0, 0, 28, 6, 26, 0, 1, 21, 20, 0, 8, 36, 0, 0, 30, 15, 0, 0, 17, 3, 25, 31, 11
|33, 0, 0, 30, 13, 0, 0, 8, 0, 9, 15, 0, 25, 23, 1, 16, 35, 7, 34, 14, 19, 0, 17, 0, 28, 32, 31, 26, 22, 0, 24, 20, 18, 5, 6, 4
|9, 13, 0, 0, 0, 26, 14, 0, 17, 31, 0, 0, 0, 7, 0, 0, 0, 25, 30, 24, 22, 28, 32, 33, 10, 0, 0, 12, 21, 36, 19, 6, 1, 20, 18, 27
|30, 12, 17, 16, 31, 5, 27, 1, 29, 15, 3, 0, 0, 36, 21, 34, 0, 35, 0, 13, 25, 0, 0, 19, 0, 0, 0, 0, 0, 33, 28, 2, 26, 22, 10, 32
|18, 0, 32, 0, 1, 23, 6, 22, 33, 13, 28, 10, 0, 4, 8, 17, 29, 2, 16, 0, 0, 27, 0, 36, 0, 19, 0, 0, 26, 0, 15, 34, 0, 0, 0, 25
|0, 4, 27, 20, 0, 0, 24, 5, 30, 7, 8, 36, 18, 0, 19, 0, 26, 0, 17, 2, 0, 21, 10, 1, 32, 14, 15, 0, 0, 34, 31, 9, 13, 3, 29, 23
|14, 19, 0, 36, 0, 10, 16, 2, 25, 0, 35, 12, 9, 31, 0, 33, 30, 23, 29, 0, 5, 26, 34, 0, 0, 1, 18, 27, 0, 6, 11, 21, 4, 24, 0, 0
|2, 3, 11, 6, 35, 15, 19, 0, 34, 0, 9, 18, 28, 32, 10, 0, 0, 13, 20, 31, 0, 23, 0, 4, 22, 17, 24, 5, 29, 25, 0, 33, 30, 0, 0, 14|];