order = 6;
grid = [|0, 25, 23, 0, 6, 10, 0, 17, 1, 20, 21, 12, 0, 34, 18, 16, 13, 0, 35, 36, 3, 15, 0, 9, 26, 28, 0, 0, 0, 33, 0, 14, 19, 22, 8, 11
|35, 15, 0, 0, 26, 0, 0, 19, 32, 8, 0, 34, 0, 23, 22, 11, 36, 0, 0, 21, 30, 24, 1, 28, 0, 0, 0, 16, 10, 18, 0, 4, 12, 29, 3, 25
|12, 16, 24, 0, 31, 21, 11, 0, 2, 33, 28, 23, 3, 26, 9, 0, 25, 8, 19, 6, 0, 17, 18, 0, 30, 22, 7, 0, 29, 35, 20, 1, 27, 0, 32, 34
|8, 0, 30, 18, 11, 0, 22, 0, 0, 13, 35, 25, 28, 0, 5, 0, 0, 0, 10, 16, 0, 29, 0, 34, 20, 19, 15, 0, 1, 32, 0, 36, 0, 23, 0, 9
|0, 29, 0, 22, 0, 34, 0, 27, 10, 6, 0, 0, 0, 1, 2, 0, 35, 0, 0, 33, 0, 13, 0, 26, 12, 0, 0, 0, 0, 0, 18, 7, 0, 0, 0, 16
|14, 28, 0, 9, 0, 17, 18, 4, 26, 30, 36, 0, 33, 19, 24, 0, 32, 0, 22, 8, 27, 0, 7, 11, 0, 2, 3, 25, 34, 23, 21, 13, 0, 0, 31, 35
|0, 0, 0, 3, 0, 35, 9, 25, 12, 1, 0, 13, 17, 0, 32, 31, 0, 0, 36, 10, 7, 28, 22, 30, 19, 11, 26, 27, 0, 14, 5, 0, 0, 16, 23, 2
|26, 24, 22, 21, 0, 5, 23, 0, 20, 0, 27, 0, 0, 0, 8, 19, 11, 7, 0, 9, 13, 35, 6, 18, 4, 36, 31, 1, 0, 12, 29, 25, 14, 10, 34, 0
|11, 9, 1, 10, 20, 0, 0, 0, 30, 24, 8, 35, 2, 22, 27, 25, 0, 36, 34, 19, 33, 0, 17, 14, 3, 0, 18, 32, 0, 29, 0, 0, 0, 13, 0, 28
|7, 0, 2, 14, 0, 0, 0, 11, 19, 34, 3, 0, 9, 0, 0, 23, 10, 18, 26, 15, 0, 0, 20, 16, 13, 24, 5, 33, 0, 21, 35, 0, 0, 30, 1, 22
|34, 36, 13, 19, 0, 0, 7, 33, 22, 21, 31, 18, 16, 0, 26, 0, 14, 1, 29, 0, 0, 0, 0, 27, 0, 20, 35, 6, 0, 10, 0, 15, 9, 32, 24, 3
|32, 0, 0, 4, 0, 27, 0, 0, 14, 26, 0, 10, 15, 13, 3, 0, 0, 0, 23, 31, 5, 1, 0, 0, 22, 16, 2, 0, 0, 34, 12, 0, 7, 0, 18, 21
|0, 31, 0, 16, 21, 20, 28, 30, 0, 7, 17, 32, 11, 25, 0, 0, 18, 0, 0, 0, 0, 0, 26, 6, 2, 12, 33, 23, 27, 0, 0, 35, 0, 0, 10, 19
|22, 11, 4, 0, 36, 12, 2, 10, 13, 19, 26, 14, 29, 0, 0, 6, 21, 34, 27, 0, 0, 0, 33, 3, 32, 31, 25, 20, 0, 17, 1, 30, 16, 8, 5, 0
|10, 19, 26, 30, 0, 23, 1, 0, 24, 4, 0, 11, 31, 3, 33, 14, 27, 0, 0, 0, 35, 7, 21, 0, 16, 0, 0, 0, 0, 0, 36, 2, 6, 34, 12, 17
|9, 0, 7, 0, 0, 0, 6, 8, 35, 18, 34, 3, 10, 16, 12, 13, 15, 19, 20, 22, 17, 23, 2, 29, 0, 30, 14, 36, 11, 24, 32, 26, 21, 4, 33, 0
|29, 6, 0, 1, 0, 0, 0, 22, 0, 0, 33, 0, 23, 0, 4, 17, 2, 32, 30, 14, 0, 0, 19, 0, 10, 0, 28, 26, 35, 3, 13, 9, 0, 7, 20, 0
|17, 13, 0, 0, 2, 33, 25, 21, 23, 0, 12, 29, 22, 30, 20, 0, 1, 24, 16, 32, 8, 0, 9, 0, 7, 34, 4, 19, 6, 5, 28, 18, 3, 0, 0, 15
|36, 34, 17, 5, 35, 28, 0, 20, 4, 0, 0, 0, 1, 9, 21, 3, 29, 0, 0, 0, 0, 26, 0, 0, 0, 0, 0, 0, 0, 2, 11, 22, 13, 6, 14, 27
|3, 27, 31, 0, 0, 32, 21, 16, 9, 0, 14, 33, 13, 0, 0, 2, 20, 0, 0, 0, 15, 34, 24, 12, 23, 0, 11, 22, 5, 26, 25, 8, 1, 0, 36, 0
|1, 26, 0, 33, 22, 4, 30, 35, 0, 27, 0, 0, 0, 11, 16, 24, 6, 10, 21, 7, 0, 0, 3, 32, 0, 13, 0, 0, 14, 28, 2, 23, 17, 9, 15, 20
|30, 0, 21, 6, 0, 16, 34, 0, 0, 31, 13, 17, 0, 14, 0, 36, 8, 0, 0, 0, 2, 19, 11, 0, 15, 32, 12, 0, 0, 9, 26, 29, 18, 33, 35, 4
|0, 20, 9, 2, 0, 29, 8, 1, 11, 0, 5, 22, 32, 31, 23, 0, 0, 26, 25, 0, 0, 0, 0, 33, 18, 0, 21, 35, 16, 0, 0, 12, 24, 0, 0, 0
|0, 0, 0, 11, 14, 19, 3, 0, 0, 28, 0, 0, 12, 18, 15, 7, 0, 22, 0, 0, 20, 9, 27, 35, 17, 10, 0, 0, 33, 36, 16, 5, 34, 31, 21, 32
|25, 4, 8, 26, 0, 36, 24, 0, 17, 11, 32, 27, 21, 6, 14, 33, 23, 3, 31, 20, 9, 16, 35, 13, 29, 0, 34, 0, 12, 22, 15, 10, 5, 2, 19, 0
|0, 23, 16, 24, 0, 0, 19, 31, 21, 12, 0, 6, 0, 0, 0, 28, 0, 0, 17, 3, 10, 0, 34, 0, 14, 33, 0, 4, 0, 25, 7, 32, 0, 18, 29, 8
|0, 0, 0, 13, 0, 0, 35, 0, 28, 0, 0, 26, 0, 36, 7, 9, 0, 16, 18, 2, 0, 8, 0, 23, 0, 15, 0, 30, 24, 31, 27, 3, 33, 0, 17, 0
|18, 1, 15, 29, 12, 6, 20, 3, 34, 0, 25, 8, 4, 27, 10, 30, 31, 2, 11, 24, 0, 33, 0, 7, 9, 0, 13, 17, 0, 0, 14, 28, 23, 0, 22, 36
|0, 21, 11, 28, 7, 3, 10, 0, 0, 2, 0, 0, 24, 8, 29, 0, 17, 0, 14, 0, 22, 36, 30, 19, 27, 1, 0, 5, 32, 0, 0, 31, 35, 25, 9, 0
|27, 35, 10, 31, 17, 0, 33, 36, 18, 22, 30, 9, 0, 0, 19, 1, 26, 12, 0, 25, 0, 5, 0, 15, 8, 3, 23, 0, 21, 7, 4, 0, 0, 0, 0, 0
|0, 7, 0, 0, 5, 0, 0, 0, 0, 0, 11, 20, 26, 0, 25, 22, 16, 6, 1, 29, 0, 3, 31, 8, 21, 0, 0, 0, 18, 30, 10, 17, 15, 24, 0, 14
|0, 0, 33, 17, 0, 11, 4, 12, 31, 0, 0, 21, 8, 0, 0, 32, 0, 14, 24, 0, 0, 25, 36, 2, 28, 0, 29, 0, 0, 19, 30, 0, 20, 26, 13, 7
|0, 3, 0, 8, 4, 0, 32, 0, 29, 9, 0, 30, 0, 10, 0, 0, 28, 13, 0, 35, 34, 14, 15, 17, 0, 25, 0, 12, 2, 27, 23, 33, 0, 1, 6, 5
|0, 14, 0, 25, 13, 0, 26, 0, 8, 3, 0, 7, 0, 0, 31, 35, 24, 5, 9, 27, 16, 30, 28, 20, 33, 17, 22, 15, 23, 6, 19, 11, 2, 36, 4, 29
|31, 30, 36, 23, 29, 0, 0, 28, 33, 17, 16, 19, 20, 0, 34, 4, 7, 27, 0, 26, 0, 22, 0, 5, 35, 14, 9, 11, 13, 0, 8, 21, 0, 3, 0, 18
|15, 0, 0, 0, 0, 18, 5, 14, 0, 0, 24, 1, 19, 17, 0, 29, 3, 23, 33, 4, 0, 0, 0, 21, 36, 26, 0, 7, 31, 8, 9, 0, 22, 35, 28, 12|];