order = 6;
grid = [|15, 0, 1, 32, 18, 4, 0, 0, 0, 12, 16, 26, 14, 5, 25, 0, 10, 20, 9, 28, 31, 11, 0, 36, 8, 0, 24, 0, 23, 13, 29, 7, 27, 2, 0, 0
|7, 17, 5, 8, 0, 6, 25, 33, 32, 23, 0, 14, 21, 0, 22, 0, 18, 4, 0, 13, 0, 16, 30, 24, 34, 31, 1, 28, 2, 10, 12, 15, 3, 9, 26, 20
|0, 10, 21, 33, 26, 31, 30, 0, 8, 2, 28, 0, 0, 27, 6, 7, 0, 17, 0, 5, 19, 20, 32, 4, 22, 0, 29, 0, 18, 12, 14, 0, 34, 13, 16, 23
|0, 35, 0, 16, 25, 3, 24, 7, 15, 31, 0, 13, 0, 29, 34, 8, 0, 2, 23, 33, 0, 10, 0, 17, 27, 4, 26, 0, 32, 30, 0, 0, 18, 36, 0, 19
|27, 29, 28, 14, 0, 0, 10, 35, 20, 1, 0, 11, 15, 13, 16, 33, 0, 26, 8, 34, 7, 2, 0, 0, 17, 6, 0, 19, 0, 9, 0, 31, 0, 22, 32, 5
|13, 2, 36, 0, 0, 20, 3, 34, 17, 0, 4, 29, 0, 30, 32, 0, 23, 0, 0, 21, 18, 27, 26, 0, 16, 0, 7, 11, 25, 14, 0, 28, 8, 1, 10, 0
|0, 14, 0, 15, 0, 0, 32, 6, 0, 13, 9, 2, 7, 0, 35, 10, 33, 12, 28, 23, 34, 0, 0, 19, 3, 22, 21, 24, 27, 26, 0, 4, 30, 25, 0, 8
|23, 19, 0, 0, 5, 1, 0, 12, 0, 36, 3, 0, 34, 11, 29, 0, 0, 6, 0, 27, 0, 0, 8, 32, 0, 13, 18, 9, 16, 2, 15, 0, 28, 0, 0, 0
|0, 0, 0, 3, 0, 28, 20, 4, 29, 0, 0, 17, 36, 0, 15, 13, 5, 14, 21, 6, 0, 18, 11, 26, 12, 32, 34, 0, 10, 0, 35, 0, 33, 16, 9, 7
|34, 0, 29, 6, 7, 26, 0, 16, 30, 22, 25, 1, 8, 0, 0, 23, 0, 27, 31, 17, 10, 0, 0, 33, 11, 15, 28, 4, 5, 0, 2, 14, 13, 20, 18, 32
|32, 0, 2, 27, 13, 0, 28, 15, 23, 21, 10, 18, 4, 0, 20, 30, 22, 25, 16, 7, 24, 12, 5, 0, 0, 0, 0, 14, 0, 8, 34, 36, 17, 26, 0, 3
|0, 21, 16, 24, 0, 33, 0, 26, 34, 8, 11, 5, 0, 32, 31, 28, 0, 19, 2, 0, 3, 13, 4, 20, 36, 0, 0, 0, 0, 7, 0, 0, 1, 27, 29, 12
|0, 26, 32, 0, 31, 0, 4, 27, 28, 5, 15, 6, 20, 9, 19, 22, 0, 29, 25, 14, 11, 23, 0, 0, 24, 0, 30, 12, 0, 16, 13, 0, 10, 8, 34, 0
|2, 1, 0, 35, 0, 34, 9, 13, 0, 17, 0, 0, 0, 26, 0, 4, 8, 18, 0, 24, 27, 15, 0, 22, 0, 20, 0, 3, 14, 11, 7, 0, 0, 0, 19, 36
|4, 13, 0, 7, 8, 10, 35, 14, 19, 16, 23, 25, 0, 12, 0, 1, 24, 36, 34, 0, 5, 28, 31, 21, 26, 18, 6, 2, 0, 33, 0, 30, 0, 0, 3, 22
|5, 22, 12, 30, 0, 19, 8, 20, 24, 10, 33, 0, 25, 3, 13, 0, 2, 0, 17, 0, 0, 0, 7, 9, 29, 0, 15, 34, 31, 4, 32, 35, 23, 0, 0, 1
|33, 9, 3, 18, 14, 15, 11, 0, 1, 0, 22, 0, 10, 0, 7, 31, 0, 34, 0, 20, 29, 4, 19, 8, 0, 0, 35, 0, 13, 0, 28, 21, 25, 24, 17, 27
|25, 16, 0, 28, 6, 24, 0, 3, 12, 7, 29, 0, 0, 0, 11, 0, 21, 32, 33, 0, 36, 35, 1, 13, 19, 8, 27, 10, 17, 22, 9, 26, 2, 4, 0, 14
|16, 6, 35, 12, 0, 5, 13, 18, 25, 4, 17, 20, 11, 28, 21, 0, 7, 0, 10, 0, 0, 34, 0, 30, 0, 9, 0, 0, 8, 31, 3, 2, 19, 33, 23, 0
|36, 27, 19, 10, 0, 23, 16, 22, 26, 24, 21, 0, 12, 20, 0, 18, 0, 0, 11, 0, 32, 29, 9, 14, 0, 35, 0, 0, 15, 0, 30, 8, 6, 17, 28, 4
|3, 20, 0, 13, 2, 7, 31, 0, 0, 29, 0, 33, 9, 19, 4, 32, 0, 22, 24, 36, 8, 0, 27, 25, 6, 0, 12, 0, 0, 34, 0, 16, 26, 10, 0, 0
|0, 33, 9, 22, 15, 25, 0, 30, 36, 0, 8, 19, 5, 35, 0, 6, 31, 23, 7, 1, 0, 0, 12, 0, 0, 10, 16, 21, 29, 0, 0, 24, 32, 11, 13, 34
|29, 4, 17, 11, 1, 0, 5, 9, 6, 0, 0, 10, 0, 8, 0, 0, 30, 0, 3, 35, 2, 21, 28, 23, 25, 19, 0, 7, 0, 20, 0, 12, 36, 14, 22, 0
|8, 0, 30, 31, 0, 18, 27, 1, 3, 32, 0, 0, 0, 14, 10, 0, 34, 24, 4, 0, 13, 6, 33, 16, 2, 26, 0, 17, 11, 36, 0, 20, 9, 7, 35, 25
|30, 0, 0, 9, 0, 0, 6, 0, 0, 25, 14, 22, 2, 0, 0, 0, 29, 11, 19, 12, 21, 8, 16, 0, 15, 1, 33, 26, 3, 0, 0, 27, 20, 0, 4, 28
|1, 36, 33, 23, 0, 11, 0, 10, 18, 3, 0, 16, 0, 4, 5, 35, 13, 0, 0, 2, 0, 14, 0, 6, 0, 27, 9, 31, 22, 0, 19, 17, 29, 21, 15, 0
|0, 3, 0, 26, 19, 0, 36, 17, 0, 0, 7, 21, 0, 10, 18, 25, 27, 15, 32, 22, 33, 0, 35, 28, 5, 11, 23, 29, 20, 6, 1, 9, 12, 30, 2, 0
|6, 5, 10, 25, 4, 0, 33, 0, 35, 28, 26, 0, 30, 0, 1, 12, 20, 0, 13, 0, 0, 24, 18, 27, 32, 0, 2, 8, 36, 0, 23, 22, 11, 34, 14, 31
|22, 0, 34, 0, 16, 0, 23, 32, 27, 11, 0, 8, 19, 31, 0, 9, 14, 21, 36, 10, 17, 30, 0, 1, 18, 12, 0, 13, 0, 24, 26, 33, 5, 3, 25, 0
|0, 15, 0, 20, 17, 0, 1, 24, 2, 9, 19, 31, 22, 33, 0, 16, 0, 0, 5, 11, 0, 0, 0, 0, 10, 28, 14, 0, 34, 21, 0, 32, 7, 35, 8, 13
|11, 0, 4, 0, 30, 0, 26, 8, 14, 0, 0, 3, 1, 24, 0, 2, 32, 35, 15, 25, 0, 7, 17, 0, 9, 0, 20, 0, 19, 27, 16, 13, 31, 28, 12, 10
|0, 25, 0, 1, 0, 16, 0, 21, 5, 30, 13, 12, 0, 7, 0, 11, 15, 10, 35, 0, 0, 0, 2, 34, 33, 0, 3, 0, 28, 18, 0, 0, 14, 32, 27, 26
|12, 0, 7, 2, 3, 0, 29, 25, 9, 0, 1, 27, 0, 0, 33, 0, 4, 30, 18, 0, 28, 0, 13, 10, 21, 14, 31, 16, 0, 5, 24, 0, 35, 15, 36, 0
|19, 24, 26, 17, 10, 14, 0, 31, 7, 20, 32, 28, 0, 25, 8, 29, 36, 0, 27, 9, 23, 3, 21, 0, 35, 0, 11, 0, 4, 15, 0, 1, 22, 0, 0, 0
|0, 8, 0, 5, 0, 27, 15, 23, 16, 18, 2, 24, 0, 22, 14, 0, 0, 31, 0, 29, 0, 36, 20, 11, 13, 25, 10, 32, 0, 1, 0, 0, 4, 19, 7, 9
|28, 0, 0, 0, 9, 13, 22, 11, 10, 35, 6, 4, 26, 18, 12, 27, 19, 5, 0, 16, 1, 33, 24, 31, 30, 0, 8, 0, 7, 29, 25, 3, 0, 23, 20, 2|];