order = 6;
grid = [|8, 19, 36, 0, 0, 0, 18, 4, 0, 11, 0, 0, 13, 27, 0, 5, 0, 25, 12, 21, 22, 0, 23, 15, 0, 32, 29, 0, 20, 34, 26, 2, 0, 16, 17, 35
|24, 18, 29, 4, 0, 33, 25, 13, 17, 30, 2, 12, 0, 0, 0, 14, 35, 9, 0, 11, 32, 0, 5, 0, 19, 15, 16, 3, 7, 6, 0, 8, 27, 28, 23, 34
|0, 11, 17, 3, 0, 10, 0, 35, 1, 5, 0, 0, 0, 29, 26, 8, 4, 34, 7, 25, 6, 30, 2, 0, 36, 23, 21, 28, 33, 13, 0, 15, 9, 14, 22, 24
|23, 31, 34, 25, 0, 13, 32, 8, 22, 0, 0, 21, 0, 0, 0, 3, 7, 28, 10, 19, 16, 0, 35, 29, 0, 9, 17, 4, 14, 0, 0, 0, 0, 0, 11, 20
|12, 0, 5, 2, 35, 26, 0, 3, 0, 9, 16, 23, 18, 31, 0, 0, 36, 30, 4, 28, 14, 1, 0, 27, 10, 22, 0, 25, 11, 24, 32, 0, 29, 21, 19, 13
|14, 0, 22, 0, 28, 0, 0, 0, 7, 0, 10, 0, 0, 19, 0, 0, 15, 11, 0, 31, 9, 0, 0, 33, 2, 0, 12, 0, 30, 18, 6, 5, 0, 3, 25, 0
|25, 35, 10, 22, 13, 0, 17, 9, 26, 0, 6, 0, 31, 12, 14, 0, 2, 33, 36, 18, 0, 0, 0, 19, 0, 21, 0, 0, 16, 29, 0, 3, 0, 23, 24, 8
|4, 32, 24, 1, 36, 19, 2, 10, 15, 13, 0, 0, 0, 26, 0, 27, 34, 23, 8, 6, 11, 31, 12, 30, 14, 0, 28, 20, 22, 0, 17, 29, 35, 7, 0, 0
|9, 29, 31, 14, 18, 0, 3, 28, 12, 34, 23, 0, 24, 32, 36, 11, 19, 6, 17, 33, 7, 2, 0, 35, 27, 0, 26, 0, 0, 4, 21, 22, 25, 20, 15, 0
|3, 23, 21, 33, 0, 34, 4, 0, 0, 0, 27, 0, 8, 16, 7, 22, 20, 10, 25, 9, 0, 15, 29, 0, 24, 0, 0, 19, 17, 11, 0, 0, 6, 2, 28, 30
|20, 0, 7, 0, 16, 17, 35, 18, 0, 33, 11, 29, 0, 30, 1, 15, 0, 21, 13, 3, 0, 34, 22, 24, 9, 6, 0, 23, 12, 2, 36, 26, 14, 31, 4, 32
|28, 30, 15, 0, 26, 2, 0, 0, 5, 24, 20, 25, 0, 35, 9, 13, 0, 29, 14, 32, 23, 21, 4, 0, 34, 3, 31, 33, 36, 7, 0, 11, 0, 0, 0, 0
|31, 0, 1, 30, 15, 0, 6, 2, 11, 8, 3, 20, 0, 0, 35, 34, 0, 32, 33, 7, 0, 23, 25, 0, 12, 19, 0, 10, 0, 0, 0, 27, 21, 17, 26, 36
|18, 0, 0, 26, 3, 32, 16, 24, 10, 31, 5, 0, 12, 11, 2, 0, 8, 27, 19, 1, 0, 4, 36, 0, 21, 29, 0, 22, 34, 15, 20, 0, 0, 25, 13, 33
|21, 0, 0, 34, 25, 12, 33, 29, 23, 28, 19, 4, 14, 0, 0, 24, 16, 15, 20, 2, 26, 0, 0, 0, 13, 27, 36, 0, 0, 0, 0, 9, 11, 0, 35, 0
|0, 36, 20, 10, 23, 14, 27, 12, 0, 21, 26, 18, 19, 4, 25, 0, 31, 1, 32, 30, 17, 29, 28, 13, 11, 0, 6, 9, 3, 5, 16, 24, 0, 34, 2, 15
|0, 2, 13, 24, 19, 0, 14, 0, 36, 0, 22, 34, 0, 17, 3, 23, 33, 5, 31, 15, 27, 12, 0, 0, 0, 30, 4, 0, 32, 20, 0, 6, 28, 0, 0, 0
|5, 4, 0, 0, 29, 35, 13, 0, 30, 15, 7, 0, 0, 0, 18, 0, 22, 20, 16, 34, 24, 6, 0, 9, 23, 2, 0, 1, 25, 26, 0, 0, 0, 0, 3, 0
|7, 0, 18, 0, 0, 31, 10, 34, 0, 0, 36, 0, 0, 0, 0, 0, 32, 8, 22, 26, 0, 19, 20, 21, 33, 12, 3, 14, 0, 1, 24, 0, 16, 13, 9, 6
|27, 0, 0, 19, 0, 16, 0, 11, 0, 0, 30, 0, 9, 0, 28, 0, 0, 0, 29, 4, 12, 14, 33, 6, 0, 0, 0, 0, 35, 23, 25, 21, 34, 0, 0, 0
|0, 0, 33, 0, 34, 0, 0, 6, 21, 2, 13, 7, 0, 23, 16, 35, 26, 19, 27, 8, 3, 0, 24, 31, 15, 4, 9, 30, 0, 28, 5, 0, 18, 22, 29, 14
|1, 14, 9, 29, 10, 0, 0, 0, 32, 23, 17, 0, 15, 0, 0, 0, 21, 0, 18, 35, 0, 28, 0, 2, 0, 0, 13, 34, 6, 0, 33, 4, 0, 19, 0, 0
|15, 13, 4, 21, 32, 23, 28, 0, 29, 0, 8, 14, 0, 33, 6, 10, 0, 7, 30, 17, 0, 0, 9, 0, 18, 31, 22, 26, 24, 0, 0, 0, 20, 35, 0, 0
|0, 0, 26, 35, 0, 6, 0, 20, 9, 3, 33, 31, 34, 24, 0, 12, 0, 18, 23, 10, 13, 0, 16, 1, 0, 0, 25, 0, 21, 36, 0, 0, 0, 8, 27, 28
|6, 9, 11, 0, 4, 1, 7, 0, 25, 18, 12, 5, 10, 14, 34, 28, 3, 35, 24, 0, 33, 0, 0, 8, 0, 20, 19, 0, 0, 32, 22, 31, 13, 36, 21, 0
|19, 10, 0, 36, 24, 0, 21, 33, 0, 17, 0, 0, 0, 0, 0, 9, 27, 31, 2, 5, 0, 0, 26, 0, 8, 0, 14, 6, 29, 0, 23, 0, 15, 30, 0, 25
|34, 0, 0, 0, 20, 29, 0, 26, 24, 10, 0, 0, 0, 22, 13, 0, 12, 4, 35, 36, 21, 18, 0, 25, 30, 33, 1, 7, 15, 3, 28, 17, 8, 0, 32, 19
|13, 0, 32, 7, 31, 25, 11, 0, 27, 14, 34, 22, 5, 8, 15, 30, 24, 2, 28, 16, 20, 17, 1, 0, 0, 36, 35, 0, 18, 9, 10, 0, 3, 33, 6, 29
|22, 0, 14, 17, 33, 8, 0, 30, 20, 35, 0, 2, 6, 0, 0, 19, 11, 26, 15, 0, 31, 9, 34, 0, 25, 28, 0, 24, 0, 10, 0, 16, 4, 5, 1, 27
|35, 12, 23, 18, 0, 30, 36, 15, 0, 16, 0, 0, 33, 25, 0, 1, 29, 17, 11, 13, 0, 10, 0, 3, 31, 34, 27, 5, 0, 0, 7, 14, 24, 9, 0, 2
|32, 6, 8, 0, 11, 24, 0, 36, 31, 0, 25, 15, 0, 7, 0, 0, 10, 3, 21, 0, 0, 16, 19, 17, 22, 13, 18, 27, 23, 30, 35, 20, 2, 26, 5, 0
|36, 5, 35, 20, 0, 27, 23, 17, 0, 0, 28, 11, 21, 15, 8, 0, 30, 16, 6, 22, 29, 7, 0, 4, 26, 14, 2, 0, 0, 0, 0, 0, 0, 24, 18, 10
|29, 33, 0, 13, 22, 15, 0, 1, 2, 0, 0, 8, 0, 34, 0, 18, 23, 0, 3, 27, 0, 0, 31, 12, 6, 0, 20, 36, 5, 21, 0, 28, 0, 0, 16, 7
|26, 21, 25, 31, 0, 3, 5, 0, 16, 0, 29, 10, 20, 6, 19, 2, 0, 36, 0, 23, 8, 35, 0, 11, 0, 24, 34, 0, 4, 33, 27, 0, 30, 0, 14, 22
|10, 1, 30, 23, 7, 18, 0, 0, 34, 20, 35, 27, 0, 13, 0, 32, 17, 0, 5, 24, 2, 26, 0, 28, 3, 25, 0, 0, 9, 16, 29, 19, 33, 6, 0, 21
|2, 34, 12, 16, 0, 4, 30, 21, 13, 6, 18, 0, 27, 5, 0, 26, 0, 0, 9, 20, 10, 33, 32, 36, 17, 7, 15, 29, 0, 0, 0, 25, 31, 0, 8, 0|];