order = 6;
grid = [|6, 0, 17, 29, 24, 2, 5, 19, 26, 0, 10, 9, 0, 18, 23, 11, 3, 0, 0, 35, 0, 0, 1, 34, 7, 22, 0, 32, 8, 0, 4, 0, 14, 0, 0, 28
|0, 7, 0, 0, 36, 0, 2, 29, 23, 0, 15, 0, 0, 24, 6, 5, 16, 0, 22, 10, 17, 8, 19, 21, 18, 1, 12, 0, 0, 31, 0, 0, 0, 25, 30, 26
|30, 0, 8, 1, 20, 14, 0, 17, 0, 0, 6, 0, 0, 26, 13, 29, 31, 28, 7, 24, 36, 0, 4, 27, 3, 15, 0, 0, 25, 35, 9, 0, 22, 34, 2, 19
|5, 0, 15, 3, 0, 18, 20, 28, 22, 4, 35, 13, 0, 27, 9, 1, 17, 12, 30, 16, 25, 32, 26, 14, 2, 24, 0, 10, 21, 0, 0, 8, 0, 33, 36, 23
|25, 19, 0, 32, 22, 23, 0, 0, 3, 0, 30, 1, 36, 0, 0, 0, 20, 10, 0, 28, 11, 29, 0, 9, 34, 27, 6, 0, 33, 5, 12, 21, 17, 16, 0, 7
|12, 0, 0, 9, 0, 33, 0, 25, 34, 36, 0, 0, 4, 32, 2, 22, 0, 8, 15, 20, 0, 6, 23, 0, 17, 30, 14, 28, 13, 29, 18, 0, 0, 35, 24, 5
|0, 20, 0, 10, 5, 25, 4, 33, 28, 18, 36, 0, 24, 15, 0, 14, 34, 0, 29, 8, 26, 16, 0, 11, 0, 2, 27, 21, 0, 6, 3, 0, 0, 0, 9, 0
|3, 34, 6, 17, 0, 24, 23, 2, 16, 0, 0, 0, 0, 9, 30, 0, 33, 27, 4, 15, 12, 25, 0, 18, 0, 0, 0, 0, 0, 0, 0, 0, 20, 13, 10, 32
|36, 15, 22, 11, 0, 32, 30, 31, 24, 29, 14, 0, 13, 0, 19, 0, 23, 0, 0, 2, 0, 10, 27, 33, 1, 0, 9, 35, 0, 12, 28, 25, 4, 0, 0, 0
|0, 0, 12, 26, 30, 29, 0, 10, 5, 0, 19, 0, 8, 0, 16, 0, 21, 4, 28, 32, 0, 24, 14, 0, 23, 25, 15, 33, 3, 17, 0, 34, 27, 31, 18, 0
|9, 28, 21, 33, 14, 27, 0, 0, 11, 0, 0, 6, 0, 25, 10, 0, 36, 2, 20, 19, 0, 7, 22, 0, 30, 4, 13, 5, 18, 0, 16, 0, 24, 23, 0, 0
|0, 18, 19, 0, 31, 1, 0, 27, 15, 20, 25, 12, 0, 5, 17, 32, 0, 29, 35, 0, 9, 23, 30, 0, 8, 28, 10, 24, 0, 16, 33, 2, 11, 0, 21, 6
|0, 32, 0, 0, 10, 0, 36, 34, 14, 30, 18, 15, 0, 0, 0, 9, 25, 35, 16, 23, 20, 12, 24, 26, 5, 0, 2, 17, 28, 0, 11, 22, 19, 27, 6, 0
|27, 0, 0, 23, 9, 7, 17, 0, 32, 6, 0, 2, 16, 14, 26, 0, 0, 19, 11, 0, 35, 0, 0, 0, 31, 13, 0, 0, 12, 0, 15, 4, 30, 3, 0, 0
|2, 22, 31, 12, 3, 28, 10, 11, 21, 27, 5, 24, 6, 4, 0, 17, 13, 32, 0, 9, 0, 14, 36, 7, 35, 0, 0, 0, 19, 0, 0, 26, 0, 29, 0, 16
|0, 5, 0, 25, 0, 0, 26, 0, 7, 0, 3, 19, 10, 0, 34, 18, 22, 0, 31, 33, 6, 28, 21, 30, 0, 29, 0, 0, 23, 4, 0, 12, 0, 9, 14, 2
|18, 35, 14, 21, 19, 30, 0, 0, 8, 23, 0, 33, 0, 1, 31, 27, 2, 11, 17, 3, 0, 13, 15, 29, 0, 9, 26, 6, 24, 7, 10, 36, 0, 28, 34, 20
|26, 29, 34, 6, 0, 0, 0, 13, 31, 0, 9, 0, 33, 3, 12, 23, 0, 20, 5, 27, 0, 0, 32, 19, 10, 0, 0, 36, 14, 0, 24, 7, 21, 8, 17, 35
|31, 17, 0, 15, 0, 36, 0, 4, 1, 33, 26, 0, 0, 0, 8, 12, 29, 6, 13, 7, 32, 19, 0, 0, 0, 10, 24, 14, 16, 3, 0, 5, 2, 21, 25, 9
|14, 0, 10, 19, 33, 34, 24, 6, 13, 8, 0, 21, 2, 16, 32, 31, 18, 17, 23, 25, 30, 0, 20, 12, 22, 35, 5, 1, 36, 28, 0, 0, 3, 7, 0, 29
|0, 0, 0, 2, 1, 13, 0, 7, 29, 0, 27, 0, 19, 22, 21, 0, 0, 0, 9, 0, 0, 26, 10, 24, 33, 8, 20, 11, 34, 23, 36, 18, 0, 17, 0, 0
|0, 25, 0, 5, 12, 6, 0, 23, 35, 32, 2, 10, 0, 13, 0, 0, 26, 9, 36, 0, 15, 17, 29, 16, 4, 0, 31, 19, 0, 18, 0, 28, 0, 11, 20, 1
|29, 8, 3, 0, 26, 21, 18, 9, 17, 19, 0, 30, 0, 0, 20, 36, 14, 7, 1, 4, 0, 0, 33, 5, 12, 6, 0, 0, 0, 13, 27, 31, 16, 32, 23, 0
|0, 0, 24, 0, 4, 0, 15, 16, 0, 31, 12, 0, 23, 28, 27, 25, 1, 34, 2, 21, 0, 3, 6, 8, 26, 32, 0, 0, 0, 0, 0, 13, 33, 10, 19, 0
|24, 0, 0, 34, 0, 0, 0, 32, 6, 0, 20, 27, 9, 31, 36, 19, 12, 14, 33, 17, 0, 2, 7, 28, 21, 16, 8, 13, 11, 22, 1, 30, 15, 0, 0, 25
|0, 27, 11, 16, 35, 17, 0, 30, 33, 15, 34, 0, 25, 7, 4, 10, 0, 3, 0, 29, 23, 21, 8, 22, 20, 0, 18, 2, 0, 36, 13, 6, 9, 26, 12, 0
|0, 0, 0, 0, 7, 5, 0, 14, 25, 17, 0, 36, 0, 29, 18, 13, 11, 0, 26, 12, 19, 0, 0, 15, 24, 33, 3, 0, 35, 27, 2, 16, 10, 20, 28, 34
|0, 14, 0, 20, 2, 10, 16, 26, 12, 22, 13, 11, 0, 0, 28, 21, 27, 30, 24, 0, 5, 18, 3, 0, 0, 0, 7, 0, 0, 32, 0, 0, 35, 4, 29, 0
|32, 0, 0, 18, 13, 19, 29, 3, 9, 0, 4, 23, 0, 34, 35, 0, 8, 5, 0, 0, 16, 20, 0, 0, 14, 17, 30, 12, 1, 26, 21, 24, 7, 22, 0, 27
|22, 0, 9, 0, 25, 12, 21, 18, 0, 0, 24, 8, 1, 20, 0, 16, 6, 26, 14, 0, 27, 0, 0, 13, 29, 19, 28, 0, 10, 15, 5, 17, 23, 36, 0, 11
|11, 12, 35, 36, 0, 9, 6, 15, 27, 13, 8, 0, 18, 0, 3, 24, 32, 23, 0, 14, 22, 30, 16, 20, 25, 26, 34, 0, 0, 2, 17, 33, 28, 1, 7, 4
|19, 16, 5, 0, 0, 0, 0, 0, 30, 0, 33, 18, 0, 17, 0, 34, 4, 1, 8, 13, 0, 31, 0, 3, 6, 12, 0, 20, 0, 0, 35, 0, 36, 0, 0, 10
|17, 23, 2, 0, 27, 20, 11, 0, 10, 0, 28, 0, 0, 33, 29, 6, 35, 13, 21, 26, 0, 0, 0, 4, 16, 14, 19, 8, 22, 0, 30, 32, 0, 12, 15, 0
|4, 13, 0, 0, 0, 0, 0, 0, 19, 25, 1, 16, 14, 2, 0, 30, 0, 0, 0, 6, 33, 0, 12, 0, 28, 31, 17, 18, 7, 10, 29, 0, 8, 24, 27, 21
|34, 1, 0, 24, 29, 8, 0, 0, 20, 14, 0, 35, 26, 12, 22, 7, 10, 16, 19, 5, 28, 15, 17, 0, 13, 36, 4, 30, 27, 33, 0, 0, 31, 0, 11, 0
|10, 33, 25, 30, 0, 31, 22, 12, 4, 2, 17, 0, 20, 8, 5, 28, 9, 21, 27, 0, 0, 0, 18, 32, 11, 23, 0, 3, 15, 24, 34, 14, 26, 19, 0, 13|];