order = 6;
grid = [|17, 0, 13, 0, 36, 24, 21, 34, 9, 23, 1, 0, 27, 26, 28, 0, 29, 10, 12, 0, 18, 20, 5, 0, 22, 15, 0, 14, 6, 33, 0, 32, 4, 0, 7, 0
|11, 0, 9, 21, 0, 32, 29, 0, 0, 15, 26, 3, 0, 0, 0, 5, 0, 14, 0, 27, 0, 0, 0, 0, 35, 0, 24, 19, 4, 7, 28, 0, 12, 16, 1, 18
|5, 0, 0, 1, 25, 19, 6, 0, 24, 27, 0, 0, 7, 0, 36, 13, 17, 0, 33, 11, 29, 0, 10, 4, 30, 26, 0, 18, 32, 2, 22, 31, 23, 14, 15, 0
|20, 0, 0, 28, 16, 0, 11, 32, 30, 4, 0, 10, 3, 2, 6, 19, 0, 15, 0, 0, 0, 14, 34, 9, 25, 23, 21, 1, 0, 36, 0, 13, 33, 8, 0, 17
|22, 0, 14, 7, 18, 2, 33, 17, 19, 0, 5, 0, 35, 0, 12, 4, 31, 0, 32, 16, 15, 0, 1, 0, 10, 34, 13, 28, 9, 0, 20, 30, 0, 0, 0, 3
|0, 33, 15, 23, 31, 35, 0, 0, 14, 12, 0, 7, 1, 22, 24, 32, 9, 34, 28, 30, 21, 0, 0, 25, 0, 3, 0, 20, 0, 8, 29, 0, 0, 0, 0, 0
|29, 0, 24, 9, 13, 30, 4, 18, 0, 8, 32, 1, 0, 7, 0, 0, 26, 25, 11, 17, 33, 27, 20, 36, 0, 31, 0, 15, 0, 0, 5, 2, 28, 0, 6, 22
|23, 5, 0, 0, 34, 10, 25, 0, 0, 0, 0, 11, 8, 27, 1, 6, 28, 0, 13, 21, 0, 16, 0, 29, 0, 19, 17, 9, 0, 0, 0, 15, 7, 36, 0, 32
|12, 7, 0, 14, 0, 33, 9, 3, 28, 0, 15, 0, 16, 0, 23, 30, 4, 17, 8, 0, 0, 22, 2, 18, 5, 0, 29, 11, 20, 10, 0, 27, 34, 0, 35, 0
|35, 11, 28, 0, 17, 31, 26, 12, 0, 5, 19, 0, 18, 0, 2, 0, 21, 0, 23, 6, 10, 0, 30, 32, 13, 0, 27, 7, 36, 16, 0, 20, 0, 29, 25, 8
|21, 32, 1, 16, 8, 0, 34, 0, 20, 0, 0, 23, 22, 36, 0, 0, 0, 0, 0, 7, 9, 31, 0, 15, 18, 12, 0, 33, 0, 6, 30, 26, 10, 0, 4, 0
|0, 27, 2, 4, 20, 6, 0, 7, 36, 31, 30, 29, 32, 13, 15, 3, 14, 9, 26, 0, 28, 34, 0, 5, 1, 21, 25, 22, 8, 0, 23, 0, 18, 33, 16, 11
|26, 19, 0, 20, 0, 16, 7, 22, 11, 33, 24, 32, 21, 30, 8, 18, 25, 31, 1, 0, 3, 13, 6, 12, 0, 5, 10, 2, 29, 9, 34, 35, 17, 15, 0, 36
|7, 0, 17, 25, 3, 23, 27, 0, 1, 10, 31, 16, 14, 0, 5, 15, 11, 36, 34, 18, 20, 0, 29, 0, 32, 0, 0, 0, 0, 21, 26, 22, 19, 12, 0, 0
|36, 34, 0, 31, 9, 22, 28, 0, 21, 0, 6, 12, 0, 35, 0, 7, 1, 0, 24, 15, 17, 10, 16, 11, 0, 14, 0, 25, 27, 4, 33, 0, 5, 0, 32, 0
|2, 21, 0, 10, 24, 15, 5, 30, 4, 0, 23, 0, 0, 0, 29, 33, 20, 0, 14, 31, 22, 7, 9, 8, 17, 18, 0, 26, 0, 0, 0, 6, 16, 13, 28, 25
|1, 35, 12, 13, 4, 29, 0, 8, 25, 18, 20, 26, 0, 0, 32, 0, 0, 6, 0, 23, 0, 0, 28, 33, 3, 22, 7, 36, 0, 34, 14, 24, 0, 11, 31, 27
|8, 18, 11, 6, 33, 0, 3, 0, 17, 0, 0, 13, 24, 28, 34, 22, 23, 19, 0, 0, 32, 36, 0, 27, 12, 1, 20, 0, 16, 0, 0, 0, 29, 10, 9, 7
|9, 0, 6, 5, 0, 36, 17, 0, 13, 14, 4, 0, 33, 15, 0, 35, 0, 0, 0, 3, 0, 21, 0, 1, 0, 0, 34, 0, 31, 18, 32, 28, 8, 7, 11, 12
|16, 0, 35, 17, 32, 26, 30, 5, 15, 11, 0, 0, 31, 14, 0, 21, 8, 0, 18, 29, 0, 0, 27, 7, 36, 6, 3, 12, 22, 0, 2, 1, 0, 34, 13, 33
|14, 29, 19, 0, 0, 11, 0, 36, 10, 0, 27, 31, 26, 0, 3, 2, 7, 18, 6, 22, 0, 0, 12, 20, 4, 13, 33, 21, 28, 0, 16, 23, 0, 0, 0, 0
|30, 2, 0, 0, 27, 21, 1, 16, 7, 0, 35, 19, 9, 0, 20, 11, 12, 0, 0, 13, 0, 4, 33, 31, 24, 29, 5, 0, 10, 25, 18, 14, 0, 17, 36, 0
|24, 15, 31, 18, 28, 4, 8, 0, 29, 21, 0, 33, 0, 6, 0, 0, 10, 23, 25, 35, 16, 11, 36, 34, 14, 2, 1, 32, 0, 0, 3, 9, 20, 22, 19, 5
|13, 22, 33, 12, 7, 20, 23, 6, 0, 34, 0, 2, 0, 5, 0, 0, 24, 0, 0, 32, 30, 19, 0, 0, 9, 0, 0, 35, 0, 15, 10, 4, 21, 27, 29, 0
|28, 0, 22, 30, 21, 0, 36, 0, 0, 32, 29, 0, 0, 18, 17, 20, 3, 2, 0, 0, 13, 0, 31, 23, 6, 0, 15, 24, 25, 14, 19, 5, 1, 9, 33, 35
|15, 9, 23, 0, 5, 8, 0, 0, 0, 1, 0, 0, 11, 0, 0, 10, 32, 0, 30, 14, 0, 0, 0, 21, 31, 28, 36, 34, 26, 0, 0, 12, 0, 0, 0, 0
|6, 24, 4, 32, 11, 12, 0, 0, 0, 0, 8, 17, 34, 0, 14, 31, 0, 30, 20, 33, 1, 28, 0, 16, 2, 27, 0, 10, 23, 0, 21, 0, 36, 0, 0, 29
|10, 0, 26, 0, 29, 0, 0, 0, 34, 13, 9, 30, 15, 12, 21, 0, 27, 0, 5, 0, 6, 18, 11, 0, 0, 20, 4, 0, 19, 1, 7, 25, 32, 0, 22, 23
|25, 0, 7, 36, 35, 3, 20, 0, 33, 2, 11, 15, 6, 16, 26, 28, 5, 1, 0, 9, 0, 29, 0, 24, 21, 30, 32, 17, 18, 12, 0, 10, 14, 31, 34, 4
|18, 0, 0, 27, 2, 1, 14, 25, 12, 16, 21, 0, 0, 19, 0, 36, 22, 35, 4, 0, 0, 0, 3, 10, 7, 33, 8, 0, 13, 0, 0, 11, 15, 30, 0, 24
|27, 1, 25, 2, 22, 18, 0, 21, 32, 0, 10, 5, 17, 11, 0, 26, 15, 12, 9, 20, 31, 8, 23, 19, 29, 0, 14, 0, 24, 28, 36, 33, 6, 0, 0, 34
|33, 0, 10, 0, 6, 13, 19, 0, 0, 20, 36, 24, 0, 21, 22, 0, 0, 3, 16, 5, 12, 0, 7, 14, 23, 35, 30, 0, 34, 32, 0, 29, 0, 18, 27, 1
|32, 0, 5, 11, 19, 9, 16, 33, 27, 3, 17, 25, 30, 10, 7, 14, 34, 4, 29, 28, 0, 0, 18, 6, 0, 0, 22, 0, 1, 13, 12, 8, 35, 20, 0, 21
|31, 36, 8, 0, 0, 28, 12, 14, 23, 0, 0, 4, 0, 9, 0, 0, 0, 0, 0, 1, 0, 30, 21, 0, 19, 10, 18, 5, 3, 0, 0, 0, 11, 0, 24, 26
|0, 4, 16, 0, 30, 14, 15, 1, 6, 0, 7, 18, 0, 0, 31, 23, 0, 13, 0, 25, 0, 2, 0, 3, 33, 9, 12, 8, 21, 20, 17, 0, 22, 0, 0, 0
|0, 0, 21, 24, 12, 7, 35, 28, 0, 0, 34, 0, 5, 1, 0, 27, 19, 32, 36, 10, 4, 33, 0, 22, 11, 25, 2, 0, 0, 0, 0, 0, 0, 0, 0, 30|];