order = 6;
grid = [|5, 14, 8, 0, 25, 9, 22, 24, 3, 32, 0, 0, 28, 2, 20, 18, 26, 23, 36, 19, 34, 1, 33, 0, 29, 15, 30, 0, 7, 27, 11, 0, 0, 35, 4, 17
|1, 24, 15, 12, 0, 0, 28, 35, 10, 2, 0, 0, 11, 7, 27, 0, 31, 19, 9, 13, 17, 6, 4, 3, 0, 33, 22, 25, 0, 34, 5, 30, 26, 16, 8, 29
|35, 20, 0, 0, 32, 34, 33, 31, 25, 0, 17, 0, 29, 0, 16, 22, 9, 8, 10, 23, 14, 0, 5, 7, 0, 0, 2, 12, 24, 4, 15, 28, 13, 0, 3, 0
|11, 0, 29, 0, 27, 0, 30, 0, 12, 0, 34, 0, 33, 13, 0, 14, 10, 6, 24, 21, 2, 0, 20, 25, 28, 0, 35, 0, 8, 5, 7, 32, 23, 0, 0, 0
|36, 2, 6, 13, 0, 0, 0, 18, 8, 9, 27, 4, 0, 34, 0, 0, 12, 15, 29, 0, 31, 35, 32, 11, 17, 0, 26, 16, 0, 19, 25, 20, 0, 24, 10, 0
|0, 0, 0, 17, 23, 10, 0, 16, 29, 20, 5, 0, 35, 4, 0, 21, 25, 36, 28, 15, 12, 18, 0, 0, 32, 11, 0, 0, 6, 0, 14, 0, 0, 2, 19, 34
|17, 0, 5, 3, 35, 33, 24, 36, 1, 21, 0, 29, 12, 23, 19, 34, 32, 14, 26, 20, 10, 0, 30, 18, 0, 9, 25, 27, 31, 8, 0, 0, 11, 7, 2, 0
|14, 9, 12, 0, 0, 32, 34, 0, 0, 0, 7, 10, 18, 27, 8, 0, 0, 13, 23, 1, 0, 21, 0, 17, 24, 0, 28, 26, 16, 2, 0, 3, 20, 0, 25, 0
|18, 0, 28, 34, 2, 0, 35, 0, 0, 5, 13, 30, 0, 31, 10, 0, 7, 0, 3, 11, 0, 33, 16, 19, 6, 0, 21, 20, 17, 0, 8, 4, 32, 0, 0, 0
|27, 30, 23, 10, 4, 0, 0, 14, 33, 0, 3, 6, 0, 16, 0, 25, 20, 0, 34, 0, 0, 29, 24, 28, 7, 19, 18, 22, 32, 11, 12, 1, 35, 0, 0, 0
|0, 0, 13, 0, 21, 20, 19, 27, 0, 16, 2, 25, 22, 36, 0, 4, 33, 28, 32, 7, 9, 0, 0, 12, 3, 29, 5, 30, 0, 0, 10, 31, 18, 17, 14, 0
|31, 16, 25, 7, 11, 1, 20, 12, 0, 0, 18, 32, 3, 0, 30, 35, 17, 29, 4, 22, 0, 14, 0, 6, 0, 13, 15, 36, 33, 23, 0, 0, 21, 0, 0, 5
|8, 1, 36, 23, 0, 2, 25, 11, 27, 31, 15, 0, 16, 32, 4, 0, 18, 34, 17, 26, 24, 30, 14, 33, 20, 6, 13, 0, 10, 21, 28, 35, 5, 29, 7, 12
|0, 31, 0, 30, 28, 17, 2, 29, 7, 22, 0, 0, 23, 0, 0, 33, 15, 27, 5, 0, 16, 11, 19, 35, 9, 0, 0, 3, 12, 26, 21, 24, 6, 14, 13, 4
|16, 11, 27, 0, 0, 29, 26, 6, 0, 18, 0, 3, 0, 0, 21, 17, 1, 0, 0, 0, 4, 7, 22, 9, 8, 28, 23, 14, 0, 0, 32, 25, 0, 0, 0, 0
|0, 6, 0, 18, 10, 35, 0, 0, 19, 24, 12, 5, 0, 22, 28, 31, 13, 9, 27, 0, 32, 20, 0, 1, 36, 2, 29, 4, 0, 15, 0, 8, 0, 23, 0, 0
|13, 0, 14, 15, 0, 24, 0, 23, 0, 28, 0, 16, 20, 6, 0, 0, 0, 7, 25, 31, 21, 12, 36, 0, 0, 0, 17, 32, 11, 22, 18, 26, 0, 3, 0, 0
|4, 0, 21, 0, 0, 12, 17, 33, 34, 13, 32, 14, 25, 5, 26, 11, 8, 24, 18, 6, 0, 15, 29, 23, 1, 7, 0, 35, 0, 0, 30, 0, 10, 0, 22, 2
|12, 23, 24, 35, 9, 22, 6, 0, 31, 0, 26, 0, 0, 17, 0, 0, 0, 11, 7, 14, 18, 0, 0, 15, 2, 10, 4, 0, 0, 0, 0, 0, 0, 19, 21, 8
|2, 17, 0, 0, 15, 11, 32, 20, 13, 30, 0, 33, 0, 0, 0, 29, 34, 0, 21, 0, 8, 3, 0, 4, 35, 31, 0, 0, 0, 0, 0, 23, 27, 6, 16, 0
|19, 0, 0, 36, 30, 0, 10, 2, 18, 25, 4, 8, 1, 33, 0, 28, 24, 3, 20, 0, 0, 0, 0, 13, 0, 14, 16, 15, 21, 6, 0, 12, 17, 0, 0, 7
|29, 7, 16, 0, 0, 25, 5, 0, 17, 0, 0, 35, 9, 0, 23, 0, 2, 26, 1, 32, 6, 31, 12, 0, 11, 27, 36, 34, 22, 3, 0, 18, 4, 28, 24, 0
|10, 28, 3, 14, 6, 18, 12, 1, 16, 7, 0, 0, 21, 25, 5, 0, 0, 4, 0, 34, 0, 17, 11, 24, 13, 0, 32, 23, 26, 30, 36, 0, 0, 0, 15, 0
|0, 0, 0, 27, 13, 4, 0, 28, 0, 36, 23, 11, 31, 19, 0, 16, 35, 0, 22, 33, 5, 2, 10, 26, 0, 8, 7, 24, 18, 0, 9, 14, 0, 0, 1, 3
|6, 0, 34, 28, 14, 0, 0, 25, 0, 26, 0, 0, 27, 0, 0, 12, 22, 18, 15, 0, 0, 19, 8, 31, 30, 16, 24, 17, 2, 32, 1, 13, 0, 0, 5, 20
|22, 8, 18, 11, 5, 27, 23, 4, 24, 0, 35, 28, 19, 1, 0, 26, 0, 0, 0, 17, 20, 0, 9, 36, 0, 3, 6, 29, 13, 0, 0, 15, 7, 25, 0, 14
|32, 0, 30, 20, 0, 16, 9, 0, 6, 0, 19, 0, 4, 14, 25, 23, 3, 17, 12, 18, 13, 24, 0, 0, 27, 34, 8, 5, 15, 36, 29, 11, 2, 21, 0, 0
|0, 0, 17, 0, 0, 7, 13, 5, 0, 0, 0, 0, 0, 8, 32, 24, 21, 20, 11, 29, 23, 28, 27, 0, 0, 25, 9, 0, 4, 33, 0, 16, 19, 26, 0, 0
|33, 13, 2, 25, 24, 0, 0, 8, 14, 27, 30, 12, 10, 0, 7, 36, 28, 0, 16, 4, 1, 0, 0, 21, 0, 22, 20, 11, 0, 31, 23, 17, 34, 9, 0, 0
|9, 0, 4, 21, 0, 19, 3, 0, 20, 29, 16, 17, 13, 11, 31, 0, 0, 33, 0, 25, 0, 0, 6, 5, 0, 23, 1, 7, 14, 28, 27, 10, 8, 22, 18, 0
|0, 36, 33, 0, 17, 30, 8, 13, 0, 12, 29, 26, 2, 0, 0, 7, 23, 22, 31, 16, 11, 10, 1, 0, 15, 0, 27, 21, 9, 25, 0, 0, 14, 5, 0, 35
|0, 0, 26, 24, 29, 13, 0, 0, 0, 0, 31, 36, 34, 20, 35, 10, 11, 32, 19, 12, 7, 23, 21, 2, 22, 17, 14, 0, 0, 0, 0, 33, 28, 1, 27, 25
|23, 0, 9, 22, 12, 14, 27, 21, 30, 0, 25, 0, 17, 0, 33, 19, 5, 0, 6, 35, 0, 36, 0, 20, 34, 0, 11, 0, 0, 7, 2, 29, 16, 8, 32, 13
|34, 0, 11, 0, 16, 31, 0, 0, 0, 0, 0, 0, 8, 9, 1, 6, 0, 0, 33, 24, 22, 5, 13, 32, 23, 26, 10, 2, 29, 35, 17, 7, 36, 12, 30, 21
|7, 21, 35, 2, 8, 6, 1, 17, 32, 23, 0, 34, 0, 0, 12, 27, 4, 16, 14, 28, 30, 25, 18, 29, 31, 0, 19, 13, 36, 0, 3, 9, 0, 10, 11, 0
|20, 25, 10, 19, 1, 5, 11, 7, 22, 35, 14, 2, 36, 21, 15, 13, 29, 30, 8, 0, 3, 4, 17, 27, 0, 32, 0, 0, 28, 12, 26, 34, 24, 0, 0, 0|];