order = 6;
grid = [|22, 0, 31, 0, 0, 26, 16, 0, 0, 11, 30, 32, 8, 10, 15, 6, 0, 0, 0, 5, 3, 0, 21, 14, 0, 23, 0, 0, 28, 12, 18, 33, 19, 9, 24, 2
|32, 0, 23, 14, 33, 17, 0, 20, 0, 15, 36, 0, 34, 21, 19, 16, 28, 0, 0, 31, 12, 24, 26, 0, 0, 0, 35, 9, 29, 3, 13, 1, 10, 5, 0, 25
|9, 28, 0, 6, 0, 36, 22, 0, 33, 26, 18, 1, 11, 0, 23, 24, 27, 17, 10, 34, 4, 19, 13, 8, 0, 5, 0, 25, 16, 14, 21, 3, 0, 7, 35, 20
|5, 13, 30, 0, 0, 19, 24, 0, 2, 10, 0, 17, 14, 0, 18, 0, 7, 36, 11, 0, 0, 1, 0, 9, 34, 15, 31, 21, 0, 33, 0, 16, 28, 0, 0, 12
|10, 0, 11, 24, 0, 0, 3, 5, 0, 0, 0, 0, 33, 0, 26, 12, 9, 32, 0, 22, 35, 6, 0, 15, 18, 8, 7, 20, 1, 4, 0, 34, 17, 23, 0, 0
|12, 27, 0, 0, 18, 34, 9, 14, 8, 21, 0, 0, 25, 1, 0, 2, 0, 0, 0, 0, 16, 33, 28, 17, 19, 22, 0, 24, 13, 0, 4, 26, 32, 15, 30, 36
|31, 0, 24, 28, 0, 0, 0, 22, 3, 13, 4, 35, 30, 25, 0, 8, 36, 9, 34, 1, 15, 2, 12, 21, 11, 29, 0, 16, 10, 19, 7, 17, 26, 6, 27, 23
|8, 0, 4, 22, 3, 0, 26, 30, 10, 24, 5, 0, 0, 6, 0, 0, 0, 12, 19, 0, 17, 0, 0, 28, 0, 27, 34, 33, 9, 0, 32, 14, 0, 0, 25, 21
|20, 5, 35, 18, 16, 30, 25, 0, 15, 19, 7, 0, 10, 28, 34, 0, 26, 14, 24, 0, 11, 27, 8, 36, 23, 6, 22, 0, 31, 0, 0, 12, 2, 29, 3, 13
|15, 29, 21, 27, 34, 7, 8, 32, 0, 0, 9, 16, 23, 2, 17, 20, 11, 24, 35, 0, 0, 0, 25, 0, 12, 4, 3, 0, 0, 0, 19, 22, 1, 28, 18, 10
|6, 0, 19, 25, 0, 0, 11, 0, 27, 36, 1, 20, 0, 32, 29, 0, 15, 35, 31, 3, 0, 23, 9, 33, 0, 7, 18, 8, 17, 2, 0, 30, 4, 34, 5, 16
|0, 36, 1, 2, 13, 9, 0, 29, 14, 0, 12, 0, 19, 7, 4, 3, 16, 27, 5, 32, 22, 10, 0, 20, 24, 0, 0, 26, 25, 28, 0, 31, 11, 33, 15, 8
|25, 32, 34, 35, 10, 3, 29, 36, 23, 0, 27, 0, 26, 0, 6, 4, 12, 11, 30, 33, 28, 31, 5, 0, 0, 14, 0, 15, 2, 24, 1, 20, 0, 13, 22, 7
|0, 0, 0, 13, 8, 0, 0, 0, 0, 20, 21, 14, 27, 16, 0, 1, 22, 19, 3, 10, 26, 0, 4, 29, 9, 31, 0, 0, 33, 0, 30, 28, 0, 24, 36, 32
|33, 9, 0, 0, 11, 22, 13, 6, 34, 4, 15, 0, 20, 24, 0, 35, 29, 28, 16, 7, 21, 36, 1, 32, 26, 0, 0, 0, 0, 27, 0, 8, 23, 0, 0, 31
|0, 18, 17, 20, 19, 1, 0, 3, 24, 16, 28, 9, 36, 23, 33, 30, 0, 7, 15, 25, 2, 0, 0, 22, 5, 0, 13, 10, 32, 0, 29, 4, 21, 0, 26, 34
|28, 16, 26, 30, 21, 31, 19, 0, 0, 32, 11, 25, 17, 13, 14, 5, 34, 3, 23, 0, 27, 8, 6, 24, 7, 20, 4, 22, 36, 29, 15, 9, 33, 12, 0, 35
|4, 0, 29, 36, 0, 0, 0, 33, 30, 2, 22, 26, 0, 18, 0, 15, 0, 0, 14, 17, 9, 34, 0, 13, 28, 16, 1, 0, 12, 8, 6, 0, 0, 11, 10, 3
|30, 19, 14, 0, 5, 8, 0, 0, 0, 27, 0, 34, 7, 12, 0, 23, 24, 13, 33, 16, 29, 0, 2, 0, 0, 26, 0, 0, 35, 18, 36, 32, 20, 4, 28, 22
|0, 1, 13, 0, 0, 0, 35, 31, 0, 14, 0, 33, 0, 11, 8, 21, 30, 0, 12, 6, 23, 0, 0, 10, 20, 19, 9, 2, 0, 16, 0, 0, 24, 17, 29, 0
|23, 0, 32, 16, 20, 0, 5, 0, 0, 0, 29, 24, 3, 34, 27, 19, 14, 33, 36, 35, 0, 22, 17, 4, 31, 10, 28, 0, 21, 7, 0, 0, 15, 0, 0, 9
|35, 6, 25, 33, 0, 29, 21, 1, 22, 23, 19, 18, 0, 0, 36, 0, 20, 0, 13, 9, 24, 15, 0, 27, 3, 32, 8, 30, 14, 0, 0, 7, 0, 0, 12, 0
|21, 7, 12, 31, 9, 2, 0, 0, 36, 8, 17, 0, 0, 15, 0, 0, 1, 29, 26, 0, 20, 0, 32, 5, 25, 0, 24, 27, 0, 13, 3, 23, 0, 18, 0, 0
|24, 34, 0, 11, 22, 27, 20, 2, 4, 30, 3, 7, 0, 17, 0, 32, 5, 0, 28, 0, 0, 18, 31, 1, 0, 33, 12, 36, 23, 15, 26, 21, 13, 35, 8, 19
|26, 4, 28, 0, 23, 35, 34, 11, 0, 25, 2, 36, 12, 20, 0, 9, 33, 31, 22, 15, 18, 5, 19, 6, 32, 0, 0, 13, 27, 21, 0, 10, 30, 1, 7, 29
|1, 24, 18, 21, 30, 5, 33, 7, 0, 3, 14, 0, 15, 0, 25, 17, 19, 0, 0, 26, 13, 29, 0, 16, 10, 35, 0, 0, 20, 9, 12, 0, 6, 31, 34, 28
|34, 0, 27, 17, 0, 20, 12, 24, 18, 0, 8, 22, 5, 0, 13, 11, 6, 0, 21, 0, 1, 4, 0, 0, 33, 0, 15, 0, 0, 0, 23, 35, 9, 36, 16, 26
|3, 22, 36, 10, 0, 33, 30, 26, 17, 9, 6, 5, 0, 8, 21, 7, 2, 1, 0, 0, 34, 14, 24, 35, 16, 28, 0, 0, 18, 0, 20, 15, 0, 19, 13, 0
|13, 25, 16, 12, 7, 0, 1, 21, 0, 0, 23, 28, 0, 27, 24, 34, 0, 0, 9, 0, 30, 20, 0, 31, 2, 0, 5, 3, 6, 0, 33, 0, 8, 32, 14, 0
|2, 0, 9, 19, 6, 0, 4, 15, 13, 31, 20, 0, 35, 36, 0, 28, 18, 30, 32, 0, 33, 17, 23, 7, 8, 1, 29, 12, 0, 0, 22, 5, 3, 25, 21, 0
|27, 2, 0, 1, 4, 21, 36, 18, 12, 0, 26, 13, 16, 0, 11, 31, 10, 0, 6, 8, 19, 0, 33, 0, 0, 0, 0, 29, 7, 17, 28, 24, 0, 3, 20, 30
|18, 0, 8, 9, 24, 14, 0, 19, 28, 1, 33, 0, 4, 5, 22, 25, 21, 0, 0, 0, 36, 16, 29, 12, 35, 13, 0, 31, 15, 32, 27, 6, 7, 0, 23, 17
|0, 35, 0, 26, 0, 28, 14, 0, 11, 22, 0, 29, 24, 0, 7, 13, 17, 0, 4, 0, 0, 9, 0, 23, 27, 0, 16, 5, 3, 0, 0, 36, 12, 2, 32, 0
|11, 30, 33, 0, 0, 13, 23, 0, 25, 0, 35, 0, 1, 19, 12, 27, 3, 8, 0, 2, 0, 28, 0, 18, 22, 0, 0, 6, 24, 0, 5, 29, 34, 0, 4, 0
|29, 17, 0, 34, 31, 0, 32, 4, 20, 6, 0, 15, 9, 26, 0, 36, 23, 18, 0, 24, 7, 35, 0, 3, 1, 0, 2, 0, 8, 10, 0, 0, 22, 21, 19, 0
|16, 3, 0, 23, 0, 6, 10, 27, 21, 17, 24, 30, 0, 29, 28, 0, 0, 0, 1, 13, 0, 26, 22, 25, 0, 36, 33, 19, 11, 34, 0, 0, 35, 0, 0, 15|];