order = 6;
grid = [|30, 12, 0, 31, 9, 19, 0, 16, 6, 0, 27, 1, 0, 0, 21, 0, 32, 3, 8, 0, 17, 0, 0, 23, 2, 34, 0, 24, 0, 0, 5, 18, 36, 13, 22, 14
|18, 35, 0, 32, 0, 0, 26, 30, 12, 0, 2, 0, 8, 6, 0, 4, 29, 36, 0, 5, 15, 0, 0, 0, 19, 0, 0, 16, 21, 25, 33, 9, 3, 28, 0, 23
|0, 3, 0, 2, 14, 8, 13, 19, 0, 0, 5, 0, 31, 1, 20, 24, 0, 0, 12, 34, 0, 21, 0, 0, 22, 11, 33, 0, 18, 0, 0, 15, 27, 0, 0, 17
|11, 0, 28, 26, 0, 6, 18, 15, 0, 14, 35, 0, 12, 22, 0, 17, 16, 0, 0, 0, 13, 0, 20, 36, 31, 10, 32, 0, 30, 0, 0, 0, 7, 0, 8, 4
|21, 13, 34, 1, 33, 10, 0, 32, 0, 0, 7, 23, 14, 9, 19, 5, 0, 18, 16, 26, 0, 2, 31, 30, 3, 0, 15, 36, 27, 0, 25, 35, 0, 20, 24, 12
|0, 0, 4, 0, 7, 0, 33, 10, 28, 0, 3, 8, 2, 35, 34, 13, 23, 25, 0, 27, 0, 18, 9, 24, 12, 26, 0, 0, 0, 17, 19, 0, 31, 30, 16, 0
|12, 33, 0, 27, 3, 30, 16, 0, 0, 6, 0, 17, 10, 25, 22, 31, 21, 9, 0, 20, 0, 28, 1, 0, 34, 2, 0, 18, 7, 5, 29, 24, 0, 36, 32, 15
|0, 22, 0, 28, 17, 5, 0, 13, 0, 29, 15, 11, 20, 14, 24, 32, 12, 7, 34, 0, 27, 0, 36, 0, 0, 0, 25, 10, 23, 33, 4, 31, 0, 1, 0, 19
|0, 31, 24, 18, 29, 9, 7, 4, 0, 35, 10, 27, 36, 0, 15, 0, 33, 0, 0, 13, 0, 30, 0, 25, 26, 20, 19, 0, 0, 12, 2, 6, 8, 0, 14, 0
|36, 0, 35, 20, 0, 11, 0, 31, 33, 24, 9, 0, 0, 0, 13, 0, 0, 6, 0, 12, 3, 17, 26, 22, 32, 1, 0, 21, 0, 0, 23, 7, 18, 27, 5, 10
|19, 6, 0, 34, 2, 0, 36, 12, 0, 22, 0, 28, 27, 23, 35, 0, 1, 26, 18, 0, 0, 32, 16, 7, 0, 0, 31, 8, 0, 11, 17, 13, 21, 33, 3, 0
|1, 7, 0, 0, 13, 0, 30, 0, 23, 0, 0, 0, 4, 5, 29, 18, 2, 0, 0, 31, 8, 0, 14, 33, 9, 27, 36, 15, 0, 0, 28, 0, 0, 12, 0, 25
|3, 10, 0, 0, 0, 0, 0, 14, 0, 0, 4, 0, 22, 2, 0, 33, 18, 0, 1, 11, 24, 16, 5, 8, 23, 28, 17, 0, 19, 0, 0, 36, 0, 0, 29, 7
|17, 0, 0, 14, 0, 4, 10, 34, 31, 0, 16, 24, 0, 13, 30, 12, 0, 19, 33, 0, 29, 0, 32, 9, 25, 7, 11, 6, 26, 0, 0, 2, 0, 0, 15, 21
|0, 27, 0, 9, 21, 0, 0, 29, 2, 1, 17, 13, 7, 0, 0, 36, 24, 14, 0, 35, 26, 15, 30, 19, 8, 16, 0, 12, 5, 3, 6, 10, 33, 23, 25, 11
|20, 1, 26, 23, 5, 33, 0, 0, 0, 30, 21, 3, 0, 0, 10, 11, 8, 34, 0, 2, 14, 12, 25, 0, 0, 15, 29, 13, 36, 31, 22, 0, 19, 32, 9, 0
|25, 11, 0, 29, 6, 0, 32, 33, 0, 0, 23, 0, 9, 15, 3, 16, 0, 1, 0, 22, 36, 13, 0, 0, 0, 35, 0, 20, 24, 10, 27, 0, 14, 26, 34, 8
|13, 0, 7, 15, 19, 0, 0, 36, 11, 8, 22, 25, 28, 20, 31, 29, 26, 35, 21, 23, 6, 3, 10, 0, 33, 9, 2, 0, 1, 32, 0, 30, 17, 5, 4, 18
|0, 0, 10, 7, 0, 0, 9, 25, 0, 0, 19, 0, 1, 0, 0, 22, 0, 4, 26, 6, 12, 33, 15, 3, 0, 0, 27, 0, 31, 0, 36, 23, 32, 0, 17, 2
|14, 26, 27, 25, 30, 0, 0, 6, 0, 11, 18, 20, 0, 24, 0, 23, 17, 0, 36, 29, 0, 0, 0, 0, 28, 33, 0, 2, 0, 19, 16, 1, 15, 22, 21, 3
|24, 2, 19, 0, 0, 0, 23, 1, 0, 4, 31, 7, 35, 30, 11, 25, 0, 12, 10, 8, 0, 0, 18, 16, 0, 0, 0, 17, 0, 22, 26, 0, 34, 0, 28, 13
|33, 23, 20, 3, 1, 21, 0, 27, 32, 2, 0, 0, 0, 18, 36, 34, 10, 16, 0, 0, 22, 31, 28, 14, 13, 5, 0, 25, 11, 26, 24, 0, 4, 0, 7, 35
|22, 4, 0, 12, 16, 18, 35, 0, 29, 28, 36, 5, 26, 0, 6, 0, 0, 0, 0, 17, 11, 0, 0, 21, 0, 23, 7, 32, 15, 34, 8, 25, 20, 14, 10, 30
|0, 17, 13, 0, 8, 15, 0, 0, 0, 0, 0, 0, 0, 21, 28, 7, 14, 2, 25, 1, 34, 23, 24, 32, 0, 0, 0, 4, 9, 20, 0, 0, 5, 0, 27, 0
|8, 19, 0, 6, 10, 16, 24, 2, 0, 9, 1, 33, 11, 34, 26, 28, 35, 5, 0, 18, 31, 36, 29, 17, 7, 32, 0, 27, 25, 4, 0, 14, 30, 21, 23, 20
|35, 32, 11, 0, 31, 29, 0, 8, 0, 23, 25, 30, 3, 0, 14, 0, 4, 24, 0, 33, 2, 0, 21, 1, 16, 17, 5, 26, 0, 0, 18, 19, 10, 7, 12, 0
|5, 14, 15, 13, 34, 17, 0, 28, 7, 12, 11, 4, 30, 36, 23, 6, 25, 0, 27, 32, 0, 9, 8, 20, 10, 0, 18, 0, 2, 21, 1, 26, 24, 29, 35, 0
|0, 25, 0, 0, 18, 7, 34, 0, 0, 0, 6, 21, 33, 12, 16, 15, 0, 0, 28, 3, 5, 26, 11, 0, 0, 30, 23, 29, 0, 35, 31, 8, 0, 4, 2, 36
|0, 21, 30, 4, 0, 0, 31, 5, 3, 0, 29, 18, 17, 7, 1, 0, 9, 8, 35, 10, 0, 14, 19, 0, 15, 0, 24, 33, 0, 6, 34, 0, 22, 11, 13, 32
|0, 0, 0, 33, 12, 0, 14, 0, 0, 27, 26, 36, 0, 0, 18, 0, 13, 31, 30, 0, 23, 0, 4, 0, 11, 8, 34, 0, 28, 0, 3, 5, 25, 0, 6, 0
|0, 0, 0, 0, 20, 14, 0, 21, 0, 19, 0, 0, 24, 11, 2, 10, 0, 15, 23, 0, 9, 0, 3, 0, 17, 0, 26, 0, 33, 0, 0, 32, 28, 34, 0, 5
|4, 30, 33, 8, 32, 35, 2, 7, 26, 3, 0, 14, 21, 31, 12, 9, 0, 0, 0, 36, 18, 5, 34, 0, 0, 0, 0, 28, 16, 13, 0, 0, 6, 15, 0, 27
|34, 0, 5, 21, 23, 22, 15, 9, 16, 0, 0, 32, 18, 26, 27, 35, 0, 20, 17, 14, 30, 0, 12, 28, 6, 19, 3, 31, 10, 0, 7, 4, 2, 25, 11, 0
|31, 36, 2, 0, 26, 13, 0, 0, 25, 10, 30, 22, 34, 0, 17, 0, 0, 28, 0, 24, 32, 1, 0, 0, 18, 4, 0, 23, 8, 15, 9, 3, 12, 35, 33, 29
|9, 28, 6, 0, 27, 3, 0, 23, 4, 18, 0, 0, 0, 0, 0, 1, 0, 13, 15, 21, 19, 0, 7, 0, 0, 12, 35, 11, 32, 0, 0, 20, 16, 24, 36, 22
|10, 18, 25, 11, 15, 1, 12, 17, 0, 0, 28, 6, 5, 32, 4, 0, 0, 0, 2, 16, 33, 0, 13, 35, 27, 14, 9, 7, 34, 24, 0, 21, 23, 8, 31, 0|];