order = 6;
grid = [|35, 4, 16, 13, 0, 15, 20, 19, 10, 26, 8, 14, 0, 24, 29, 0, 28, 31, 23, 0, 0, 0, 2, 0, 36, 6, 0, 9, 1, 27, 22, 0, 0, 0, 34, 17
|10, 12, 20, 36, 0, 8, 11, 0, 0, 9, 28, 6, 0, 35, 0, 26, 3, 0, 7, 0, 22, 0, 19, 0, 17, 14, 2, 0, 25, 0, 13, 0, 23, 0, 32, 18
|24, 30, 0, 5, 9, 17, 25, 32, 7, 27, 35, 23, 0, 0, 34, 16, 20, 2, 0, 0, 10, 31, 14, 0, 22, 0, 0, 12, 0, 19, 21, 0, 4, 15, 0, 36
|28, 0, 25, 0, 14, 0, 33, 0, 17, 5, 18, 12, 21, 0, 0, 0, 9, 23, 15, 24, 13, 36, 0, 4, 26, 3, 31, 0, 35, 0, 29, 19, 0, 0, 16, 20
|0, 18, 22, 27, 23, 19, 31, 0, 15, 1, 16, 0, 0, 13, 36, 4, 12, 0, 34, 32, 26, 8, 35, 17, 7, 0, 29, 20, 21, 24, 0, 9, 0, 11, 0, 3
|11, 26, 2, 31, 0, 6, 0, 22, 3, 24, 0, 4, 7, 14, 0, 0, 0, 0, 28, 30, 21, 12, 9, 20, 15, 5, 23, 32, 0, 34, 0, 8, 27, 0, 25, 0
|0, 11, 36, 0, 0, 26, 17, 3, 27, 0, 12, 31, 9, 5, 0, 10, 23, 28, 33, 16, 0, 2, 18, 7, 6, 30, 1, 25, 32, 0, 20, 0, 0, 24, 21, 13
|34, 0, 32, 28, 5, 3, 16, 18, 0, 11, 7, 35, 6, 36, 33, 13, 24, 0, 31, 0, 14, 1, 17, 30, 21, 4, 22, 0, 2, 20, 25, 10, 15, 0, 29, 0
|19, 2, 0, 0, 0, 10, 34, 20, 30, 25, 0, 21, 1, 17, 0, 31, 35, 32, 24, 3, 6, 22, 13, 28, 0, 0, 9, 15, 5, 12, 0, 18, 16, 26, 8, 27
|1, 0, 0, 17, 18, 31, 10, 0, 24, 19, 29, 0, 16, 0, 8, 0, 0, 0, 11, 9, 20, 21, 26, 0, 14, 23, 34, 3, 0, 33, 32, 2, 0, 0, 30, 22
|22, 27, 0, 21, 20, 25, 9, 4, 0, 13, 32, 33, 2, 30, 14, 0, 18, 15, 0, 36, 0, 34, 12, 0, 16, 0, 10, 26, 0, 17, 11, 7, 0, 1, 3, 31
|30, 16, 0, 0, 0, 12, 5, 26, 14, 2, 0, 0, 34, 21, 20, 3, 0, 0, 0, 15, 29, 0, 25, 10, 35, 36, 0, 27, 31, 0, 19, 4, 0, 6, 33, 0
|25, 0, 4, 0, 19, 9, 0, 31, 0, 7, 14, 32, 0, 10, 11, 2, 27, 0, 18, 23, 36, 24, 20, 26, 0, 29, 0, 0, 0, 35, 12, 6, 0, 0, 1, 0
|14, 0, 35, 0, 0, 16, 28, 12, 34, 3, 0, 1, 0, 19, 32, 7, 0, 0, 10, 25, 17, 0, 6, 22, 2, 15, 11, 0, 27, 9, 26, 33, 31, 18, 23, 0
|6, 33, 12, 24, 10, 34, 0, 11, 25, 8, 0, 27, 3, 0, 9, 15, 0, 0, 16, 0, 35, 28, 31, 13, 23, 21, 0, 0, 0, 0, 0, 0, 7, 32, 17, 4
|5, 7, 11, 20, 26, 13, 2, 23, 4, 33, 0, 0, 17, 16, 35, 34, 31, 21, 0, 0, 32, 14, 1, 29, 12, 18, 8, 0, 22, 6, 15, 0, 3, 0, 0, 0
|0, 0, 29, 0, 32, 18, 22, 9, 13, 6, 17, 16, 23, 28, 5, 0, 0, 20, 30, 0, 33, 15, 8, 0, 25, 7, 26, 0, 3, 10, 0, 0, 11, 0, 2, 19
|0, 17, 15, 2, 28, 23, 0, 35, 5, 36, 19, 0, 26, 4, 0, 6, 25, 33, 12, 0, 11, 9, 3, 21, 31, 34, 0, 1, 30, 32, 24, 20, 22, 0, 14, 8
|0, 0, 30, 0, 0, 35, 0, 0, 0, 34, 10, 13, 0, 2, 21, 27, 0, 7, 4, 0, 0, 18, 0, 15, 11, 9, 0, 22, 0, 0, 23, 5, 0, 0, 31, 0
|4, 34, 0, 12, 11, 14, 30, 36, 0, 15, 2, 0, 0, 9, 13, 33, 0, 25, 1, 28, 16, 10, 22, 3, 24, 8, 19, 0, 7, 0, 6, 0, 18, 17, 0, 0
|0, 10, 5, 0, 31, 29, 3, 6, 28, 0, 22, 0, 0, 34, 0, 1, 30, 11, 32, 26, 0, 0, 23, 33, 27, 0, 14, 0, 0, 13, 16, 0, 24, 21, 20, 0
|0, 0, 0, 0, 22, 1, 0, 7, 9, 23, 5, 0, 36, 0, 24, 35, 0, 14, 17, 12, 34, 25, 29, 6, 18, 20, 4, 0, 0, 31, 33, 11, 8, 30, 13, 0
|0, 19, 13, 18, 0, 33, 0, 16, 35, 0, 27, 24, 28, 0, 22, 20, 5, 0, 21, 0, 0, 7, 36, 0, 0, 25, 12, 17, 29, 1, 9, 26, 10, 3, 4, 34
|0, 36, 0, 25, 0, 24, 21, 0, 0, 0, 0, 8, 29, 32, 16, 23, 0, 0, 0, 20, 0, 35, 5, 27, 3, 10, 6, 28, 0, 26, 7, 22, 1, 0, 19, 12
|26, 23, 6, 34, 27, 5, 24, 10, 36, 18, 33, 0, 0, 7, 31, 0, 21, 0, 29, 0, 25, 4, 0, 1, 0, 0, 15, 16, 11, 28, 2, 0, 0, 20, 0, 0
|0, 0, 18, 14, 30, 0, 4, 27, 31, 21, 15, 5, 20, 25, 0, 9, 16, 24, 0, 33, 19, 13, 10, 23, 34, 1, 0, 0, 26, 2, 0, 17, 29, 0, 0, 11
|0, 15, 28, 29, 25, 22, 32, 2, 19, 16, 6, 0, 0, 0, 0, 8, 0, 35, 20, 34, 12, 26, 11, 9, 5, 0, 36, 14, 0, 30, 0, 31, 21, 10, 0, 24
|0, 0, 19, 9, 0, 11, 13, 1, 0, 20, 34, 0, 10, 33, 4, 0, 32, 12, 0, 18, 0, 17, 16, 14, 8, 22, 0, 6, 24, 29, 0, 23, 30, 0, 0, 15
|8, 20, 0, 35, 17, 21, 0, 14, 0, 0, 30, 25, 0, 29, 26, 11, 2, 34, 36, 31, 0, 6, 7, 24, 4, 32, 0, 0, 9, 0, 3, 16, 0, 33, 18, 0
|0, 0, 33, 16, 0, 0, 8, 29, 23, 0, 11, 17, 13, 18, 0, 30, 6, 19, 0, 0, 0, 0, 28, 0, 10, 12, 25, 31, 20, 7, 14, 0, 26, 9, 22, 0
|15, 35, 31, 33, 0, 0, 23, 17, 1, 12, 0, 22, 32, 26, 25, 28, 34, 10, 14, 0, 18, 29, 21, 0, 9, 19, 13, 8, 0, 3, 5, 27, 20, 16, 0, 0
|0, 0, 23, 10, 0, 27, 7, 8, 33, 0, 3, 0, 30, 31, 2, 5, 0, 16, 25, 0, 28, 20, 34, 36, 32, 0, 35, 18, 12, 15, 17, 1, 0, 0, 11, 6
|0, 0, 0, 22, 8, 36, 35, 13, 0, 30, 0, 20, 0, 11, 6, 24, 33, 9, 0, 10, 2, 27, 4, 5, 28, 16, 17, 7, 14, 0, 34, 0, 25, 23, 15, 0
|32, 5, 9, 11, 4, 28, 0, 24, 2, 10, 0, 34, 12, 20, 0, 21, 0, 0, 0, 17, 7, 16, 0, 31, 1, 27, 30, 0, 23, 22, 18, 13, 33, 19, 0, 14
|18, 0, 34, 19, 12, 30, 0, 28, 16, 0, 21, 15, 14, 27, 1, 17, 7, 13, 9, 35, 24, 23, 33, 8, 0, 0, 0, 0, 6, 0, 31, 3, 32, 0, 0, 29
|17, 0, 26, 6, 16, 20, 27, 5, 18, 14, 0, 0, 35, 15, 23, 19, 29, 4, 3, 22, 1, 30, 32, 0, 33, 31, 24, 34, 10, 25, 28, 21, 0, 0, 0, 7|];