order = 6;
grid = [|18, 6, 3, 0, 0, 0, 25, 10, 0, 0, 0, 1, 16, 31, 11, 30, 35, 0, 22, 7, 0, 0, 28, 0, 17, 8, 2, 5, 9, 0, 14, 20, 33, 0, 24, 13
|20, 16, 31, 10, 0, 21, 0, 23, 35, 0, 13, 0, 24, 6, 0, 7, 22, 0, 0, 14, 11, 17, 18, 9, 36, 32, 34, 3, 1, 19, 0, 0, 4, 12, 30, 0
|14, 32, 35, 0, 1, 4, 9, 0, 0, 17, 6, 3, 5, 0, 34, 23, 15, 0, 30, 2, 20, 29, 13, 31, 33, 0, 25, 10, 27, 0, 7, 26, 36, 28, 16, 18
|0, 0, 34, 8, 17, 11, 21, 7, 0, 18, 14, 31, 0, 33, 0, 0, 9, 13, 12, 4, 0, 32, 26, 0, 0, 0, 35, 22, 15, 28, 25, 5, 10, 0, 1, 27
|0, 25, 0, 12, 0, 15, 2, 34, 11, 36, 32, 28, 0, 0, 18, 0, 0, 14, 10, 0, 1, 0, 0, 24, 20, 30, 0, 16, 21, 4, 31, 9, 19, 22, 0, 3
|19, 0, 0, 9, 23, 13, 16, 5, 22, 0, 30, 24, 10, 0, 36, 0, 0, 32, 0, 25, 0, 0, 0, 3, 7, 0, 18, 12, 0, 0, 11, 2, 35, 34, 17, 0
|0, 0, 27, 0, 0, 3, 0, 6, 8, 30, 28, 0, 0, 23, 0, 0, 5, 11, 0, 34, 10, 20, 0, 7, 0, 9, 26, 24, 2, 31, 36, 21, 15, 25, 33, 0
|22, 0, 0, 34, 24, 14, 0, 21, 36, 11, 0, 25, 15, 0, 0, 26, 0, 3, 0, 1, 0, 6, 31, 17, 32, 16, 5, 30, 13, 12, 2, 27, 23, 35, 28, 10
|0, 0, 0, 0, 21, 31, 0, 24, 13, 0, 5, 0, 34, 0, 12, 33, 0, 16, 11, 23, 14, 0, 9, 27, 35, 28, 0, 0, 7, 6, 3, 0, 0, 1, 0, 20
|32, 11, 0, 33, 29, 28, 12, 15, 0, 7, 3, 23, 6, 1, 2, 35, 20, 30, 13, 5, 18, 25, 4, 36, 34, 0, 14, 21, 0, 22, 0, 16, 0, 31, 26, 8
|9, 0, 1, 6, 7, 30, 0, 29, 2, 34, 35, 18, 36, 0, 0, 10, 31, 27, 0, 28, 16, 24, 0, 0, 19, 23, 0, 25, 0, 8, 5, 11, 22, 0, 0, 0
|5, 26, 0, 15, 25, 23, 0, 14, 33, 16, 31, 17, 19, 13, 0, 28, 24, 21, 35, 30, 0, 0, 0, 8, 1, 36, 11, 4, 20, 27, 29, 0, 0, 6, 18, 7
|3, 0, 23, 36, 18, 0, 17, 12, 20, 6, 24, 5, 0, 0, 0, 31, 14, 2, 34, 0, 0, 11, 16, 30, 0, 0, 0, 35, 0, 0, 1, 0, 0, 10, 4, 9
|34, 0, 22, 11, 9, 0, 0, 30, 23, 3, 0, 0, 7, 25, 16, 12, 10, 0, 8, 0, 24, 15, 33, 4, 21, 18, 19, 0, 0, 17, 6, 13, 0, 2, 5, 35
|15, 12, 25, 2, 31, 24, 0, 4, 18, 19, 8, 7, 0, 22, 13, 5, 17, 9, 20, 0, 0, 0, 21, 10, 11, 0, 30, 1, 6, 0, 34, 0, 32, 36, 0, 16
|0, 0, 6, 0, 0, 33, 28, 0, 26, 32, 0, 21, 0, 0, 35, 34, 0, 4, 23, 0, 25, 12, 0, 22, 8, 27, 20, 9, 0, 13, 0, 24, 0, 3, 14, 15
|28, 14, 21, 32, 0, 20, 0, 22, 0, 0, 33, 10, 3, 0, 19, 8, 26, 6, 0, 0, 9, 5, 1, 0, 2, 4, 31, 0, 16, 7, 27, 0, 17, 11, 12, 0
|35, 5, 4, 30, 27, 17, 0, 0, 16, 0, 11, 9, 33, 20, 29, 15, 28, 0, 7, 6, 31, 14, 0, 2, 0, 12, 36, 0, 0, 10, 0, 19, 26, 21, 8, 22
|25, 36, 5, 20, 3, 0, 19, 2, 0, 9, 22, 0, 35, 16, 31, 11, 33, 29, 24, 13, 17, 26, 27, 0, 0, 0, 1, 18, 23, 30, 0, 10, 0, 8, 34, 28
|0, 27, 10, 31, 28, 32, 33, 0, 0, 0, 0, 4, 0, 0, 5, 9, 36, 15, 0, 11, 29, 0, 35, 23, 24, 0, 16, 19, 0, 34, 22, 3, 25, 20, 7, 6
|0, 24, 15, 0, 0, 35, 0, 3, 10, 5, 7, 36, 0, 14, 1, 21, 0, 25, 0, 19, 34, 0, 6, 32, 9, 33, 0, 11, 0, 29, 0, 0, 2, 26, 31, 0
|11, 33, 30, 18, 4, 0, 34, 16, 0, 0, 23, 13, 17, 0, 0, 24, 0, 26, 28, 10, 21, 7, 0, 15, 12, 20, 22, 31, 25, 36, 19, 29, 14, 5, 32, 0
|13, 0, 26, 17, 0, 12, 14, 0, 31, 27, 20, 0, 28, 0, 6, 18, 0, 7, 0, 8, 3, 0, 5, 33, 10, 0, 21, 32, 35, 15, 4, 23, 24, 16, 0, 11
|2, 29, 0, 21, 14, 34, 30, 28, 0, 24, 17, 11, 22, 19, 0, 4, 23, 10, 9, 0, 12, 31, 25, 20, 0, 13, 6, 8, 3, 0, 35, 0, 27, 0, 15, 36
|0, 4, 11, 35, 32, 36, 23, 0, 5, 0, 25, 33, 12, 15, 24, 0, 19, 17, 0, 20, 27, 18, 3, 28, 22, 34, 0, 7, 0, 1, 30, 0, 29, 9, 2, 0
|0, 23, 17, 25, 0, 2, 6, 11, 29, 12, 10, 34, 0, 0, 26, 20, 16, 31, 0, 0, 7, 0, 36, 35, 0, 5, 0, 13, 0, 0, 33, 1, 3, 19, 27, 24
|0, 15, 28, 1, 34, 7, 3, 17, 24, 22, 26, 0, 25, 9, 0, 0, 2, 5, 31, 0, 8, 4, 30, 11, 0, 0, 0, 0, 19, 18, 10, 36, 0, 13, 35, 32
|6, 9, 0, 0, 8, 5, 15, 27, 7, 14, 0, 30, 29, 0, 33, 0, 0, 35, 2, 32, 26, 0, 10, 0, 31, 25, 0, 0, 0, 20, 28, 22, 18, 4, 11, 34
|10, 0, 12, 0, 0, 0, 36, 35, 0, 0, 0, 8, 1, 7, 22, 32, 0, 34, 0, 0, 5, 23, 24, 29, 6, 0, 9, 0, 30, 2, 0, 31, 16, 0, 20, 0
|0, 31, 0, 14, 0, 0, 0, 0, 0, 1, 0, 2, 4, 0, 30, 27, 11, 0, 17, 22, 0, 19, 34, 25, 28, 3, 24, 15, 36, 35, 0, 12, 0, 0, 23, 5
|17, 8, 36, 7, 12, 16, 11, 9, 0, 23, 0, 0, 26, 0, 28, 25, 18, 0, 21, 24, 35, 10, 14, 5, 13, 31, 32, 2, 0, 0, 20, 4, 1, 30, 3, 19
|26, 2, 0, 27, 11, 0, 8, 20, 14, 0, 21, 0, 31, 0, 10, 19, 0, 24, 3, 18, 32, 1, 22, 13, 23, 15, 4, 6, 34, 16, 0, 0, 7, 0, 36, 33
|23, 21, 14, 0, 30, 0, 0, 31, 17, 10, 18, 35, 11, 36, 0, 16, 6, 0, 33, 0, 0, 0, 0, 26, 5, 0, 12, 20, 8, 24, 32, 28, 0, 27, 0, 0
|4, 35, 24, 5, 15, 1, 7, 0, 3, 2, 0, 0, 9, 17, 14, 13, 0, 23, 0, 29, 30, 0, 0, 0, 27, 0, 0, 0, 11, 21, 12, 34, 0, 0, 10, 31
|0, 34, 20, 13, 6, 10, 5, 0, 30, 4, 1, 26, 0, 0, 3, 29, 8, 0, 27, 15, 2, 0, 17, 0, 25, 35, 0, 36, 18, 9, 16, 14, 11, 24, 22, 0
|29, 0, 0, 28, 33, 0, 24, 19, 25, 13, 34, 16, 27, 35, 7, 0, 4, 0, 36, 31, 0, 8, 11, 12, 30, 0, 17, 0, 10, 3, 9, 0, 0, 0, 21, 26|];