order = 6;
grid = [|5, 14, 8, 31, 25, 9, 22, 24, 3, 32, 6, 13, 0, 2, 20, 18, 26, 0, 36, 0, 34, 1, 33, 16, 29, 15, 30, 10, 7, 27, 11, 21, 0, 0, 4, 17
|1, 24, 0, 0, 0, 21, 28, 0, 10, 2, 0, 0, 11, 7, 27, 32, 0, 19, 0, 13, 17, 0, 4, 3, 14, 0, 22, 0, 20, 0, 5, 0, 26, 16, 8, 29
|35, 0, 0, 0, 32, 34, 33, 0, 0, 11, 17, 21, 0, 0, 16, 0, 0, 8, 0, 0, 14, 27, 5, 0, 18, 1, 2, 12, 24, 4, 15, 0, 13, 36, 3, 0
|0, 4, 29, 16, 27, 0, 30, 26, 12, 15, 0, 19, 33, 13, 0, 14, 0, 6, 24, 21, 0, 22, 0, 25, 0, 36, 0, 9, 8, 5, 7, 32, 0, 18, 0, 1
|36, 2, 6, 13, 7, 28, 14, 18, 8, 9, 0, 4, 5, 0, 0, 1, 12, 0, 29, 30, 31, 35, 32, 0, 0, 21, 26, 0, 0, 19, 25, 0, 22, 0, 10, 33
|0, 33, 22, 17, 23, 10, 7, 16, 0, 20, 5, 0, 35, 0, 0, 21, 0, 36, 28, 15, 12, 18, 26, 8, 32, 0, 3, 31, 0, 13, 0, 27, 0, 0, 19, 34
|0, 15, 5, 3, 35, 33, 24, 36, 0, 21, 0, 29, 0, 0, 19, 34, 0, 14, 26, 20, 10, 13, 30, 18, 4, 9, 0, 0, 0, 8, 6, 22, 11, 0, 2, 0
|0, 9, 12, 0, 19, 32, 34, 0, 11, 4, 0, 0, 18, 27, 0, 5, 0, 13, 0, 0, 0, 21, 0, 0, 24, 35, 28, 26, 0, 2, 33, 0, 0, 30, 25, 0
|18, 22, 28, 34, 0, 36, 35, 0, 26, 5, 13, 30, 24, 0, 10, 9, 7, 0, 3, 11, 25, 33, 16, 0, 6, 12, 21, 20, 0, 0, 0, 4, 32, 27, 0, 23
|27, 30, 0, 0, 4, 0, 31, 0, 33, 17, 3, 0, 15, 16, 0, 25, 20, 21, 0, 5, 0, 29, 24, 28, 7, 19, 0, 22, 32, 11, 12, 0, 35, 13, 26, 9
|0, 26, 13, 6, 21, 0, 19, 0, 23, 16, 0, 25, 22, 36, 0, 4, 33, 28, 32, 7, 9, 8, 0, 0, 3, 29, 5, 0, 34, 0, 0, 31, 18, 17, 14, 15
|31, 0, 25, 7, 11, 1, 20, 12, 9, 0, 18, 32, 3, 0, 30, 0, 0, 29, 4, 22, 0, 0, 2, 0, 0, 0, 0, 0, 33, 23, 24, 19, 21, 0, 28, 0
|0, 1, 36, 0, 22, 2, 0, 11, 27, 31, 15, 9, 0, 0, 4, 3, 0, 34, 17, 26, 24, 0, 14, 33, 20, 0, 0, 19, 10, 21, 28, 35, 5, 29, 7, 0
|25, 31, 32, 0, 28, 0, 0, 0, 7, 22, 1, 20, 0, 10, 0, 0, 0, 27, 5, 0, 16, 0, 19, 35, 0, 0, 0, 3, 0, 0, 0, 24, 0, 14, 13, 0
|0, 11, 0, 33, 20, 0, 26, 6, 36, 18, 10, 0, 30, 12, 0, 17, 1, 0, 13, 0, 0, 7, 0, 9, 8, 0, 0, 0, 0, 24, 0, 25, 31, 15, 34, 19
|26, 0, 7, 18, 0, 35, 21, 0, 0, 24, 0, 0, 14, 22, 28, 31, 13, 9, 27, 3, 32, 20, 34, 0, 36, 2, 29, 4, 0, 15, 16, 8, 33, 23, 17, 0
|0, 0, 14, 15, 34, 24, 4, 0, 35, 28, 8, 0, 20, 6, 29, 2, 19, 7, 25, 31, 21, 12, 36, 10, 0, 30, 17, 0, 11, 0, 18, 26, 0, 3, 0, 0
|4, 19, 21, 0, 3, 0, 17, 33, 34, 13, 32, 0, 25, 5, 26, 0, 0, 0, 18, 0, 0, 15, 29, 23, 1, 7, 31, 35, 27, 16, 0, 0, 0, 20, 22, 0
|12, 0, 24, 35, 9, 22, 6, 34, 31, 3, 26, 0, 32, 17, 13, 30, 36, 11, 7, 14, 18, 0, 0, 15, 2, 10, 4, 33, 0, 29, 20, 5, 25, 0, 21, 8
|2, 17, 0, 5, 15, 11, 32, 0, 13, 30, 0, 33, 7, 18, 0, 0, 0, 10, 21, 36, 0, 3, 25, 0, 0, 31, 0, 0, 19, 9, 22, 23, 27, 6, 16, 0
|19, 32, 31, 0, 30, 26, 10, 2, 18, 25, 4, 8, 1, 0, 0, 28, 24, 0, 0, 27, 29, 0, 23, 13, 5, 14, 16, 15, 21, 6, 34, 0, 0, 0, 35, 0
|0, 7, 16, 8, 33, 0, 5, 19, 17, 14, 0, 0, 0, 0, 23, 20, 2, 26, 1, 0, 6, 31, 12, 30, 0, 0, 36, 34, 22, 3, 13, 18, 4, 28, 24, 0
|10, 0, 3, 0, 0, 18, 12, 0, 0, 7, 0, 22, 21, 25, 5, 8, 27, 4, 35, 34, 19, 0, 11, 24, 13, 0, 0, 23, 26, 30, 0, 2, 0, 33, 15, 0
|21, 34, 20, 27, 13, 4, 29, 0, 15, 36, 0, 11, 0, 19, 6, 16, 35, 12, 22, 33, 0, 2, 10, 26, 25, 8, 7, 24, 18, 17, 0, 14, 30, 32, 0, 3
|6, 29, 0, 28, 0, 0, 0, 25, 0, 26, 0, 7, 27, 35, 9, 12, 22, 0, 15, 0, 33, 19, 0, 31, 0, 16, 0, 0, 0, 32, 0, 13, 3, 0, 5, 0
|0, 8, 18, 0, 5, 27, 23, 0, 24, 0, 0, 0, 19, 0, 34, 26, 16, 2, 30, 17, 20, 32, 0, 36, 21, 0, 6, 29, 0, 0, 31, 15, 7, 0, 12, 14
|0, 35, 0, 0, 0, 16, 9, 10, 6, 1, 0, 31, 4, 14, 0, 23, 3, 17, 12, 18, 13, 0, 7, 22, 27, 34, 8, 5, 15, 0, 0, 0, 0, 21, 33, 0
|3, 10, 17, 0, 0, 7, 13, 5, 0, 34, 22, 0, 6, 0, 32, 24, 21, 20, 11, 29, 23, 0, 27, 14, 12, 25, 0, 18, 0, 33, 35, 16, 19, 0, 36, 30
|33, 0, 2, 25, 24, 0, 18, 0, 14, 0, 30, 12, 10, 0, 7, 36, 28, 0, 16, 4, 1, 26, 3, 0, 19, 22, 0, 11, 35, 31, 23, 0, 34, 0, 6, 0
|9, 12, 4, 21, 36, 19, 3, 32, 0, 29, 16, 17, 0, 0, 31, 0, 0, 33, 0, 25, 35, 34, 0, 0, 0, 23, 1, 0, 14, 0, 27, 10, 8, 0, 18, 24
|0, 36, 33, 32, 17, 30, 8, 13, 4, 12, 29, 0, 0, 3, 18, 7, 23, 0, 31, 16, 11, 0, 1, 34, 15, 24, 0, 0, 9, 25, 19, 6, 0, 0, 20, 35
|0, 3, 0, 24, 29, 13, 16, 9, 5, 6, 0, 0, 34, 20, 35, 10, 11, 32, 0, 0, 0, 23, 21, 2, 22, 17, 14, 8, 30, 18, 4, 0, 28, 1, 27, 0
|0, 0, 9, 22, 12, 14, 0, 21, 30, 10, 25, 24, 17, 0, 33, 19, 5, 31, 6, 35, 26, 36, 15, 20, 34, 0, 11, 0, 3, 7, 2, 0, 16, 0, 0, 13
|0, 0, 11, 0, 0, 31, 15, 3, 28, 19, 20, 18, 0, 9, 1, 0, 14, 25, 33, 0, 22, 5, 13, 32, 0, 26, 10, 2, 29, 35, 17, 7, 36, 0, 30, 0
|7, 21, 35, 2, 8, 0, 0, 17, 0, 23, 33, 0, 26, 24, 12, 0, 0, 16, 14, 28, 30, 0, 18, 29, 31, 5, 0, 13, 36, 0, 3, 9, 15, 0, 11, 22
|20, 25, 0, 19, 1, 5, 11, 7, 22, 35, 0, 2, 36, 21, 15, 0, 29, 30, 8, 0, 3, 4, 17, 27, 16, 32, 33, 6, 0, 12, 0, 34, 24, 31, 23, 0|];