order = 6;
grid = [|6, 0, 0, 7, 0, 0, 0, 0, 13, 35, 0, 18, 15, 33, 0, 25, 34, 0, 0, 0, 27, 0, 3, 17, 31, 29, 0, 24, 0, 0, 0, 36, 22, 19, 10, 0
|33, 27, 24, 3, 18, 10, 17, 16, 23, 0, 4, 0, 0, 0, 28, 5, 0, 29, 14, 0, 0, 20, 11, 30, 8, 1, 19, 26, 0, 0, 34, 13, 0, 0, 0, 0
|29, 36, 0, 1, 23, 20, 8, 24, 25, 22, 15, 0, 0, 0, 0, 30, 9, 11, 21, 16, 31, 2, 5, 0, 27, 18, 34, 0, 6, 0, 7, 17, 14, 12, 32, 0
|28, 31, 12, 21, 0, 34, 2, 3, 11, 0, 0, 1, 7, 18, 19, 22, 0, 36, 24, 8, 15, 32, 4, 35, 10, 0, 13, 17, 14, 0, 0, 6, 5, 16, 0, 30
|17, 13, 22, 32, 14, 8, 26, 27, 31, 30, 12, 33, 23, 2, 24, 6, 20, 16, 29, 18, 34, 0, 19, 0, 36, 28, 5, 3, 7, 15, 4, 0, 11, 21, 0, 0
|15, 11, 30, 25, 0, 26, 19, 5, 0, 14, 36, 32, 0, 0, 31, 0, 17, 0, 0, 28, 0, 13, 0, 6, 21, 20, 4, 2, 9, 16, 29, 23, 3, 18, 24, 27
|21, 0, 31, 11, 30, 0, 18, 15, 35, 0, 23, 0, 13, 0, 0, 10, 0, 22, 0, 20, 19, 0, 34, 29, 26, 9, 16, 25, 2, 0, 36, 3, 0, 0, 5, 7
|35, 8, 1, 17, 15, 0, 22, 0, 0, 36, 6, 0, 26, 5, 0, 24, 0, 7, 32, 0, 33, 18, 10, 23, 30, 27, 0, 28, 20, 0, 0, 19, 34, 11, 14, 12
|0, 0, 14, 0, 0, 28, 25, 7, 5, 20, 0, 17, 33, 0, 0, 0, 3, 4, 0, 2, 1, 6, 0, 36, 32, 0, 22, 11, 0, 0, 0, 0, 13, 26, 23, 9
|2, 0, 13, 0, 25, 0, 34, 0, 8, 16, 1, 31, 29, 28, 0, 12, 0, 0, 0, 0, 11, 0, 21, 15, 0, 10, 7, 14, 3, 36, 0, 27, 18, 30, 33, 24
|36, 0, 34, 0, 0, 7, 30, 0, 9, 33, 0, 12, 0, 20, 15, 18, 11, 0, 8, 22, 0, 14, 13, 0, 0, 0, 21, 29, 24, 5, 17, 2, 10, 0, 6, 0
|18, 12, 0, 0, 32, 22, 3, 11, 21, 13, 14, 0, 34, 8, 0, 23, 36, 2, 0, 7, 30, 26, 24, 9, 33, 0, 0, 19, 4, 6, 20, 31, 28, 0, 29, 25
|16, 14, 29, 34, 1, 27, 12, 0, 24, 0, 0, 2, 19, 6, 17, 31, 13, 0, 30, 0, 4, 22, 0, 20, 9, 0, 0, 0, 0, 7, 28, 32, 8, 0, 18, 0
|0, 3, 20, 0, 36, 21, 4, 0, 0, 0, 34, 14, 16, 24, 7, 0, 12, 5, 35, 0, 9, 11, 0, 33, 22, 0, 6, 8, 31, 28, 1, 30, 17, 0, 13, 0
|22, 10, 17, 18, 0, 19, 32, 29, 0, 28, 3, 26, 8, 9, 21, 0, 30, 14, 0, 0, 0, 0, 1, 16, 4, 5, 20, 35, 11, 2, 27, 34, 0, 0, 0, 0
|0, 30, 28, 5, 7, 25, 36, 0, 16, 8, 0, 0, 11, 27, 0, 29, 10, 0, 19, 0, 2, 24, 18, 34, 12, 17, 0, 1, 33, 14, 35, 0, 0, 22, 21, 26
|13, 32, 33, 0, 4, 0, 0, 0, 30, 17, 0, 0, 28, 22, 3, 26, 25, 15, 6, 0, 0, 0, 29, 14, 18, 36, 0, 34, 0, 24, 0, 12, 0, 0, 0, 11
|0, 2, 0, 31, 8, 12, 0, 20, 22, 27, 25, 9, 18, 0, 4, 32, 0, 1, 23, 36, 17, 21, 0, 3, 29, 26, 10, 0, 16, 30, 0, 5, 0, 7, 19, 0
|1, 20, 0, 35, 21, 4, 0, 0, 17, 0, 33, 34, 22, 14, 8, 0, 29, 23, 3, 30, 0, 9, 32, 27, 0, 16, 36, 0, 0, 0, 13, 18, 25, 24, 28, 2
|0, 26, 5, 0, 0, 3, 0, 21, 7, 18, 0, 0, 12, 31, 16, 20, 0, 24, 0, 14, 35, 0, 36, 0, 13, 0, 0, 27, 15, 33, 0, 22, 0, 23, 4, 0
|10, 25, 0, 0, 33, 13, 5, 22, 6, 26, 0, 35, 0, 0, 2, 0, 21, 0, 16, 0, 23, 34, 8, 7, 20, 4, 0, 31, 28, 17, 12, 14, 36, 0, 3, 19
|19, 29, 27, 36, 0, 24, 11, 0, 28, 2, 13, 20, 9, 0, 5, 17, 26, 0, 0, 4, 12, 33, 15, 18, 14, 22, 30, 7, 34, 3, 0, 1, 16, 8, 0, 21
|0, 15, 16, 0, 22, 0, 27, 30, 0, 32, 0, 36, 35, 10, 0, 3, 4, 28, 0, 0, 0, 0, 31, 2, 19, 6, 8, 18, 21, 0, 11, 33, 9, 5, 0, 17
|11, 18, 0, 2, 0, 30, 0, 8, 0, 12, 0, 0, 36, 0, 0, 0, 0, 0, 25, 21, 28, 0, 22, 24, 35, 23, 9, 32, 1, 29, 0, 20, 26, 34, 27, 31
|25, 34, 15, 0, 19, 31, 0, 0, 0, 3, 22, 24, 14, 29, 26, 8, 5, 35, 0, 33, 20, 16, 0, 11, 6, 0, 18, 9, 32, 0, 23, 0, 27, 0, 0, 4
|23, 28, 0, 22, 0, 18, 13, 4, 0, 21, 11, 0, 0, 0, 32, 33, 0, 3, 1, 35, 24, 31, 9, 0, 15, 0, 0, 20, 27, 19, 25, 29, 0, 6, 34, 5
|20, 0, 0, 4, 16, 0, 0, 6, 0, 19, 0, 30, 0, 23, 27, 9, 22, 0, 34, 25, 0, 0, 7, 12, 3, 8, 33, 5, 17, 1, 0, 21, 15, 14, 0, 0
|0, 1, 0, 0, 26, 0, 20, 25, 14, 0, 0, 0, 30, 36, 0, 28, 0, 6, 0, 23, 13, 4, 27, 5, 24, 0, 0, 10, 35, 34, 0, 16, 19, 0, 0, 32
|12, 0, 0, 0, 27, 32, 33, 31, 0, 9, 5, 0, 25, 19, 0, 34, 18, 21, 28, 29, 14, 3, 0, 10, 0, 0, 0, 0, 23, 4, 24, 35, 30, 0, 0, 22
|5, 6, 0, 30, 11, 14, 0, 0, 10, 34, 27, 23, 0, 1, 0, 16, 0, 0, 15, 26, 21, 19, 17, 32, 28, 2, 25, 36, 22, 31, 18, 7, 33, 3, 0, 8
|7, 33, 23, 0, 20, 16, 35, 34, 0, 31, 2, 11, 32, 26, 0, 19, 0, 12, 9, 0, 29, 25, 14, 0, 17, 24, 1, 30, 0, 18, 5, 4, 21, 28, 15, 6
|32, 21, 18, 14, 28, 2, 7, 36, 0, 1, 0, 13, 0, 16, 10, 15, 23, 17, 0, 19, 5, 30, 0, 4, 25, 0, 0, 0, 29, 9, 31, 24, 0, 27, 8, 34
|34, 17, 3, 10, 12, 36, 0, 33, 27, 4, 0, 0, 0, 25, 0, 0, 1, 9, 26, 6, 32, 7, 0, 21, 16, 31, 28, 15, 0, 20, 0, 11, 29, 13, 0, 0
|4, 0, 8, 19, 0, 0, 0, 0, 15, 0, 28, 0, 5, 0, 0, 21, 0, 30, 36, 34, 0, 0, 35, 31, 0, 0, 0, 0, 26, 27, 32, 0, 0, 20, 22, 0
|31, 22, 26, 6, 0, 0, 16, 0, 0, 0, 30, 0, 20, 13, 29, 0, 28, 34, 11, 0, 3, 27, 23, 1, 2, 33, 0, 21, 8, 32, 9, 0, 0, 17, 12, 0
|30, 35, 25, 24, 0, 0, 0, 9, 32, 0, 17, 0, 2, 11, 22, 7, 31, 27, 18, 0, 8, 28, 20, 0, 0, 19, 12, 4, 36, 10, 3, 26, 23, 33, 16, 14|];