order = 6;
grid = [|3, 18, 4, 22, 5, 0, 0, 31, 9, 19, 33, 2, 36, 17, 16, 0, 20, 7, 0, 14, 6, 25, 34, 30, 26, 24, 15, 28, 0, 1, 0, 11, 0, 12, 8, 0
|11, 30, 32, 6, 13, 31, 0, 0, 0, 8, 17, 0, 28, 1, 0, 19, 9, 22, 0, 0, 36, 10, 20, 5, 2, 0, 33, 12, 21, 25, 34, 35, 14, 3, 0, 0
|0, 0, 16, 10, 27, 0, 36, 4, 0, 20, 0, 24, 23, 0, 0, 2, 0, 33, 0, 15, 12, 0, 0, 22, 14, 13, 6, 31, 9, 5, 25, 0, 30, 26, 29, 18
|7, 33, 24, 1, 17, 26, 3, 6, 12, 0, 22, 25, 8, 0, 0, 0, 31, 14, 35, 0, 21, 19, 23, 28, 36, 11, 18, 16, 0, 34, 0, 27, 0, 9, 10, 5
|0, 2, 29, 20, 15, 23, 32, 34, 5, 16, 13, 14, 25, 12, 24, 10, 0, 0, 0, 0, 1, 0, 0, 0, 17, 0, 0, 7, 8, 3, 6, 19, 0, 0, 36, 0
|9, 34, 12, 25, 36, 14, 0, 29, 11, 35, 30, 18, 0, 21, 6, 0, 15, 0, 3, 0, 2, 26, 0, 16, 0, 23, 0, 19, 0, 0, 31, 0, 7, 0, 0, 0
|31, 28, 0, 18, 0, 17, 0, 11, 7, 2, 5, 20, 19, 0, 21, 0, 0, 0, 36, 22, 0, 24, 4, 32, 0, 8, 29, 3, 30, 9, 0, 0, 16, 10, 34, 33
|27, 0, 3, 0, 20, 35, 9, 0, 0, 25, 12, 1, 26, 2, 0, 0, 32, 0, 17, 0, 0, 6, 31, 0, 0, 0, 0, 14, 5, 0, 0, 0, 22, 11, 30, 0
|30, 19, 21, 7, 4, 15, 0, 16, 22, 3, 23, 35, 11, 5, 29, 0, 27, 10, 0, 0, 0, 34, 8, 0, 1, 0, 0, 0, 6, 12, 18, 24, 0, 31, 9, 32
|33, 22, 0, 12, 10, 0, 19, 36, 17, 32, 14, 29, 6, 0, 15, 7, 8, 28, 16, 5, 11, 30, 2, 25, 18, 21, 24, 0, 0, 13, 35, 26, 3, 0, 1, 4
|14, 0, 11, 36, 8, 1, 4, 0, 24, 28, 10, 31, 18, 9, 0, 0, 3, 34, 21, 35, 0, 15, 12, 20, 0, 16, 7, 0, 22, 27, 2, 5, 29, 23, 25, 6
|2, 0, 25, 34, 0, 5, 6, 27, 8, 0, 0, 33, 0, 36, 0, 30, 22, 23, 0, 0, 10, 1, 29, 3, 31, 35, 32, 11, 0, 4, 0, 20, 19, 14, 0, 0
|0, 0, 33, 0, 0, 10, 14, 7, 0, 13, 0, 0, 30, 27, 5, 0, 24, 8, 20, 1, 28, 0, 26, 11, 6, 25, 19, 2, 31, 22, 0, 15, 0, 29, 0, 3
|26, 12, 0, 32, 16, 3, 27, 0, 35, 0, 6, 28, 0, 22, 2, 15, 0, 25, 24, 33, 7, 29, 19, 0, 0, 34, 0, 18, 4, 0, 0, 31, 0, 21, 0, 1
|20, 0, 35, 2, 0, 4, 11, 22, 0, 0, 29, 30, 32, 0, 7, 28, 19, 0, 0, 10, 0, 0, 9, 13, 3, 12, 16, 8, 36, 21, 0, 25, 34, 0, 27, 14
|21, 25, 13, 24, 0, 27, 5, 3, 31, 4, 15, 19, 0, 11, 14, 9, 0, 0, 0, 16, 8, 17, 30, 12, 7, 33, 0, 20, 0, 32, 10, 6, 23, 0, 22, 26
|1, 5, 0, 11, 19, 7, 34, 25, 26, 0, 9, 17, 33, 6, 31, 16, 0, 0, 0, 3, 32, 0, 21, 0, 0, 0, 0, 23, 14, 10, 28, 30, 0, 13, 4, 36
|29, 6, 9, 30, 22, 28, 33, 0, 0, 0, 8, 21, 0, 0, 23, 0, 4, 3, 15, 25, 14, 31, 35, 36, 24, 26, 0, 0, 27, 0, 19, 12, 32, 7, 11, 20
|15, 0, 18, 28, 14, 12, 0, 1, 30, 31, 20, 9, 0, 0, 17, 36, 33, 5, 11, 0, 24, 23, 0, 8, 16, 0, 2, 32, 13, 6, 7, 4, 0, 25, 19, 29
|19, 24, 0, 13, 9, 0, 8, 32, 0, 34, 35, 27, 29, 0, 25, 14, 21, 4, 5, 17, 31, 16, 1, 6, 30, 7, 3, 36, 33, 0, 11, 0, 28, 18, 12, 10
|17, 21, 27, 0, 0, 6, 26, 0, 10, 22, 0, 36, 3, 32, 8, 1, 23, 0, 25, 0, 9, 35, 13, 0, 15, 28, 0, 4, 24, 14, 5, 34, 31, 20, 33, 0
|0, 0, 0, 4, 3, 2, 25, 0, 13, 29, 0, 0, 16, 28, 0, 0, 7, 0, 32, 0, 30, 18, 22, 33, 20, 31, 0, 35, 0, 8, 24, 0, 0, 0, 6, 27
|32, 1, 0, 0, 0, 0, 12, 28, 2, 6, 0, 0, 0, 30, 11, 34, 0, 31, 0, 0, 19, 21, 14, 15, 5, 17, 9, 27, 25, 29, 3, 23, 35, 16, 13, 22
|0, 11, 7, 0, 25, 30, 24, 33, 0, 14, 0, 3, 2, 20, 22, 0, 0, 35, 27, 29, 4, 12, 0, 26, 34, 18, 0, 21, 19, 0, 36, 0, 1, 0, 0, 0
|0, 3, 34, 0, 11, 0, 31, 26, 0, 17, 18, 16, 21, 0, 19, 0, 10, 27, 30, 28, 5, 33, 0, 35, 8, 32, 4, 15, 7, 2, 23, 9, 0, 1, 24, 13
|0, 0, 0, 27, 0, 36, 30, 13, 14, 21, 0, 15, 9, 25, 20, 0, 16, 0, 22, 0, 17, 3, 6, 0, 0, 1, 0, 5, 23, 11, 29, 18, 33, 35, 7, 2
|0, 9, 20, 23, 21, 13, 0, 19, 4, 0, 7, 0, 31, 14, 3, 33, 0, 36, 18, 0, 0, 2, 16, 1, 0, 30, 0, 0, 0, 24, 0, 32, 12, 0, 15, 34
|0, 7, 1, 35, 12, 0, 0, 8, 0, 5, 0, 0, 0, 18, 28, 0, 26, 30, 14, 23, 0, 13, 24, 9, 27, 20, 0, 6, 0, 36, 17, 0, 11, 19, 0, 0
|18, 0, 5, 15, 0, 32, 0, 0, 0, 11, 3, 10, 0, 23, 35, 6, 1, 24, 12, 21, 20, 8, 0, 34, 13, 19, 31, 33, 0, 16, 22, 36, 27, 30, 14, 25
|0, 31, 17, 33, 30, 24, 0, 0, 6, 1, 25, 0, 15, 0, 13, 0, 34, 0, 19, 0, 26, 27, 0, 10, 0, 9, 14, 0, 18, 0, 4, 0, 8, 5, 3, 0
|36, 0, 2, 5, 0, 0, 17, 35, 19, 12, 31, 13, 34, 33, 10, 4, 29, 9, 23, 27, 0, 20, 15, 24, 0, 6, 0, 22, 16, 28, 0, 8, 0, 32, 0, 7
|24, 29, 0, 0, 32, 16, 0, 10, 0, 33, 36, 34, 20, 19, 0, 23, 30, 0, 26, 6, 25, 0, 18, 17, 0, 14, 0, 0, 12, 0, 13, 0, 0, 4, 2, 35
|12, 27, 0, 0, 23, 18, 16, 5, 32, 7, 0, 0, 22, 13, 26, 35, 17, 0, 0, 0, 0, 0, 10, 4, 33, 36, 0, 25, 0, 15, 14, 0, 24, 28, 21, 31
|13, 10, 0, 9, 7, 0, 29, 24, 20, 26, 0, 11, 0, 16, 0, 3, 25, 18, 0, 31, 35, 28, 0, 0, 32, 4, 8, 30, 34, 0, 0, 22, 15, 17, 23, 12
|4, 17, 0, 19, 0, 34, 23, 15, 25, 30, 2, 8, 0, 24, 27, 0, 28, 6, 33, 0, 0, 0, 32, 21, 0, 3, 13, 1, 0, 18, 9, 16, 0, 36, 20, 0
|0, 20, 28, 21, 35, 25, 18, 14, 3, 9, 27, 0, 0, 8, 0, 0, 2, 15, 13, 30, 16, 36, 0, 0, 10, 5, 23, 24, 17, 0, 1, 33, 0, 34, 26, 19|];