order = 6;
grid = [|36, 0, 13, 20, 25, 15, 28, 14, 35, 32, 0, 30, 34, 31, 0, 0, 18, 8, 22, 0, 0, 21, 10, 33, 2, 3, 0, 7, 6, 24, 19, 16, 11, 0, 9, 0
|12, 0, 16, 23, 24, 0, 33, 0, 19, 9, 7, 31, 32, 0, 0, 30, 27, 0, 0, 0, 4, 1, 0, 35, 0, 21, 29, 14, 0, 0, 0, 0, 10, 6, 34, 0
|0, 7, 3, 0, 32, 29, 0, 13, 34, 0, 0, 12, 0, 0, 2, 0, 24, 1, 15, 9, 8, 18, 28, 14, 33, 0, 19, 26, 20, 23, 35, 0, 0, 31, 4, 0
|30, 22, 26, 0, 21, 18, 0, 0, 0, 4, 0, 0, 33, 6, 0, 10, 3, 0, 7, 20, 0, 0, 13, 0, 0, 0, 0, 27, 12, 31, 14, 15, 0, 8, 32, 0
|1, 0, 9, 31, 14, 35, 2, 25, 22, 0, 15, 8, 0, 0, 28, 26, 20, 11, 24, 12, 0, 32, 0, 6, 4, 34, 18, 16, 36, 30, 0, 0, 29, 3, 0, 0
|19, 0, 10, 17, 34, 2, 0, 1, 11, 0, 0, 20, 0, 14, 29, 7, 35, 4, 27, 0, 26, 30, 0, 25, 22, 0, 0, 0, 0, 0, 18, 0, 13, 0, 12, 24
|0, 20, 21, 0, 1, 17, 7, 0, 23, 0, 9, 0, 36, 29, 11, 32, 33, 28, 34, 30, 0, 14, 26, 0, 0, 6, 0, 10, 0, 0, 4, 0, 16, 12, 27, 19
|0, 24, 0, 25, 7, 0, 0, 3, 17, 12, 0, 19, 14, 20, 0, 6, 0, 34, 13, 0, 0, 0, 0, 0, 0, 16, 26, 0, 22, 0, 0, 1, 9, 0, 8, 18
|10, 0, 0, 0, 22, 32, 27, 0, 29, 11, 16, 13, 5, 19, 0, 31, 1, 0, 18, 25, 0, 17, 7, 24, 36, 8, 35, 15, 0, 0, 26, 21, 0, 14, 33, 2
|5, 26, 14, 0, 16, 0, 24, 0, 28, 0, 0, 0, 22, 0, 18, 3, 23, 10, 0, 19, 21, 33, 36, 9, 0, 13, 27, 17, 2, 32, 29, 6, 0, 20, 35, 7
|13, 29, 0, 8, 9, 23, 6, 0, 26, 21, 0, 0, 24, 4, 27, 0, 2, 0, 0, 3, 20, 15, 0, 0, 5, 0, 12, 0, 7, 19, 0, 22, 36, 10, 0, 34
|4, 6, 18, 36, 19, 27, 34, 0, 10, 15, 35, 14, 16, 8, 13, 17, 7, 26, 5, 29, 0, 0, 31, 12, 21, 20, 9, 11, 0, 1, 0, 0, 25, 0, 28, 3
|0, 10, 29, 21, 33, 0, 18, 6, 15, 7, 0, 26, 20, 0, 31, 0, 0, 0, 9, 0, 35, 25, 12, 30, 13, 23, 0, 0, 0, 0, 1, 11, 28, 5, 0, 0
|0, 9, 15, 0, 4, 28, 29, 30, 0, 16, 14, 3, 0, 32, 7, 13, 0, 5, 17, 11, 27, 0, 23, 22, 0, 33, 20, 34, 26, 12, 31, 10, 0, 21, 0, 36
|31, 0, 27, 0, 36, 0, 22, 0, 21, 0, 28, 0, 12, 0, 23, 15, 0, 3, 10, 0, 16, 2, 33, 34, 24, 4, 32, 1, 5, 17, 9, 30, 18, 0, 14, 0
|17, 23, 0, 0, 35, 0, 32, 31, 12, 0, 0, 1, 28, 34, 6, 11, 25, 33, 4, 18, 14, 36, 3, 5, 9, 0, 0, 2, 15, 0, 27, 8, 20, 29, 0, 13
|0, 18, 5, 11, 13, 0, 35, 10, 9, 27, 23, 33, 1, 2, 14, 21, 8, 0, 0, 26, 31, 7, 6, 15, 29, 0, 36, 0, 0, 25, 16, 34, 4, 24, 17, 12
|34, 14, 22, 24, 20, 0, 0, 17, 0, 5, 13, 36, 10, 0, 9, 0, 16, 18, 28, 1, 32, 19, 21, 29, 8, 11, 0, 31, 0, 0, 0, 0, 0, 15, 0, 33
|29, 11, 0, 2, 0, 0, 1, 0, 27, 0, 0, 28, 18, 36, 10, 0, 0, 0, 0, 7, 13, 20, 5, 0, 26, 15, 0, 0, 23, 22, 34, 9, 14, 35, 30, 0
|25, 34, 0, 0, 15, 33, 10, 0, 0, 0, 21, 6, 11, 28, 8, 24, 0, 27, 12, 0, 9, 29, 0, 16, 14, 0, 4, 3, 0, 36, 23, 0, 17, 26, 13, 20
|26, 0, 8, 10, 0, 36, 25, 22, 0, 0, 0, 5, 0, 23, 1, 14, 9, 0, 0, 0, 24, 3, 4, 2, 0, 17, 7, 0, 32, 0, 11, 0, 21, 19, 0, 29
|0, 21, 19, 3, 28, 14, 13, 15, 36, 29, 8, 16, 0, 25, 20, 33, 30, 2, 0, 17, 34, 0, 0, 26, 27, 35, 11, 12, 1, 5, 6, 24, 32, 0, 0, 31
|0, 0, 23, 7, 0, 0, 0, 26, 0, 0, 18, 17, 3, 35, 16, 34, 6, 31, 0, 15, 1, 28, 22, 21, 10, 19, 13, 0, 0, 0, 12, 0, 5, 0, 0, 8
|22, 35, 0, 18, 12, 0, 9, 0, 14, 23, 0, 0, 7, 0, 0, 5, 0, 0, 0, 27, 19, 0, 8, 0, 0, 24, 30, 6, 21, 16, 15, 0, 3, 33, 0, 1
|27, 0, 0, 29, 2, 0, 26, 16, 5, 25, 0, 10, 0, 24, 0, 0, 28, 0, 19, 33, 7, 0, 34, 0, 15, 18, 21, 35, 8, 9, 13, 0, 1, 36, 11, 23
|7, 28, 0, 4, 18, 0, 36, 0, 1, 0, 24, 9, 8, 16, 15, 0, 21, 13, 26, 22, 0, 5, 0, 31, 32, 27, 34, 23, 11, 33, 10, 0, 12, 17, 29, 6
|35, 16, 31, 13, 0, 21, 0, 27, 8, 34, 4, 7, 19, 1, 25, 2, 0, 6, 29, 0, 3, 11, 9, 0, 17, 0, 24, 0, 30, 0, 20, 33, 22, 32, 0, 0
|24, 17, 25, 26, 0, 10, 0, 11, 0, 28, 6, 21, 29, 22, 33, 9, 0, 14, 35, 32, 15, 12, 2, 4, 3, 0, 0, 0, 19, 20, 7, 27, 0, 0, 18, 0
|0, 1, 0, 33, 8, 0, 0, 19, 13, 18, 0, 15, 27, 0, 0, 12, 5, 32, 21, 24, 0, 0, 20, 23, 7, 31, 22, 36, 14, 10, 0, 4, 35, 25, 26, 0
|3, 15, 36, 14, 11, 22, 12, 0, 20, 17, 0, 32, 23, 7, 26, 18, 0, 35, 0, 0, 28, 13, 0, 0, 6, 29, 25, 5, 4, 2, 0, 0, 0, 16, 24, 9
|0, 0, 0, 15, 0, 5, 17, 0, 7, 13, 25, 27, 26, 9, 24, 22, 14, 23, 0, 34, 33, 8, 35, 0, 16, 0, 2, 21, 18, 0, 30, 12, 0, 4, 1, 0
|0, 30, 35, 9, 3, 0, 0, 12, 0, 0, 10, 24, 0, 27, 4, 28, 0, 17, 0, 23, 5, 22, 25, 0, 34, 36, 31, 0, 13, 15, 32, 29, 0, 0, 6, 14
|23, 2, 24, 32, 26, 1, 0, 29, 0, 14, 5, 34, 30, 18, 0, 0, 13, 20, 31, 21, 17, 9, 11, 7, 12, 25, 0, 4, 10, 35, 0, 0, 27, 0, 3, 0
|16, 0, 0, 27, 0, 0, 8, 9, 0, 30, 0, 35, 0, 3, 34, 1, 0, 15, 0, 28, 36, 4, 0, 0, 19, 0, 5, 20, 29, 14, 0, 0, 7, 0, 23, 21
|18, 8, 4, 22, 0, 11, 20, 21, 0, 1, 32, 23, 0, 10, 35, 16, 0, 0, 0, 14, 12, 26, 0, 0, 30, 0, 28, 24, 27, 3, 0, 0, 34, 9, 0, 15
|14, 36, 12, 34, 0, 0, 0, 28, 3, 22, 2, 4, 0, 33, 0, 29, 32, 7, 0, 0, 18, 27, 0, 19, 1, 0, 23, 0, 17, 0, 0, 0, 24, 13, 20, 11|];