order = 6;
grid = [|12, 33, 2, 32, 6, 22, 0, 7, 35, 10, 3, 14, 28, 13, 30, 8, 27, 5, 25, 0, 31, 19, 34, 0, 0, 0, 24, 18, 23, 0, 20, 36, 0, 1, 0, 0
|0, 0, 29, 0, 0, 15, 0, 36, 25, 20, 1, 16, 9, 33, 24, 19, 0, 6, 22, 0, 35, 26, 2, 30, 28, 31, 21, 0, 0, 34, 4, 27, 0, 18, 17, 10
|34, 0, 0, 24, 14, 8, 0, 29, 21, 9, 6, 28, 22, 18, 17, 10, 0, 16, 0, 3, 13, 0, 23, 0, 20, 7, 32, 36, 4, 25, 0, 12, 0, 0, 0, 0
|0, 0, 31, 1, 0, 17, 18, 19, 0, 12, 15, 33, 32, 14, 25, 34, 35, 23, 21, 29, 6, 27, 8, 0, 10, 3, 13, 26, 2, 16, 0, 5, 0, 24, 0, 0
|10, 0, 0, 0, 0, 21, 31, 11, 32, 2, 24, 0, 15, 29, 36, 0, 0, 4, 0, 12, 16, 5, 28, 0, 6, 33, 27, 35, 0, 19, 0, 14, 8, 13, 25, 0
|25, 16, 0, 0, 35, 28, 0, 4, 0, 0, 8, 23, 31, 12, 0, 20, 11, 21, 36, 0, 17, 18, 0, 0, 0, 1, 30, 15, 5, 14, 6, 0, 19, 33, 26, 3
|27, 35, 0, 16, 0, 0, 0, 0, 7, 0, 34, 3, 0, 1, 6, 15, 0, 0, 0, 23, 19, 30, 12, 0, 0, 25, 28, 4, 10, 33, 11, 0, 36, 8, 0, 14
|0, 7, 0, 8, 28, 12, 35, 0, 6, 18, 0, 1, 0, 0, 0, 4, 20, 0, 29, 33, 14, 10, 9, 25, 30, 5, 36, 34, 21, 26, 23, 2, 0, 3, 32, 13
|3, 14, 0, 0, 9, 0, 27, 22, 13, 32, 21, 8, 0, 34, 12, 0, 18, 10, 31, 26, 1, 35, 15, 28, 16, 0, 11, 6, 20, 24, 5, 4, 0, 0, 19, 30
|0, 1, 34, 18, 33, 0, 0, 0, 5, 0, 0, 4, 0, 0, 28, 27, 14, 8, 6, 16, 36, 24, 13, 0, 0, 32, 0, 22, 15, 0, 35, 0, 0, 0, 10, 20
|32, 13, 4, 30, 0, 0, 36, 0, 11, 0, 0, 31, 3, 0, 19, 16, 21, 0, 20, 0, 8, 22, 17, 2, 1, 0, 29, 27, 18, 35, 0, 25, 15, 0, 6, 33
|29, 17, 20, 6, 5, 10, 0, 28, 33, 25, 9, 12, 30, 0, 35, 32, 0, 0, 0, 34, 11, 21, 27, 4, 0, 0, 19, 3, 14, 0, 24, 31, 0, 16, 1, 0
|0, 32, 0, 34, 13, 26, 12, 0, 22, 11, 20, 7, 29, 4, 8, 30, 17, 33, 10, 28, 24, 9, 16, 0, 19, 23, 0, 25, 27, 1, 0, 18, 0, 0, 35, 2
|23, 20, 7, 21, 29, 1, 10, 0, 0, 0, 0, 0, 19, 24, 0, 0, 0, 15, 0, 27, 32, 14, 33, 0, 0, 0, 22, 17, 9, 0, 0, 8, 6, 30, 5, 25
|18, 30, 33, 22, 15, 2, 9, 0, 29, 0, 0, 0, 14, 3, 0, 0, 6, 20, 23, 1, 0, 31, 0, 34, 32, 28, 0, 24, 0, 21, 0, 17, 11, 19, 36, 12
|16, 9, 0, 31, 19, 3, 23, 26, 0, 6, 33, 13, 27, 22, 0, 0, 0, 36, 17, 18, 25, 12, 0, 0, 0, 2, 0, 10, 0, 15, 21, 24, 20, 14, 0, 0
|0, 12, 6, 17, 11, 25, 0, 16, 14, 0, 0, 19, 1, 0, 23, 21, 9, 34, 0, 30, 15, 29, 0, 35, 7, 4, 0, 31, 33, 5, 0, 22, 26, 28, 13, 0
|28, 10, 0, 27, 0, 4, 32, 35, 15, 31, 17, 0, 18, 0, 5, 0, 16, 0, 26, 21, 22, 0, 36, 19, 3, 13, 12, 0, 6, 0, 0, 1, 33, 23, 0, 9
|20, 15, 12, 5, 27, 29, 0, 0, 24, 0, 7, 10, 0, 32, 34, 0, 28, 0, 33, 0, 21, 2, 0, 1, 14, 22, 8, 23, 0, 36, 26, 0, 4, 9, 0, 0
|30, 0, 0, 3, 25, 14, 0, 9, 0, 19, 5, 35, 0, 21, 15, 0, 0, 0, 0, 22, 18, 11, 0, 36, 26, 6, 0, 0, 16, 0, 0, 32, 2, 10, 20, 7
|1, 8, 0, 11, 7, 35, 3, 6, 2, 33, 22, 32, 26, 19, 18, 5, 36, 14, 15, 0, 4, 20, 24, 16, 12, 10, 25, 0, 29, 27, 17, 34, 28, 21, 23, 0
|21, 6, 18, 36, 10, 0, 0, 0, 0, 28, 11, 25, 0, 23, 0, 7, 33, 12, 0, 13, 26, 17, 0, 14, 15, 20, 0, 9, 34, 32, 29, 16, 24, 35, 3, 0
|24, 0, 0, 26, 17, 0, 20, 0, 34, 13, 23, 0, 2, 16, 0, 0, 30, 11, 7, 31, 0, 28, 6, 0, 4, 0, 3, 5, 35, 18, 1, 19, 14, 0, 0, 0
|0, 4, 0, 9, 16, 34, 0, 0, 26, 0, 0, 29, 35, 20, 10, 0, 25, 0, 0, 0, 5, 3, 19, 0, 33, 24, 7, 0, 31, 0, 18, 0, 0, 36, 0, 22
|17, 26, 3, 29, 12, 0, 0, 13, 0, 5, 19, 2, 0, 25, 0, 24, 0, 0, 35, 20, 34, 7, 0, 9, 21, 16, 0, 0, 28, 0, 27, 0, 10, 15, 4, 36
|13, 0, 10, 15, 0, 0, 29, 0, 3, 1, 26, 20, 16, 2, 14, 11, 4, 0, 30, 6, 0, 23, 18, 17, 0, 34, 0, 32, 0, 12, 0, 28, 0, 0, 24, 8
|31, 28, 11, 0, 20, 16, 0, 25, 23, 0, 0, 0, 7, 8, 32, 36, 34, 0, 19, 5, 27, 15, 14, 24, 9, 0, 0, 1, 0, 4, 2, 6, 30, 0, 12, 0
|0, 0, 8, 19, 30, 0, 33, 32, 16, 27, 4, 9, 10, 28, 21, 31, 15, 35, 12, 0, 2, 25, 1, 0, 24, 26, 17, 7, 11, 0, 3, 0, 0, 5, 14, 34
|9, 2, 24, 4, 34, 7, 0, 12, 36, 15, 0, 0, 6, 26, 0, 18, 5, 0, 16, 0, 28, 32, 21, 31, 0, 30, 10, 0, 3, 23, 25, 20, 1, 17, 0, 19
|35, 25, 1, 0, 22, 5, 0, 0, 8, 7, 28, 0, 12, 27, 0, 9, 23, 17, 0, 10, 3, 13, 26, 29, 2, 18, 0, 0, 36, 6, 0, 33, 16, 11, 0, 32
|0, 24, 21, 7, 0, 6, 34, 3, 0, 0, 27, 15, 0, 35, 0, 13, 19, 28, 5, 2, 0, 0, 22, 26, 25, 0, 23, 8, 32, 10, 12, 0, 18, 20, 0, 11
|4, 11, 5, 10, 0, 13, 28, 0, 20, 0, 12, 22, 34, 30, 3, 23, 1, 18, 24, 19, 0, 0, 7, 32, 0, 15, 0, 16, 17, 0, 8, 26, 0, 27, 9, 0
|36, 3, 0, 0, 8, 9, 7, 24, 4, 21, 0, 0, 11, 17, 0, 12, 10, 29, 14, 15, 23, 6, 31, 27, 34, 0, 0, 2, 0, 0, 13, 35, 5, 22, 0, 16
|14, 0, 0, 12, 18, 23, 25, 0, 19, 16, 2, 5, 20, 6, 27, 22, 31, 7, 0, 35, 30, 0, 10, 8, 0, 0, 26, 0, 24, 13, 36, 3, 0, 0, 33, 17
|22, 0, 17, 35, 0, 0, 8, 33, 0, 0, 13, 26, 5, 15, 16, 14, 0, 0, 1, 11, 0, 0, 25, 0, 0, 27, 4, 28, 12, 3, 19, 10, 0, 0, 0, 24
|0, 27, 0, 28, 0, 0, 11, 30, 10, 35, 0, 6, 21, 9, 0, 0, 8, 24, 13, 17, 12, 34, 3, 18, 5, 0, 33, 29, 0, 22, 0, 15, 0, 4, 2, 0|];