order = 6;
grid = [|12, 0, 3, 11, 31, 0, 0, 4, 20, 0, 32, 24, 0, 0, 34, 0, 5, 16, 0, 2, 28, 18, 27, 26, 35, 7, 23, 8, 0, 22, 0, 14, 30, 17, 0, 10
|26, 20, 7, 32, 29, 0, 12, 9, 3, 0, 0, 0, 15, 13, 35, 0, 0, 30, 6, 8, 10, 17, 16, 21, 18, 4, 0, 36, 34, 5, 22, 11, 27, 1, 23, 25
|0, 0, 4, 6, 22, 8, 34, 18, 16, 11, 36, 27, 32, 26, 0, 0, 17, 1, 23, 19, 0, 0, 35, 20, 31, 25, 0, 10, 33, 21, 5, 2, 15, 13, 9, 0
|0, 0, 16, 17, 0, 0, 0, 30, 26, 0, 21, 15, 11, 27, 14, 0, 8, 23, 5, 4, 12, 31, 36, 25, 19, 29, 6, 9, 0, 13, 20, 28, 0, 7, 3, 35
|25, 10, 0, 21, 0, 15, 0, 0, 28, 19, 0, 0, 36, 0, 20, 24, 7, 0, 0, 22, 30, 29, 0, 0, 1, 0, 2, 0, 27, 26, 12, 0, 16, 31, 8, 4
|27, 0, 9, 23, 0, 0, 35, 0, 0, 1, 8, 6, 0, 22, 0, 0, 10, 4, 24, 0, 32, 15, 13, 0, 20, 17, 28, 0, 16, 12, 0, 19, 26, 0, 0, 21
|0, 16, 0, 36, 34, 17, 0, 22, 13, 8, 0, 0, 7, 21, 5, 6, 30, 0, 15, 0, 0, 0, 25, 12, 9, 31, 0, 0, 35, 20, 0, 29, 4, 28, 27, 3
|0, 23, 30, 1, 26, 6, 15, 0, 0, 4, 18, 28, 24, 35, 0, 34, 31, 36, 21, 0, 0, 0, 33, 22, 12, 2, 8, 0, 0, 11, 32, 0, 9, 16, 17, 0
|31, 27, 19, 3, 0, 33, 6, 0, 0, 7, 0, 36, 0, 15, 0, 16, 0, 18, 0, 10, 4, 0, 0, 24, 30, 34, 5, 22, 21, 29, 11, 12, 0, 20, 13, 1
|5, 29, 21, 15, 18, 14, 0, 20, 23, 0, 34, 25, 9, 8, 19, 22, 0, 17, 35, 0, 0, 11, 6, 16, 28, 0, 32, 0, 1, 10, 26, 33, 31, 30, 24, 36
|4, 32, 11, 35, 0, 0, 1, 0, 0, 0, 9, 16, 27, 12, 33, 10, 3, 0, 0, 34, 17, 0, 5, 0, 15, 0, 0, 0, 36, 23, 18, 8, 21, 2, 7, 19
|13, 0, 0, 8, 9, 20, 3, 32, 27, 21, 19, 0, 25, 14, 11, 1, 0, 26, 30, 36, 18, 0, 23, 31, 33, 24, 0, 4, 0, 0, 10, 6, 22, 35, 0, 0
|3, 0, 32, 9, 4, 36, 0, 27, 6, 5, 0, 22, 33, 0, 7, 21, 18, 10, 0, 30, 20, 16, 24, 11, 8, 1, 31, 0, 0, 35, 13, 0, 17, 0, 25, 34
|14, 0, 29, 7, 6, 0, 36, 34, 1, 0, 15, 19, 4, 32, 28, 11, 20, 0, 2, 0, 5, 10, 0, 0, 21, 26, 33, 0, 13, 0, 9, 31, 0, 24, 22, 16
|24, 25, 0, 28, 23, 1, 0, 2, 0, 18, 13, 10, 0, 36, 17, 0, 34, 9, 0, 27, 33, 14, 12, 19, 6, 16, 4, 29, 11, 0, 3, 35, 5, 0, 20, 32
|0, 34, 31, 0, 27, 16, 7, 8, 4, 33, 29, 23, 3, 0, 0, 15, 26, 35, 13, 6, 0, 9, 17, 28, 22, 18, 0, 5, 32, 24, 0, 36, 11, 14, 0, 12
|2, 35, 0, 18, 10, 0, 0, 0, 0, 0, 11, 14, 0, 24, 0, 5, 22, 29, 25, 0, 0, 0, 31, 36, 0, 9, 12, 20, 0, 28, 19, 0, 7, 21, 4, 33
|21, 22, 0, 0, 11, 5, 24, 3, 9, 0, 0, 12, 14, 0, 16, 19, 23, 27, 8, 26, 7, 0, 4, 0, 25, 15, 36, 0, 10, 2, 0, 30, 18, 6, 1, 28
|30, 31, 2, 0, 13, 0, 19, 12, 0, 23, 26, 21, 0, 0, 15, 0, 0, 28, 20, 18, 11, 0, 0, 1, 5, 10, 0, 0, 4, 0, 14, 22, 35, 0, 6, 9
|16, 0, 18, 24, 36, 0, 27, 11, 29, 28, 30, 3, 0, 10, 4, 0, 32, 0, 34, 17, 6, 0, 2, 5, 14, 0, 0, 0, 25, 31, 7, 15, 0, 12, 26, 8
|15, 14, 0, 0, 20, 0, 0, 31, 33, 0, 10, 0, 0, 11, 22, 26, 1, 21, 0, 0, 35, 36, 28, 13, 17, 0, 19, 7, 8, 0, 27, 34, 25, 18, 2, 0
|22, 0, 26, 0, 0, 32, 8, 0, 0, 15, 35, 0, 31, 0, 24, 0, 6, 0, 7, 12, 0, 23, 21, 27, 2, 36, 0, 28, 29, 0, 17, 0, 0, 3, 19, 0
|0, 0, 17, 12, 21, 11, 32, 1, 7, 0, 24, 18, 0, 20, 0, 2, 0, 14, 19, 33, 26, 25, 29, 0, 27, 0, 13, 3, 22, 30, 28, 5, 10, 23, 16, 31
|0, 0, 25, 0, 0, 28, 5, 13, 36, 0, 22, 2, 17, 0, 18, 7, 0, 33, 14, 31, 16, 0, 30, 10, 26, 11, 9, 35, 0, 0, 24, 21, 0, 29, 32, 0
|33, 7, 22, 30, 2, 0, 9, 15, 0, 0, 0, 17, 5, 1, 26, 31, 28, 25, 0, 0, 13, 19, 11, 4, 23, 35, 20, 24, 18, 36, 0, 0, 12, 0, 21, 0
|0, 11, 0, 29, 15, 23, 0, 0, 19, 36, 16, 26, 0, 33, 32, 12, 21, 0, 18, 9, 2, 27, 0, 8, 7, 30, 34, 31, 5, 25, 0, 0, 24, 0, 28, 22
|9, 28, 0, 14, 3, 0, 18, 0, 0, 27, 25, 7, 0, 0, 0, 0, 35, 11, 16, 0, 0, 5, 0, 33, 0, 13, 0, 26, 2, 8, 0, 32, 23, 0, 0, 17
|6, 5, 0, 13, 0, 25, 0, 0, 8, 32, 1, 0, 34, 0, 2, 0, 0, 24, 17, 35, 0, 0, 26, 0, 0, 21, 0, 0, 28, 4, 0, 3, 36, 0, 18, 7
|32, 0, 36, 26, 16, 21, 4, 28, 22, 0, 2, 35, 0, 29, 8, 23, 0, 19, 10, 0, 25, 30, 3, 7, 11, 33, 27, 0, 0, 0, 0, 13, 34, 9, 0, 0
|18, 8, 34, 0, 35, 31, 23, 21, 5, 20, 0, 30, 0, 17, 27, 0, 16, 7, 0, 0, 1, 24, 15, 6, 3, 19, 22, 32, 9, 0, 0, 26, 29, 0, 11, 2
|0, 6, 14, 25, 0, 0, 22, 36, 0, 26, 23, 0, 0, 7, 3, 4, 33, 0, 12, 32, 0, 0, 0, 9, 0, 27, 15, 0, 20, 1, 16, 17, 28, 5, 31, 0
|29, 15, 28, 0, 0, 4, 20, 19, 11, 10, 33, 0, 26, 6, 21, 0, 0, 0, 0, 5, 8, 3, 1, 18, 0, 12, 35, 0, 31, 0, 30, 0, 2, 32, 14, 23
|1, 9, 5, 0, 12, 0, 0, 17, 0, 0, 6, 32, 0, 23, 29, 0, 24, 8, 28, 16, 0, 0, 0, 2, 0, 22, 11, 21, 26, 34, 0, 0, 19, 25, 33, 0
|0, 18, 27, 0, 24, 35, 21, 0, 15, 16, 7, 31, 1, 28, 30, 14, 0, 2, 0, 13, 36, 0, 20, 0, 32, 5, 29, 33, 23, 0, 34, 10, 3, 22, 12, 26
|0, 26, 23, 2, 0, 34, 28, 5, 12, 13, 4, 1, 19, 18, 10, 32, 9, 0, 31, 25, 0, 33, 22, 0, 36, 0, 7, 16, 30, 3, 21, 0, 6, 11, 0, 27
|0, 21, 33, 0, 32, 3, 29, 35, 2, 24, 0, 9, 16, 0, 25, 0, 12, 31, 0, 23, 0, 26, 7, 0, 10, 28, 0, 0, 0, 0, 0, 1, 20, 8, 15, 13|];