order = 6;
grid = [|0, 35, 21, 29, 17, 0, 0, 0, 16, 0, 33, 0, 0, 34, 13, 24, 3, 6, 26, 0, 36, 2, 0, 0, 20, 0, 28, 30, 0, 27, 0, 0, 0, 0, 0, 0
|0, 19, 20, 10, 9, 0, 24, 31, 35, 36, 27, 12, 25, 1, 33, 0, 28, 16, 0, 21, 0, 5, 17, 14, 0, 15, 8, 3, 32, 0, 6, 11, 34, 0, 23, 0
|16, 6, 0, 4, 23, 36, 21, 11, 17, 15, 7, 5, 10, 20, 0, 29, 0, 32, 8, 19, 0, 0, 0, 3, 0, 34, 14, 25, 0, 9, 0, 28, 22, 0, 0, 27
|31, 0, 15, 24, 0, 0, 0, 1, 13, 2, 20, 0, 0, 35, 8, 36, 12, 17, 0, 0, 4, 23, 0, 28, 7, 0, 11, 0, 29, 18, 10, 32, 0, 25, 0, 0
|18, 33, 3, 34, 2, 8, 23, 0, 32, 4, 28, 29, 0, 31, 11, 0, 21, 7, 22, 10, 0, 1, 27, 25, 5, 19, 17, 12, 24, 6, 0, 20, 35, 0, 14, 16
|12, 32, 1, 0, 0, 28, 34, 9, 0, 8, 3, 0, 23, 22, 19, 30, 14, 27, 35, 16, 0, 0, 0, 0, 0, 2, 0, 0, 4, 0, 0, 0, 21, 0, 0, 31
|26, 0, 24, 15, 19, 9, 35, 0, 23, 12, 0, 0, 30, 21, 36, 22, 0, 20, 31, 0, 0, 11, 4, 18, 14, 25, 16, 0, 17, 2, 27, 7, 8, 0, 5, 28
|27, 22, 11, 0, 20, 16, 31, 13, 25, 0, 10, 33, 0, 15, 0, 2, 5, 28, 17, 14, 0, 19, 29, 0, 32, 0, 7, 23, 26, 0, 0, 0, 18, 0, 34, 21
|0, 25, 31, 12, 4, 13, 26, 17, 0, 0, 0, 0, 16, 27, 6, 0, 32, 18, 0, 30, 2, 21, 7, 0, 28, 35, 9, 8, 33, 34, 11, 3, 0, 22, 29, 23
|0, 17, 0, 6, 3, 0, 2, 22, 0, 0, 9, 7, 8, 14, 26, 11, 29, 0, 1, 28, 20, 25, 35, 16, 15, 0, 13, 21, 10, 4, 30, 0, 0, 32, 12, 0
|8, 0, 14, 0, 0, 30, 0, 0, 4, 3, 36, 16, 0, 0, 34, 0, 25, 13, 32, 0, 23, 27, 0, 9, 22, 5, 31, 11, 0, 0, 1, 6, 0, 35, 0, 15
|28, 0, 32, 0, 0, 2, 11, 27, 8, 0, 1, 0, 0, 4, 9, 7, 33, 31, 15, 5, 12, 34, 22, 0, 24, 6, 0, 20, 3, 0, 14, 17, 13, 0, 16, 25
|14, 28, 22, 19, 34, 0, 33, 24, 21, 0, 11, 0, 20, 8, 27, 31, 0, 0, 9, 0, 0, 0, 10, 23, 30, 26, 5, 36, 15, 32, 0, 13, 0, 2, 4, 0
|24, 20, 0, 21, 0, 26, 27, 3, 0, 0, 22, 9, 18, 13, 17, 6, 0, 2, 28, 15, 0, 0, 12, 19, 0, 7, 23, 4, 14, 29, 35, 0, 32, 34, 11, 5
|0, 30, 9, 25, 27, 31, 13, 14, 0, 17, 18, 4, 0, 0, 0, 28, 23, 29, 11, 26, 8, 0, 0, 0, 0, 12, 3, 2, 34, 10, 0, 21, 19, 16, 15, 36
|0, 15, 0, 2, 12, 3, 5, 0, 7, 35, 30, 0, 26, 16, 14, 33, 19, 21, 25, 4, 34, 32, 36, 22, 9, 13, 20, 0, 28, 11, 23, 18, 27, 24, 0, 1
|11, 16, 7, 0, 32, 4, 36, 19, 0, 23, 12, 2, 34, 30, 24, 10, 0, 0, 13, 3, 0, 31, 21, 29, 27, 0, 0, 35, 0, 25, 0, 33, 20, 28, 0, 9
|0, 23, 33, 8, 0, 17, 32, 20, 29, 28, 15, 34, 11, 9, 0, 12, 36, 25, 18, 35, 0, 6, 2, 0, 21, 0, 24, 0, 16, 0, 0, 30, 3, 0, 26, 10
|3, 0, 0, 33, 13, 0, 10, 15, 0, 27, 16, 24, 1, 7, 0, 34, 22, 11, 21, 0, 9, 18, 23, 4, 0, 31, 32, 6, 25, 35, 20, 5, 28, 17, 2, 26
|2, 34, 8, 16, 5, 6, 18, 35, 12, 11, 29, 28, 17, 0, 10, 0, 0, 14, 33, 0, 0, 24, 0, 0, 19, 36, 21, 15, 7, 13, 9, 23, 1, 0, 27, 22
|15, 24, 0, 0, 31, 27, 1, 23, 5, 26, 32, 20, 29, 36, 0, 0, 0, 33, 2, 7, 0, 0, 19, 30, 4, 17, 10, 0, 22, 0, 12, 16, 25, 3, 18, 0
|0, 7, 23, 32, 0, 0, 6, 25, 14, 22, 0, 19, 12, 18, 5, 0, 0, 0, 0, 0, 0, 16, 15, 36, 0, 28, 0, 0, 30, 0, 0, 10, 31, 0, 21, 13
|9, 26, 17, 36, 0, 0, 3, 0, 34, 7, 31, 0, 0, 25, 0, 32, 16, 24, 0, 12, 11, 22, 13, 6, 23, 29, 18, 0, 0, 20, 15, 14, 0, 19, 35, 4
|10, 0, 12, 18, 0, 0, 0, 30, 9, 33, 0, 13, 0, 23, 0, 0, 0, 19, 5, 20, 26, 29, 28, 0, 11, 16, 0, 0, 2, 1, 32, 36, 0, 0, 24, 8
|32, 31, 0, 17, 7, 21, 9, 12, 22, 13, 25, 10, 14, 0, 15, 3, 30, 0, 0, 24, 33, 0, 1, 0, 0, 11, 0, 18, 27, 0, 0, 2, 16, 0, 8, 0
|22, 12, 29, 30, 14, 11, 0, 32, 2, 1, 26, 27, 0, 28, 23, 9, 0, 8, 16, 18, 19, 15, 0, 0, 0, 0, 36, 34, 0, 7, 3, 4, 0, 0, 0, 0
|36, 0, 34, 27, 0, 33, 0, 5, 19, 14, 23, 3, 32, 12, 25, 0, 2, 4, 7, 0, 10, 9, 30, 0, 29, 0, 15, 0, 20, 28, 0, 35, 0, 31, 0, 11
|20, 0, 25, 28, 16, 19, 15, 0, 11, 29, 24, 36, 0, 10, 22, 21, 7, 34, 3, 2, 0, 8, 5, 26, 1, 14, 0, 13, 0, 0, 0, 27, 9, 12, 0, 6
|1, 0, 0, 0, 15, 10, 30, 34, 28, 0, 17, 35, 0, 11, 0, 0, 0, 26, 27, 23, 31, 0, 32, 0, 2, 3, 25, 5, 12, 33, 19, 0, 14, 0, 7, 0
|23, 0, 35, 0, 26, 24, 7, 21, 33, 6, 8, 31, 27, 19, 1, 0, 13, 0, 14, 0, 29, 20, 0, 0, 17, 4, 22, 0, 9, 16, 34, 0, 0, 10, 28, 18
|17, 0, 13, 31, 28, 0, 29, 7, 0, 9, 0, 0, 21, 33, 35, 0, 34, 10, 12, 25, 0, 4, 18, 1, 8, 0, 2, 22, 11, 14, 16, 19, 23, 5, 0, 30
|7, 4, 2, 14, 29, 23, 12, 0, 0, 32, 13, 17, 0, 3, 18, 25, 11, 0, 0, 34, 0, 26, 9, 33, 10, 30, 0, 31, 0, 5, 21, 1, 24, 8, 0, 35
|0, 0, 0, 0, 33, 25, 22, 0, 18, 31, 35, 23, 13, 0, 0, 14, 9, 1, 30, 36, 5, 3, 8, 17, 34, 20, 0, 7, 19, 21, 2, 0, 15, 0, 0, 32
|19, 5, 10, 22, 24, 32, 8, 0, 0, 34, 0, 11, 28, 2, 29, 0, 26, 0, 20, 0, 15, 0, 0, 7, 16, 0, 35, 1, 23, 3, 18, 25, 0, 27, 0, 14
|21, 36, 30, 20, 18, 0, 4, 2, 3, 24, 0, 1, 0, 0, 31, 8, 27, 5, 23, 29, 0, 0, 0, 11, 0, 33, 0, 0, 0, 15, 28, 34, 7, 6, 0, 17
|34, 9, 16, 1, 8, 0, 25, 0, 10, 19, 0, 0, 0, 6, 7, 0, 4, 0, 24, 27, 21, 0, 0, 0, 18, 32, 29, 0, 36, 17, 0, 26, 0, 20, 13, 3|];