order = 9;
grid = [|56, 29, 0, 23, 25, 0, 0, 0, 0, 0, 0, 76, 53, 0, 2, 58, 0, 43, 8, 15, 13, 1, 70, 0, 0, 0, 0, 0, 0, 57, 44, 0, 36, 47, 0, 0, 0, 80, 21, 0, 55, 0, 0, 81, 40, 0, 0, 33, 45, 51, 60, 71, 69, 0, 0, 0, 19, 4, 28, 0, 0, 52, 37, 27, 11, 0, 0, 48, 78, 0, 0, 74, 41, 0, 0, 0, 54, 31, 0, 72, 7
|38, 51, 48, 54, 0, 0, 70, 0, 0, 0, 0, 23, 40, 0, 44, 31, 30, 13, 14, 7, 55, 79, 45, 0, 0, 10, 0, 49, 0, 4, 60, 0, 81, 72, 21, 76, 0, 0, 0, 0, 0, 50, 0, 0, 0, 0, 0, 17, 57, 0, 0, 2, 26, 53, 0, 0, 67, 0, 0, 41, 0, 0, 0, 0, 47, 77, 12, 0, 29, 0, 52, 0, 3, 0, 28, 0, 42, 64, 71, 0, 0
|3, 0, 0, 47, 19, 0, 45, 0, 40, 61, 34, 0, 0, 0, 0, 0, 42, 0, 6, 25, 0, 0, 51, 0, 65, 41, 0, 0, 33, 52, 0, 9, 0, 80, 46, 56, 0, 14, 0, 0, 49, 0, 0, 20, 0, 0, 43, 0, 59, 38, 58, 55, 0, 0, 0, 44, 0, 70, 57, 0, 0, 0, 0, 72, 69, 76, 81, 0, 1, 0, 0, 0, 0, 0, 0, 67, 50, 0, 32, 0, 0
|34, 78, 0, 0, 0, 33, 65, 17, 0, 36, 4, 0, 0, 0, 9, 0, 0, 62, 66, 24, 0, 0, 0, 0, 73, 64, 0, 67, 0, 0, 50, 40, 69, 8, 0, 0, 31, 0, 0, 63, 41, 58, 0, 7, 0, 6, 0, 68, 42, 0, 61, 52, 0, 5, 0, 76, 0, 0, 0, 0, 45, 0, 0, 44, 14, 57, 38, 54, 0, 37, 60, 0, 70, 0, 47, 0, 59, 0, 0, 27, 0
|66, 0, 0, 39, 11, 72, 76, 0, 44, 0, 0, 0, 0, 27, 0, 0, 0, 0, 34, 0, 32, 0, 0, 78, 0, 0, 20, 0, 45, 37, 0, 16, 0, 28, 12, 0, 0, 61, 0, 57, 0, 4, 0, 33, 0, 0, 0, 18, 0, 0, 0, 0, 0, 0, 0, 69, 0, 0, 42, 71, 53, 0, 9, 0, 0, 3, 0, 0, 23, 24, 22, 40, 0, 81, 14, 19, 8, 0, 29, 0, 55
|59, 21, 4, 81, 64, 79, 74, 0, 0, 0, 19, 55, 0, 0, 0, 0, 35, 22, 23, 58, 0, 53, 47, 0, 44, 69, 0, 42, 62, 1, 11, 24, 0, 15, 0, 0, 0, 51, 0, 43, 0, 0, 78, 54, 60, 0, 0, 0, 0, 0, 3, 0, 0, 37, 8, 36, 17, 34, 12, 29, 30, 0, 0, 0, 2, 32, 67, 0, 0, 0, 13, 0, 0, 73, 0, 0, 0, 25, 33, 0, 52
|1, 67, 69, 41, 18, 71, 26, 0, 10, 0, 0, 0, 47, 0, 0, 0, 0, 0, 52, 0, 0, 33, 76, 0, 0, 0, 0, 19, 51, 43, 35, 0, 65, 20, 0, 0, 38, 53, 0, 0, 0, 0, 75, 0, 24, 22, 12, 0, 54, 0, 44, 0, 40, 0, 0, 14, 49, 59, 72, 5, 78, 0, 0, 0, 0, 0, 42, 64, 0, 55, 0, 0, 0, 0, 60, 39, 57, 0, 15, 23, 48
|0, 6, 0, 0, 0, 0, 60, 0, 0, 0, 3, 67, 69, 0, 68, 66, 0, 1, 0, 40, 0, 71, 0, 0, 0, 49, 57, 34, 0, 63, 39, 0, 53, 0, 0, 31, 0, 0, 0, 0, 45, 59, 79, 0, 19, 73, 0, 48, 0, 0, 29, 0, 0, 32, 25, 15, 0, 0, 64, 0, 0, 0, 0, 33, 0, 0, 16, 9, 80, 26, 0, 0, 0, 13, 44, 2, 58, 43, 37, 0, 0
|0, 28, 15, 50, 0, 0, 0, 49, 0, 51, 12, 0, 25, 52, 72, 0, 39, 0, 37, 36, 29, 0, 21, 0, 22, 0, 0, 3, 73, 13, 0, 0, 0, 54, 0, 0, 0, 18, 0, 0, 0, 0, 0, 11, 0, 0, 0, 76, 0, 80, 0, 0, 0, 0, 16, 0, 0, 0, 1, 0, 55, 32, 0, 0, 43, 41, 0, 0, 0, 63, 7, 0, 0, 9, 0, 0, 20, 0, 69, 0, 0
|13, 17, 0, 56, 79, 0, 0, 0, 0, 81, 9, 0, 0, 0, 0, 0, 22, 0, 0, 23, 40, 78, 44, 21, 25, 5, 38, 0, 0, 0, 57, 35, 0, 0, 0, 45, 2, 24, 30, 0, 70, 31, 36, 0, 55, 1, 0, 77, 0, 74, 0, 0, 43, 0, 0, 0, 0, 0, 73, 0, 66, 16, 0, 37, 62, 0, 4, 20, 0, 0, 54, 19, 0, 27, 11, 0, 46, 0, 76, 68, 60
|0, 0, 0, 0, 22, 0, 64, 0, 0, 0, 35, 29, 0, 0, 27, 57, 55, 0, 0, 0, 0, 50, 79, 0, 6, 0, 49, 17, 0, 48, 38, 10, 0, 0, 0, 74, 0, 0, 60, 77, 0, 26, 0, 18, 0, 0, 46, 0, 70, 11, 0, 0, 33, 0, 0, 37, 0, 0, 21, 72, 62, 0, 0, 40, 12, 0, 75, 0, 16, 34, 24, 0, 0, 0, 0, 0, 69, 0, 19, 0, 1
|0, 70, 42, 0, 0, 1, 28, 18, 0, 0, 0, 0, 71, 0, 24, 0, 0, 0, 0, 34, 41, 0, 53, 0, 15, 0, 45, 33, 66, 0, 0, 80, 0, 0, 0, 8, 44, 0, 0, 0, 37, 0, 0, 0, 39, 0, 0, 22, 0, 6, 35, 0, 20, 0, 43, 79, 54, 51, 40, 74, 0, 36, 32, 2, 73, 0, 25, 46, 0, 0, 0, 58, 0, 0, 10, 48, 0, 4, 26, 67, 0
|0, 0, 0, 4, 0, 0, 37, 0, 50, 0, 68, 0, 0, 73, 0, 0, 74, 0, 0, 20, 0, 0, 0, 0, 0, 0, 67, 0, 0, 62, 0, 47, 0, 22, 16, 19, 28, 15, 0, 9, 0, 0, 0, 0, 0, 40, 63, 59, 56, 0, 25, 0, 41, 0, 31, 0, 75, 13, 0, 0, 71, 45, 46, 0, 3, 6, 0, 33, 76, 0, 0, 0, 51, 64, 21, 61, 0, 0, 72, 0, 53
|0, 10, 0, 20, 68, 61, 43, 0, 45, 46, 0, 39, 15, 0, 0, 67, 53, 38, 69, 0, 0, 37, 9, 0, 0, 0, 0, 18, 54, 23, 0, 0, 13, 50, 0, 0, 0, 0, 66, 0, 0, 0, 33, 0, 0, 0, 64, 0, 48, 24, 0, 65, 0, 0, 2, 0, 8, 17, 29, 25, 59, 0, 0, 0, 0, 31, 5, 0, 47, 0, 0, 0, 62, 58, 0, 0, 0, 0, 14, 36, 71
|0, 0, 7, 0, 74, 66, 0, 0, 0, 0, 0, 3, 72, 45, 20, 6, 0, 0, 26, 0, 61, 32, 29, 0, 0, 0, 0, 0, 1, 51, 0, 37, 28, 49, 0, 0, 0, 46, 5, 54, 40, 73, 0, 63, 10, 0, 0, 0, 0, 0, 0, 38, 0, 47, 0, 0, 0, 52, 60, 4, 44, 0, 64, 0, 0, 0, 30, 0, 41, 35, 0, 15, 8, 39, 0, 0, 13, 59, 31, 0, 23
|67, 0, 0, 62, 0, 0, 0, 0, 15, 69, 0, 26, 77, 76, 0, 17, 0, 2, 16, 0, 47, 0, 0, 4, 1, 51, 70, 0, 0, 36, 0, 0, 24, 0, 0, 60, 7, 0, 6, 64, 0, 0, 0, 0, 27, 0, 0, 0, 13, 78, 8, 29, 0, 18, 0, 0, 0, 0, 9, 53, 19, 0, 55, 68, 21, 0, 0, 56, 71, 0, 10, 0, 0, 33, 50, 0, 0, 0, 0, 37, 0
|0, 38, 0, 53, 0, 0, 0, 78, 0, 58, 0, 37, 0, 0, 0, 18, 66, 0, 2, 64, 31, 0, 0, 77, 0, 0, 56, 0, 40, 6, 0, 67, 42, 0, 14, 0, 0, 4, 23, 0, 0, 0, 35, 0, 0, 0, 0, 75, 0, 81, 50, 0, 79, 0, 0, 10, 63, 0, 0, 0, 0, 0, 0, 0, 44, 65, 0, 59, 45, 0, 0, 0, 74, 41, 30, 0, 0, 28, 0, 22, 17
|0, 0, 0, 0, 0, 0, 75, 63, 0, 42, 5, 56, 0, 0, 31, 0, 0, 0, 0, 62, 7, 0, 0, 71, 0, 8, 0, 41, 21, 39, 0, 44, 20, 11, 0, 0, 0, 34, 0, 3, 0, 45, 0, 0, 72, 52, 0, 0, 0, 17, 0, 37, 0, 23, 49, 12, 0, 30, 0, 0, 48, 77, 0, 28, 67, 0, 0, 57, 0, 0, 26, 0, 16, 0, 24, 40, 0, 0, 0, 0, 0
|6, 0, 68, 0, 0, 0, 11, 0, 81, 0, 37, 25, 16, 1, 75, 0, 31, 42, 0, 0, 62, 70, 0, 10, 61, 0, 8, 0, 0, 0, 43, 0, 38, 0, 24, 66, 13, 29, 0, 0, 0, 33, 0, 49, 12, 34, 71, 0, 0, 0, 55, 0, 0, 44, 72, 0, 0, 60, 5, 63, 0, 0, 77, 53, 26, 15, 17, 0, 39, 79, 3, 14, 67, 0, 54, 22, 30, 48, 0, 0, 32
|31, 48, 0, 76, 30, 26, 0, 0, 0, 68, 51, 0, 0, 0, 0, 41, 0, 0, 0, 0, 0, 0, 0, 0, 74, 56, 0, 0, 0, 47, 0, 13, 0, 42, 0, 0, 0, 27, 43, 81, 72, 0, 0, 52, 25, 0, 65, 0, 11, 0, 70, 15, 0, 73, 0, 0, 0, 39, 7, 0, 0, 0, 75, 1, 0, 19, 0, 0, 0, 2, 0, 21, 45, 0, 37, 50, 36, 0, 38, 0, 0
|0, 0, 70, 0, 42, 0, 23, 0, 0, 73, 46, 28, 0, 39, 14, 44, 0, 0, 43, 9, 71, 45, 12, 0, 18, 50, 13, 0, 22, 0, 52, 0, 16, 60, 81, 0, 0, 0, 34, 0, 0, 10, 0, 0, 78, 0, 0, 35, 0, 0, 62, 0, 0, 79, 0, 8, 47, 0, 55, 31, 0, 54, 36, 0, 0, 48, 56, 32, 0, 51, 0, 68, 0, 57, 0, 0, 66, 0, 0, 0, 0
|61, 0, 0, 0, 38, 0, 0, 45, 27, 59, 0, 20, 81, 0, 0, 23, 9, 54, 29, 0, 0, 0, 1, 73, 47, 0, 39, 37, 78, 2, 0, 0, 7, 34, 48, 40, 77, 0, 0, 60, 0, 0, 67, 0, 30, 75, 26, 72, 0, 10, 0, 66, 0, 4, 0, 21, 0, 0, 6, 0, 74, 43, 71, 24, 0, 52, 57, 0, 0, 0, 25, 0, 46, 8, 42, 0, 0, 55, 0, 13, 31
|0, 0, 19, 0, 16, 73, 53, 24, 0, 0, 32, 80, 0, 3, 0, 72, 77, 66, 0, 63, 23, 5, 0, 0, 0, 55, 0, 0, 0, 0, 70, 0, 71, 21, 49, 0, 0, 48, 0, 31, 0, 0, 45, 0, 0, 0, 0, 8, 7, 0, 38, 0, 0, 0, 0, 0, 0, 78, 13, 0, 2, 1, 10, 67, 0, 4, 0, 47, 0, 43, 0, 12, 75, 0, 0, 76, 0, 0, 81, 0, 44
|0, 1, 78, 58, 13, 8, 3, 0, 0, 0, 0, 0, 76, 0, 0, 79, 0, 0, 0, 46, 19, 21, 0, 37, 49, 66, 0, 0, 0, 0, 0, 74, 6, 0, 18, 55, 50, 62, 0, 0, 28, 80, 63, 44, 73, 60, 33, 0, 0, 36, 0, 0, 64, 81, 29, 45, 0, 0, 0, 48, 0, 69, 25, 0, 0, 35, 0, 0, 0, 20, 11, 0, 9, 0, 0, 26, 0, 68, 0, 0, 39
|77, 0, 60, 0, 0, 22, 56, 74, 28, 18, 0, 15, 0, 21, 11, 0, 0, 0, 38, 0, 76, 67, 30, 0, 0, 0, 0, 0, 0, 14, 0, 0, 0, 39, 33, 20, 0, 0, 4, 0, 0, 70, 46, 5, 16, 50, 45, 25, 12, 31, 0, 23, 0, 0, 0, 42, 0, 79, 0, 27, 17, 0, 0, 49, 0, 72, 0, 8, 0, 61, 62, 0, 7, 35, 0, 0, 43, 0, 24, 19, 58
|35, 12, 0, 37, 52, 0, 0, 0, 0, 0, 47, 13, 0, 0, 45, 60, 0, 67, 0, 0, 42, 72, 0, 44, 4, 15, 0, 0, 0, 0, 5, 0, 0, 0, 0, 63, 0, 36, 0, 58, 7, 0, 0, 26, 0, 0, 32, 78, 28, 0, 43, 9, 48, 0, 0, 56, 62, 38, 11, 0, 0, 3, 0, 0, 65, 46, 0, 0, 0, 18, 33, 0, 0, 0, 0, 71, 49, 0, 40, 0, 0
|0, 66, 0, 72, 0, 0, 40, 0, 9, 0, 43, 63, 0, 35, 58, 0, 0, 0, 24, 53, 0, 0, 78, 14, 0, 0, 60, 10, 69, 0, 0, 0, 76, 79, 0, 0, 74, 38, 22, 59, 1, 0, 55, 75, 0, 54, 39, 0, 0, 0, 13, 42, 0, 0, 20, 81, 73, 44, 51, 37, 49, 0, 70, 64, 30, 0, 0, 45, 0, 36, 6, 0, 0, 0, 18, 0, 0, 12, 4, 3, 62
|74, 0, 0, 30, 36, 0, 14, 57, 0, 21, 73, 33, 29, 0, 0, 0, 11, 0, 0, 0, 69, 0, 2, 5, 0, 0, 0, 0, 46, 53, 0, 0, 44, 40, 9, 0, 0, 0, 10, 0, 23, 61, 0, 60, 0, 32, 80, 64, 0, 66, 0, 0, 0, 0, 24, 55, 4, 27, 35, 50, 0, 0, 45, 0, 0, 22, 72, 0, 0, 52, 16, 0, 0, 0, 0, 20, 12, 47, 0, 7, 38
|4, 0, 0, 0, 54, 24, 77, 0, 66, 0, 59, 0, 0, 43, 0, 0, 0, 32, 0, 29, 39, 73, 0, 47, 51, 3, 6, 0, 0, 75, 0, 62, 60, 0, 0, 42, 0, 5, 55, 0, 33, 78, 38, 0, 22, 0, 0, 0, 18, 53, 0, 8, 65, 58, 0, 0, 70, 0, 10, 16, 0, 49, 0, 0, 74, 0, 0, 0, 67, 0, 68, 0, 34, 0, 0, 35, 0, 0, 0, 0, 0
|52, 49, 29, 0, 0, 10, 0, 62, 0, 0, 0, 0, 20, 5, 0, 51, 58, 55, 0, 0, 0, 0, 0, 63, 41, 34, 19, 13, 0, 80, 0, 0, 22, 14, 45, 6, 73, 0, 11, 0, 36, 0, 27, 0, 0, 76, 0, 31, 3, 68, 0, 25, 54, 0, 0, 74, 0, 0, 2, 28, 0, 61, 0, 43, 71, 30, 48, 60, 66, 4, 15, 33, 0, 23, 26, 0, 56, 0, 0, 0, 37
|0, 0, 45, 42, 0, 44, 50, 28, 65, 0, 67, 10, 0, 74, 56, 0, 27, 0, 0, 38, 60, 8, 0, 0, 0, 57, 0, 47, 0, 0, 33, 11, 0, 16, 23, 0, 0, 0, 75, 0, 25, 9, 76, 71, 0, 0, 0, 0, 21, 73, 0, 0, 35, 0, 37, 41, 13, 66, 62, 0, 0, 0, 12, 29, 19, 0, 53, 0, 26, 49, 70, 0, 0, 0, 64, 78, 3, 40, 1, 31, 79
|60, 0, 0, 0, 0, 0, 0, 0, 3, 14, 0, 0, 62, 0, 0, 22, 0, 0, 4, 45, 53, 0, 31, 17, 81, 43, 11, 79, 41, 0, 0, 68, 21, 24, 0, 10, 0, 37, 58, 0, 0, 0, 13, 40, 6, 0, 0, 46, 0, 7, 0, 75, 0, 0, 32, 59, 76, 36, 8, 23, 25, 0, 0, 57, 0, 64, 0, 0, 34, 0, 1, 0, 5, 0, 0, 0, 29, 16, 74, 15, 67
|25, 53, 17, 0, 80, 76, 0, 0, 0, 31, 0, 46, 0, 9, 70, 0, 0, 0, 0, 21, 0, 66, 0, 20, 50, 0, 0, 0, 0, 0, 0, 0, 0, 67, 0, 36, 0, 57, 0, 62, 8, 52, 43, 0, 0, 0, 0, 12, 10, 16, 11, 45, 0, 0, 65, 0, 78, 0, 0, 60, 56, 0, 0, 69, 0, 14, 35, 7, 0, 41, 79, 18, 0, 0, 6, 0, 28, 0, 0, 4, 0
|70, 79, 26, 0, 0, 0, 6, 2, 22, 12, 0, 45, 64, 0, 0, 0, 15, 41, 0, 56, 10, 0, 0, 0, 0, 62, 0, 52, 30, 59, 0, 28, 1, 0, 0, 0, 19, 77, 16, 0, 42, 0, 0, 0, 0, 72, 44, 0, 0, 55, 0, 0, 0, 29, 0, 0, 38, 69, 0, 7, 0, 68, 81, 0, 39, 75, 0, 11, 0, 0, 0, 0, 0, 0, 0, 14, 0, 80, 73, 17, 0
|0, 43, 0, 0, 59, 0, 0, 0, 69, 66, 16, 0, 0, 0, 34, 4, 1, 0, 0, 35, 0, 0, 0, 7, 0, 40, 0, 0, 0, 49, 0, 26, 37, 5, 0, 78, 48, 0, 0, 44, 0, 39, 0, 0, 0, 36, 0, 61, 9, 30, 23, 81, 60, 57, 0, 63, 22, 71, 17, 0, 42, 0, 18, 54, 0, 45, 0, 0, 0, 0, 28, 50, 0, 0, 0, 62, 11, 46, 0, 70, 51
|58, 0, 0, 1, 47, 16, 21, 75, 67, 0, 0, 35, 19, 0, 25, 52, 0, 0, 0, 0, 28, 64, 18, 0, 0, 0, 0, 65, 0, 66, 2, 54, 0, 0, 55, 0, 0, 0, 45, 51, 63, 0, 3, 69, 0, 0, 38, 0, 0, 0, 0, 0, 0, 50, 15, 0, 14, 53, 39, 0, 73, 0, 6, 0, 42, 0, 20, 37, 0, 81, 76, 56, 49, 10, 0, 72, 22, 0, 27, 0, 61
|45, 54, 55, 48, 0, 0, 57, 0, 0, 60, 0, 6, 0, 0, 0, 35, 68, 0, 22, 44, 17, 18, 59, 64, 0, 0, 43, 0, 0, 0, 8, 0, 3, 30, 0, 0, 0, 16, 9, 47, 4, 23, 0, 67, 0, 29, 0, 0, 50, 0, 34, 7, 15, 14, 78, 1, 0, 0, 0, 0, 0, 0, 73, 0, 0, 26, 69, 65, 19, 74, 0, 0, 0, 0, 5, 12, 0, 0, 42, 77, 0
|14, 40, 0, 0, 0, 0, 58, 69, 0, 0, 0, 59, 42, 31, 37, 15, 21, 45, 0, 0, 35, 26, 66, 0, 60, 0, 36, 6, 0, 38, 0, 0, 0, 2, 0, 67, 20, 0, 33, 0, 0, 0, 22, 0, 5, 16, 0, 13, 0, 43, 81, 0, 44, 80, 30, 0, 0, 0, 0, 76, 0, 18, 0, 77, 0, 25, 62, 0, 8, 0, 0, 0, 50, 0, 17, 73, 47, 7, 68, 0, 75
|81, 52, 0, 25, 0, 0, 0, 1, 23, 75, 28, 0, 0, 0, 55, 56, 0, 9, 42, 0, 0, 3, 0, 0, 0, 76, 0, 0, 0, 16, 66, 0, 0, 0, 62, 53, 0, 31, 0, 0, 35, 0, 64, 37, 11, 0, 20, 30, 0, 47, 0, 48, 0, 67, 0, 65, 61, 7, 0, 0, 0, 0, 0, 6, 0, 0, 21, 22, 33, 0, 45, 57, 59, 44, 71, 63, 0, 27, 8, 80, 0
|0, 32, 18, 22, 72, 0, 0, 29, 6, 80, 65, 36, 33, 70, 0, 0, 0, 0, 0, 0, 0, 34, 0, 45, 58, 25, 0, 0, 0, 7, 10, 76, 12, 0, 20, 75, 14, 0, 0, 61, 62, 0, 49, 30, 13, 0, 0, 0, 0, 0, 78, 69, 0, 19, 53, 0, 3, 55, 23, 0, 77, 0, 0, 0, 0, 79, 0, 15, 17, 44, 59, 42, 40, 0, 51, 74, 26, 0, 0, 0, 0
|65, 3, 0, 0, 0, 0, 33, 0, 13, 0, 74, 14, 79, 0, 0, 0, 0, 0, 0, 1, 0, 0, 41, 2, 0, 27, 0, 0, 0, 0, 0, 42, 0, 0, 22, 43, 0, 0, 56, 0, 0, 55, 52, 0, 77, 62, 68, 0, 0, 0, 0, 39, 59, 0, 0, 50, 0, 10, 0, 0, 0, 0, 0, 60, 7, 0, 0, 0, 0, 0, 31, 61, 0, 0, 0, 0, 19, 0, 66, 0, 0
|0, 68, 0, 9, 0, 67, 7, 30, 0, 4, 0, 50, 0, 0, 18, 0, 61, 0, 62, 13, 0, 6, 0, 79, 0, 0, 0, 0, 0, 0, 24, 0, 0, 23, 0, 26, 58, 78, 0, 0, 59, 17, 0, 0, 0, 0, 0, 55, 0, 0, 72, 53, 0, 2, 0, 5, 16, 25, 81, 49, 0, 35, 0, 0, 64, 0, 63, 0, 32, 0, 71, 0, 0, 31, 0, 0, 37, 0, 0, 0, 0
|37, 0, 2, 10, 17, 0, 42, 0, 0, 0, 0, 0, 26, 64, 51, 0, 49, 0, 0, 0, 65, 0, 48, 55, 16, 0, 7, 27, 0, 0, 80, 0, 0, 0, 0, 0, 41, 8, 24, 0, 0, 0, 0, 50, 0, 0, 0, 0, 0, 0, 0, 56, 75, 0, 9, 20, 0, 0, 22, 69, 54, 0, 62, 0, 81, 0, 0, 5, 35, 0, 43, 67, 23, 0, 61, 0, 0, 0, 0, 76, 0
|79, 34, 0, 0, 0, 0, 51, 36, 0, 0, 0, 7, 0, 32, 67, 0, 0, 0, 0, 0, 0, 4, 0, 0, 0, 0, 23, 31, 55, 25, 0, 49, 0, 52, 57, 33, 0, 6, 68, 10, 54, 0, 19, 0, 63, 45, 9, 0, 0, 40, 0, 0, 18, 35, 27, 11, 0, 46, 0, 17, 0, 75, 44, 50, 56, 0, 0, 28, 0, 0, 48, 0, 0, 16, 0, 0, 0, 0, 0, 0, 0
|80, 0, 0, 63, 0, 0, 15, 66, 0, 10, 0, 0, 0, 13, 22, 0, 0, 16, 0, 74, 77, 0, 0, 0, 0, 68, 9, 0, 0, 0, 64, 36, 17, 0, 29, 50, 0, 40, 44, 75, 65, 34, 0, 0, 0, 49, 0, 32, 1, 79, 0, 0, 0, 38, 21, 0, 0, 0, 0, 0, 0, 0, 0, 0, 23, 0, 0, 0, 0, 30, 0, 55, 0, 0, 0, 0, 0, 0, 0, 0, 0
|72, 0, 0, 7, 0, 0, 20, 9, 0, 0, 0, 0, 24, 0, 0, 0, 0, 0, 0, 0, 0, 0, 0, 60, 0, 0, 0, 38, 14, 0, 15, 63, 80, 0, 0, 0, 65, 30, 67, 55, 0, 21, 0, 0, 0, 27, 0, 50, 69, 48, 0, 0, 16, 68, 0, 0, 56, 0, 0, 36, 31, 0, 0, 0, 51, 0, 28, 18, 40, 0, 0, 59, 0, 3, 73, 29, 0, 0, 47, 0, 64
|8, 57, 6, 26, 0, 0, 16, 0, 0, 0, 0, 19, 0, 72, 50, 39, 0, 0, 0, 18, 73, 47, 0, 29, 0, 32, 0, 48, 75, 0, 59, 0, 0, 62, 0, 0, 0, 25, 0, 41, 0, 0, 0, 77, 0, 0, 55, 45, 78, 0, 0, 0, 34, 64, 0, 0, 27, 0, 0, 0, 81, 0, 65, 0, 0, 0, 43, 0, 52, 0, 0, 0, 58, 0, 0, 4, 33, 51, 35, 0, 0
|0, 50, 0, 49, 34, 13, 55, 0, 0, 23, 0, 43, 37, 15, 0, 74, 64, 0, 44, 68, 0, 0, 0, 0, 0, 71, 41, 0, 0, 0, 26, 0, 32, 0, 0, 7, 0, 73, 17, 78, 60, 0, 0, 0, 36, 77, 0, 0, 30, 0, 0, 0, 29, 76, 51, 39, 0, 9, 0, 1, 20, 0, 0, 14, 0, 0, 0, 0, 0, 0, 0, 48, 81, 0, 0, 0, 0, 54, 52, 0, 80
|33, 36, 0, 44, 0, 0, 0, 0, 2, 5, 80, 18, 0, 67, 0, 76, 0, 0, 20, 0, 0, 55, 13, 58, 28, 0, 0, 61, 0, 0, 0, 0, 64, 37, 0, 0, 0, 0, 54, 19, 0, 79, 57, 10, 0, 0, 0, 0, 0, 0, 0, 22, 11, 0, 7, 0, 53, 16, 77, 75, 43, 0, 40, 21, 0, 60, 49, 0, 0, 0, 0, 4, 78, 0, 0, 0, 0, 32, 30, 71, 63
|32, 45, 0, 0, 0, 0, 17, 64, 0, 0, 58, 73, 0, 10, 60, 0, 0, 0, 0, 11, 24, 0, 0, 50, 40, 2, 0, 0, 0, 0, 0, 0, 56, 0, 0, 71, 0, 0, 81, 39, 0, 37, 0, 61, 0, 0, 51, 53, 14, 0, 1, 0, 0, 0, 0, 0, 69, 76, 0, 0, 5, 79, 0, 15, 0, 54, 77, 26, 0, 0, 19, 78, 0, 43, 0, 8, 0, 0, 46, 42, 0
|0, 0, 0, 0, 0, 0, 0, 4, 1, 0, 71, 17, 0, 0, 0, 0, 45, 63, 0, 65, 51, 14, 16, 0, 0, 0, 79, 28, 0, 0, 0, 29, 0, 69, 54, 0, 66, 0, 0, 0, 13, 74, 0, 38, 0, 0, 56, 41, 0, 0, 0, 44, 0, 70, 0, 48, 0, 0, 0, 78, 0, 57, 0, 55, 0, 0, 0, 0, 64, 39, 0, 0, 2, 0, 0, 0, 6, 0, 0, 0, 76
|0, 0, 79, 0, 37, 77, 48, 25, 78, 13, 0, 11, 0, 0, 40, 36, 0, 0, 0, 0, 0, 52, 0, 38, 0, 53, 35, 0, 72, 76, 0, 0, 51, 0, 42, 22, 62, 0, 0, 33, 0, 12, 18, 0, 64, 5, 17, 0, 26, 0, 0, 32, 0, 60, 54, 19, 0, 80, 0, 0, 0, 0, 30, 0, 58, 0, 50, 0, 44, 0, 0, 23, 0, 0, 31, 10, 14, 74, 34, 0, 0
|0, 0, 12, 0, 0, 0, 38, 39, 30, 0, 0, 0, 35, 51, 52, 53, 25, 0, 72, 0, 8, 0, 0, 0, 0, 26, 22, 0, 0, 0, 0, 0, 0, 0, 0, 16, 34, 0, 1, 0, 0, 63, 14, 0, 48, 0, 0, 19, 74, 49, 0, 61, 0, 75, 18, 0, 0, 0, 50, 3, 0, 66, 41, 13, 0, 0, 0, 0, 69, 0, 32, 0, 0, 0, 0, 55, 17, 24, 77, 0, 0
|10, 0, 0, 24, 23, 18, 0, 0, 0, 0, 0, 0, 0, 0, 4, 9, 81, 0, 0, 0, 3, 0, 0, 75, 34, 0, 78, 0, 0, 0, 49, 52, 0, 0, 73, 0, 0, 26, 0, 0, 0, 0, 51, 0, 59, 21, 62, 40, 38, 0, 36, 0, 66, 0, 0, 70, 46, 0, 58, 14, 0, 55, 28, 17, 0, 7, 74, 0, 22, 0, 41, 53, 20, 61, 0, 37, 0, 0, 0, 0, 0
|0, 0, 0, 12, 51, 23, 0, 0, 52, 0, 27, 38, 0, 0, 74, 0, 0, 0, 32, 0, 0, 0, 0, 35, 0, 24, 0, 55, 79, 0, 0, 0, 30, 56, 72, 25, 0, 0, 26, 0, 0, 6, 0, 0, 46, 0, 31, 0, 0, 0, 75, 16, 13, 0, 62, 0, 0, 20, 68, 73, 0, 0, 3, 0, 70, 11, 0, 50, 60, 0, 81, 39, 1, 0, 0, 43, 0, 61, 0, 21, 59
|0, 0, 0, 0, 0, 65, 67, 13, 48, 52, 0, 0, 43, 53, 21, 0, 72, 40, 11, 0, 81, 12, 0, 22, 0, 0, 0, 0, 0, 0, 0, 8, 45, 38, 44, 0, 0, 55, 0, 0, 0, 68, 0, 0, 0, 0, 0, 0, 0, 0, 10, 74, 0, 42, 60, 23, 18, 0, 0, 0, 9, 0, 78, 25, 0, 0, 80, 35, 30, 0, 0, 0, 56, 0, 0, 79, 41, 50, 0, 51, 0
|57, 46, 0, 0, 9, 0, 0, 0, 0, 35, 15, 31, 17, 58, 0, 30, 0, 0, 60, 0, 0, 25, 50, 56, 48, 0, 0, 0, 0, 0, 29, 0, 0, 26, 28, 69, 0, 72, 39, 74, 22, 54, 44, 0, 0, 3, 0, 70, 0, 12, 0, 0, 80, 0, 0, 0, 0, 0, 45, 81, 76, 0, 0, 18, 4, 59, 0, 36, 65, 0, 14, 64, 0, 0, 0, 16, 0, 0, 7, 75, 0
|63, 0, 0, 74, 0, 41, 0, 3, 0, 0, 0, 24, 0, 66, 0, 20, 0, 0, 65, 37, 6, 0, 0, 0, 0, 47, 0, 0, 0, 78, 0, 31, 67, 17, 0, 0, 0, 9, 14, 18, 16, 0, 48, 19, 0, 0, 5, 51, 35, 72, 0, 0, 55, 0, 0, 61, 0, 0, 49, 57, 0, 39, 0, 0, 0, 27, 7, 29, 0, 13, 12, 0, 33, 0, 0, 0, 73, 0, 53, 60, 0
|0, 44, 0, 31, 0, 81, 0, 0, 14, 25, 0, 42, 5, 75, 0, 55, 76, 0, 0, 0, 34, 51, 0, 0, 0, 78, 0, 60, 0, 0, 22, 0, 0, 0, 0, 35, 0, 0, 49, 0, 52, 0, 0, 0, 0, 61, 1, 0, 43, 0, 0, 6, 0, 62, 0, 0, 72, 0, 0, 24, 7, 0, 0, 79, 41, 74, 0, 0, 0, 54, 53, 47, 13, 12, 0, 69, 0, 0, 57, 0, 36
|7, 24, 25, 75, 0, 0, 0, 0, 0, 0, 0, 4, 0, 41, 0, 0, 10, 26, 15, 0, 0, 2, 61, 31, 0, 14, 0, 63, 81, 0, 6, 0, 0, 51, 80, 5, 0, 47, 78, 56, 29, 30, 0, 36, 23, 0, 69, 60, 52, 44, 49, 17, 32, 48, 59, 40, 0, 74, 0, 0, 35, 0, 38, 8, 76, 9, 0, 0, 68, 0, 0, 43, 64, 67, 0, 0, 45, 0, 0, 0, 0
|0, 0, 54, 0, 0, 34, 22, 0, 0, 0, 44, 0, 9, 18, 48, 81, 0, 65, 0, 73, 59, 0, 0, 0, 0, 75, 0, 50, 0, 70, 0, 27, 0, 0, 0, 0, 43, 0, 20, 0, 5, 60, 77, 25, 61, 0, 0, 7, 0, 76, 45, 0, 8, 0, 0, 0, 0, 56, 0, 42, 4, 0, 0, 46, 0, 28, 55, 0, 0, 17, 23, 10, 0, 78, 80, 11, 0, 0, 58, 0, 68
|62, 0, 0, 18, 0, 45, 0, 0, 4, 71, 14, 0, 51, 0, 28, 68, 0, 0, 33, 43, 0, 29, 0, 13, 54, 16, 0, 7, 24, 10, 0, 0, 0, 3, 0, 0, 42, 0, 0, 0, 75, 0, 15, 70, 0, 0, 0, 37, 81, 0, 56, 0, 0, 0, 0, 34, 41, 0, 0, 0, 0, 12, 53, 0, 31, 20, 61, 0, 0, 0, 40, 26, 0, 0, 8, 25, 72, 0, 0, 46, 47
|0, 60, 38, 61, 0, 70, 72, 27, 0, 0, 22, 2, 0, 0, 0, 0, 73, 39, 0, 0, 9, 0, 0, 74, 0, 0, 64, 0, 13, 0, 1, 75, 19, 53, 37, 11, 0, 0, 0, 21, 81, 0, 59, 12, 0, 0, 0, 29, 0, 23, 33, 63, 24, 0, 55, 0, 25, 6, 0, 0, 0, 0, 0, 48, 0, 56, 0, 0, 0, 15, 0, 0, 77, 62, 66, 0, 35, 0, 0, 26, 4
|0, 73, 32, 52, 0, 25, 0, 72, 0, 47, 0, 78, 44, 16, 3, 0, 0, 0, 45, 0, 54, 19, 0, 40, 7, 0, 61, 0, 0, 11, 55, 30, 15, 65, 0, 23, 29, 0, 0, 0, 38, 0, 42, 0, 0, 58, 0, 63, 0, 70, 31, 0, 1, 0, 48, 66, 0, 0, 67, 9, 0, 24, 27, 26, 59, 0, 34, 0, 0, 53, 20, 0, 0, 49, 0, 28, 4, 0, 0, 69, 0
|0, 61, 44, 0, 12, 56, 54, 0, 0, 22, 0, 0, 0, 0, 17, 5, 0, 0, 0, 30, 2, 0, 0, 49, 53, 9, 0, 24, 80, 0, 0, 0, 0, 0, 63, 41, 23, 0, 40, 0, 0, 0, 0, 0, 0, 0, 0, 3, 32, 37, 47, 62, 38, 77, 0, 0, 31, 21, 14, 0, 28, 0, 16, 0, 0, 0, 0, 0, 4, 0, 0, 27, 43, 18, 36, 0, 76, 71, 0, 81, 0
|41, 0, 13, 3, 40, 58, 0, 7, 79, 70, 50, 27, 75, 63, 81, 8, 0, 59, 74, 22, 0, 62, 28, 16, 0, 42, 29, 43, 0, 0, 0, 0, 66, 48, 69, 54, 49, 0, 0, 72, 17, 32, 0, 14, 53, 0, 18, 0, 46, 65, 0, 80, 0, 55, 1, 0, 6, 68, 36, 0, 10, 73, 0, 5, 37, 24, 0, 19, 15, 0, 38, 52, 0, 25, 0, 0, 34, 0, 51, 0, 35
|51, 0, 0, 67, 0, 0, 30, 0, 64, 65, 0, 0, 31, 77, 1, 40, 36, 49, 35, 0, 0, 0, 6, 15, 23, 0, 0, 0, 0, 9, 53, 0, 50, 19, 0, 0, 0, 0, 57, 0, 79, 16, 0, 55, 28, 0, 0, 0, 61, 0, 48, 0, 10, 69, 71, 52, 0, 12, 46, 43, 13, 0, 80, 0, 0, 0, 33, 0, 0, 14, 0, 0, 73, 59, 74, 0, 5, 0, 62, 29, 0
|15, 0, 0, 45, 65, 46, 81, 0, 0, 0, 61, 60, 4, 0, 19, 43, 0, 35, 0, 52, 0, 0, 3, 59, 0, 0, 0, 0, 0, 0, 0, 0, 0, 0, 5, 0, 69, 44, 27, 0, 0, 0, 20, 51, 70, 0, 23, 73, 0, 0, 0, 0, 67, 0, 0, 17, 0, 0, 53, 8, 0, 72, 7, 10, 50, 0, 0, 77, 0, 11, 80, 41, 0, 1, 0, 0, 75, 0, 55, 0, 0
|0, 62, 0, 0, 0, 0, 35, 14, 59, 0, 69, 0, 0, 80, 0, 10, 0, 0, 47, 0, 0, 0, 8, 11, 20, 65, 0, 0, 28, 0, 42, 0, 75, 71, 70, 68, 33, 66, 37, 48, 77, 67, 0, 0, 54, 0, 40, 0, 25, 64, 0, 36, 0, 0, 45, 49, 81, 0, 0, 55, 50, 34, 0, 0, 13, 0, 0, 23, 79, 0, 0, 44, 0, 17, 32, 7, 0, 0, 3, 78, 9
|0, 69, 76, 17, 66, 38, 5, 0, 0, 57, 23, 0, 0, 0, 42, 0, 46, 58, 0, 0, 43, 13, 14, 0, 0, 0, 0, 16, 0, 0, 73, 3, 0, 0, 77, 81, 0, 7, 15, 0, 0, 11, 50, 6, 0, 53, 75, 0, 44, 39, 59, 0, 49, 0, 26, 0, 20, 0, 74, 0, 0, 25, 60, 0, 0, 47, 0, 0, 0, 71, 64, 29, 0, 0, 0, 0, 0, 67, 54, 0, 27
|0, 0, 0, 60, 0, 37, 0, 0, 0, 53, 0, 66, 0, 38, 26, 0, 67, 7, 25, 0, 58, 0, 0, 0, 32, 0, 73, 0, 0, 35, 0, 0, 0, 0, 0, 64, 0, 65, 8, 4, 0, 0, 0, 39, 0, 0, 0, 0, 0, 13, 0, 0, 0, 0, 0, 0, 30, 0, 70, 19, 75, 41, 69, 0, 0, 1, 0, 68, 36, 22, 0, 0, 12, 11, 0, 44, 0, 0, 0, 33, 0
|39, 63, 21, 0, 0, 28, 0, 0, 18, 0, 0, 9, 14, 68, 15, 0, 37, 72, 78, 71, 0, 0, 55, 67, 0, 77, 0, 74, 58, 33, 0, 1, 0, 44, 0, 0, 3, 0, 36, 0, 26, 56, 60, 62, 75, 7, 6, 0, 17, 50, 57, 51, 12, 0, 35, 0, 0, 0, 54, 47, 65, 0, 29, 0, 61, 69, 2, 81, 0, 42, 0, 16, 53, 40, 46, 0, 31, 0, 48, 0, 19
|0, 0, 10, 79, 6, 0, 13, 0, 60, 76, 0, 72, 36, 71, 69, 25, 54, 46, 0, 0, 0, 41, 0, 9, 80, 0, 17, 0, 0, 18, 0, 78, 0, 0, 7, 0, 0, 64, 65, 0, 47, 0, 0, 23, 0, 0, 0, 14, 0, 75, 0, 0, 42, 0, 0, 0, 74, 1, 0, 0, 0, 58, 0, 0, 52, 0, 15, 0, 0, 5, 0, 31, 48, 0, 45, 53, 27, 0, 67, 57, 77
|44, 0, 71, 0, 15, 17, 0, 50, 25, 0, 48, 0, 58, 0, 0, 0, 0, 75, 0, 78, 0, 7, 56, 30, 2, 0, 0, 73, 36, 0, 23, 69, 61, 0, 0, 0, 0, 0, 0, 16, 46, 0, 0, 80, 74, 47, 76, 26, 0, 0, 0, 43, 0, 0, 0, 0, 64, 0, 0, 0, 63, 8, 0, 0, 0, 0, 60, 79, 57, 45, 0, 38, 0, 24, 3, 59, 32, 52, 0, 0, 33
|0, 16, 31, 0, 41, 0, 19, 0, 0, 0, 0, 0, 27, 0, 7, 0, 0, 0, 0, 0, 37, 22, 58, 18, 13, 0, 0, 0, 0, 79, 28, 0, 0, 0, 52, 0, 0, 60, 59, 35, 0, 62, 29, 66, 69, 0, 0, 0, 4, 0, 0, 0, 0, 0, 0, 80, 55, 49, 0, 77, 0, 0, 0, 61, 0, 17, 0, 67, 0, 73, 0, 0, 76, 0, 12, 54, 39, 81, 23, 0, 0
|0, 33, 64, 46, 77, 74, 0, 5, 35, 0, 17, 0, 30, 79, 41, 0, 19, 0, 50, 54, 26, 0, 15, 43, 0, 0, 44, 66, 60, 22, 0, 0, 59, 13, 56, 80, 0, 0, 52, 0, 6, 0, 53, 0, 0, 0, 48, 23, 0, 32, 67, 24, 0, 0, 73, 0, 11, 75, 0, 45, 18, 0, 31, 0, 0, 0, 0, 14, 9, 1, 0, 0, 0, 0, 16, 0, 0, 29, 0, 65, 40
|23, 8, 51, 0, 45, 0, 0, 0, 21, 50, 57, 0, 34, 81, 35, 61, 0, 60, 73, 16, 0, 59, 0, 0, 0, 72, 52, 76, 0, 0, 62, 0, 0, 0, 30, 0, 15, 42, 28, 12, 0, 25, 37, 0, 0, 17, 0, 56, 0, 69, 71, 64, 22, 0, 13, 7, 0, 43, 79, 0, 6, 0, 19, 0, 46, 33, 0, 10, 3, 68, 0, 0, 31, 0, 0, 0, 70, 78, 18, 0, 0
|0, 0, 0, 38, 0, 0, 69, 47, 56, 0, 13, 0, 0, 14, 0, 0, 0, 0, 40, 0, 45, 63, 0, 34, 11, 0, 0, 0, 0, 29, 16, 46, 0, 33, 0, 0, 0, 0, 0, 0, 67, 0, 41, 0, 0, 0, 19, 5, 0, 27, 74, 0, 52, 0, 0, 0, 0, 24, 15, 68, 0, 0, 0, 71, 53, 39, 0, 49, 0, 0, 0, 80, 22, 30, 0, 64, 0, 17, 0, 79, 72
|0, 80, 0, 70, 0, 59, 0, 61, 0, 38, 0, 0, 0, 0, 0, 45, 0, 37, 39, 12, 0, 42, 0, 0, 0, 0, 0, 0, 74, 0, 17, 0, 0, 0, 0, 0, 1, 0, 0, 40, 0, 5, 30, 76, 0, 13, 73, 62, 16, 54, 0, 79, 7, 41, 69, 0, 0, 0, 66, 0, 60, 0, 0, 65, 6, 18, 0, 0, 0, 0, 0, 28, 0, 2, 63, 0, 44, 0, 0, 0, 0
|0, 0, 0, 0, 55, 0, 63, 12, 7, 15, 0, 0, 0, 0, 0, 0, 0, 73, 0, 14, 0, 0, 57, 0, 64, 4, 77, 0, 38, 0, 40, 0, 0, 68, 11, 3, 0, 0, 0, 26, 0, 0, 61, 48, 0, 0, 58, 0, 0, 0, 0, 0, 70, 0, 0, 25, 33, 0, 0, 0, 0, 22, 17, 0, 0, 0, 41, 0, 0, 0, 0, 30, 0, 0, 0, 60, 71, 0, 28, 74, 5
|0, 37, 14, 0, 0, 0, 18, 68, 29, 55, 24, 64, 0, 2, 10, 0, 0, 0, 19, 31, 0, 48, 5, 8, 0, 0, 0, 25, 0, 12, 0, 0, 27, 0, 47, 0, 11, 33, 13, 0, 0, 36, 56, 79, 44, 28, 0, 0, 15, 60, 39, 0, 81, 46, 42, 0, 0, 41, 76, 65, 21, 0, 23, 22, 0, 0, 70, 0, 0, 75, 0, 20, 69, 0, 35, 0, 80, 34, 0, 0, 66|];