order = 9;
grid = [|0, 0, 19, 0, 11, 45, 0, 0, 0, 0, 41, 50, 67, 0, 72, 0, 0, 0, 0, 0, 0, 0, 16, 0, 0, 78, 0, 0, 0, 0, 0, 1, 0, 80, 0, 0, 77, 12, 0, 0, 0, 0, 60, 53, 30, 4, 0, 0, 0, 0, 0, 0, 0, 0, 42, 5, 0, 73, 55, 58, 0, 0, 22, 0, 28, 0, 0, 3, 2, 0, 8, 56, 0, 35, 14, 38, 0, 79, 44, 0, 0
|0, 75, 0, 52, 0, 0, 0, 0, 0, 0, 0, 0, 0, 0, 0, 0, 0, 0, 0, 67, 73, 0, 9, 0, 65, 42, 29, 43, 78, 0, 0, 46, 0, 26, 22, 21, 71, 0, 0, 0, 3, 41, 0, 0, 45, 50, 56, 0, 44, 70, 55, 59, 0, 0, 0, 7, 0, 0, 48, 1, 0, 35, 63, 39, 0, 62, 0, 0, 0, 38, 0, 19, 0, 12, 0, 0, 0, 81, 0, 18, 30
|0, 65, 29, 15, 58, 48, 0, 27, 24, 28, 0, 35, 5, 0, 0, 69, 11, 0, 46, 49, 22, 0, 0, 81, 71, 41, 0, 57, 0, 0, 0, 0, 77, 0, 0, 47, 0, 0, 74, 0, 0, 34, 23, 33, 18, 25, 67, 8, 0, 0, 0, 0, 76, 39, 0, 0, 4, 0, 21, 16, 0, 0, 0, 0, 37, 0, 0, 0, 61, 43, 0, 10, 0, 0, 6, 19, 0, 3, 75, 26, 55
|0, 0, 78, 0, 0, 0, 12, 25, 0, 17, 0, 71, 59, 36, 31, 0, 0, 76, 0, 4, 27, 0, 48, 14, 0, 0, 5, 23, 6, 10, 0, 45, 3, 65, 44, 13, 0, 68, 22, 54, 28, 46, 0, 50, 0, 0, 0, 75, 57, 0, 61, 33, 58, 64, 0, 0, 0, 0, 0, 0, 0, 0, 30, 49, 0, 1, 40, 0, 0, 0, 26, 0, 0, 0, 43, 29, 0, 0, 41, 0, 60
|0, 42, 0, 0, 0, 0, 0, 56, 44, 0, 0, 27, 0, 0, 0, 45, 79, 0, 0, 0, 0, 64, 0, 0, 7, 0, 28, 39, 69, 66, 17, 14, 70, 0, 29, 0, 40, 0, 0, 0, 75, 0, 0, 62, 0, 0, 0, 0, 60, 0, 0, 63, 52, 20, 0, 23, 43, 81, 34, 0, 8, 53, 0, 47, 65, 0, 21, 55, 15, 67, 0, 0, 0, 9, 57, 0, 0, 0, 37, 0, 0
|61, 0, 0, 7, 74, 3, 0, 62, 37, 42, 0, 75, 0, 0, 56, 0, 0, 57, 0, 59, 32, 0, 0, 60, 77, 79, 18, 0, 0, 0, 0, 49, 0, 71, 0, 35, 39, 1, 0, 43, 17, 63, 11, 73, 0, 0, 0, 0, 0, 26, 0, 0, 81, 0, 28, 10, 0, 29, 0, 41, 25, 13, 0, 27, 0, 14, 33, 0, 44, 0, 54, 0, 47, 0, 0, 76, 0, 36, 0, 0, 45
|0, 0, 40, 51, 43, 38, 0, 59, 57, 0, 4, 23, 47, 65, 0, 0, 0, 0, 0, 0, 0, 0, 12, 74, 26, 34, 50, 41, 19, 79, 0, 0, 0, 20, 0, 0, 56, 0, 0, 42, 67, 55, 0, 0, 0, 0, 7, 45, 78, 0, 32, 77, 14, 46, 71, 3, 0, 17, 0, 33, 36, 0, 0, 0, 58, 0, 5, 0, 48, 29, 13, 81, 61, 28, 73, 0, 0, 0, 53, 8, 0
|0, 14, 0, 8, 66, 46, 0, 22, 47, 0, 38, 32, 9, 0, 0, 62, 0, 33, 40, 37, 0, 0, 57, 45, 0, 25, 2, 0, 5, 53, 52, 55, 60, 76, 0, 56, 13, 81, 0, 29, 31, 0, 59, 36, 0, 28, 0, 0, 1, 0, 0, 0, 10, 0, 69, 0, 15, 64, 44, 0, 39, 77, 0, 0, 0, 79, 30, 78, 0, 0, 72, 0, 0, 0, 42, 50, 0, 0, 0, 0, 65
|23, 0, 81, 72, 0, 26, 36, 0, 50, 0, 44, 16, 0, 52, 29, 0, 43, 55, 39, 35, 17, 3, 0, 0, 68, 0, 33, 0, 0, 0, 38, 0, 25, 75, 0, 32, 10, 0, 70, 19, 0, 0, 58, 0, 0, 12, 0, 0, 41, 79, 0, 0, 13, 0, 74, 0, 0, 47, 0, 0, 37, 0, 0, 0, 0, 9, 0, 0, 76, 77, 59, 0, 0, 1, 0, 2, 63, 20, 22, 0, 71
|52, 0, 0, 0, 38, 60, 11, 51, 0, 49, 0, 72, 0, 35, 69, 0, 36, 0, 0, 76, 0, 22, 0, 0, 0, 71, 62, 0, 27, 56, 0, 58, 48, 50, 0, 39, 0, 0, 0, 73, 0, 13, 0, 37, 33, 74, 79, 0, 47, 0, 0, 65, 41, 0, 15, 8, 7, 10, 29, 54, 0, 0, 0, 0, 19, 59, 77, 0, 23, 0, 70, 55, 80, 0, 0, 0, 0, 0, 30, 64, 25
|58, 72, 71, 0, 80, 0, 10, 49, 0, 0, 0, 0, 21, 62, 0, 76, 0, 0, 0, 0, 0, 0, 0, 55, 31, 20, 15, 0, 12, 17, 9, 38, 64, 0, 0, 68, 23, 0, 46, 30, 5, 2, 0, 6, 0, 0, 0, 4, 36, 33, 0, 45, 0, 52, 0, 0, 0, 0, 0, 0, 0, 0, 61, 48, 25, 0, 0, 0, 0, 78, 0, 66, 40, 7, 26, 0, 29, 0, 1, 0, 0
|0, 0, 0, 57, 56, 2, 0, 0, 0, 0, 0, 46, 11, 64, 0, 10, 0, 68, 24, 0, 0, 0, 0, 37, 39, 0, 81, 0, 0, 0, 0, 65, 22, 74, 0, 0, 67, 71, 0, 8, 0, 79, 0, 48, 62, 44, 66, 0, 0, 1, 0, 0, 35, 6, 0, 30, 69, 40, 0, 0, 0, 0, 13, 9, 0, 0, 0, 0, 0, 3, 38, 15, 0, 0, 45, 0, 4, 0, 0, 0, 0
|40, 48, 0, 0, 23, 36, 0, 0, 30, 73, 22, 45, 37, 7, 28, 0, 41, 0, 0, 68, 80, 0, 0, 0, 43, 0, 0, 0, 0, 0, 0, 0, 0, 0, 0, 81, 0, 47, 0, 0, 59, 0, 0, 0, 75, 56, 0, 19, 0, 0, 0, 0, 0, 0, 0, 0, 26, 46, 0, 0, 0, 12, 50, 0, 0, 0, 63, 52, 0, 0, 0, 53, 0, 0, 0, 0, 0, 71, 2, 0, 44
|0, 32, 27, 24, 70, 0, 0, 16, 68, 5, 23, 59, 25, 0, 53, 13, 0, 0, 0, 0, 0, 0, 41, 42, 0, 0, 4, 0, 0, 0, 0, 35, 78, 21, 0, 44, 0, 72, 57, 65, 36, 7, 39, 28, 29, 0, 22, 0, 20, 30, 64, 0, 17, 77, 75, 31, 0, 52, 80, 0, 55, 1, 58, 14, 60, 0, 0, 0, 0, 0, 0, 0, 76, 19, 50, 37, 0, 51, 54, 61, 11
|15, 0, 1, 0, 0, 0, 0, 63, 0, 47, 31, 56, 0, 57, 20, 80, 0, 0, 0, 7, 33, 19, 79, 0, 35, 0, 30, 0, 0, 32, 5, 25, 37, 45, 0, 0, 70, 54, 0, 0, 0, 0, 0, 77, 0, 0, 68, 0, 3, 27, 9, 0, 29, 23, 0, 0, 0, 0, 73, 0, 64, 44, 24, 34, 0, 72, 12, 39, 18, 0, 22, 0, 48, 0, 67, 10, 0, 53, 0, 62, 74
|0, 0, 75, 41, 54, 76, 5, 28, 8, 39, 50, 33, 0, 19, 0, 0, 4, 29, 16, 0, 59, 0, 23, 32, 66, 36, 0, 20, 47, 77, 57, 0, 61, 0, 1, 62, 0, 3, 56, 0, 81, 0, 12, 63, 0, 0, 31, 24, 0, 2, 58, 53, 42, 78, 70, 48, 0, 0, 60, 0, 27, 0, 0, 0, 64, 0, 0, 0, 0, 0, 0, 17, 6, 69, 0, 43, 38, 0, 72, 34, 0
|0, 35, 21, 18, 0, 20, 0, 9, 73, 74, 0, 3, 0, 40, 14, 0, 0, 0, 48, 0, 64, 0, 0, 0, 0, 0, 0, 0, 0, 0, 28, 0, 2, 0, 0, 0, 0, 10, 51, 11, 0, 0, 52, 0, 0, 46, 63, 15, 37, 39, 0, 57, 0, 0, 0, 0, 38, 0, 19, 72, 59, 5, 25, 4, 54, 75, 41, 13, 47, 32, 71, 24, 0, 0, 0, 0, 81, 0, 0, 77, 27
|0, 74, 0, 65, 19, 0, 0, 0, 0, 0, 27, 0, 0, 0, 0, 0, 0, 0, 34, 0, 69, 12, 0, 0, 0, 57, 0, 0, 52, 0, 0, 10, 7, 0, 23, 76, 45, 0, 68, 0, 0, 17, 9, 26, 0, 80, 38, 25, 0, 59, 16, 81, 62, 48, 63, 0, 67, 0, 43, 0, 0, 2, 0, 0, 0, 30, 1, 0, 0, 40, 37, 58, 15, 49, 0, 47, 24, 0, 31, 22, 0
|48, 50, 0, 0, 46, 0, 0, 69, 0, 0, 36, 0, 39, 0, 63, 3, 1, 0, 23, 31, 0, 13, 0, 78, 0, 0, 37, 0, 26, 0, 74, 9, 0, 0, 0, 4, 17, 0, 40, 71, 21, 0, 6, 51, 15, 49, 80, 47, 61, 0, 0, 60, 43, 0, 0, 29, 41, 42, 0, 10, 0, 0, 0, 70, 0, 0, 0, 77, 28, 30, 5, 0, 38, 20, 81, 0, 57, 18, 73, 0, 56
|73, 80, 8, 0, 0, 57, 20, 0, 0, 60, 14, 0, 61, 0, 4, 0, 74, 77, 0, 44, 67, 0, 0, 39, 70, 9, 0, 0, 0, 0, 0, 0, 0, 0, 75, 23, 0, 18, 0, 0, 0, 50, 72, 0, 0, 0, 81, 0, 0, 0, 0, 0, 38, 13, 0, 0, 0, 33, 69, 12, 0, 0, 0, 71, 40, 0, 0, 53, 52, 65, 0, 0, 68, 30, 31, 36, 49, 21, 26, 19, 63
|0, 0, 0, 27, 71, 0, 0, 0, 40, 0, 0, 0, 53, 0, 17, 0, 80, 24, 49, 15, 0, 0, 0, 0, 0, 51, 56, 28, 18, 65, 0, 0, 21, 60, 45, 70, 43, 0, 19, 0, 62, 0, 0, 0, 25, 0, 0, 31, 0, 0, 0, 0, 12, 0, 47, 54, 0, 0, 81, 0, 52, 0, 0, 0, 78, 41, 68, 26, 0, 8, 0, 4, 0, 0, 0, 0, 39, 76, 6, 10, 0
|0, 0, 0, 74, 30, 0, 24, 0, 32, 9, 0, 67, 27, 0, 11, 49, 44, 0, 53, 62, 4, 14, 81, 0, 0, 0, 57, 40, 0, 0, 0, 0, 73, 0, 3, 41, 58, 48, 65, 36, 16, 0, 28, 0, 7, 0, 0, 6, 71, 0, 0, 29, 0, 0, 1, 0, 37, 13, 0, 63, 31, 70, 0, 46, 0, 0, 0, 0, 0, 19, 66, 51, 17, 0, 0, 23, 42, 50, 0, 75, 80
|59, 0, 0, 0, 0, 0, 18, 19, 0, 6, 13, 0, 0, 72, 0, 0, 34, 0, 0, 0, 0, 0, 0, 76, 40, 0, 36, 15, 0, 0, 0, 0, 8, 2, 0, 0, 47, 0, 0, 0, 0, 81, 31, 0, 0, 0, 54, 0, 51, 20, 30, 0, 0, 0, 46, 0, 53, 80, 23, 32, 0, 0, 0, 0, 63, 3, 0, 38, 0, 0, 11, 49, 0, 0, 77, 52, 0, 0, 0, 1, 7
|0, 81, 0, 36, 53, 0, 0, 72, 0, 0, 0, 79, 69, 0, 46, 0, 57, 75, 32, 0, 0, 0, 0, 71, 0, 0, 0, 13, 0, 0, 31, 0, 0, 55, 0, 0, 80, 0, 0, 0, 45, 0, 0, 0, 35, 0, 24, 26, 68, 15, 39, 52, 0, 0, 0, 0, 0, 74, 0, 0, 56, 62, 21, 61, 12, 0, 0, 25, 0, 23, 0, 0, 43, 0, 59, 65, 0, 0, 0, 0, 0
|44, 0, 0, 0, 0, 42, 0, 66, 0, 0, 52, 70, 0, 28, 0, 0, 0, 0, 41, 69, 0, 77, 0, 7, 55, 73, 0, 0, 0, 14, 0, 0, 30, 19, 0, 0, 0, 57, 0, 33, 54, 0, 34, 39, 0, 0, 0, 10, 0, 0, 78, 50, 0, 79, 2, 16, 22, 26, 0, 18, 51, 0, 76, 60, 0, 0, 6, 1, 0, 0, 75, 0, 9, 48, 0, 0, 67, 0, 12, 24, 0
|0, 16, 52, 0, 26, 0, 0, 15, 60, 50, 18, 64, 10, 0, 0, 0, 0, 38, 0, 28, 2, 54, 21, 0, 25, 27, 0, 0, 0, 20, 39, 0, 0, 0, 43, 37, 9, 66, 0, 0, 61, 0, 0, 75, 68, 70, 0, 23, 34, 32, 19, 22, 57, 0, 77, 0, 0, 0, 4, 40, 0, 0, 0, 0, 81, 17, 0, 0, 45, 56, 58, 0, 79, 0, 0, 0, 51, 0, 0, 11, 0
|0, 0, 10, 35, 0, 0, 49, 23, 77, 12, 0, 0, 0, 47, 0, 54, 30, 19, 74, 0, 18, 0, 0, 68, 0, 75, 0, 1, 56, 0, 81, 0, 0, 25, 7, 80, 2, 26, 53, 63, 70, 37, 0, 76, 0, 0, 0, 0, 0, 14, 0, 48, 16, 59, 9, 0, 0, 0, 0, 0, 0, 0, 0, 67, 0, 0, 62, 0, 0, 0, 69, 0, 0, 0, 0, 60, 71, 0, 40, 13, 0
|0, 19, 0, 81, 0, 5, 0, 34, 0, 72, 56, 0, 0, 0, 78, 70, 31, 45, 6, 0, 39, 46, 17, 47, 0, 0, 0, 37, 0, 0, 33, 0, 63, 38, 0, 0, 11, 14, 20, 80, 0, 73, 0, 3, 0, 0, 44, 0, 69, 0, 10, 42, 0, 0, 12, 24, 58, 0, 0, 8, 35, 0, 0, 32, 0, 53, 0, 23, 0, 0, 49, 61, 0, 0, 54, 77, 0, 0, 76, 0, 67
|45, 53, 0, 20, 0, 0, 42, 77, 67, 0, 54, 69, 0, 0, 66, 0, 0, 32, 0, 43, 25, 0, 38, 0, 0, 7, 0, 44, 0, 1, 3, 28, 0, 36, 74, 0, 0, 0, 35, 2, 13, 0, 0, 0, 81, 0, 0, 0, 0, 17, 0, 0, 0, 26, 0, 0, 23, 0, 41, 0, 0, 78, 0, 72, 56, 47, 59, 75, 0, 15, 0, 0, 0, 51, 0, 0, 0, 0, 0, 0, 0
|0, 7, 0, 11, 1, 23, 0, 0, 18, 0, 59, 55, 0, 0, 0, 0, 0, 0, 58, 5, 20, 41, 0, 33, 0, 0, 75, 0, 40, 0, 0, 0, 12, 24, 8, 29, 26, 0, 0, 78, 64, 77, 0, 0, 32, 0, 0, 2, 54, 0, 0, 0, 22, 0, 30, 65, 68, 39, 0, 19, 0, 28, 0, 0, 0, 0, 42, 46, 0, 0, 10, 9, 52, 0, 53, 61, 36, 0, 60, 0, 47
|26, 44, 0, 0, 65, 0, 0, 40, 0, 77, 0, 81, 80, 0, 0, 19, 0, 0, 18, 55, 0, 32, 0, 0, 0, 0, 60, 47, 0, 0, 6, 0, 0, 31, 0, 0, 0, 0, 12, 0, 0, 0, 42, 8, 0, 0, 39, 0, 43, 63, 4, 0, 0, 0, 0, 0, 20, 0, 0, 0, 1, 17, 0, 57, 3, 71, 0, 0, 0, 66, 0, 0, 13, 0, 0, 34, 0, 0, 74, 25, 0
|0, 0, 0, 3, 47, 52, 55, 0, 27, 63, 7, 0, 0, 0, 0, 0, 0, 8, 0, 0, 0, 42, 0, 2, 0, 45, 71, 58, 57, 73, 76, 0, 17, 0, 0, 53, 60, 59, 31, 75, 24, 0, 0, 0, 0, 30, 0, 0, 0, 11, 0, 0, 15, 72, 0, 33, 80, 51, 0, 0, 29, 0, 0, 26, 0, 28, 0, 0, 13, 62, 0, 0, 4, 0, 41, 48, 10, 0, 19, 0, 0
|0, 62, 58, 0, 24, 78, 74, 4, 0, 0, 0, 39, 13, 71, 0, 0, 0, 3, 56, 73, 66, 16, 51, 0, 0, 0, 0, 0, 0, 23, 0, 60, 0, 0, 68, 0, 0, 19, 0, 37, 53, 0, 0, 38, 0, 0, 49, 0, 0, 46, 0, 80, 0, 34, 0, 0, 0, 72, 0, 0, 0, 15, 0, 8, 1, 20, 0, 21, 77, 0, 0, 7, 45, 32, 0, 0, 9, 22, 65, 29, 0
|71, 0, 57, 0, 73, 0, 0, 0, 0, 11, 0, 53, 51, 0, 74, 46, 37, 15, 64, 9, 0, 0, 76, 0, 0, 0, 24, 7, 20, 0, 0, 0, 14, 4, 56, 0, 0, 0, 62, 47, 48, 0, 25, 72, 39, 0, 16, 0, 0, 61, 0, 0, 0, 0, 43, 0, 0, 0, 66, 0, 63, 50, 55, 79, 36, 0, 0, 5, 35, 0, 30, 33, 23, 26, 75, 0, 31, 17, 21, 70, 0
|33, 0, 0, 0, 15, 0, 70, 43, 51, 26, 0, 40, 48, 0, 0, 0, 0, 0, 72, 53, 0, 57, 0, 23, 61, 0, 1, 0, 0, 19, 0, 0, 0, 0, 0, 0, 44, 41, 29, 45, 69, 0, 0, 54, 0, 78, 8, 32, 0, 0, 0, 79, 65, 0, 0, 0, 77, 0, 11, 37, 0, 71, 52, 63, 0, 0, 0, 73, 0, 0, 14, 0, 42, 0, 27, 49, 7, 6, 20, 0, 39
|0, 60, 0, 39, 0, 49, 0, 6, 0, 0, 64, 0, 0, 0, 0, 0, 33, 0, 62, 0, 31, 78, 74, 4, 54, 29, 27, 65, 77, 25, 75, 0, 0, 35, 42, 5, 0, 63, 0, 55, 0, 9, 66, 56, 43, 13, 0, 7, 0, 21, 70, 0, 23, 73, 44, 0, 32, 67, 0, 53, 45, 69, 81, 0, 51, 0, 24, 0, 17, 52, 50, 18, 3, 16, 0, 1, 58, 11, 0, 0, 40
|0, 0, 0, 59, 0, 17, 73, 80, 0, 0, 9, 42, 0, 27, 70, 51, 0, 0, 0, 0, 0, 0, 0, 0, 0, 32, 10, 19, 0, 38, 0, 66, 44, 43, 0, 0, 3, 0, 0, 40, 8, 24, 63, 46, 0, 65, 78, 20, 0, 0, 0, 0, 25, 0, 0, 69, 0, 0, 45, 67, 0, 0, 0, 58, 7, 0, 55, 74, 0, 64, 0, 0, 53, 0, 0, 0, 72, 0, 61, 21, 28
|0, 0, 0, 0, 9, 0, 28, 0, 0, 13, 16, 0, 0, 0, 0, 0, 29, 61, 0, 46, 0, 63, 67, 0, 0, 0, 0, 0, 0, 0, 0, 0, 33, 30, 81, 0, 0, 0, 58, 66, 0, 0, 26, 25, 0, 0, 10, 0, 0, 0, 0, 0, 0, 0, 73, 0, 0, 0, 5, 0, 6, 22, 57, 0, 18, 0, 3, 0, 72, 4, 24, 0, 2, 0, 7, 0, 0, 59, 39, 20, 68
|0, 0, 0, 42, 0, 0, 65, 74, 0, 0, 0, 0, 0, 53, 0, 0, 47, 22, 30, 0, 24, 75, 1, 38, 28, 0, 0, 0, 0, 0, 7, 8, 72, 0, 0, 0, 48, 0, 27, 0, 18, 64, 71, 70, 0, 0, 0, 0, 19, 0, 0, 14, 55, 0, 60, 41, 39, 0, 56, 0, 78, 26, 46, 0, 0, 0, 66, 49, 0, 10, 0, 0, 67, 3, 0, 35, 76, 43, 0, 50, 58
|78, 25, 20, 0, 0, 8, 0, 67, 0, 14, 0, 0, 0, 31, 0, 44, 38, 0, 0, 0, 0, 76, 27, 0, 0, 70, 0, 12, 0, 0, 0, 0, 28, 37, 0, 0, 79, 0, 0, 0, 0, 49, 17, 59, 54, 0, 0, 0, 13, 9, 74, 0, 0, 2, 80, 0, 40, 43, 0, 0, 0, 0, 0, 23, 0, 0, 0, 0, 0, 5, 0, 0, 0, 36, 52, 0, 0, 0, 0, 0, 0
|0, 0, 0, 6, 22, 61, 75, 10, 0, 58, 1, 63, 0, 50, 0, 55, 0, 0, 14, 42, 54, 0, 0, 64, 0, 0, 0, 0, 17, 0, 0, 27, 35, 9, 59, 79, 31, 0, 0, 0, 0, 0, 0, 78, 0, 0, 0, 0, 11, 0, 68, 71, 0, 60, 32, 0, 0, 23, 76, 28, 2, 0, 77, 0, 0, 0, 0, 0, 40, 0, 53, 0, 19, 57, 0, 69, 0, 41, 0, 0, 34
|60, 27, 0, 5, 13, 4, 53, 1, 14, 69, 0, 0, 0, 54, 7, 25, 0, 74, 57, 47, 48, 0, 43, 0, 59, 0, 0, 0, 41, 40, 0, 68, 6, 0, 0, 0, 0, 0, 0, 0, 0, 44, 0, 10, 37, 0, 77, 0, 23, 80, 0, 0, 0, 35, 17, 66, 0, 0, 0, 0, 19, 0, 20, 42, 50, 52, 0, 33, 0, 75, 0, 28, 0, 79, 0, 0, 78, 0, 0, 9, 16
|0, 0, 0, 79, 0, 0, 0, 11, 0, 0, 28, 66, 0, 0, 0, 0, 77, 0, 0, 0, 9, 50, 5, 0, 0, 35, 0, 60, 0, 0, 65, 0, 71, 46, 0, 0, 0, 34, 43, 32, 0, 19, 0, 0, 0, 1, 75, 0, 0, 0, 0, 0, 0, 0, 10, 44, 0, 0, 0, 30, 0, 0, 0, 0, 0, 38, 0, 47, 0, 0, 0, 78, 0, 33, 0, 0, 80, 48, 49, 0, 24
|0, 0, 0, 23, 69, 35, 0, 0, 0, 34, 0, 0, 0, 37, 0, 43, 0, 0, 0, 65, 0, 15, 0, 0, 0, 55, 0, 80, 0, 0, 1, 29, 16, 0, 0, 45, 0, 20, 36, 0, 12, 0, 50, 68, 0, 0, 62, 28, 81, 58, 8, 0, 0, 0, 24, 0, 63, 54, 0, 0, 0, 0, 72, 0, 31, 0, 32, 59, 0, 21, 0, 77, 0, 0, 5, 0, 60, 0, 0, 0, 0
|0, 0, 50, 0, 0, 77, 44, 0, 48, 0, 57, 0, 3, 2, 40, 0, 21, 10, 0, 23, 0, 0, 78, 0, 73, 0, 0, 0, 64, 22, 47, 75, 0, 0, 0, 0, 65, 56, 11, 53, 0, 0, 0, 0, 0, 0, 0, 0, 0, 42, 24, 38, 0, 4, 0, 59, 0, 0, 0, 35, 0, 9, 70, 0, 0, 34, 76, 30, 67, 0, 61, 0, 51, 0, 0, 14, 1, 55, 0, 46, 26
|0, 70, 0, 17, 59, 68, 0, 18, 0, 81, 60, 9, 20, 25, 55, 0, 51, 56, 0, 0, 23, 0, 58, 0, 19, 16, 0, 50, 2, 12, 73, 39, 36, 5, 0, 66, 62, 0, 0, 38, 0, 10, 44, 69, 0, 24, 0, 78, 79, 13, 0, 0, 0, 0, 45, 0, 61, 27, 64, 7, 21, 43, 40, 41, 0, 67, 0, 0, 0, 6, 77, 0, 57, 34, 65, 3, 0, 0, 52, 35, 0
|0, 0, 0, 0, 0, 0, 25, 20, 0, 66, 80, 0, 40, 0, 0, 38, 45, 31, 36, 2, 15, 53, 44, 0, 0, 0, 0, 0, 7, 0, 0, 24, 43, 32, 67, 0, 19, 4, 0, 0, 79, 33, 0, 0, 0, 0, 0, 0, 70, 37, 73, 0, 28, 71, 0, 60, 0, 48, 0, 29, 0, 76, 8, 0, 23, 0, 0, 51, 56, 0, 0, 0, 0, 42, 68, 0, 75, 0, 9, 0, 21
|72, 22, 12, 0, 52, 44, 0, 75, 0, 0, 0, 0, 68, 69, 48, 39, 0, 0, 0, 79, 0, 11, 62, 0, 0, 0, 9, 63, 8, 0, 0, 77, 81, 0, 65, 1, 0, 0, 54, 31, 25, 29, 27, 55, 0, 10, 0, 0, 0, 0, 0, 21, 0, 51, 6, 67, 0, 24, 0, 0, 74, 49, 47, 0, 76, 61, 0, 42, 0, 17, 57, 26, 0, 2, 60, 5, 56, 46, 43, 23, 0
|55, 57, 14, 67, 0, 0, 0, 13, 78, 0, 21, 49, 0, 0, 0, 0, 0, 0, 0, 72, 0, 0, 0, 0, 0, 0, 41, 0, 0, 68, 54, 44, 0, 0, 0, 6, 42, 64, 77, 0, 15, 47, 0, 0, 5, 69, 23, 0, 0, 0, 0, 0, 4, 32, 11, 25, 16, 0, 0, 79, 58, 18, 80, 0, 33, 0, 0, 71, 38, 34, 0, 52, 70, 0, 0, 0, 0, 0, 17, 0, 0
|46, 21, 0, 16, 36, 47, 2, 41, 0, 1, 0, 18, 0, 0, 23, 74, 61, 0, 8, 71, 42, 67, 39, 0, 0, 0, 55, 0, 60, 0, 20, 80, 0, 17, 11, 14, 78, 0, 76, 0, 6, 68, 0, 0, 0, 0, 0, 0, 22, 0, 0, 75, 3, 63, 37, 0, 51, 32, 26, 0, 70, 0, 44, 0, 0, 27, 15, 0, 4, 73, 25, 0, 50, 0, 0, 0, 0, 77, 7, 0, 10
|31, 77, 23, 37, 50, 51, 61, 0, 35, 30, 0, 6, 34, 0, 0, 0, 0, 17, 7, 0, 0, 45, 0, 0, 49, 0, 64, 76, 0, 0, 42, 0, 10, 0, 0, 15, 0, 36, 16, 24, 43, 0, 56, 0, 60, 0, 0, 57, 27, 62, 0, 0, 0, 0, 52, 0, 59, 0, 0, 0, 0, 0, 2, 0, 14, 65, 70, 0, 22, 74, 0, 0, 0, 0, 0, 55, 0, 0, 33, 0, 48
|65, 0, 0, 0, 28, 71, 0, 0, 0, 0, 58, 0, 0, 29, 73, 26, 70, 0, 43, 51, 0, 0, 40, 0, 0, 30, 22, 49, 0, 34, 19, 0, 0, 0, 61, 46, 0, 39, 0, 0, 0, 3, 2, 0, 66, 67, 0, 0, 0, 56, 5, 47, 0, 16, 81, 72, 0, 41, 0, 23, 69, 33, 62, 78, 45, 0, 44, 9, 0, 53, 0, 0, 0, 0, 80, 59, 0, 4, 32, 0, 6
|0, 11, 0, 56, 34, 7, 0, 32, 5, 71, 0, 28, 0, 15, 47, 77, 0, 54, 10, 17, 63, 0, 0, 0, 52, 0, 0, 27, 0, 21, 53, 0, 0, 22, 70, 0, 73, 46, 75, 23, 49, 0, 0, 0, 51, 0, 61, 0, 9, 31, 0, 8, 0, 43, 57, 0, 19, 0, 35, 42, 50, 36, 0, 64, 16, 0, 37, 80, 0, 24, 0, 13, 18, 78, 38, 30, 44, 45, 0, 39, 20
|27, 0, 43, 0, 4, 53, 0, 0, 74, 0, 65, 13, 0, 41, 42, 67, 62, 0, 0, 0, 29, 24, 0, 0, 75, 0, 0, 0, 45, 0, 55, 0, 0, 23, 35, 0, 0, 80, 0, 0, 0, 0, 32, 21, 0, 0, 76, 52, 14, 18, 0, 2, 6, 30, 38, 1, 5, 0, 0, 0, 0, 0, 15, 31, 10, 81, 0, 0, 49, 0, 0, 47, 25, 0, 51, 8, 73, 72, 0, 54, 64
|57, 0, 9, 0, 0, 0, 0, 8, 0, 75, 0, 51, 36, 0, 1, 0, 3, 27, 29, 54, 0, 5, 28, 0, 0, 0, 0, 0, 38, 0, 69, 71, 0, 0, 16, 64, 37, 0, 41, 0, 26, 0, 0, 34, 0, 42, 0, 0, 56, 48, 0, 0, 33, 22, 65, 0, 10, 0, 0, 49, 0, 0, 43, 77, 0, 31, 19, 66, 0, 47, 0, 23, 58, 13, 24, 0, 14, 7, 0, 67, 79
|0, 0, 48, 0, 60, 0, 0, 0, 0, 0, 0, 0, 0, 0, 0, 73, 0, 0, 45, 0, 7, 0, 71, 57, 0, 0, 78, 0, 35, 63, 0, 0, 53, 0, 0, 19, 69, 24, 0, 67, 40, 56, 0, 0, 0, 16, 0, 3, 0, 0, 37, 0, 0, 65, 31, 80, 47, 62, 33, 27, 0, 0, 0, 0, 0, 6, 81, 0, 0, 18, 52, 0, 74, 0, 64, 0, 22, 28, 11, 0, 0
|0, 0, 16, 0, 0, 0, 0, 0, 0, 0, 47, 0, 0, 0, 13, 0, 19, 40, 0, 36, 62, 26, 0, 15, 0, 0, 77, 0, 0, 70, 67, 17, 0, 0, 50, 22, 14, 0, 8, 6, 46, 0, 0, 0, 78, 0, 0, 41, 0, 0, 0, 28, 0, 57, 56, 45, 0, 0, 0, 20, 0, 0, 9, 43, 0, 58, 0, 0, 0, 35, 0, 72, 0, 0, 30, 0, 0, 0, 0, 0, 61
|11, 0, 0, 0, 0, 74, 77, 35, 0, 57, 78, 0, 0, 17, 26, 28, 58, 0, 0, 18, 0, 68, 0, 40, 38, 13, 0, 0, 49, 43, 48, 0, 0, 6, 37, 42, 16, 51, 0, 0, 0, 0, 0, 19, 0, 0, 73, 80, 0, 36, 60, 0, 20, 0, 0, 71, 81, 69, 0, 25, 3, 0, 0, 0, 0, 0, 75, 76, 0, 0, 62, 21, 56, 0, 0, 53, 70, 2, 34, 31, 41
|0, 0, 76, 10, 6, 67, 0, 0, 75, 0, 0, 0, 4, 0, 0, 0, 0, 23, 0, 0, 44, 56, 0, 0, 0, 58, 0, 0, 0, 9, 0, 47, 0, 33, 72, 0, 0, 0, 0, 0, 42, 60, 0, 0, 0, 52, 0, 0, 35, 29, 0, 64, 0, 62, 0, 53, 54, 0, 16, 0, 0, 57, 0, 0, 26, 40, 0, 0, 0, 27, 78, 70, 73, 0, 0, 81, 55, 66, 77, 0, 0
|0, 0, 17, 0, 0, 0, 1, 31, 0, 0, 66, 44, 0, 0, 60, 0, 35, 5, 73, 33, 81, 0, 0, 72, 30, 0, 67, 0, 62, 0, 0, 52, 54, 0, 57, 0, 0, 7, 28, 20, 0, 0, 0, 58, 77, 0, 0, 46, 0, 43, 0, 10, 39, 11, 78, 0, 48, 59, 0, 0, 13, 38, 23, 0, 0, 51, 0, 41, 3, 0, 0, 0, 8, 29, 76, 15, 0, 0, 0, 6, 0
|53, 52, 18, 0, 0, 0, 81, 0, 43, 65, 0, 38, 72, 67, 16, 61, 0, 6, 17, 22, 76, 1, 60, 51, 9, 23, 0, 0, 28, 46, 13, 41, 0, 34, 0, 31, 49, 62, 0, 10, 29, 0, 0, 11, 0, 8, 26, 27, 0, 0, 14, 0, 66, 0, 0, 0, 70, 0, 24, 77, 0, 0, 0, 5, 0, 64, 48, 56, 36, 79, 39, 45, 0, 0, 20, 25, 69, 0, 0, 0, 3
|0, 0, 0, 0, 0, 25, 0, 0, 46, 0, 45, 0, 41, 0, 0, 0, 10, 53, 0, 20, 0, 49, 75, 35, 0, 3, 0, 78, 0, 0, 32, 0, 76, 0, 39, 0, 0, 0, 72, 0, 0, 70, 0, 18, 4, 6, 0, 5, 67, 0, 0, 30, 0, 0, 26, 74, 0, 0, 58, 0, 17, 79, 1, 13, 22, 0, 29, 24, 0, 0, 0, 54, 60, 0, 40, 0, 0, 0, 42, 57, 0
|0, 47, 26, 28, 63, 32, 15, 44, 23, 0, 11, 0, 2, 34, 30, 9, 64, 0, 31, 48, 0, 0, 0, 6, 0, 53, 0, 0, 3, 0, 0, 0, 0, 0, 77, 0, 33, 0, 0, 0, 0, 0, 57, 0, 79, 0, 0, 1, 45, 72, 71, 0, 78, 0, 0, 52, 0, 0, 0, 75, 0, 0, 35, 0, 17, 46, 74, 0, 0, 0, 60, 59, 0, 0, 0, 0, 0, 0, 80, 37, 38
|42, 0, 0, 13, 0, 0, 45, 30, 16, 44, 49, 0, 6, 22, 10, 63, 0, 0, 0, 0, 0, 43, 0, 20, 0, 46, 34, 9, 48, 2, 0, 0, 65, 58, 0, 0, 54, 0, 0, 39, 0, 0, 77, 0, 8, 72, 0, 37, 0, 0, 0, 0, 61, 69, 0, 12, 21, 0, 74, 0, 28, 0, 17, 33, 68, 0, 14, 0, 81, 0, 7, 64, 0, 0, 0, 71, 19, 80, 0, 0, 52
|0, 41, 74, 0, 31, 0, 57, 68, 71, 0, 53, 0, 0, 20, 9, 65, 12, 0, 0, 0, 0, 0, 73, 0, 45, 33, 0, 0, 23, 0, 0, 0, 13, 0, 0, 26, 0, 0, 78, 0, 55, 25, 0, 0, 17, 79, 52, 0, 76, 0, 11, 49, 34, 0, 0, 0, 60, 0, 27, 70, 40, 10, 0, 2, 0, 29, 47, 28, 0, 59, 48, 0, 0, 75, 0, 0, 0, 0, 15, 0, 51
|0, 0, 0, 19, 0, 0, 22, 81, 0, 15, 0, 0, 31, 11, 0, 16, 27, 0, 0, 0, 0, 0, 42, 44, 60, 0, 0, 0, 32, 0, 4, 20, 68, 78, 0, 12, 0, 0, 63, 0, 0, 71, 33, 0, 0, 0, 0, 55, 0, 0, 45, 36, 70, 54, 67, 0, 0, 9, 47, 0, 0, 0, 75, 0, 0, 0, 0, 0, 0, 80, 0, 38, 59, 37, 0, 72, 34, 0, 64, 0, 0
|0, 5, 0, 0, 35, 0, 72, 47, 0, 38, 0, 34, 0, 0, 45, 0, 24, 0, 61, 0, 0, 17, 0, 0, 81, 11, 0, 0, 54, 39, 60, 0, 0, 40, 0, 0, 0, 0, 0, 57, 19, 0, 0, 0, 16, 0, 71, 0, 75, 73, 67, 0, 53, 0, 49, 0, 0, 1, 0, 44, 0, 0, 69, 0, 79, 66, 20, 0, 30, 42, 0, 12, 0, 0, 0, 41, 43, 8, 0, 65, 50
|0, 20, 0, 0, 37, 11, 64, 17, 0, 54, 0, 0, 35, 46, 0, 50, 0, 60, 0, 78, 0, 0, 63, 79, 0, 0, 0, 0, 0, 81, 70, 31, 15, 57, 0, 7, 72, 61, 0, 5, 65, 26, 0, 0, 0, 23, 0, 40, 0, 0, 59, 43, 44, 3, 0, 68, 0, 0, 2, 0, 0, 29, 0, 0, 27, 0, 52, 0, 0, 0, 34, 69, 0, 0, 0, 0, 66, 0, 0, 0, 0
|0, 23, 7, 14, 48, 63, 52, 0, 56, 0, 3, 17, 74, 33, 0, 0, 72, 0, 13, 0, 0, 59, 0, 77, 0, 1, 0, 45, 0, 69, 35, 0, 0, 0, 0, 0, 0, 0, 18, 0, 68, 38, 36, 47, 0, 0, 0, 0, 42, 78, 0, 0, 0, 29, 76, 34, 79, 0, 0, 0, 62, 0, 54, 0, 46, 0, 9, 0, 75, 71, 0, 43, 0, 0, 0, 0, 0, 0, 0, 0, 0
|0, 0, 65, 0, 0, 73, 0, 0, 4, 0, 0, 0, 23, 13, 64, 0, 28, 0, 55, 10, 0, 0, 8, 12, 69, 0, 0, 0, 72, 0, 44, 37, 59, 0, 5, 27, 0, 21, 0, 0, 0, 32, 0, 0, 56, 57, 0, 0, 38, 41, 0, 9, 0, 0, 39, 58, 0, 25, 30, 0, 0, 52, 0, 11, 0, 45, 49, 0, 78, 0, 63, 0, 0, 0, 0, 70, 35, 0, 0, 0, 0
|0, 0, 0, 12, 32, 0, 0, 21, 0, 4, 39, 0, 1, 59, 0, 18, 25, 0, 80, 0, 0, 2, 0, 0, 27, 0, 0, 0, 0, 0, 0, 16, 38, 8, 17, 0, 34, 0, 6, 0, 23, 62, 30, 0, 69, 22, 0, 0, 0, 60, 33, 35, 0, 68, 5, 0, 42, 0, 72, 0, 81, 0, 0, 0, 0, 19, 61, 0, 0, 70, 41, 40, 26, 0, 0, 24, 3, 78, 0, 0, 0
|34, 54, 60, 0, 0, 0, 0, 0, 53, 51, 40, 0, 66, 0, 0, 81, 0, 0, 19, 70, 0, 48, 64, 0, 0, 0, 0, 71, 43, 24, 0, 0, 46, 0, 41, 77, 12, 0, 0, 52, 0, 0, 0, 20, 11, 0, 47, 17, 39, 8, 28, 0, 0, 0, 0, 78, 33, 65, 14, 0, 32, 0, 0, 0, 0, 76, 72, 0, 0, 0, 0, 73, 22, 0, 0, 0, 30, 0, 79, 16, 9
|32, 73, 68, 0, 0, 72, 9, 0, 0, 10, 6, 31, 7, 61, 27, 52, 0, 0, 0, 0, 21, 28, 65, 30, 0, 0, 63, 0, 0, 0, 14, 0, 0, 0, 0, 17, 24, 0, 0, 0, 0, 0, 29, 44, 0, 51, 0, 0, 0, 55, 49, 0, 59, 38, 18, 39, 64, 78, 75, 0, 0, 0, 41, 40, 0, 0, 79, 0, 66, 13, 0, 37, 12, 0, 0, 67, 0, 74, 0, 60, 42
|25, 78, 0, 33, 57, 0, 37, 42, 0, 0, 0, 0, 28, 68, 0, 23, 13, 0, 52, 34, 51, 0, 0, 0, 32, 0, 0, 55, 22, 0, 12, 76, 0, 0, 49, 0, 0, 0, 0, 0, 80, 0, 8, 30, 0, 0, 21, 79, 31, 0, 0, 0, 63, 45, 40, 27, 0, 0, 38, 0, 0, 0, 0, 1, 0, 77, 67, 0, 0, 0, 17, 0, 0, 47, 3, 7, 5, 58, 50, 0, 0
|0, 67, 53, 0, 75, 70, 59, 45, 0, 0, 0, 0, 43, 4, 58, 17, 0, 0, 0, 0, 0, 0, 18, 66, 0, 10, 31, 77, 0, 0, 0, 23, 0, 0, 0, 8, 7, 0, 39, 0, 0, 0, 21, 0, 0, 0, 0, 0, 32, 0, 65, 5, 48, 0, 29, 0, 34, 44, 0, 62, 24, 63, 0, 0, 0, 15, 0, 0, 64, 51, 0, 0, 0, 6, 1, 0, 0, 73, 38, 0, 0
|0, 0, 0, 55, 0, 10, 23, 76, 0, 0, 29, 0, 62, 63, 0, 64, 67, 0, 42, 13, 0, 60, 36, 0, 1, 0, 8, 35, 0, 26, 37, 0, 45, 0, 0, 20, 0, 32, 81, 0, 0, 0, 70, 0, 0, 0, 57, 0, 0, 0, 0, 0, 0, 0, 22, 0, 56, 0, 71, 5, 0, 51, 7, 73, 0, 0, 25, 0, 0, 0, 65, 0, 75, 59, 2, 78, 17, 49, 0, 0, 0
|0, 63, 24, 0, 0, 0, 4, 79, 0, 3, 0, 12, 19, 38, 0, 0, 16, 65, 0, 80, 55, 47, 45, 0, 2, 62, 49, 0, 58, 0, 43, 40, 67, 61, 0, 52, 0, 0, 71, 0, 0, 0, 0, 0, 31, 0, 0, 0, 46, 0, 0, 73, 0, 0, 0, 50, 36, 8, 0, 69, 23, 0, 74, 30, 0, 0, 35, 0, 68, 0, 76, 32, 0, 54, 9, 0, 0, 37, 0, 0, 0
|77, 0, 35, 71, 0, 0, 16, 0, 54, 45, 0, 0, 60, 0, 57, 0, 49, 0, 67, 75, 0, 25, 59, 73, 3, 0, 0, 30, 0, 0, 0, 0, 50, 0, 0, 0, 66, 0, 10, 17, 76, 0, 51, 41, 0, 29, 14, 9, 6, 40, 0, 0, 11, 47, 58, 37, 0, 68, 46, 26, 0, 0, 79, 0, 48, 7, 0, 0, 19, 0, 55, 0, 0, 0, 0, 21, 61, 52, 28, 80, 53
|0, 66, 64, 48, 20, 0, 0, 52, 0, 2, 0, 47, 0, 0, 0, 0, 73, 11, 0, 0, 50, 0, 37, 9, 0, 22, 53, 0, 65, 31, 0, 56, 74, 0, 18, 60, 5, 0, 0, 0, 1, 6, 0, 0, 0, 7, 0, 0, 0, 71, 0, 12, 8, 0, 59, 0, 45, 35, 77, 3, 0, 0, 0, 80, 0, 0, 0, 0, 16, 0, 0, 63, 72, 76, 0, 0, 0, 40, 0, 43, 0
|74, 0, 41, 0, 49, 0, 58, 29, 0, 53, 55, 0, 0, 0, 50, 5, 9, 37, 33, 57, 0, 0, 7, 0, 0, 0, 48, 42, 81, 16, 0, 0, 66, 0, 0, 28, 63, 0, 0, 62, 0, 45, 0, 0, 0, 3, 0, 0, 80, 0, 52, 23, 67, 19, 20, 0, 25, 61, 0, 0, 0, 0, 10, 0, 75, 0, 0, 6, 60, 31, 0, 34, 44, 8, 0, 0, 0, 0, 27, 0, 14
|0, 0, 46, 0, 0, 50, 0, 0, 0, 36, 69, 14, 0, 0, 0, 72, 0, 0, 0, 0, 74, 39, 70, 0, 0, 26, 76, 64, 73, 0, 0, 0, 32, 7, 0, 0, 75, 40, 0, 48, 0, 0, 16, 23, 0, 0, 0, 22, 66, 35, 41, 0, 0, 37, 55, 0, 1, 28, 0, 0, 60, 30, 11, 81, 49, 42, 8, 0, 0, 0, 0, 5, 63, 0, 10, 0, 45, 65, 68, 0, 33|];