order = 9;
grid = [|0, 0, 46, 0, 37, 5, 38, 13, 73, 0, 0, 63, 0, 0, 0, 80, 66, 41, 24, 51, 6, 0, 4, 7, 0, 18, 47, 0, 0, 0, 48, 23, 39, 72, 9, 0, 0, 0, 0, 0, 0, 31, 0, 0, 0, 0, 0, 45, 0, 21, 76, 0, 67, 0, 43, 58, 15, 19, 16, 0, 0, 68, 0, 0, 0, 0, 44, 35, 0, 0, 0, 64, 71, 70, 0, 0, 61, 0, 32, 30, 0
|26, 0, 0, 19, 0, 40, 54, 0, 0, 0, 0, 75, 0, 12, 0, 74, 0, 79, 0, 0, 0, 29, 0, 8, 0, 0, 0, 0, 0, 28, 22, 6, 38, 52, 70, 0, 14, 13, 0, 0, 7, 50, 0, 0, 0, 2, 63, 62, 78, 64, 32, 0, 33, 15, 0, 0, 0, 0, 55, 0, 34, 42, 0, 24, 21, 36, 0, 16, 80, 27, 23, 0, 0, 0, 41, 73, 76, 77, 72, 60, 67
|0, 30, 22, 28, 58, 44, 34, 0, 67, 13, 0, 0, 0, 0, 0, 0, 68, 24, 15, 0, 72, 0, 53, 39, 0, 76, 2, 21, 0, 0, 10, 54, 0, 7, 0, 0, 17, 0, 0, 0, 0, 70, 4, 0, 0, 6, 0, 0, 8, 0, 0, 69, 0, 0, 0, 79, 0, 78, 0, 0, 0, 0, 0, 0, 11, 42, 0, 66, 14, 1, 41, 51, 40, 57, 0, 0, 3, 0, 0, 52, 80
|59, 0, 0, 0, 79, 25, 0, 0, 0, 0, 71, 0, 15, 0, 0, 0, 0, 67, 0, 0, 0, 0, 0, 73, 60, 0, 31, 0, 8, 0, 30, 0, 0, 58, 0, 14, 0, 78, 0, 29, 0, 0, 0, 44, 0, 10, 0, 22, 50, 34, 0, 77, 0, 19, 36, 51, 0, 0, 20, 72, 0, 6, 0, 13, 32, 0, 4, 0, 63, 0, 0, 0, 9, 0, 0, 62, 24, 69, 7, 53, 0
|0, 0, 0, 78, 0, 0, 24, 0, 0, 27, 64, 0, 26, 53, 19, 0, 0, 0, 0, 5, 0, 35, 0, 14, 16, 0, 77, 71, 0, 0, 75, 0, 57, 0, 0, 0, 32, 79, 55, 0, 0, 0, 0, 62, 67, 0, 0, 0, 54, 42, 0, 0, 0, 25, 63, 0, 0, 0, 37, 0, 0, 3, 17, 33, 0, 81, 0, 59, 60, 50, 0, 69, 46, 28, 13, 29, 0, 0, 18, 0, 66
|0, 0, 41, 1, 0, 0, 52, 45, 61, 0, 0, 0, 0, 0, 0, 0, 0, 0, 63, 23, 64, 20, 57, 0, 33, 54, 28, 0, 17, 74, 0, 79, 0, 69, 80, 2, 0, 40, 15, 66, 0, 0, 0, 71, 0, 55, 7, 0, 3, 37, 0, 60, 73, 0, 11, 47, 76, 70, 59, 0, 0, 35, 46, 34, 29, 0, 56, 30, 0, 78, 26, 53, 16, 38, 51, 4, 0, 0, 0, 0, 0
|9, 64, 29, 0, 0, 0, 4, 42, 70, 76, 0, 0, 0, 0, 0, 0, 81, 0, 41, 68, 0, 0, 0, 30, 0, 0, 0, 0, 1, 15, 24, 43, 59, 65, 0, 19, 0, 73, 38, 28, 45, 0, 0, 3, 69, 47, 0, 53, 0, 17, 0, 0, 0, 66, 0, 0, 0, 39, 0, 0, 61, 67, 0, 0, 74, 0, 55, 72, 0, 58, 46, 48, 0, 0, 2, 78, 0, 63, 0, 79, 25
|7, 0, 0, 0, 53, 71, 74, 0, 0, 0, 0, 46, 0, 0, 9, 22, 0, 0, 67, 78, 0, 48, 13, 3, 70, 59, 0, 40, 0, 0, 56, 76, 0, 20, 0, 0, 25, 0, 61, 0, 80, 52, 24, 30, 0, 18, 0, 0, 0, 0, 0, 38, 0, 0, 0, 0, 73, 57, 75, 66, 54, 62, 23, 0, 43, 12, 0, 10, 19, 0, 8, 15, 42, 34, 0, 0, 0, 47, 68, 0, 0
|66, 0, 68, 0, 0, 62, 0, 0, 2, 0, 0, 11, 0, 7, 0, 8, 0, 0, 79, 0, 74, 0, 0, 40, 37, 0, 0, 0, 35, 33, 63, 55, 25, 0, 78, 0, 0, 39, 0, 0, 0, 16, 23, 0, 60, 0, 0, 30, 0, 0, 0, 0, 0, 0, 0, 0, 28, 0, 26, 77, 80, 0, 52, 0, 6, 17, 0, 47, 18, 0, 73, 67, 14, 43, 0, 0, 65, 27, 0, 0, 20
|78, 45, 42, 0, 57, 17, 0, 0, 0, 71, 70, 27, 77, 0, 0, 0, 56, 0, 0, 2, 0, 10, 59, 0, 7, 0, 0, 0, 0, 26, 9, 0, 5, 0, 0, 0, 12, 41, 0, 0, 11, 0, 0, 0, 61, 34, 73, 0, 48, 35, 0, 0, 38, 60, 15, 0, 47, 0, 30, 31, 74, 0, 54, 72, 0, 0, 0, 0, 0, 75, 28, 76, 0, 80, 24, 44, 39, 21, 0, 55, 0
|0, 0, 76, 0, 43, 0, 0, 0, 0, 40, 0, 9, 58, 44, 0, 0, 52, 17, 0, 56, 30, 41, 5, 37, 68, 25, 0, 50, 0, 0, 0, 20, 13, 0, 18, 0, 31, 0, 21, 57, 59, 4, 0, 1, 48, 22, 0, 54, 0, 0, 19, 29, 0, 47, 61, 70, 35, 0, 72, 33, 0, 14, 0, 81, 73, 0, 7, 0, 36, 0, 0, 16, 60, 79, 42, 0, 77, 26, 0, 0, 0
|14, 72, 0, 61, 12, 0, 0, 62, 44, 0, 0, 49, 8, 0, 0, 0, 0, 31, 51, 73, 54, 24, 0, 0, 0, 48, 0, 3, 43, 0, 0, 19, 0, 0, 0, 0, 0, 0, 0, 0, 2, 34, 0, 0, 0, 36, 0, 0, 52, 0, 0, 0, 0, 56, 55, 0, 0, 10, 0, 0, 0, 41, 25, 27, 50, 0, 0, 64, 33, 0, 0, 0, 0, 0, 30, 0, 11, 7, 78, 71, 0
|0, 0, 0, 4, 74, 35, 0, 29, 0, 55, 0, 39, 69, 0, 59, 76, 0, 18, 40, 8, 42, 0, 0, 52, 62, 81, 12, 24, 58, 0, 25, 0, 0, 75, 0, 0, 0, 33, 0, 0, 0, 0, 0, 7, 23, 0, 78, 0, 0, 0, 0, 70, 0, 3, 2, 0, 0, 26, 66, 0, 0, 71, 0, 44, 0, 41, 0, 51, 0, 0, 0, 10, 0, 48, 54, 50, 27, 0, 0, 46, 36
|64, 8, 0, 0, 0, 0, 81, 0, 0, 3, 0, 0, 0, 0, 0, 0, 0, 54, 35, 0, 0, 55, 0, 31, 0, 0, 79, 4, 0, 32, 70, 73, 0, 44, 7, 0, 0, 75, 0, 39, 30, 0, 45, 74, 0, 63, 0, 0, 0, 1, 0, 0, 0, 0, 0, 59, 0, 56, 78, 9, 11, 51, 62, 66, 0, 61, 58, 24, 0, 14, 0, 0, 0, 67, 40, 0, 0, 0, 33, 0, 0
|6, 9, 34, 0, 71, 0, 80, 0, 0, 21, 0, 12, 33, 41, 0, 0, 0, 0, 26, 75, 44, 78, 74, 1, 39, 0, 20, 0, 0, 0, 0, 0, 0, 54, 67, 0, 0, 55, 24, 3, 0, 81, 73, 0, 70, 0, 0, 79, 0, 0, 37, 0, 17, 72, 5, 22, 0, 46, 23, 45, 0, 0, 4, 0, 0, 0, 43, 56, 42, 0, 52, 0, 0, 59, 0, 32, 57, 64, 14, 8, 0
|60, 54, 50, 16, 59, 38, 77, 0, 31, 42, 73, 14, 0, 0, 0, 35, 22, 80, 0, 0, 0, 33, 67, 0, 0, 0, 0, 55, 0, 72, 0, 0, 10, 0, 39, 0, 52, 44, 46, 76, 0, 26, 56, 20, 78, 62, 0, 41, 5, 0, 0, 0, 0, 4, 34, 0, 0, 64, 0, 79, 24, 32, 0, 48, 18, 63, 40, 49, 71, 2, 30, 70, 0, 65, 1, 0, 29, 0, 0, 0, 0
|0, 25, 0, 0, 32, 7, 79, 33, 0, 45, 0, 0, 4, 0, 11, 61, 0, 62, 0, 14, 21, 13, 77, 0, 0, 65, 0, 81, 0, 63, 0, 0, 48, 35, 66, 0, 15, 80, 54, 0, 0, 29, 28, 0, 10, 0, 40, 0, 0, 46, 0, 0, 0, 39, 68, 12, 8, 0, 69, 17, 75, 0, 49, 0, 0, 0, 37, 0, 0, 22, 78, 5, 0, 0, 16, 0, 73, 31, 0, 0, 0
|0, 40, 75, 0, 70, 0, 56, 10, 24, 0, 0, 37, 47, 2, 0, 0, 0, 0, 0, 0, 0, 23, 22, 0, 3, 69, 0, 41, 79, 77, 0, 0, 80, 51, 62, 0, 71, 5, 0, 65, 36, 0, 63, 0, 0, 33, 12, 14, 0, 0, 18, 42, 0, 55, 0, 0, 0, 7, 38, 0, 76, 0, 58, 0, 17, 11, 39, 0, 31, 59, 68, 0, 0, 72, 0, 52, 35, 74, 20, 0, 0
|35, 20, 0, 0, 0, 61, 36, 79, 19, 0, 11, 15, 0, 24, 3, 0, 16, 37, 6, 38, 71, 0, 0, 0, 0, 0, 0, 0, 69, 0, 0, 0, 0, 26, 1, 0, 0, 0, 0, 55, 0, 54, 21, 27, 66, 0, 72, 40, 47, 0, 0, 0, 14, 2, 48, 43, 58, 0, 0, 30, 0, 78, 0, 70, 0, 32, 0, 12, 0, 0, 33, 22, 0, 0, 0, 25, 0, 0, 0, 5, 45
|65, 0, 4, 76, 0, 14, 45, 0, 15, 0, 0, 68, 0, 63, 27, 0, 46, 71, 21, 0, 0, 0, 0, 58, 35, 0, 0, 0, 28, 22, 32, 0, 0, 42, 23, 0, 0, 0, 78, 0, 25, 37, 0, 24, 30, 0, 67, 33, 0, 0, 54, 19, 11, 0, 12, 0, 69, 59, 0, 3, 8, 47, 70, 18, 0, 43, 0, 13, 0, 51, 0, 0, 10, 0, 39, 75, 34, 79, 0, 48, 0
|0, 0, 18, 47, 0, 0, 70, 32, 56, 0, 28, 19, 0, 62, 31, 0, 26, 29, 0, 77, 0, 69, 34, 50, 0, 0, 0, 59, 5, 0, 78, 66, 11, 80, 0, 63, 0, 51, 48, 0, 0, 0, 0, 15, 0, 0, 0, 0, 76, 0, 79, 0, 0, 68, 54, 0, 0, 0, 0, 42, 0, 0, 57, 58, 0, 0, 23, 6, 0, 17, 0, 14, 0, 0, 67, 0, 53, 16, 0, 3, 13
|67, 74, 17, 0, 21, 0, 3, 66, 40, 0, 0, 59, 0, 0, 0, 30, 12, 0, 28, 13, 0, 18, 78, 43, 0, 0, 15, 68, 57, 0, 49, 0, 0, 25, 55, 79, 0, 7, 53, 11, 0, 0, 69, 4, 0, 0, 0, 0, 22, 0, 27, 0, 0, 51, 0, 0, 14, 16, 0, 46, 29, 19, 56, 0, 37, 45, 0, 0, 35, 42, 0, 81, 0, 0, 0, 77, 0, 23, 0, 0, 0
|0, 0, 0, 54, 0, 50, 0, 69, 33, 0, 0, 66, 0, 0, 4, 0, 0, 53, 57, 36, 49, 0, 64, 0, 42, 0, 0, 65, 37, 76, 0, 31, 14, 0, 24, 0, 0, 0, 0, 0, 40, 67, 0, 12, 79, 3, 0, 0, 21, 70, 81, 23, 0, 38, 51, 0, 0, 0, 0, 0, 13, 0, 0, 26, 0, 9, 0, 0, 0, 46, 0, 59, 0, 20, 29, 0, 0, 2, 0, 0, 73
|0, 0, 0, 6, 73, 22, 0, 0, 0, 0, 0, 35, 0, 50, 80, 0, 0, 56, 11, 3, 25, 19, 0, 0, 29, 0, 48, 20, 33, 0, 54, 0, 0, 0, 0, 71, 2, 47, 18, 81, 68, 0, 76, 38, 0, 0, 32, 0, 0, 69, 0, 63, 0, 31, 27, 0, 0, 72, 0, 0, 0, 26, 66, 55, 10, 0, 0, 34, 57, 0, 7, 8, 0, 0, 0, 0, 0, 0, 74, 4, 0
|0, 0, 8, 0, 77, 57, 0, 44, 0, 1, 42, 54, 0, 49, 2, 0, 0, 0, 14, 0, 0, 56, 0, 0, 46, 62, 0, 48, 45, 40, 15, 0, 0, 38, 0, 0, 5, 19, 26, 64, 0, 73, 70, 52, 0, 0, 0, 0, 34, 0, 28, 0, 7, 0, 23, 25, 0, 20, 0, 0, 22, 0, 0, 0, 0, 80, 0, 75, 0, 0, 0, 24, 0, 0, 6, 63, 78, 60, 0, 69, 0
|0, 51, 59, 0, 0, 46, 63, 0, 9, 0, 0, 0, 0, 0, 0, 0, 45, 0, 68, 0, 1, 0, 0, 24, 0, 0, 73, 64, 0, 0, 0, 21, 0, 2, 0, 81, 77, 0, 0, 33, 0, 0, 0, 0, 3, 42, 0, 18, 0, 62, 39, 30, 0, 0, 0, 0, 6, 50, 0, 0, 0, 0, 0, 0, 0, 60, 0, 25, 49, 53, 69, 0, 22, 37, 58, 55, 66, 54, 0, 0, 12
|0, 0, 0, 30, 0, 80, 48, 0, 0, 0, 0, 69, 0, 0, 0, 0, 0, 0, 0, 0, 45, 0, 0, 0, 0, 37, 5, 0, 0, 0, 34, 0, 0, 0, 0, 50, 0, 0, 0, 0, 0, 74, 20, 58, 46, 0, 57, 0, 0, 61, 1, 0, 26, 10, 0, 67, 24, 0, 63, 40, 18, 60, 0, 11, 0, 29, 47, 0, 73, 77, 27, 0, 35, 68, 0, 76, 28, 0, 81, 0, 15
|79, 2, 0, 0, 0, 0, 0, 46, 0, 69, 0, 0, 0, 0, 0, 29, 0, 50, 65, 47, 62, 15, 42, 0, 18, 0, 0, 39, 0, 0, 0, 58, 0, 13, 0, 0, 43, 0, 70, 37, 0, 0, 0, 17, 68, 0, 76, 61, 0, 77, 31, 32, 0, 54, 0, 0, 34, 0, 14, 78, 59, 0, 5, 0, 66, 0, 41, 52, 67, 23, 10, 74, 0, 71, 0, 30, 0, 0, 60, 16, 27
|0, 66, 0, 37, 18, 43, 67, 0, 57, 10, 0, 38, 53, 30, 17, 54, 48, 45, 0, 0, 0, 0, 44, 0, 0, 0, 0, 0, 0, 0, 0, 63, 35, 16, 60, 46, 0, 0, 0, 0, 0, 49, 0, 65, 76, 75, 25, 0, 40, 0, 52, 5, 1, 0, 0, 0, 0, 0, 0, 0, 19, 0, 47, 0, 15, 0, 0, 0, 64, 0, 62, 29, 0, 13, 36, 41, 68, 39, 61, 0, 0
|42, 0, 0, 0, 48, 0, 0, 0, 25, 0, 2, 80, 0, 0, 0, 14, 15, 3, 16, 4, 36, 0, 0, 0, 0, 5, 0, 0, 0, 59, 0, 71, 0, 0, 0, 0, 0, 0, 0, 0, 0, 0, 9, 0, 28, 0, 0, 0, 0, 22, 0, 0, 19, 0, 0, 0, 0, 1, 0, 0, 21, 0, 0, 61, 45, 40, 78, 0, 26, 0, 0, 0, 0, 0, 7, 0, 81, 0, 0, 0, 0
|5, 0, 80, 0, 9, 41, 0, 14, 0, 0, 0, 77, 0, 64, 67, 0, 58, 39, 0, 70, 0, 0, 0, 12, 0, 57, 26, 0, 66, 0, 0, 28, 62, 15, 17, 0, 78, 72, 0, 13, 73, 0, 52, 0, 0, 0, 0, 0, 0, 0, 0, 53, 47, 36, 0, 55, 0, 0, 0, 23, 0, 0, 0, 68, 0, 0, 0, 0, 0, 24, 0, 20, 76, 0, 0, 0, 0, 56, 51, 54, 0
|0, 33, 0, 0, 0, 0, 0, 0, 0, 0, 0, 72, 36, 0, 0, 0, 32, 35, 0, 0, 0, 0, 0, 0, 25, 73, 0, 0, 41, 29, 0, 38, 65, 43, 0, 26, 69, 30, 27, 0, 10, 0, 0, 0, 21, 80, 48, 0, 0, 8, 60, 14, 0, 0, 0, 0, 0, 0, 0, 24, 56, 52, 37, 0, 28, 0, 0, 0, 70, 0, 53, 13, 49, 58, 0, 0, 55, 59, 47, 0, 0
|27, 0, 58, 17, 19, 75, 59, 0, 0, 62, 1, 0, 42, 0, 52, 41, 0, 0, 22, 31, 8, 0, 0, 78, 71, 2, 0, 18, 55, 47, 72, 0, 0, 32, 0, 44, 0, 0, 0, 0, 5, 46, 14, 81, 0, 28, 30, 26, 68, 0, 0, 0, 0, 73, 0, 76, 74, 35, 64, 29, 60, 0, 6, 57, 63, 0, 80, 0, 0, 36, 21, 0, 0, 3, 0, 0, 0, 34, 11, 33, 10
|0, 35, 38, 0, 45, 0, 0, 0, 74, 33, 0, 0, 66, 0, 0, 4, 0, 68, 0, 32, 52, 53, 43, 0, 14, 0, 19, 0, 0, 11, 2, 48, 0, 0, 5, 0, 7, 0, 56, 20, 79, 75, 0, 0, 0, 81, 0, 0, 0, 41, 0, 59, 0, 0, 0, 10, 0, 0, 46, 54, 0, 8, 36, 0, 0, 39, 1, 0, 25, 0, 0, 0, 0, 0, 21, 26, 0, 0, 77, 62, 64
|61, 0, 0, 0, 78, 52, 29, 0, 63, 31, 0, 21, 0, 46, 79, 73, 28, 0, 60, 0, 0, 0, 48, 66, 1, 0, 0, 0, 0, 3, 14, 0, 0, 0, 8, 0, 0, 25, 0, 71, 18, 2, 0, 0, 0, 0, 0, 56, 45, 10, 0, 0, 62, 44, 0, 32, 0, 15, 11, 20, 0, 27, 69, 59, 76, 54, 0, 7, 47, 30, 17, 0, 5, 0, 0, 0, 67, 0, 6, 22, 0
|72, 73, 0, 64, 10, 26, 0, 0, 54, 60, 74, 0, 0, 5, 43, 20, 0, 22, 77, 0, 0, 28, 0, 0, 0, 0, 0, 7, 0, 0, 0, 0, 79, 0, 0, 1, 0, 3, 0, 12, 6, 0, 44, 34, 0, 0, 18, 58, 0, 0, 78, 0, 0, 27, 45, 66, 70, 0, 0, 48, 0, 30, 0, 0, 0, 0, 0, 0, 0, 55, 0, 35, 57, 0, 52, 0, 69, 0, 23, 29, 8
|0, 46, 26, 0, 80, 59, 0, 0, 17, 0, 7, 57, 28, 9, 65, 0, 0, 25, 0, 18, 0, 0, 68, 35, 24, 0, 0, 0, 0, 75, 0, 32, 76, 0, 0, 10, 29, 43, 79, 52, 0, 0, 0, 69, 0, 41, 0, 0, 56, 12, 0, 0, 77, 0, 40, 34, 0, 58, 3, 27, 67, 15, 50, 53, 64, 0, 0, 70, 0, 54, 74, 0, 0, 81, 0, 16, 45, 30, 0, 42, 0
|0, 58, 0, 40, 0, 29, 0, 0, 48, 0, 0, 30, 0, 34, 54, 62, 8, 63, 1, 0, 0, 0, 0, 0, 10, 0, 80, 0, 0, 0, 35, 14, 0, 19, 0, 11, 28, 4, 6, 0, 0, 0, 0, 36, 51, 0, 0, 27, 31, 3, 0, 0, 0, 52, 0, 77, 25, 9, 0, 0, 0, 0, 0, 20, 24, 50, 0, 37, 59, 0, 0, 0, 23, 12, 22, 0, 26, 76, 0, 56, 7
|23, 14, 0, 25, 51, 0, 13, 30, 65, 0, 0, 16, 70, 29, 0, 66, 0, 15, 0, 0, 0, 49, 0, 2, 0, 33, 7, 0, 0, 0, 0, 9, 0, 1, 28, 43, 68, 0, 75, 40, 31, 3, 72, 0, 22, 73, 5, 11, 58, 0, 17, 0, 0, 69, 0, 20, 0, 60, 36, 26, 0, 0, 61, 0, 47, 77, 0, 76, 56, 32, 81, 12, 39, 0, 0, 8, 0, 38, 52, 27, 0
|0, 50, 45, 27, 0, 0, 0, 3, 0, 0, 0, 0, 0, 58, 0, 26, 73, 0, 48, 0, 59, 0, 0, 0, 54, 78, 0, 13, 70, 0, 0, 0, 0, 77, 72, 0, 0, 76, 0, 0, 62, 38, 47, 11, 0, 0, 1, 0, 79, 0, 0, 0, 42, 16, 0, 46, 0, 22, 0, 0, 63, 0, 0, 0, 0, 0, 34, 28, 39, 0, 75, 2, 0, 25, 44, 0, 0, 0, 53, 24, 18
|2, 0, 66, 0, 35, 42, 0, 0, 47, 0, 0, 0, 0, 20, 24, 31, 0, 36, 58, 19, 69, 57, 72, 38, 0, 0, 27, 51, 0, 45, 0, 0, 0, 0, 50, 34, 48, 53, 0, 44, 1, 0, 0, 46, 0, 0, 0, 7, 0, 0, 25, 0, 23, 49, 81, 0, 0, 62, 0, 0, 43, 73, 0, 16, 0, 0, 0, 0, 29, 0, 0, 30, 15, 4, 0, 0, 0, 41, 59, 0, 79
|74, 0, 0, 0, 0, 33, 68, 0, 78, 19, 80, 0, 0, 59, 53, 0, 0, 0, 23, 16, 0, 0, 36, 0, 11, 41, 0, 0, 38, 48, 0, 0, 0, 0, 20, 8, 24, 0, 0, 30, 70, 0, 0, 0, 0, 0, 13, 0, 63, 50, 0, 54, 0, 71, 0, 14, 39, 32, 0, 0, 45, 56, 44, 0, 0, 7, 10, 0, 1, 31, 9, 18, 0, 66, 0, 0, 6, 0, 62, 0, 49
|32, 7, 0, 63, 16, 0, 0, 36, 4, 67, 0, 43, 50, 0, 48, 0, 0, 0, 0, 0, 0, 0, 0, 76, 65, 47, 14, 78, 0, 80, 64, 0, 0, 0, 2, 0, 0, 0, 12, 0, 0, 0, 74, 26, 0, 0, 0, 28, 37, 72, 15, 0, 6, 62, 0, 49, 0, 0, 17, 52, 30, 1, 59, 25, 23, 27, 0, 61, 22, 41, 0, 68, 0, 11, 3, 13, 0, 46, 0, 0, 0
|0, 0, 0, 0, 0, 0, 11, 0, 0, 0, 0, 10, 0, 0, 35, 69, 0, 78, 61, 50, 63, 75, 20, 0, 0, 0, 81, 58, 22, 52, 0, 0, 41, 49, 0, 0, 0, 18, 5, 0, 23, 0, 0, 0, 33, 64, 0, 0, 0, 0, 46, 26, 34, 0, 0, 0, 12, 28, 0, 0, 7, 72, 0, 38, 48, 73, 0, 4, 0, 0, 0, 0, 29, 0, 77, 0, 9, 0, 37, 0, 65
|24, 0, 20, 0, 28, 0, 61, 41, 0, 0, 0, 0, 79, 0, 0, 0, 49, 0, 8, 71, 0, 0, 26, 13, 0, 0, 39, 54, 47, 46, 59, 65, 0, 0, 3, 18, 0, 34, 7, 80, 17, 0, 0, 0, 15, 48, 10, 0, 53, 38, 30, 0, 0, 78, 0, 0, 55, 66, 0, 68, 37, 33, 0, 52, 0, 0, 51, 0, 21, 69, 0, 0, 58, 5, 64, 0, 0, 67, 0, 0, 72
|0, 48, 65, 77, 0, 0, 10, 81, 30, 0, 0, 0, 62, 0, 5, 44, 64, 0, 7, 12, 0, 1, 0, 0, 0, 42, 11, 69, 0, 78, 68, 59, 0, 0, 36, 0, 0, 49, 0, 73, 0, 0, 0, 18, 0, 0, 0, 3, 0, 47, 0, 45, 20, 6, 0, 74, 79, 23, 24, 0, 51, 0, 9, 76, 0, 15, 52, 0, 0, 0, 0, 61, 27, 40, 66, 0, 2, 71, 80, 0, 0
|37, 11, 0, 74, 0, 0, 40, 51, 0, 25, 38, 78, 30, 0, 13, 0, 0, 0, 73, 62, 17, 0, 0, 0, 19, 4, 0, 29, 0, 41, 0, 0, 0, 0, 0, 9, 22, 26, 0, 63, 67, 65, 32, 0, 0, 8, 2, 72, 69, 66, 0, 76, 0, 57, 0, 0, 31, 0, 0, 0, 49, 0, 75, 28, 35, 0, 0, 42, 0, 7, 0, 39, 0, 50, 0, 20, 0, 0, 34, 59, 0
|0, 0, 24, 0, 44, 39, 47, 0, 0, 41, 0, 29, 0, 15, 55, 17, 42, 0, 32, 57, 35, 38, 0, 71, 0, 0, 0, 61, 14, 0, 0, 5, 2, 79, 21, 0, 20, 27, 0, 0, 37, 0, 7, 0, 0, 54, 16, 0, 75, 63, 0, 11, 0, 0, 18, 8, 0, 76, 0, 0, 0, 0, 12, 1, 0, 0, 0, 0, 66, 19, 0, 45, 0, 0, 60, 0, 33, 58, 0, 77, 0
|0, 76, 27, 29, 0, 28, 0, 0, 0, 0, 77, 40, 0, 0, 0, 24, 0, 0, 0, 65, 78, 0, 0, 0, 0, 49, 0, 16, 67, 0, 0, 0, 12, 0, 48, 0, 38, 0, 11, 0, 0, 0, 1, 41, 4, 0, 53, 0, 33, 51, 0, 31, 0, 0, 0, 0, 0, 47, 0, 0, 2, 61, 39, 73, 80, 20, 0, 0, 8, 0, 0, 0, 0, 0, 0, 0, 0, 10, 0, 0, 0
|52, 0, 0, 0, 0, 79, 0, 0, 41, 43, 0, 0, 0, 0, 0, 0, 0, 0, 0, 48, 18, 0, 80, 0, 72, 28, 59, 63, 0, 57, 37, 11, 0, 0, 56, 55, 47, 0, 45, 5, 0, 40, 0, 33, 77, 12, 0, 0, 0, 0, 0, 58, 74, 0, 35, 0, 0, 3, 0, 0, 14, 0, 0, 67, 0, 0, 53, 0, 0, 4, 0, 0, 0, 0, 0, 0, 62, 0, 0, 0, 42
|0, 0, 0, 0, 0, 31, 35, 34, 0, 0, 39, 0, 72, 70, 10, 0, 0, 0, 0, 64, 0, 2, 0, 0, 0, 20, 0, 60, 32, 17, 0, 0, 53, 47, 71, 0, 0, 9, 25, 16, 0, 55, 0, 76, 0, 0, 44, 19, 0, 0, 23, 73, 0, 0, 78, 68, 0, 41, 7, 0, 65, 5, 30, 40, 56, 33, 54, 0, 48, 74, 13, 46, 0, 8, 0, 3, 0, 0, 29, 63, 0
|55, 70, 0, 33, 0, 0, 0, 0, 7, 0, 0, 23, 0, 4, 71, 0, 0, 66, 0, 0, 51, 52, 30, 41, 6, 46, 76, 0, 0, 38, 0, 0, 1, 8, 0, 74, 79, 0, 0, 34, 60, 44, 0, 0, 56, 0, 68, 0, 0, 36, 0, 15, 48, 0, 72, 0, 32, 21, 0, 0, 73, 40, 0, 0, 0, 59, 0, 0, 0, 29, 65, 0, 0, 0, 5, 0, 22, 0, 0, 28, 57
|80, 63, 1, 45, 67, 0, 17, 0, 43, 0, 3, 32, 59, 0, 33, 0, 0, 0, 25, 69, 0, 40, 0, 23, 47, 0, 0, 0, 20, 0, 7, 50, 49, 76, 10, 75, 51, 0, 0, 0, 61, 0, 12, 0, 58, 0, 52, 60, 0, 78, 24, 79, 4, 0, 0, 38, 0, 6, 0, 0, 0, 0, 28, 0, 34, 5, 62, 14, 0, 0, 0, 31, 0, 0, 0, 0, 0, 0, 0, 70, 0
|0, 0, 72, 0, 54, 32, 66, 16, 53, 0, 0, 0, 0, 0, 0, 56, 0, 52, 5, 0, 0, 79, 0, 0, 0, 0, 74, 23, 4, 58, 73, 26, 30, 22, 0, 64, 0, 70, 31, 2, 0, 0, 0, 0, 0, 0, 46, 49, 0, 65, 40, 0, 50, 0, 0, 0, 0, 0, 45, 0, 33, 57, 0, 63, 0, 0, 81, 0, 0, 10, 0, 0, 48, 7, 37, 0, 25, 0, 17, 1, 0
|44, 6, 0, 3, 0, 78, 55, 54, 0, 9, 0, 28, 0, 0, 0, 0, 0, 10, 70, 52, 0, 63, 0, 36, 0, 0, 40, 47, 0, 0, 65, 0, 0, 57, 0, 31, 0, 42, 4, 0, 8, 68, 37, 5, 0, 0, 0, 0, 0, 73, 0, 0, 0, 0, 14, 18, 67, 0, 43, 0, 71, 0, 0, 0, 0, 66, 0, 32, 0, 15, 48, 0, 62, 0, 0, 22, 0, 0, 0, 0, 76
|22, 68, 0, 0, 81, 0, 53, 0, 0, 0, 0, 45, 6, 0, 78, 0, 0, 1, 33, 0, 43, 0, 25, 62, 0, 67, 0, 0, 3, 20, 0, 34, 0, 0, 42, 0, 23, 31, 0, 70, 9, 0, 38, 28, 73, 0, 0, 0, 0, 0, 0, 0, 0, 0, 0, 60, 44, 37, 0, 76, 39, 0, 0, 0, 0, 10, 0, 0, 61, 35, 2, 27, 50, 41, 63, 40, 0, 24, 0, 19, 0
|41, 80, 32, 0, 0, 0, 14, 0, 42, 66, 55, 0, 0, 3, 74, 0, 0, 4, 37, 15, 24, 5, 81, 0, 17, 13, 53, 0, 0, 0, 0, 67, 0, 0, 52, 60, 46, 35, 40, 0, 27, 0, 65, 2, 0, 0, 0, 0, 0, 0, 0, 28, 0, 0, 0, 0, 0, 68, 0, 0, 0, 36, 0, 0, 58, 0, 50, 29, 0, 63, 59, 0, 79, 51, 0, 0, 0, 0, 38, 0, 69
|0, 0, 0, 10, 0, 16, 0, 0, 0, 26, 0, 8, 24, 68, 39, 53, 57, 0, 0, 22, 0, 0, 21, 0, 79, 0, 42, 0, 0, 0, 0, 17, 0, 0, 0, 37, 0, 64, 0, 0, 0, 61, 0, 60, 0, 40, 0, 0, 0, 0, 6, 78, 63, 70, 0, 0, 0, 54, 73, 0, 0, 59, 1, 0, 0, 0, 0, 0, 43, 0, 31, 0, 3, 27, 0, 0, 32, 0, 4, 0, 46
|19, 37, 0, 39, 0, 27, 20, 35, 59, 0, 25, 0, 0, 0, 51, 47, 77, 0, 50, 10, 0, 0, 69, 0, 0, 0, 0, 26, 80, 0, 0, 40, 0, 61, 46, 0, 45, 74, 0, 0, 29, 0, 48, 0, 0, 52, 0, 32, 9, 49, 72, 24, 0, 41, 0, 42, 5, 0, 0, 38, 81, 21, 0, 0, 62, 0, 0, 0, 28, 13, 22, 75, 30, 60, 0, 67, 23, 0, 0, 0, 0
|0, 0, 0, 36, 40, 15, 64, 0, 0, 0, 0, 0, 29, 0, 63, 50, 0, 0, 74, 0, 0, 32, 28, 0, 77, 60, 72, 10, 7, 68, 44, 0, 0, 0, 0, 35, 0, 11, 0, 41, 0, 30, 62, 0, 0, 5, 0, 0, 2, 0, 0, 39, 16, 0, 0, 0, 46, 0, 0, 19, 20, 75, 80, 0, 3, 0, 0, 0, 0, 0, 47, 0, 0, 42, 0, 0, 0, 78, 0, 0, 0
|70, 0, 0, 0, 13, 73, 33, 60, 0, 0, 62, 5, 14, 72, 18, 0, 0, 21, 0, 11, 80, 0, 0, 57, 0, 0, 0, 0, 0, 24, 0, 0, 78, 39, 0, 29, 0, 66, 49, 6, 0, 69, 0, 0, 25, 79, 0, 15, 67, 55, 59, 27, 0, 23, 0, 0, 0, 45, 0, 0, 0, 9, 0, 74, 0, 0, 0, 40, 0, 0, 42, 44, 12, 77, 0, 0, 54, 0, 0, 36, 16
|4, 0, 0, 2, 0, 66, 43, 63, 0, 0, 0, 52, 0, 0, 0, 67, 71, 0, 0, 39, 26, 0, 47, 51, 0, 0, 18, 11, 23, 0, 45, 74, 33, 50, 0, 48, 0, 32, 76, 0, 22, 0, 0, 0, 12, 37, 65, 0, 0, 0, 0, 0, 68, 0, 0, 0, 0, 13, 27, 0, 0, 0, 40, 9, 0, 19, 72, 1, 0, 73, 0, 34, 0, 56, 8, 59, 0, 0, 64, 75, 0
|0, 49, 0, 0, 0, 0, 21, 0, 11, 0, 0, 0, 0, 0, 0, 70, 0, 0, 0, 44, 68, 0, 23, 0, 0, 1, 0, 0, 0, 73, 4, 16, 81, 0, 0, 0, 0, 63, 0, 0, 0, 0, 78, 0, 17, 0, 0, 50, 42, 19, 22, 0, 30, 75, 10, 62, 0, 33, 0, 34, 64, 74, 0, 37, 69, 26, 0, 77, 51, 20, 0, 54, 0, 31, 0, 48, 0, 25, 13, 18, 9
|16, 0, 0, 0, 0, 0, 0, 0, 0, 0, 0, 53, 19, 0, 0, 0, 36, 0, 0, 0, 9, 54, 61, 0, 0, 14, 35, 0, 51, 0, 62, 0, 0, 0, 40, 73, 4, 0, 0, 1, 63, 41, 0, 0, 0, 66, 3, 0, 18, 31, 0, 0, 28, 0, 8, 0, 0, 49, 39, 59, 32, 0, 0, 17, 0, 0, 0, 21, 0, 76, 79, 0, 0, 0, 0, 5, 13, 0, 50, 0, 0
|0, 44, 0, 48, 66, 3, 32, 50, 0, 65, 0, 0, 0, 0, 77, 0, 14, 26, 78, 0, 73, 47, 71, 28, 5, 63, 8, 72, 0, 0, 38, 81, 0, 0, 29, 0, 53, 0, 69, 18, 0, 0, 0, 0, 0, 0, 15, 0, 0, 2, 45, 0, 60, 40, 0, 17, 0, 0, 13, 80, 0, 12, 24, 0, 59, 0, 0, 0, 23, 0, 0, 37, 41, 1, 0, 31, 42, 0, 0, 0, 0
|53, 61, 81, 49, 0, 0, 18, 0, 80, 0, 0, 0, 73, 47, 0, 0, 0, 8, 0, 24, 34, 0, 29, 60, 48, 0, 1, 0, 65, 0, 3, 10, 31, 0, 0, 20, 76, 0, 0, 26, 0, 15, 50, 0, 38, 25, 33, 69, 6, 52, 0, 0, 0, 0, 0, 0, 78, 5, 40, 56, 16, 23, 0, 19, 13, 68, 0, 63, 46, 44, 0, 0, 36, 0, 27, 0, 17, 0, 79, 64, 0
|0, 0, 2, 0, 0, 0, 37, 0, 12, 59, 69, 0, 0, 0, 0, 52, 54, 0, 17, 67, 0, 77, 0, 68, 74, 0, 56, 0, 63, 0, 11, 0, 45, 66, 0, 0, 9, 61, 0, 25, 0, 42, 30, 0, 0, 0, 39, 0, 55, 20, 0, 0, 53, 0, 28, 64, 0, 81, 57, 0, 0, 0, 21, 6, 72, 0, 0, 36, 40, 0, 0, 0, 0, 0, 0, 80, 46, 70, 48, 0, 0
|0, 0, 0, 7, 0, 65, 0, 19, 0, 12, 68, 17, 0, 6, 44, 45, 0, 0, 0, 0, 23, 36, 38, 59, 32, 0, 0, 8, 0, 27, 0, 22, 0, 0, 0, 0, 49, 54, 0, 48, 0, 0, 0, 21, 0, 14, 62, 0, 0, 30, 41, 75, 37, 0, 66, 9, 2, 0, 51, 0, 50, 69, 63, 0, 0, 0, 0, 0, 78, 61, 35, 0, 77, 29, 0, 0, 0, 0, 0, 0, 0
|0, 0, 43, 59, 0, 68, 57, 0, 0, 24, 0, 60, 31, 0, 72, 0, 55, 0, 0, 0, 15, 11, 0, 19, 0, 79, 75, 0, 0, 0, 0, 13, 28, 0, 64, 0, 10, 0, 44, 0, 0, 0, 0, 0, 81, 0, 0, 36, 0, 26, 77, 0, 0, 0, 0, 6, 0, 73, 54, 74, 1, 0, 0, 0, 0, 16, 0, 0, 0, 0, 45, 47, 0, 30, 25, 0, 21, 0, 8, 0, 0
|30, 29, 36, 35, 0, 0, 71, 56, 45, 0, 9, 0, 2, 23, 0, 11, 0, 0, 4, 0, 50, 64, 0, 0, 0, 0, 0, 12, 0, 18, 69, 1, 0, 0, 75, 24, 0, 0, 3, 0, 55, 0, 51, 73, 0, 0, 0, 59, 0, 0, 0, 13, 32, 0, 0, 0, 42, 0, 19, 15, 31, 58, 79, 0, 0, 0, 26, 41, 10, 0, 0, 7, 66, 22, 0, 0, 72, 61, 63, 0, 54
|0, 55, 33, 0, 0, 11, 0, 0, 75, 61, 0, 1, 63, 0, 56, 0, 39, 28, 0, 45, 57, 25, 37, 49, 0, 0, 52, 0, 0, 43, 0, 0, 7, 0, 32, 0, 0, 68, 71, 0, 65, 23, 5, 0, 0, 19, 29, 0, 46, 81, 0, 47, 8, 0, 0, 0, 0, 0, 60, 0, 0, 0, 14, 0, 0, 34, 27, 80, 24, 0, 58, 0, 0, 26, 73, 69, 0, 0, 9, 20, 0
|0, 1, 0, 0, 0, 0, 28, 73, 0, 0, 0, 0, 0, 0, 0, 43, 0, 0, 13, 0, 0, 51, 65, 0, 58, 0, 0, 0, 0, 0, 0, 0, 46, 0, 37, 0, 11, 45, 0, 17, 0, 0, 2, 31, 36, 0, 50, 23, 7, 0, 0, 0, 0, 21, 0, 26, 0, 75, 0, 0, 0, 0, 35, 0, 25, 56, 71, 57, 54, 0, 0, 0, 0, 0, 53, 47, 60, 0, 12, 67, 24
|40, 75, 0, 70, 0, 0, 76, 0, 0, 30, 0, 31, 1, 33, 37, 16, 18, 0, 0, 41, 0, 0, 0, 34, 0, 0, 78, 38, 81, 9, 23, 0, 0, 64, 6, 66, 0, 58, 0, 77, 53, 48, 59, 0, 57, 0, 43, 17, 0, 0, 49, 0, 35, 0, 80, 0, 0, 52, 67, 0, 0, 11, 0, 21, 0, 0, 0, 65, 0, 0, 19, 0, 0, 0, 0, 56, 12, 0, 27, 0, 50
|68, 0, 16, 0, 0, 51, 0, 0, 21, 0, 0, 0, 0, 0, 26, 55, 0, 27, 0, 63, 0, 0, 0, 79, 57, 0, 25, 80, 0, 5, 41, 0, 73, 29, 0, 0, 0, 22, 0, 0, 3, 7, 0, 0, 31, 0, 0, 0, 0, 0, 0, 2, 12, 37, 30, 0, 40, 71, 0, 0, 15, 0, 0, 0, 54, 13, 14, 0, 38, 0, 0, 33, 64, 35, 0, 72, 0, 0, 0, 32, 17
|71, 0, 69, 0, 0, 49, 0, 58, 0, 0, 29, 0, 25, 0, 0, 3, 53, 0, 0, 0, 13, 0, 0, 0, 0, 0, 44, 27, 0, 0, 55, 0, 24, 0, 0, 0, 40, 50, 0, 0, 0, 43, 10, 0, 0, 61, 23, 0, 0, 0, 0, 4, 0, 0, 0, 0, 0, 0, 0, 32, 17, 38, 64, 78, 7, 0, 0, 67, 0, 0, 39, 0, 0, 63, 0, 6, 20, 0, 19, 51, 0
|0, 0, 9, 43, 24, 0, 0, 0, 8, 0, 0, 0, 71, 0, 0, 40, 19, 0, 46, 0, 0, 65, 55, 53, 69, 66, 32, 45, 18, 0, 12, 78, 52, 0, 34, 42, 62, 0, 0, 0, 41, 80, 64, 75, 0, 0, 0, 48, 0, 68, 29, 25, 13, 77, 74, 56, 0, 0, 50, 0, 27, 0, 0, 23, 1, 0, 6, 0, 0, 0, 51, 4, 0, 33, 38, 0, 16, 5, 0, 0, 30
|0, 52, 77, 55, 30, 0, 0, 0, 0, 80, 0, 64, 81, 0, 0, 63, 0, 70, 0, 54, 2, 0, 27, 0, 8, 68, 0, 31, 0, 0, 0, 0, 0, 0, 0, 0, 18, 28, 0, 0, 0, 76, 49, 0, 0, 15, 0, 0, 73, 0, 0, 0, 36, 0, 59, 3, 0, 24, 47, 0, 0, 0, 20, 0, 9, 0, 0, 46, 0, 48, 40, 79, 13, 10, 0, 34, 74, 0, 0, 0, 60
|62, 32, 0, 11, 65, 0, 7, 0, 66, 0, 15, 0, 52, 8, 34, 6, 51, 20, 0, 0, 75, 12, 0, 0, 23, 30, 4, 0, 40, 0, 50, 0, 0, 48, 0, 76, 13, 0, 0, 38, 33, 25, 0, 0, 63, 0, 0, 0, 27, 0, 55, 16, 0, 45, 39, 0, 49, 18, 10, 0, 79, 43, 2, 0, 0, 64, 29, 0, 74, 71, 0, 80, 26, 0, 59, 0, 41, 0, 58, 37, 0
|0, 0, 61, 0, 0, 0, 0, 38, 37, 68, 0, 24, 39, 0, 0, 36, 41, 9, 71, 43, 10, 0, 0, 29, 0, 56, 17, 28, 0, 0, 0, 44, 54, 0, 0, 22, 0, 81, 0, 69, 32, 0, 67, 0, 0, 74, 75, 0, 0, 0, 3, 62, 21, 0, 0, 0, 51, 31, 35, 1, 0, 0, 8, 0, 0, 25, 0, 20, 58, 0, 77, 0, 0, 0, 0, 57, 70, 0, 66, 0, 4
|63, 0, 47, 50, 0, 13, 6, 0, 81, 48, 21, 0, 0, 45, 28, 0, 0, 0, 20, 1, 0, 42, 33, 0, 49, 77, 0, 43, 10, 0, 61, 0, 0, 0, 0, 65, 0, 0, 73, 0, 0, 71, 0, 51, 0, 69, 56, 34, 0, 0, 0, 0, 46, 0, 75, 0, 0, 14, 0, 57, 0, 22, 0, 8, 0, 35, 0, 0, 0, 0, 0, 32, 67, 0, 0, 23, 0, 53, 3, 0, 29
|29, 36, 0, 0, 3, 56, 25, 0, 64, 0, 65, 0, 17, 0, 66, 13, 67, 72, 0, 0, 0, 0, 16, 47, 50, 11, 21, 0, 75, 0, 0, 15, 0, 53, 57, 0, 0, 52, 23, 24, 0, 0, 79, 0, 26, 0, 81, 70, 0, 0, 80, 0, 40, 9, 6, 0, 33, 0, 34, 0, 0, 0, 68, 43, 30, 0, 60, 45, 27, 0, 61, 63, 0, 0, 18, 0, 31, 55, 2, 76, 71|];