order = 9;
grid = [|0, 66, 0, 0, 68, 35, 41, 0, 24, 0, 36, 0, 3, 59, 0, 77, 50, 7, 0, 22, 9, 0, 54, 0, 0, 0, 20, 0, 29, 0, 0, 0, 51, 0, 12, 27, 0, 47, 0, 75, 56, 69, 32, 65, 19, 0, 40, 34, 58, 39, 18, 44, 0, 0, 62, 0, 0, 57, 14, 49, 0, 0, 0, 72, 0, 4, 71, 42, 70, 0, 46, 31, 64, 0, 0, 5, 73, 16, 76, 23, 48
|0, 0, 0, 46, 0, 16, 69, 0, 0, 65, 0, 0, 0, 0, 17, 0, 0, 0, 62, 0, 0, 60, 0, 27, 61, 0, 0, 43, 14, 3, 0, 0, 0, 26, 0, 66, 0, 0, 24, 0, 0, 0, 68, 0, 2, 1, 0, 0, 0, 0, 0, 0, 0, 70, 0, 0, 0, 44, 32, 0, 30, 0, 80, 47, 81, 64, 48, 0, 0, 19, 0, 0, 0, 0, 0, 0, 71, 29, 0, 0, 0
|59, 0, 38, 12, 0, 81, 6, 47, 1, 0, 0, 0, 29, 71, 0, 68, 0, 58, 69, 0, 0, 0, 0, 0, 16, 26, 5, 20, 34, 0, 0, 0, 0, 78, 0, 49, 70, 36, 11, 52, 0, 0, 0, 0, 51, 67, 0, 0, 45, 0, 0, 74, 23, 35, 0, 0, 0, 0, 0, 0, 0, 54, 65, 8, 37, 0, 0, 57, 0, 32, 40, 0, 0, 0, 62, 33, 61, 41, 25, 19, 0
|0, 0, 48, 67, 60, 0, 0, 75, 49, 34, 0, 15, 8, 0, 0, 37, 0, 0, 23, 0, 24, 47, 0, 50, 0, 0, 0, 0, 0, 69, 0, 7, 0, 0, 42, 0, 40, 0, 0, 30, 16, 0, 0, 43, 18, 25, 0, 0, 0, 0, 27, 0, 65, 0, 0, 0, 19, 0, 35, 36, 0, 68, 78, 0, 0, 0, 0, 38, 0, 74, 0, 0, 0, 54, 0, 70, 66, 77, 0, 0, 46
|19, 0, 21, 51, 0, 0, 0, 37, 32, 79, 0, 27, 0, 0, 0, 76, 61, 0, 0, 58, 57, 0, 70, 0, 0, 59, 0, 62, 0, 71, 0, 56, 72, 0, 64, 0, 63, 0, 9, 25, 77, 29, 4, 0, 0, 24, 0, 0, 49, 31, 16, 80, 0, 17, 0, 0, 28, 50, 0, 7, 0, 0, 33, 0, 13, 0, 6, 0, 75, 0, 68, 52, 0, 0, 38, 0, 0, 0, 0, 0, 0
|0, 25, 77, 0, 0, 0, 76, 27, 0, 20, 0, 32, 21, 63, 4, 30, 48, 9, 55, 0, 71, 0, 0, 67, 0, 33, 37, 10, 0, 0, 46, 53, 0, 0, 52, 57, 0, 1, 73, 35, 64, 0, 5, 59, 0, 75, 19, 2, 61, 0, 0, 69, 0, 54, 0, 16, 58, 0, 0, 0, 39, 12, 17, 24, 29, 56, 62, 0, 51, 15, 0, 11, 18, 0, 0, 22, 6, 0, 81, 43, 0
|0, 0, 15, 0, 0, 36, 0, 40, 70, 0, 0, 47, 0, 0, 0, 0, 0, 6, 0, 7, 14, 0, 28, 49, 65, 10, 0, 11, 48, 77, 0, 16, 61, 0, 67, 0, 0, 0, 57, 0, 0, 22, 12, 26, 0, 0, 0, 0, 56, 0, 0, 52, 0, 59, 79, 0, 0, 2, 0, 64, 0, 69, 51, 0, 25, 76, 3, 0, 0, 55, 0, 34, 0, 0, 0, 68, 4, 72, 0, 0, 58
|5, 0, 58, 2, 10, 52, 0, 55, 0, 51, 0, 12, 80, 66, 16, 70, 0, 0, 11, 73, 25, 3, 0, 75, 0, 0, 0, 30, 36, 35, 81, 0, 0, 0, 0, 0, 0, 0, 14, 67, 0, 0, 42, 0, 15, 0, 28, 0, 21, 0, 0, 0, 62, 77, 0, 34, 0, 0, 0, 0, 0, 0, 18, 0, 43, 0, 69, 59, 0, 0, 17, 78, 1, 0, 0, 63, 50, 0, 0, 53, 0
|80, 72, 4, 0, 56, 62, 61, 0, 30, 0, 78, 0, 0, 0, 73, 0, 0, 0, 15, 29, 74, 19, 0, 0, 51, 0, 0, 0, 0, 45, 0, 68, 0, 0, 18, 0, 20, 0, 27, 41, 76, 81, 38, 0, 0, 36, 0, 0, 0, 0, 9, 71, 26, 0, 0, 47, 24, 0, 43, 0, 5, 70, 0, 63, 0, 50, 14, 12, 0, 28, 0, 0, 67, 0, 0, 49, 59, 21, 0, 17, 69
|0, 1, 64, 26, 70, 0, 31, 52, 0, 25, 0, 0, 19, 18, 0, 21, 0, 0, 0, 0, 69, 63, 46, 0, 54, 73, 43, 66, 0, 67, 0, 0, 0, 0, 0, 44, 75, 81, 30, 0, 80, 0, 0, 28, 20, 45, 55, 0, 0, 0, 0, 2, 47, 0, 0, 68, 0, 0, 0, 0, 12, 7, 56, 23, 16, 0, 22, 11, 33, 59, 27, 15, 51, 57, 14, 0, 10, 39, 74, 0, 78
|0, 0, 74, 14, 0, 0, 0, 0, 35, 66, 0, 0, 33, 0, 0, 8, 0, 0, 0, 0, 13, 64, 0, 10, 50, 5, 34, 0, 0, 26, 0, 62, 2, 59, 30, 0, 0, 0, 45, 1, 0, 0, 61, 0, 65, 81, 0, 0, 0, 0, 0, 24, 0, 0, 28, 0, 0, 51, 0, 77, 0, 27, 38, 0, 53, 0, 21, 0, 17, 80, 0, 0, 63, 44, 0, 41, 22, 73, 72, 0, 25
|10, 0, 0, 0, 0, 51, 0, 4, 0, 0, 9, 30, 46, 78, 61, 0, 15, 22, 81, 0, 19, 45, 0, 74, 0, 8, 36, 7, 32, 1, 57, 52, 0, 0, 0, 0, 54, 0, 17, 0, 40, 0, 0, 0, 0, 44, 77, 63, 6, 0, 0, 59, 20, 0, 0, 0, 0, 0, 0, 0, 80, 23, 50, 0, 0, 48, 2, 0, 0, 0, 3, 0, 21, 0, 0, 27, 16, 0, 43, 64, 28
|36, 0, 0, 0, 53, 6, 2, 67, 78, 44, 72, 38, 56, 0, 0, 28, 0, 49, 18, 25, 30, 0, 0, 61, 24, 0, 31, 63, 22, 15, 71, 70, 12, 0, 0, 45, 0, 23, 13, 0, 51, 0, 0, 0, 62, 66, 0, 16, 80, 0, 50, 0, 0, 0, 0, 0, 0, 0, 0, 0, 52, 0, 0, 43, 35, 0, 0, 0, 0, 37, 0, 0, 0, 0, 69, 0, 55, 58, 0, 8, 0
|22, 27, 32, 50, 0, 0, 0, 0, 81, 37, 80, 0, 0, 17, 0, 20, 47, 0, 0, 14, 0, 21, 0, 16, 28, 0, 51, 0, 0, 6, 73, 0, 24, 5, 0, 0, 71, 39, 0, 44, 60, 0, 78, 3, 69, 46, 30, 10, 0, 0, 53, 64, 34, 48, 0, 0, 0, 0, 45, 26, 0, 61, 70, 7, 0, 0, 0, 0, 74, 0, 38, 0, 35, 49, 0, 59, 23, 62, 29, 33, 13
|0, 19, 65, 0, 0, 0, 0, 0, 62, 12, 43, 74, 39, 2, 23, 50, 63, 26, 67, 0, 0, 0, 0, 0, 44, 0, 0, 0, 79, 0, 51, 0, 37, 28, 0, 17, 18, 32, 48, 70, 0, 0, 0, 0, 0, 7, 31, 0, 73, 78, 40, 0, 27, 0, 10, 0, 0, 71, 54, 0, 0, 22, 9, 0, 0, 0, 0, 81, 30, 14, 13, 0, 0, 0, 0, 1, 0, 0, 56, 66, 0
|44, 0, 0, 38, 0, 8, 0, 0, 37, 42, 0, 0, 0, 0, 62, 0, 4, 3, 0, 0, 0, 0, 47, 0, 49, 0, 76, 61, 69, 64, 21, 0, 33, 0, 0, 43, 0, 0, 0, 0, 0, 0, 31, 0, 29, 54, 65, 0, 0, 58, 13, 0, 0, 0, 0, 0, 2, 0, 0, 14, 15, 0, 20, 34, 73, 0, 50, 0, 1, 0, 0, 67, 0, 0, 77, 48, 81, 32, 0, 0, 75
|0, 0, 0, 11, 0, 0, 57, 0, 39, 0, 0, 29, 0, 58, 31, 0, 70, 51, 9, 0, 0, 71, 75, 41, 60, 0, 1, 0, 80, 0, 74, 35, 18, 0, 16, 48, 15, 0, 0, 8, 0, 25, 53, 0, 63, 0, 67, 37, 0, 23, 43, 49, 21, 62, 0, 0, 81, 0, 33, 46, 0, 0, 30, 0, 0, 0, 0, 0, 20, 0, 55, 32, 61, 52, 0, 79, 0, 0, 4, 0, 0
|0, 0, 47, 0, 17, 0, 54, 63, 0, 11, 0, 0, 0, 0, 53, 65, 73, 0, 0, 0, 0, 0, 0, 22, 7, 0, 48, 0, 78, 0, 0, 0, 27, 60, 0, 0, 0, 0, 0, 0, 0, 0, 14, 74, 0, 0, 76, 61, 0, 0, 41, 0, 36, 0, 0, 3, 49, 8, 16, 0, 0, 0, 66, 9, 44, 69, 5, 0, 0, 31, 26, 6, 19, 30, 12, 71, 80, 0, 0, 0, 0
|0, 0, 0, 19, 78, 27, 0, 0, 77, 59, 0, 0, 64, 0, 0, 35, 0, 0, 0, 0, 34, 0, 38, 18, 41, 0, 81, 0, 51, 17, 0, 36, 0, 0, 61, 10, 0, 0, 0, 5, 0, 53, 0, 0, 39, 0, 54, 0, 42, 0, 0, 28, 0, 0, 11, 0, 0, 0, 0, 0, 0, 0, 60, 0, 68, 29, 0, 30, 0, 0, 0, 56, 0, 0, 9, 0, 49, 0, 0, 31, 63
|46, 62, 0, 80, 0, 57, 0, 31, 61, 0, 3, 0, 0, 0, 48, 0, 0, 39, 73, 67, 0, 0, 13, 0, 21, 0, 0, 81, 0, 0, 0, 45, 26, 8, 60, 0, 0, 63, 18, 0, 52, 0, 0, 0, 59, 0, 0, 0, 0, 0, 0, 0, 0, 0, 36, 74, 0, 0, 0, 23, 71, 20, 35, 0, 0, 14, 0, 28, 41, 0, 2, 33, 5, 0, 0, 11, 0, 53, 0, 0, 50
|0, 17, 0, 0, 18, 63, 73, 21, 0, 32, 0, 0, 27, 25, 34, 11, 0, 0, 8, 62, 0, 0, 0, 0, 9, 53, 57, 0, 31, 0, 44, 0, 0, 0, 74, 28, 0, 20, 37, 7, 54, 0, 0, 22, 0, 78, 56, 47, 33, 0, 0, 0, 61, 0, 0, 0, 0, 0, 0, 43, 13, 0, 6, 0, 70, 0, 0, 0, 0, 0, 1, 0, 0, 51, 59, 16, 0, 30, 0, 0, 0
|56, 0, 2, 0, 69, 0, 0, 54, 0, 0, 21, 20, 41, 62, 45, 52, 0, 0, 0, 0, 26, 0, 31, 44, 0, 50, 23, 0, 0, 46, 47, 38, 0, 0, 32, 6, 0, 0, 0, 4, 9, 13, 60, 66, 0, 71, 0, 0, 24, 0, 29, 0, 76, 27, 49, 0, 0, 0, 10, 55, 48, 0, 0, 78, 51, 0, 16, 0, 40, 53, 79, 0, 33, 0, 0, 0, 28, 0, 0, 0, 19
|0, 0, 66, 42, 51, 0, 0, 0, 0, 9, 40, 0, 0, 49, 0, 67, 28, 0, 3, 76, 0, 0, 22, 0, 46, 0, 0, 64, 41, 0, 4, 25, 78, 11, 43, 0, 6, 0, 70, 45, 1, 68, 0, 0, 79, 62, 0, 0, 38, 0, 0, 58, 0, 0, 0, 27, 32, 21, 59, 75, 0, 17, 0, 54, 20, 0, 0, 23, 0, 34, 35, 71, 80, 0, 0, 0, 48, 0, 12, 26, 0
|0, 0, 30, 39, 23, 1, 0, 0, 53, 0, 51, 58, 26, 7, 0, 0, 69, 65, 49, 16, 64, 0, 0, 20, 36, 0, 54, 0, 0, 0, 63, 0, 0, 18, 0, 0, 0, 34, 71, 0, 0, 0, 21, 38, 0, 0, 0, 40, 0, 48, 79, 5, 0, 0, 12, 0, 52, 0, 0, 37, 61, 45, 0, 0, 59, 60, 17, 19, 0, 0, 0, 0, 13, 74, 0, 8, 0, 0, 67, 0, 0
|8, 0, 28, 0, 22, 20, 36, 0, 0, 56, 76, 0, 0, 0, 24, 78, 60, 1, 0, 19, 0, 74, 42, 0, 0, 0, 71, 16, 0, 0, 0, 0, 0, 70, 0, 53, 49, 0, 10, 0, 0, 44, 0, 0, 0, 0, 0, 75, 0, 80, 45, 63, 0, 0, 0, 51, 7, 34, 0, 0, 0, 50, 77, 38, 57, 21, 0, 67, 0, 6, 58, 0, 69, 0, 0, 0, 0, 0, 14, 65, 0
|41, 0, 49, 0, 33, 76, 0, 68, 0, 19, 53, 2, 0, 0, 0, 0, 81, 0, 60, 0, 1, 0, 0, 17, 0, 0, 0, 34, 0, 0, 79, 0, 14, 27, 0, 55, 0, 15, 0, 28, 36, 0, 0, 32, 0, 16, 0, 22, 26, 0, 21, 13, 0, 9, 18, 0, 0, 0, 0, 69, 8, 65, 0, 75, 61, 52, 0, 0, 3, 0, 12, 0, 78, 46, 0, 0, 62, 45, 0, 25, 23
|35, 0, 34, 70, 0, 0, 0, 0, 0, 0, 0, 0, 10, 42, 0, 0, 13, 0, 0, 69, 0, 77, 0, 0, 11, 0, 0, 49, 7, 0, 0, 39, 59, 40, 57, 21, 58, 0, 0, 0, 30, 75, 19, 0, 0, 0, 0, 0, 15, 0, 14, 0, 60, 0, 53, 0, 33, 31, 41, 72, 64, 0, 28, 62, 24, 37, 0, 63, 27, 0, 0, 22, 73, 0, 0, 0, 56, 0, 47, 6, 0
|69, 75, 0, 0, 0, 68, 0, 0, 0, 0, 14, 0, 0, 67, 0, 6, 0, 0, 56, 71, 62, 0, 0, 3, 33, 58, 19, 72, 50, 0, 0, 55, 80, 0, 8, 78, 44, 0, 0, 0, 47, 0, 0, 0, 0, 26, 17, 0, 39, 16, 42, 0, 0, 0, 0, 0, 0, 28, 0, 2, 22, 29, 7, 48, 60, 0, 30, 0, 35, 0, 77, 37, 0, 0, 0, 0, 0, 0, 49, 4, 21
|77, 0, 0, 6, 35, 0, 0, 39, 0, 0, 0, 0, 71, 31, 80, 75, 64, 0, 0, 0, 0, 7, 73, 65, 0, 14, 45, 0, 49, 81, 0, 0, 0, 0, 0, 0, 55, 37, 0, 53, 72, 8, 22, 0, 0, 38, 0, 0, 66, 33, 47, 0, 51, 0, 69, 23, 44, 0, 0, 68, 0, 0, 0, 0, 36, 5, 1, 16, 0, 0, 21, 12, 60, 0, 0, 0, 42, 74, 17, 70, 79
|0, 0, 0, 25, 24, 0, 0, 0, 36, 0, 77, 0, 0, 0, 0, 73, 0, 0, 0, 0, 37, 0, 0, 0, 42, 61, 0, 51, 70, 74, 0, 10, 0, 54, 6, 0, 0, 0, 40, 21, 0, 0, 0, 67, 13, 27, 5, 69, 0, 0, 0, 0, 2, 80, 0, 0, 0, 14, 0, 11, 0, 0, 0, 33, 0, 43, 0, 0, 64, 75, 0, 0, 48, 72, 0, 78, 0, 0, 1, 59, 0
|0, 64, 0, 21, 0, 22, 0, 17, 46, 0, 0, 0, 0, 30, 29, 27, 0, 0, 79, 47, 0, 70, 0, 0, 0, 13, 26, 0, 0, 0, 66, 0, 67, 62, 0, 56, 78, 0, 0, 0, 11, 0, 28, 0, 0, 31, 24, 44, 54, 73, 0, 0, 71, 0, 0, 0, 0, 65, 0, 53, 33, 0, 0, 25, 0, 0, 68, 55, 0, 3, 42, 80, 0, 14, 0, 6, 0, 0, 0, 0, 0
|0, 0, 53, 47, 63, 0, 0, 44, 54, 16, 1, 43, 0, 76, 0, 3, 0, 42, 31, 0, 51, 75, 0, 0, 0, 0, 0, 0, 15, 18, 0, 0, 23, 35, 0, 33, 73, 0, 0, 0, 0, 0, 0, 0, 6, 37, 0, 68, 55, 0, 61, 0, 0, 0, 41, 0, 70, 0, 77, 56, 21, 0, 79, 69, 0, 71, 0, 9, 0, 40, 0, 0, 22, 62, 0, 0, 0, 28, 0, 0, 0
|0, 0, 0, 79, 0, 5, 0, 0, 65, 0, 0, 9, 44, 28, 47, 0, 0, 4, 0, 0, 0, 0, 32, 0, 0, 60, 63, 22, 0, 14, 69, 0, 30, 0, 0, 71, 0, 77, 0, 0, 39, 0, 24, 1, 48, 70, 43, 7, 0, 0, 0, 11, 0, 0, 0, 75, 55, 80, 18, 54, 6, 0, 0, 0, 52, 0, 0, 0, 0, 66, 78, 45, 68, 0, 33, 35, 12, 50, 41, 37, 64
|72, 0, 0, 0, 0, 70, 0, 0, 0, 0, 0, 37, 69, 0, 40, 0, 46, 0, 76, 0, 54, 0, 0, 0, 0, 0, 0, 44, 64, 42, 25, 60, 0, 0, 0, 36, 10, 0, 75, 14, 32, 0, 29, 0, 7, 0, 4, 0, 0, 0, 6, 0, 77, 0, 0, 52, 0, 16, 9, 0, 45, 0, 0, 0, 18, 27, 26, 73, 0, 63, 0, 41, 11, 38, 0, 19, 0, 65, 0, 80, 0
|62, 0, 0, 0, 31, 0, 1, 78, 0, 0, 2, 57, 48, 11, 0, 33, 55, 0, 64, 0, 0, 6, 0, 0, 43, 80, 27, 19, 0, 47, 0, 40, 68, 0, 0, 32, 3, 0, 42, 60, 71, 45, 0, 23, 0, 50, 0, 0, 28, 0, 67, 0, 75, 65, 20, 72, 0, 0, 0, 0, 0, 76, 0, 70, 0, 51, 46, 39, 0, 58, 74, 54, 10, 5, 36, 0, 63, 0, 34, 0, 0
|0, 60, 0, 0, 0, 4, 0, 73, 67, 78, 70, 0, 0, 68, 0, 79, 35, 0, 0, 44, 23, 0, 0, 21, 2, 36, 72, 3, 0, 0, 0, 1, 0, 75, 0, 11, 16, 19, 54, 0, 0, 33, 0, 0, 41, 0, 0, 74, 0, 45, 0, 0, 57, 22, 0, 64, 10, 0, 46, 0, 42, 0, 25, 0, 62, 0, 0, 13, 24, 47, 0, 0, 56, 61, 32, 52, 58, 26, 0, 0, 0
|38, 53, 0, 35, 0, 0, 0, 14, 0, 61, 0, 4, 0, 15, 55, 72, 33, 8, 39, 63, 31, 0, 12, 56, 0, 0, 0, 25, 0, 65, 0, 0, 60, 45, 2, 0, 36, 0, 69, 0, 79, 52, 34, 0, 0, 21, 0, 0, 0, 26, 0, 18, 70, 37, 78, 1, 0, 0, 27, 44, 0, 75, 10, 57, 0, 74, 77, 0, 80, 0, 29, 62, 71, 0, 0, 32, 0, 0, 0, 0, 0
|0, 0, 0, 0, 39, 0, 43, 0, 31, 0, 0, 0, 0, 0, 59, 0, 0, 0, 0, 0, 0, 0, 0, 52, 0, 0, 30, 0, 81, 0, 0, 0, 76, 77, 0, 73, 64, 0, 0, 0, 28, 0, 9, 0, 0, 13, 68, 54, 47, 0, 0, 57, 0, 0, 0, 50, 41, 0, 17, 0, 37, 0, 16, 0, 0, 0, 0, 36, 71, 0, 0, 0, 14, 0, 80, 0, 0, 78, 40, 12, 26
|0, 0, 37, 74, 67, 47, 4, 0, 15, 0, 0, 0, 28, 46, 68, 56, 0, 0, 51, 80, 70, 26, 0, 73, 77, 34, 17, 0, 0, 21, 58, 22, 0, 0, 11, 0, 0, 0, 76, 0, 0, 59, 63, 0, 25, 0, 0, 8, 9, 41, 69, 0, 5, 0, 0, 65, 29, 0, 0, 0, 40, 0, 0, 3, 0, 35, 0, 24, 10, 16, 45, 0, 66, 50, 0, 60, 20, 7, 54, 1, 0
|50, 0, 0, 30, 0, 0, 0, 16, 6, 62, 37, 0, 47, 69, 0, 0, 11, 0, 57, 24, 0, 0, 14, 53, 79, 44, 59, 0, 26, 0, 15, 0, 35, 0, 9, 29, 23, 0, 80, 0, 70, 0, 0, 18, 10, 40, 0, 67, 0, 1, 52, 0, 0, 49, 0, 39, 60, 61, 0, 0, 0, 0, 76, 81, 34, 73, 7, 0, 0, 33, 0, 63, 43, 55, 5, 74, 0, 0, 75, 21, 0
|66, 63, 52, 78, 44, 0, 65, 1, 10, 3, 19, 0, 34, 23, 76, 0, 26, 80, 0, 0, 0, 58, 0, 28, 37, 48, 0, 13, 5, 41, 0, 20, 74, 33, 53, 46, 0, 0, 72, 0, 0, 47, 0, 0, 0, 0, 38, 0, 0, 43, 73, 31, 50, 0, 0, 0, 45, 0, 0, 0, 0, 0, 0, 0, 0, 67, 0, 69, 0, 49, 0, 0, 0, 70, 27, 29, 0, 0, 79, 0, 0
|81, 0, 9, 54, 0, 0, 45, 49, 0, 0, 0, 35, 40, 0, 0, 0, 16, 73, 0, 13, 0, 0, 11, 25, 72, 76, 0, 27, 19, 62, 0, 0, 63, 0, 0, 37, 0, 0, 74, 78, 31, 0, 0, 0, 5, 0, 10, 0, 0, 0, 46, 0, 0, 24, 0, 0, 0, 47, 0, 0, 0, 0, 0, 28, 6, 26, 44, 0, 79, 2, 66, 0, 38, 0, 56, 67, 0, 0, 0, 61, 39
|34, 0, 0, 20, 73, 64, 0, 0, 0, 0, 24, 81, 63, 12, 0, 0, 71, 74, 0, 0, 0, 33, 78, 0, 0, 0, 0, 67, 0, 31, 6, 0, 0, 0, 0, 0, 29, 0, 0, 50, 27, 0, 16, 40, 1, 0, 0, 79, 76, 0, 0, 0, 48, 75, 14, 0, 0, 22, 11, 0, 77, 3, 4, 51, 42, 0, 9, 41, 15, 0, 65, 19, 37, 18, 0, 13, 8, 0, 0, 62, 30
|29, 0, 42, 41, 0, 26, 21, 71, 68, 0, 30, 0, 0, 10, 0, 60, 22, 36, 74, 0, 47, 0, 0, 4, 0, 19, 0, 79, 75, 0, 0, 0, 57, 0, 44, 54, 0, 38, 0, 39, 0, 0, 0, 37, 73, 0, 33, 20, 0, 0, 0, 0, 59, 3, 25, 67, 53, 0, 0, 0, 46, 15, 8, 32, 0, 11, 40, 0, 55, 50, 0, 0, 65, 17, 28, 34, 76, 0, 63, 0, 0
|0, 0, 11, 0, 0, 72, 0, 57, 0, 0, 31, 0, 0, 9, 0, 0, 0, 29, 40, 0, 5, 61, 0, 54, 3, 0, 75, 8, 0, 28, 0, 17, 38, 0, 68, 0, 0, 0, 67, 24, 0, 49, 71, 44, 0, 0, 0, 66, 27, 15, 0, 14, 35, 39, 42, 26, 0, 0, 80, 0, 0, 0, 74, 1, 21, 78, 56, 46, 0, 30, 0, 0, 0, 0, 47, 53, 0, 81, 10, 0, 45
|0, 0, 6, 15, 57, 79, 60, 72, 0, 0, 0, 0, 0, 73, 0, 0, 2, 0, 0, 0, 20, 0, 18, 0, 40, 71, 0, 0, 65, 29, 0, 61, 21, 17, 75, 64, 0, 52, 59, 63, 0, 0, 0, 46, 80, 0, 0, 50, 74, 11, 33, 0, 67, 44, 7, 24, 0, 19, 78, 0, 25, 0, 0, 4, 0, 81, 36, 37, 0, 41, 0, 9, 70, 0, 76, 0, 53, 1, 8, 35, 32
|17, 32, 68, 5, 21, 0, 0, 34, 0, 0, 20, 0, 0, 0, 0, 0, 0, 0, 47, 8, 38, 23, 0, 0, 0, 9, 0, 0, 57, 16, 0, 3, 54, 73, 35, 0, 4, 25, 0, 71, 0, 11, 6, 0, 45, 0, 53, 0, 0, 0, 59, 79, 0, 42, 0, 0, 12, 0, 22, 70, 0, 30, 72, 13, 0, 0, 0, 0, 0, 0, 0, 48, 31, 63, 0, 77, 0, 80, 0, 52, 0
|1, 52, 31, 48, 0, 78, 56, 24, 0, 80, 47, 0, 0, 3, 0, 0, 0, 69, 2, 39, 44, 5, 19, 76, 22, 41, 46, 0, 40, 25, 8, 11, 0, 30, 0, 4, 21, 0, 0, 43, 0, 0, 0, 54, 0, 55, 81, 0, 0, 0, 0, 0, 0, 58, 0, 17, 59, 0, 0, 0, 0, 0, 0, 12, 15, 32, 0, 61, 0, 29, 62, 0, 34, 71, 0, 57, 0, 38, 36, 45, 20
|40, 0, 61, 0, 0, 0, 8, 18, 13, 0, 11, 0, 0, 27, 0, 0, 42, 71, 0, 0, 78, 29, 0, 0, 35, 0, 0, 80, 0, 43, 0, 0, 0, 0, 0, 9, 53, 67, 0, 55, 0, 0, 64, 30, 16, 0, 63, 51, 36, 37, 0, 22, 0, 52, 0, 0, 0, 0, 2, 0, 0, 0, 47, 0, 0, 0, 34, 0, 26, 0, 0, 0, 75, 0, 66, 0, 0, 0, 0, 0, 6
|73, 11, 0, 37, 0, 67, 44, 66, 0, 0, 0, 22, 0, 4, 0, 0, 77, 64, 0, 0, 52, 36, 80, 68, 34, 0, 0, 0, 74, 13, 78, 47, 32, 0, 0, 63, 0, 0, 19, 15, 57, 3, 0, 0, 60, 61, 7, 0, 0, 0, 38, 0, 0, 0, 0, 42, 0, 0, 0, 0, 0, 0, 0, 55, 0, 31, 27, 14, 0, 0, 0, 0, 0, 59, 21, 40, 79, 25, 0, 50, 65
|76, 0, 27, 0, 0, 39, 0, 77, 0, 15, 26, 0, 53, 43, 63, 40, 0, 0, 42, 64, 79, 0, 0, 6, 56, 0, 0, 0, 0, 72, 59, 0, 0, 0, 0, 18, 0, 2, 0, 47, 20, 0, 44, 0, 0, 80, 0, 31, 0, 65, 24, 45, 0, 4, 0, 0, 68, 0, 71, 0, 16, 0, 0, 17, 30, 58, 0, 0, 67, 0, 11, 70, 0, 48, 0, 61, 0, 22, 0, 54, 0
|65, 54, 14, 4, 0, 19, 80, 53, 20, 0, 0, 0, 0, 0, 9, 0, 32, 0, 0, 51, 45, 0, 0, 63, 13, 0, 0, 0, 0, 0, 22, 0, 6, 0, 49, 0, 0, 10, 77, 0, 34, 0, 0, 0, 23, 0, 75, 48, 0, 0, 30, 0, 25, 0, 0, 0, 0, 0, 0, 61, 79, 36, 55, 2, 0, 0, 59, 68, 28, 71, 0, 69, 0, 0, 0, 0, 37, 0, 0, 24, 0
|0, 0, 0, 0, 55, 0, 75, 38, 64, 0, 52, 0, 54, 60, 36, 23, 59, 19, 77, 17, 48, 0, 25, 0, 12, 0, 28, 76, 45, 0, 0, 71, 0, 0, 0, 81, 39, 0, 0, 0, 0, 1, 33, 0, 61, 29, 0, 0, 0, 62, 2, 0, 0, 0, 58, 0, 14, 5, 40, 0, 53, 0, 0, 0, 80, 0, 0, 56, 42, 0, 16, 0, 0, 11, 0, 4, 18, 15, 0, 0, 44
|71, 10, 0, 62, 42, 0, 0, 0, 63, 30, 0, 0, 13, 29, 0, 0, 34, 78, 0, 0, 61, 0, 0, 81, 31, 0, 32, 0, 12, 55, 0, 79, 20, 0, 0, 0, 0, 76, 36, 56, 66, 0, 40, 58, 70, 73, 57, 17, 41, 69, 0, 19, 15, 8, 80, 0, 0, 0, 50, 0, 0, 0, 3, 0, 0, 0, 0, 33, 39, 35, 0, 0, 46, 0, 0, 0, 0, 0, 0, 0, 0
|0, 0, 54, 0, 4, 0, 0, 0, 0, 0, 0, 0, 0, 14, 64, 0, 0, 0, 0, 21, 8, 0, 59, 1, 0, 69, 0, 0, 27, 37, 0, 0, 46, 44, 48, 0, 0, 0, 3, 0, 5, 80, 0, 60, 71, 0, 0, 73, 0, 13, 35, 0, 12, 76, 0, 0, 0, 42, 0, 0, 0, 72, 40, 50, 0, 0, 0, 0, 52, 38, 0, 0, 0, 43, 0, 0, 34, 10, 32, 0, 0
|78, 61, 0, 44, 58, 45, 0, 0, 18, 4, 38, 73, 11, 50, 0, 0, 0, 0, 34, 0, 39, 0, 0, 31, 0, 0, 0, 0, 0, 0, 64, 0, 16, 56, 0, 69, 0, 0, 0, 0, 0, 0, 0, 24, 42, 0, 74, 62, 19, 77, 54, 0, 8, 30, 65, 0, 46, 81, 0, 0, 51, 60, 2, 0, 48, 9, 0, 0, 0, 0, 0, 47, 0, 13, 0, 0, 0, 0, 52, 14, 0
|0, 0, 0, 64, 0, 49, 79, 12, 0, 40, 46, 3, 20, 0, 71, 57, 0, 43, 22, 0, 0, 0, 37, 0, 17, 54, 29, 0, 42, 4, 0, 0, 0, 41, 25, 74, 0, 27, 58, 0, 68, 31, 0, 77, 8, 10, 80, 14, 67, 0, 0, 0, 52, 0, 15, 0, 0, 0, 69, 0, 0, 21, 39, 66, 65, 24, 0, 44, 0, 0, 0, 0, 0, 73, 48, 2, 0, 11, 18, 0, 0
|0, 41, 67, 32, 0, 25, 0, 22, 0, 0, 0, 0, 0, 80, 0, 0, 0, 0, 61, 74, 6, 48, 0, 0, 38, 42, 14, 0, 0, 0, 28, 0, 66, 47, 0, 0, 0, 0, 0, 59, 62, 0, 0, 57, 0, 0, 0, 24, 68, 60, 0, 26, 72, 5, 31, 0, 18, 35, 55, 16, 50, 0, 0, 36, 0, 0, 0, 34, 58, 0, 71, 0, 44, 23, 8, 3, 0, 64, 37, 0, 56
|0, 57, 0, 73, 48, 42, 17, 0, 47, 18, 0, 0, 0, 0, 30, 0, 0, 0, 0, 60, 0, 15, 0, 11, 0, 0, 0, 0, 0, 68, 0, 0, 0, 7, 0, 0, 0, 0, 0, 0, 44, 0, 0, 4, 53, 64, 41, 1, 0, 61, 55, 9, 40, 0, 0, 14, 66, 38, 0, 12, 24, 28, 0, 0, 0, 63, 0, 6, 81, 0, 56, 0, 54, 0, 0, 62, 27, 36, 77, 0, 51
|0, 37, 0, 31, 40, 80, 0, 35, 0, 0, 0, 69, 59, 65, 27, 5, 41, 13, 72, 0, 36, 10, 0, 0, 0, 57, 0, 0, 33, 53, 0, 0, 34, 32, 63, 0, 0, 0, 0, 0, 0, 14, 0, 76, 0, 0, 0, 0, 0, 0, 0, 51, 0, 50, 52, 0, 0, 0, 0, 48, 23, 77, 0, 21, 0, 0, 0, 74, 68, 0, 19, 17, 29, 42, 6, 0, 0, 0, 45, 81, 0
|0, 0, 0, 0, 75, 66, 0, 30, 0, 0, 39, 0, 0, 0, 8, 63, 56, 0, 53, 0, 0, 0, 0, 0, 0, 16, 80, 0, 11, 0, 45, 65, 0, 0, 0, 12, 0, 40, 78, 0, 0, 0, 17, 19, 0, 0, 47, 71, 37, 0, 0, 0, 69, 15, 74, 0, 61, 1, 0, 0, 0, 0, 0, 0, 27, 0, 67, 51, 0, 62, 0, 0, 0, 0, 0, 0, 31, 0, 0, 46, 0
|63, 0, 0, 0, 20, 11, 0, 0, 0, 0, 79, 19, 52, 35, 0, 0, 0, 0, 0, 46, 0, 9, 5, 40, 0, 0, 0, 0, 13, 0, 18, 0, 0, 0, 21, 0, 0, 41, 2, 0, 0, 61, 0, 6, 72, 53, 0, 78, 57, 3, 31, 0, 58, 81, 8, 29, 27, 0, 0, 47, 70, 0, 32, 0, 33, 0, 76, 4, 0, 77, 0, 0, 17, 25, 0, 0, 0, 0, 0, 0, 15
|0, 0, 24, 81, 0, 53, 10, 0, 0, 0, 0, 0, 0, 0, 0, 31, 0, 0, 13, 33, 0, 0, 0, 77, 18, 0, 0, 0, 52, 79, 0, 14, 62, 0, 78, 0, 22, 28, 16, 0, 0, 51, 25, 0, 0, 49, 0, 0, 0, 66, 20, 75, 0, 0, 0, 6, 80, 3, 0, 17, 36, 0, 54, 61, 0, 30, 11, 0, 0, 0, 15, 0, 0, 68, 71, 0, 0, 9, 58, 57, 0
|51, 0, 0, 49, 34, 77, 0, 0, 45, 0, 65, 0, 0, 0, 32, 59, 0, 0, 1, 0, 10, 0, 48, 0, 0, 0, 50, 0, 73, 2, 0, 0, 0, 0, 0, 0, 11, 8, 0, 79, 0, 4, 3, 61, 0, 41, 0, 0, 12, 0, 0, 43, 39, 21, 0, 0, 0, 75, 72, 5, 0, 53, 0, 19, 9, 33, 31, 18, 38, 56, 0, 0, 20, 0, 30, 0, 0, 0, 78, 0, 29
|3, 0, 50, 57, 6, 0, 68, 74, 0, 29, 0, 48, 0, 22, 0, 0, 10, 17, 0, 20, 0, 13, 4, 7, 73, 0, 79, 0, 0, 66, 60, 0, 0, 9, 0, 0, 41, 16, 34, 81, 38, 0, 0, 0, 0, 8, 64, 49, 63, 0, 70, 53, 0, 45, 51, 0, 0, 0, 0, 0, 0, 0, 0, 58, 0, 72, 0, 32, 0, 0, 47, 0, 59, 0, 43, 12, 0, 61, 21, 5, 0
|9, 8, 0, 17, 72, 32, 22, 19, 0, 68, 0, 0, 0, 0, 0, 24, 23, 0, 14, 0, 0, 37, 58, 29, 57, 74, 44, 18, 20, 7, 0, 34, 13, 15, 0, 30, 0, 0, 47, 73, 0, 0, 0, 39, 46, 52, 0, 0, 0, 5, 81, 78, 16, 25, 0, 38, 0, 0, 49, 0, 0, 0, 0, 0, 71, 42, 70, 62, 66, 21, 0, 0, 55, 45, 0, 76, 64, 0, 11, 63, 0
|58, 0, 36, 0, 61, 54, 37, 11, 66, 0, 0, 0, 0, 0, 1, 0, 0, 46, 0, 38, 0, 0, 53, 33, 76, 0, 0, 0, 0, 0, 48, 42, 45, 31, 0, 0, 17, 0, 0, 62, 0, 0, 20, 7, 27, 56, 35, 18, 30, 68, 23, 47, 29, 0, 0, 10, 8, 25, 0, 0, 55, 0, 0, 0, 74, 13, 51, 75, 0, 26, 14, 57, 0, 0, 0, 0, 0, 67, 0, 44, 0
|24, 0, 0, 27, 62, 43, 0, 25, 0, 76, 0, 0, 0, 38, 0, 0, 0, 0, 66, 0, 22, 0, 3, 0, 32, 0, 67, 0, 0, 75, 37, 0, 0, 0, 39, 0, 9, 55, 5, 0, 29, 0, 74, 50, 58, 48, 0, 0, 13, 7, 0, 40, 31, 73, 0, 77, 64, 69, 0, 0, 0, 52, 45, 6, 17, 68, 79, 35, 0, 54, 0, 59, 57, 81, 26, 0, 33, 0, 0, 0, 0
|0, 0, 0, 40, 13, 0, 0, 0, 0, 0, 73, 0, 0, 52, 0, 34, 8, 0, 41, 0, 12, 31, 24, 0, 26, 0, 60, 59, 71, 0, 11, 58, 25, 0, 36, 0, 0, 0, 33, 65, 18, 78, 54, 49, 44, 9, 20, 0, 0, 51, 0, 10, 3, 0, 0, 0, 0, 46, 0, 0, 0, 14, 0, 0, 0, 16, 64, 29, 50, 22, 0, 0, 0, 66, 0, 23, 69, 0, 0, 0, 0
|0, 0, 75, 65, 0, 0, 0, 0, 0, 0, 63, 31, 36, 20, 69, 0, 0, 0, 0, 61, 0, 8, 0, 64, 0, 56, 78, 41, 46, 0, 43, 0, 0, 72, 0, 70, 42, 0, 0, 0, 26, 40, 35, 0, 68, 15, 59, 0, 0, 71, 0, 76, 6, 0, 0, 18, 13, 0, 0, 62, 0, 0, 44, 39, 55, 3, 0, 0, 0, 7, 52, 30, 74, 77, 0, 38, 17, 0, 22, 0, 0
|0, 0, 56, 0, 2, 0, 35, 48, 44, 0, 4, 14, 0, 33, 78, 0, 0, 0, 65, 54, 0, 25, 34, 0, 0, 0, 0, 0, 3, 0, 0, 0, 81, 0, 1, 0, 66, 59, 52, 19, 0, 64, 0, 80, 0, 74, 0, 0, 0, 0, 0, 67, 24, 61, 0, 0, 0, 43, 29, 0, 0, 0, 22, 27, 11, 0, 8, 5, 0, 23, 0, 0, 0, 0, 0, 72, 0, 49, 46, 39, 9
|0, 81, 1, 0, 47, 0, 0, 0, 0, 5, 45, 0, 75, 0, 0, 0, 0, 11, 0, 68, 0, 55, 0, 80, 0, 0, 0, 74, 0, 0, 49, 0, 79, 64, 33, 16, 0, 0, 0, 0, 0, 32, 30, 70, 0, 0, 62, 4, 72, 0, 22, 0, 0, 0, 0, 61, 78, 0, 65, 67, 56, 63, 0, 0, 77, 0, 0, 15, 0, 0, 0, 0, 0, 36, 0, 31, 0, 52, 6, 0, 0
|53, 0, 63, 0, 0, 30, 78, 9, 0, 0, 0, 0, 22, 74, 28, 0, 0, 55, 80, 36, 11, 0, 0, 0, 5, 0, 0, 70, 0, 8, 0, 43, 0, 25, 51, 40, 7, 60, 4, 0, 0, 0, 0, 0, 0, 59, 12, 0, 16, 0, 0, 65, 17, 0, 39, 79, 42, 56, 0, 29, 0, 0, 0, 71, 0, 0, 0, 0, 6, 76, 0, 0, 0, 67, 0, 0, 57, 13, 64, 0, 0
|54, 0, 0, 1, 0, 37, 0, 41, 0, 0, 0, 63, 51, 47, 0, 0, 0, 35, 0, 0, 0, 0, 0, 0, 53, 38, 8, 31, 0, 0, 3, 13, 0, 0, 0, 59, 77, 18, 44, 0, 0, 56, 81, 0, 74, 0, 0, 55, 0, 27, 48, 0, 0, 0, 0, 45, 26, 0, 0, 0, 0, 57, 0, 46, 10, 0, 0, 78, 0, 9, 28, 0, 49, 60, 29, 0, 0, 34, 50, 22, 0
|0, 68, 0, 0, 0, 0, 0, 70, 72, 41, 25, 64, 23, 13, 3, 0, 0, 0, 58, 56, 0, 0, 26, 59, 69, 31, 0, 0, 0, 27, 0, 0, 55, 46, 0, 79, 19, 0, 0, 40, 0, 0, 73, 10, 24, 0, 0, 0, 18, 6, 0, 0, 0, 43, 37, 7, 62, 0, 0, 0, 67, 0, 0, 52, 49, 53, 47, 2, 0, 0, 34, 0, 76, 35, 0, 0, 0, 75, 66, 77, 17
|0, 0, 62, 0, 0, 14, 47, 0, 27, 0, 0, 0, 81, 0, 0, 0, 76, 0, 33, 0, 18, 57, 20, 0, 0, 0, 0, 0, 0, 0, 72, 0, 41, 2, 0, 0, 0, 0, 26, 0, 46, 0, 48, 0, 21, 0, 0, 0, 31, 0, 19, 37, 0, 0, 16, 71, 0, 0, 12, 0, 10, 58, 0, 30, 0, 70, 63, 25, 60, 45, 0, 75, 52, 0, 55, 9, 38, 0, 0, 78, 0
|25, 0, 55, 0, 0, 0, 0, 61, 0, 52, 48, 1, 0, 40, 0, 0, 0, 0, 0, 0, 27, 46, 0, 51, 64, 0, 10, 53, 0, 0, 0, 0, 73, 0, 0, 0, 0, 31, 0, 42, 15, 0, 80, 0, 47, 4, 8, 0, 0, 74, 76, 0, 28, 57, 0, 0, 0, 20, 0, 35, 0, 0, 13, 22, 3, 18, 0, 0, 21, 0, 67, 72, 81, 0, 0, 0, 0, 33, 0, 2, 14
|0, 51, 0, 3, 19, 2, 0, 60, 69, 77, 12, 0, 24, 34, 37, 0, 29, 38, 43, 0, 17, 32, 0, 0, 25, 0, 6, 21, 63, 0, 16, 18, 0, 0, 28, 0, 67, 0, 23, 72, 45, 62, 55, 5, 0, 47, 0, 41, 10, 0, 0, 33, 80, 0, 50, 40, 74, 36, 30, 59, 76, 44, 31, 0, 4, 7, 0, 64, 56, 0, 54, 8, 0, 39, 0, 15, 70, 0, 0, 79, 0
|39, 65, 0, 0, 0, 0, 28, 76, 0, 0, 5, 71, 4, 72, 18, 7, 0, 2, 0, 0, 81, 0, 66, 0, 0, 0, 0, 45, 6, 0, 80, 0, 11, 12, 0, 62, 14, 0, 68, 0, 49, 57, 0, 20, 30, 0, 0, 0, 53, 0, 25, 54, 0, 0, 27, 48, 47, 0, 0, 0, 0, 0, 64, 74, 19, 0, 61, 31, 0, 17, 59, 0, 8, 0, 63, 0, 0, 69, 0, 0, 36
|0, 26, 57, 29, 45, 0, 0, 0, 21, 14, 67, 0, 17, 56, 33, 10, 66, 31, 0, 0, 3, 49, 41, 0, 19, 0, 0, 36, 24, 30, 0, 32, 77, 0, 0, 47, 38, 53, 51, 22, 0, 70, 75, 0, 0, 60, 0, 5, 44, 40, 0, 62, 0, 0, 2, 0, 6, 0, 8, 0, 0, 0, 46, 16, 79, 65, 0, 27, 37, 39, 0, 0, 58, 0, 0, 25, 0, 0, 0, 0, 0
|0, 73, 0, 22, 0, 10, 77, 58, 0, 0, 57, 59, 60, 0, 70, 16, 0, 68, 44, 40, 0, 0, 0, 24, 0, 0, 65, 9, 0, 50, 7, 5, 56, 0, 69, 0, 0, 0, 8, 0, 0, 41, 0, 0, 43, 39, 0, 81, 0, 38, 1, 66, 79, 0, 0, 0, 0, 0, 0, 21, 0, 0, 0, 29, 0, 0, 33, 20, 23, 36, 0, 13, 0, 0, 0, 0, 0, 6, 0, 74, 0|];