order = 9;
grid = [|0, 57, 0, 6, 25, 0, 35, 0, 0, 33, 0, 0, 0, 0, 13, 38, 17, 0, 0, 0, 0, 47, 0, 53, 24, 58, 54, 68, 0, 0, 78, 0, 28, 43, 0, 0, 0, 0, 0, 0, 10, 5, 26, 0, 0, 41, 49, 0, 52, 0, 44, 0, 0, 0, 0, 4, 20, 0, 0, 0, 0, 0, 0, 0, 0, 45, 0, 0, 40, 0, 16, 23, 0, 73, 42, 15, 0, 3, 0, 0, 30
|0, 0, 0, 0, 0, 48, 0, 0, 0, 0, 55, 0, 40, 75, 34, 28, 14, 0, 13, 76, 0, 0, 0, 0, 0, 45, 0, 0, 0, 15, 0, 12, 63, 0, 52, 0, 0, 0, 80, 0, 23, 0, 1, 24, 0, 0, 0, 0, 25, 19, 9, 69, 0, 0, 33, 0, 0, 0, 0, 78, 0, 71, 0, 0, 22, 0, 0, 0, 0, 58, 0, 0, 0, 0, 60, 0, 64, 37, 29, 70, 50
|58, 71, 0, 54, 76, 0, 0, 80, 0, 60, 73, 42, 3, 0, 6, 0, 0, 0, 41, 0, 0, 25, 32, 35, 0, 63, 29, 0, 5, 70, 0, 0, 0, 0, 0, 34, 40, 0, 74, 0, 53, 21, 0, 43, 0, 0, 0, 0, 0, 13, 79, 39, 0, 0, 11, 75, 17, 24, 0, 0, 0, 0, 0, 69, 31, 0, 0, 8, 51, 0, 14, 78, 0, 0, 0, 0, 26, 0, 10, 61, 0
|26, 38, 24, 13, 65, 41, 27, 14, 68, 32, 29, 0, 0, 0, 22, 25, 8, 46, 30, 0, 0, 0, 57, 55, 52, 21, 0, 0, 17, 16, 18, 0, 58, 53, 0, 45, 0, 39, 0, 0, 67, 0, 0, 56, 48, 0, 40, 59, 62, 0, 0, 0, 4, 1, 0, 43, 0, 64, 0, 72, 0, 34, 0, 15, 0, 0, 0, 42, 61, 12, 50, 0, 23, 69, 0, 0, 0, 0, 0, 0, 0
|0, 0, 0, 63, 5, 42, 37, 0, 78, 65, 0, 67, 74, 0, 0, 0, 0, 0, 0, 6, 10, 81, 3, 20, 0, 16, 0, 0, 0, 0, 0, 0, 79, 0, 0, 0, 0, 0, 62, 0, 0, 0, 0, 38, 0, 0, 0, 0, 72, 0, 8, 0, 0, 0, 0, 0, 0, 0, 0, 59, 0, 36, 0, 0, 0, 0, 17, 0, 7, 44, 4, 46, 0, 53, 21, 0, 0, 0, 0, 14, 43
|0, 0, 55, 52, 0, 11, 0, 0, 0, 21, 37, 0, 0, 5, 0, 69, 58, 45, 0, 0, 0, 0, 70, 0, 0, 71, 0, 0, 0, 30, 4, 0, 0, 60, 0, 0, 79, 0, 78, 0, 0, 77, 42, 0, 14, 0, 0, 16, 0, 27, 0, 64, 61, 3, 18, 0, 0, 0, 0, 29, 0, 0, 0, 0, 0, 0, 0, 0, 73, 1, 54, 49, 36, 0, 81, 66, 65, 39, 0, 67, 9
|0, 0, 0, 60, 0, 67, 0, 73, 0, 0, 43, 63, 0, 0, 62, 0, 0, 0, 0, 0, 0, 0, 0, 9, 0, 0, 0, 0, 72, 0, 10, 11, 0, 0, 0, 0, 0, 0, 0, 0, 61, 0, 0, 51, 0, 0, 47, 42, 46, 12, 0, 75, 0, 77, 66, 16, 0, 27, 13, 57, 0, 53, 58, 0, 0, 55, 68, 26, 29, 0, 0, 0, 0, 33, 0, 76, 56, 7, 41, 34, 5
|0, 0, 0, 0, 53, 0, 0, 3, 0, 78, 0, 0, 16, 0, 64, 51, 0, 18, 0, 0, 34, 0, 73, 11, 72, 0, 67, 24, 0, 0, 0, 32, 0, 0, 61, 0, 0, 58, 0, 27, 47, 31, 0, 66, 0, 57, 0, 74, 63, 17, 20, 56, 0, 26, 79, 28, 0, 0, 0, 15, 0, 35, 0, 65, 75, 0, 0, 0, 0, 19, 0, 0, 0, 0, 0, 0, 0, 4, 13, 80, 0
|0, 32, 0, 0, 0, 0, 0, 0, 8, 0, 56, 57, 71, 79, 19, 0, 7, 0, 66, 68, 0, 65, 0, 0, 0, 44, 42, 0, 81, 0, 0, 47, 0, 48, 20, 25, 0, 50, 0, 0, 9, 0, 0, 37, 11, 0, 34, 0, 0, 38, 78, 0, 76, 0, 62, 0, 46, 0, 0, 0, 0, 0, 0, 6, 74, 0, 0, 0, 36, 13, 0, 28, 0, 16, 58, 0, 52, 17, 0, 0, 0
|0, 75, 58, 0, 62, 29, 0, 0, 0, 12, 23, 5, 0, 0, 0, 63, 80, 28, 36, 3, 0, 68, 71, 0, 33, 0, 0, 0, 32, 0, 46, 1, 0, 0, 27, 72, 0, 31, 0, 79, 18, 0, 0, 0, 0, 30, 0, 0, 4, 61, 0, 43, 74, 17, 16, 0, 0, 0, 0, 60, 6, 77, 57, 0, 0, 0, 0, 81, 0, 0, 0, 0, 2, 55, 0, 0, 19, 0, 0, 64, 0
|0, 12, 72, 0, 44, 0, 0, 79, 80, 0, 2, 32, 0, 13, 0, 65, 61, 0, 0, 0, 6, 0, 0, 81, 28, 0, 0, 0, 0, 53, 58, 64, 0, 56, 62, 0, 9, 73, 0, 33, 0, 0, 0, 0, 37, 0, 0, 18, 49, 0, 0, 0, 0, 23, 0, 0, 36, 0, 0, 0, 1, 0, 0, 0, 63, 0, 59, 76, 60, 0, 0, 0, 0, 0, 0, 0, 38, 0, 0, 0, 0
|0, 21, 70, 0, 34, 0, 52, 0, 48, 0, 0, 8, 0, 0, 4, 49, 0, 0, 18, 0, 19, 7, 30, 0, 0, 0, 61, 25, 0, 47, 0, 26, 0, 0, 0, 0, 0, 0, 0, 0, 0, 0, 75, 14, 10, 27, 0, 0, 69, 0, 81, 0, 0, 31, 0, 0, 51, 32, 0, 0, 0, 0, 0, 43, 13, 0, 0, 0, 71, 36, 0, 16, 79, 0, 54, 62, 5, 24, 0, 77, 46
|78, 0, 0, 73, 56, 54, 0, 0, 51, 55, 68, 0, 39, 0, 16, 0, 0, 0, 75, 9, 48, 0, 0, 45, 0, 0, 76, 63, 0, 4, 34, 0, 6, 81, 0, 57, 38, 21, 0, 0, 0, 13, 2, 0, 0, 62, 0, 53, 32, 26, 52, 0, 25, 79, 0, 18, 0, 47, 33, 61, 0, 0, 0, 0, 0, 0, 0, 0, 28, 0, 0, 65, 0, 0, 0, 0, 20, 50, 0, 44, 0
|76, 0, 0, 45, 42, 2, 0, 0, 32, 43, 79, 0, 48, 0, 7, 0, 20, 24, 40, 0, 0, 12, 72, 0, 51, 0, 0, 0, 0, 0, 80, 0, 73, 71, 0, 30, 36, 0, 0, 0, 0, 0, 81, 0, 56, 66, 0, 54, 59, 33, 0, 0, 34, 55, 41, 35, 0, 0, 0, 0, 68, 50, 46, 0, 6, 53, 0, 0, 0, 0, 0, 62, 67, 0, 28, 29, 1, 61, 75, 0, 23
|35, 17, 63, 20, 0, 0, 60, 31, 0, 0, 0, 0, 0, 34, 0, 0, 0, 3, 14, 57, 21, 0, 52, 62, 0, 37, 8, 0, 0, 0, 0, 0, 7, 55, 28, 0, 0, 76, 72, 0, 0, 0, 54, 71, 0, 78, 36, 0, 65, 68, 0, 73, 0, 40, 58, 42, 0, 12, 0, 43, 2, 0, 53, 75, 0, 32, 0, 47, 80, 0, 0, 5, 49, 10, 0, 0, 6, 59, 0, 18, 0
|0, 0, 18, 0, 0, 71, 26, 0, 40, 0, 0, 0, 0, 0, 0, 0, 74, 0, 56, 0, 49, 0, 41, 0, 0, 0, 0, 36, 54, 51, 68, 0, 0, 45, 0, 0, 50, 0, 0, 0, 1, 28, 0, 0, 0, 22, 0, 0, 0, 0, 0, 0, 0, 0, 0, 65, 0, 29, 0, 62, 39, 0, 0, 0, 61, 31, 0, 25, 24, 66, 9, 55, 0, 81, 43, 34, 42, 0, 48, 0, 0
|0, 0, 0, 4, 68, 19, 0, 0, 41, 0, 14, 46, 0, 0, 21, 0, 6, 9, 0, 0, 80, 34, 0, 0, 0, 66, 0, 0, 49, 0, 0, 0, 0, 0, 15, 0, 69, 0, 67, 17, 62, 59, 77, 0, 43, 28, 0, 51, 0, 0, 0, 0, 0, 0, 5, 0, 0, 79, 0, 70, 0, 0, 0, 39, 0, 0, 23, 0, 54, 57, 0, 74, 0, 0, 35, 0, 33, 32, 0, 0, 0
|0, 74, 10, 30, 0, 0, 43, 0, 0, 26, 0, 66, 0, 0, 0, 71, 0, 0, 38, 50, 65, 0, 0, 31, 15, 32, 53, 12, 13, 0, 0, 0, 18, 44, 19, 0, 0, 7, 0, 29, 70, 45, 0, 25, 0, 0, 0, 0, 80, 0, 0, 16, 0, 0, 54, 0, 0, 0, 0, 0, 0, 0, 0, 0, 68, 0, 0, 0, 69, 79, 0, 0, 0, 0, 0, 0, 0, 73, 4, 0, 0
|0, 0, 0, 38, 16, 35, 67, 55, 73, 11, 0, 31, 0, 0, 0, 0, 0, 0, 0, 22, 7, 49, 0, 0, 19, 0, 0, 20, 0, 77, 76, 0, 66, 0, 14, 80, 0, 57, 17, 23, 81, 0, 0, 3, 45, 13, 0, 0, 0, 47, 0, 60, 0, 0, 0, 39, 78, 0, 30, 75, 0, 4, 0, 26, 0, 0, 0, 1, 0, 0, 0, 10, 42, 0, 25, 63, 0, 0, 46, 0, 18
|80, 0, 0, 0, 0, 0, 9, 36, 5, 0, 0, 0, 0, 65, 77, 22, 0, 0, 0, 0, 0, 69, 0, 57, 6, 35, 33, 37, 42, 2, 81, 51, 52, 0, 17, 0, 27, 0, 11, 59, 0, 0, 0, 79, 21, 24, 71, 0, 0, 49, 28, 55, 16, 39, 0, 0, 58, 0, 0, 0, 0, 0, 0, 0, 8, 0, 0, 0, 0, 0, 32, 12, 0, 0, 0, 31, 75, 0, 74, 0, 0
|0, 10, 23, 0, 0, 0, 53, 61, 0, 0, 0, 64, 14, 0, 0, 34, 37, 56, 0, 0, 60, 30, 0, 71, 0, 25, 65, 47, 0, 0, 7, 0, 0, 70, 32, 1, 0, 51, 29, 0, 77, 36, 73, 41, 24, 0, 58, 20, 74, 45, 0, 40, 69, 15, 8, 0, 0, 0, 2, 13, 55, 27, 0, 0, 0, 6, 0, 59, 31, 72, 0, 42, 0, 0, 0, 16, 0, 33, 52, 0, 78
|0, 0, 6, 41, 74, 56, 34, 0, 3, 0, 21, 0, 0, 0, 67, 0, 0, 0, 0, 0, 13, 43, 24, 51, 0, 0, 0, 0, 0, 29, 0, 0, 45, 12, 0, 0, 31, 44, 0, 0, 0, 80, 68, 0, 76, 59, 19, 0, 0, 0, 54, 0, 0, 0, 26, 0, 0, 1, 36, 0, 49, 0, 0, 0, 37, 65, 75, 2, 66, 0, 0, 0, 0, 0, 0, 0, 14, 0, 38, 0, 0
|0, 46, 0, 81, 0, 50, 59, 0, 15, 0, 0, 3, 55, 20, 0, 0, 0, 43, 72, 8, 47, 0, 21, 0, 42, 0, 0, 0, 62, 22, 0, 0, 0, 78, 74, 54, 58, 0, 0, 28, 69, 1, 13, 30, 0, 79, 2, 63, 34, 0, 64, 66, 0, 36, 67, 0, 0, 0, 0, 0, 0, 0, 71, 0, 0, 0, 0, 52, 23, 0, 11, 18, 10, 0, 0, 0, 0, 57, 45, 5, 0
|29, 0, 0, 0, 0, 69, 0, 12, 0, 46, 17, 0, 0, 0, 44, 42, 49, 16, 0, 0, 0, 9, 0, 15, 0, 56, 78, 0, 60, 26, 0, 0, 0, 35, 57, 28, 18, 0, 0, 0, 0, 0, 0, 4, 0, 0, 0, 0, 70, 50, 0, 0, 77, 62, 23, 0, 0, 65, 37, 5, 11, 52, 19, 55, 58, 0, 0, 0, 38, 3, 0, 20, 59, 61, 0, 0, 0, 36, 0, 39, 40
|52, 0, 66, 0, 0, 0, 0, 0, 65, 24, 0, 0, 68, 0, 0, 0, 0, 0, 0, 0, 44, 28, 0, 32, 26, 20, 23, 0, 36, 0, 0, 0, 0, 0, 0, 58, 0, 5, 0, 9, 0, 0, 0, 0, 0, 0, 0, 81, 18, 0, 0, 0, 0, 46, 0, 0, 0, 0, 31, 0, 0, 0, 21, 22, 0, 41, 0, 73, 74, 67, 0, 0, 7, 6, 0, 0, 0, 76, 0, 12, 0
|32, 0, 42, 0, 64, 76, 57, 26, 33, 52, 0, 59, 0, 29, 0, 0, 0, 60, 79, 0, 0, 0, 0, 0, 53, 61, 0, 0, 0, 13, 40, 69, 65, 50, 0, 8, 0, 48, 35, 0, 0, 39, 71, 78, 46, 0, 3, 0, 0, 6, 0, 31, 0, 22, 43, 81, 0, 0, 0, 0, 0, 0, 34, 0, 27, 16, 56, 0, 62, 47, 0, 0, 0, 0, 66, 0, 0, 49, 77, 0, 15
|25, 60, 4, 28, 78, 27, 0, 0, 0, 45, 0, 0, 0, 0, 75, 62, 51, 7, 16, 66, 0, 0, 0, 0, 0, 0, 0, 0, 10, 63, 31, 33, 0, 5, 73, 0, 0, 52, 0, 50, 0, 2, 34, 0, 65, 32, 23, 37, 0, 11, 42, 0, 30, 38, 0, 0, 0, 44, 0, 0, 0, 22, 0, 13, 9, 81, 0, 0, 14, 0, 19, 0, 29, 43, 8, 67, 80, 72, 47, 0, 0
|0, 0, 50, 24, 19, 0, 0, 63, 0, 58, 0, 0, 52, 0, 0, 67, 0, 0, 74, 28, 0, 31, 37, 0, 36, 0, 0, 0, 65, 0, 0, 0, 68, 0, 0, 0, 64, 47, 0, 0, 0, 0, 0, 0, 70, 11, 0, 0, 0, 10, 25, 4, 43, 60, 0, 0, 0, 21, 0, 0, 12, 51, 79, 41, 0, 0, 0, 7, 39, 0, 0, 0, 0, 62, 16, 18, 0, 77, 27, 48, 0
|65, 0, 26, 0, 0, 0, 28, 0, 57, 9, 32, 51, 27, 53, 76, 68, 0, 0, 33, 62, 0, 0, 44, 1, 50, 0, 0, 48, 55, 80, 0, 0, 16, 0, 72, 66, 37, 78, 56, 0, 0, 71, 29, 39, 63, 0, 31, 77, 0, 15, 47, 0, 70, 21, 4, 11, 0, 0, 0, 24, 36, 0, 0, 0, 64, 0, 19, 0, 49, 0, 2, 0, 0, 54, 0, 0, 0, 0, 42, 0, 81
|36, 0, 60, 0, 0, 0, 23, 0, 0, 0, 0, 0, 0, 0, 11, 24, 0, 0, 0, 49, 0, 6, 68, 0, 0, 0, 0, 0, 0, 14, 0, 7, 0, 17, 0, 0, 0, 81, 1, 25, 0, 0, 45, 42, 41, 0, 0, 0, 53, 16, 51, 0, 18, 71, 48, 52, 0, 67, 58, 0, 8, 0, 0, 74, 0, 0, 0, 0, 0, 0, 13, 69, 22, 0, 0, 70, 29, 78, 37, 72, 4
|14, 31, 0, 0, 0, 0, 0, 0, 70, 49, 0, 0, 37, 21, 0, 0, 0, 13, 5, 0, 0, 73, 0, 61, 0, 9, 55, 0, 71, 0, 53, 0, 59, 0, 0, 0, 0, 15, 60, 0, 19, 74, 28, 0, 0, 2, 0, 0, 0, 0, 39, 0, 6, 54, 0, 0, 22, 77, 0, 0, 0, 0, 0, 0, 16, 52, 0, 0, 76, 0, 79, 11, 0, 40, 0, 0, 0, 0, 33, 0, 51
|0, 22, 59, 0, 0, 46, 0, 0, 0, 0, 0, 54, 42, 70, 0, 0, 0, 0, 0, 0, 0, 29, 12, 72, 78, 0, 0, 0, 50, 43, 0, 24, 51, 41, 0, 0, 0, 0, 21, 40, 76, 0, 0, 0, 77, 44, 5, 64, 48, 0, 0, 68, 0, 49, 27, 0, 28, 0, 53, 81, 0, 75, 33, 73, 0, 0, 35, 65, 37, 71, 20, 0, 25, 0, 31, 19, 0, 67, 0, 0, 8
|43, 39, 0, 79, 0, 0, 0, 49, 0, 0, 33, 25, 60, 44, 0, 4, 26, 0, 53, 0, 0, 54, 0, 2, 21, 64, 0, 0, 0, 0, 32, 58, 0, 28, 75, 5, 0, 0, 0, 0, 0, 18, 0, 0, 72, 65, 76, 0, 0, 0, 36, 3, 27, 59, 0, 0, 19, 7, 46, 0, 0, 0, 0, 0, 55, 51, 1, 0, 77, 0, 0, 0, 0, 13, 0, 61, 71, 0, 0, 10, 74
|7, 78, 0, 40, 0, 4, 0, 66, 38, 79, 22, 20, 10, 0, 0, 35, 43, 0, 58, 42, 52, 0, 0, 19, 76, 0, 0, 0, 8, 0, 30, 0, 0, 0, 0, 0, 0, 59, 0, 49, 0, 0, 3, 0, 26, 69, 14, 0, 0, 57, 0, 0, 81, 41, 80, 6, 0, 0, 70, 18, 0, 72, 0, 63, 0, 0, 28, 31, 0, 0, 23, 21, 75, 0, 56, 0, 39, 53, 5, 0, 2
|0, 0, 53, 16, 0, 0, 1, 0, 0, 0, 0, 77, 12, 55, 36, 0, 38, 75, 0, 0, 0, 60, 0, 10, 8, 70, 0, 42, 0, 73, 25, 39, 3, 0, 0, 19, 34, 0, 65, 24, 30, 0, 6, 0, 0, 26, 62, 0, 61, 0, 40, 74, 0, 0, 29, 0, 49, 0, 0, 0, 31, 44, 50, 0, 0, 0, 0, 0, 0, 0, 0, 0, 0, 0, 11, 52, 0, 0, 0, 15, 59
|0, 27, 0, 0, 0, 80, 0, 0, 0, 18, 0, 0, 0, 41, 81, 3, 71, 61, 0, 0, 0, 0, 34, 0, 30, 39, 0, 0, 0, 0, 0, 0, 0, 21, 0, 0, 53, 0, 12, 0, 0, 0, 31, 16, 36, 0, 29, 0, 28, 20, 0, 0, 7, 0, 0, 23, 45, 5, 0, 0, 0, 57, 60, 0, 47, 46, 8, 72, 9, 24, 0, 0, 0, 0, 44, 0, 0, 55, 68, 0, 0
|55, 0, 0, 0, 2, 0, 0, 40, 23, 0, 0, 37, 0, 42, 65, 0, 64, 0, 8, 16, 61, 11, 27, 22, 0, 0, 0, 44, 0, 31, 20, 74, 53, 0, 0, 7, 77, 0, 0, 0, 17, 47, 0, 0, 0, 45, 12, 68, 0, 0, 73, 18, 0, 63, 0, 0, 70, 72, 0, 4, 62, 0, 0, 33, 41, 76, 0, 0, 35, 6, 71, 54, 26, 0, 0, 0, 81, 25, 0, 0, 0
|60, 0, 35, 0, 39, 0, 16, 64, 72, 25, 0, 71, 66, 57, 49, 0, 0, 0, 0, 0, 0, 0, 50, 0, 10, 0, 0, 11, 0, 0, 12, 0, 29, 58, 70, 0, 0, 0, 30, 5, 54, 0, 36, 52, 0, 19, 0, 0, 15, 0, 13, 47, 0, 34, 0, 1, 55, 73, 0, 0, 0, 0, 0, 61, 0, 26, 0, 0, 0, 0, 0, 0, 63, 0, 76, 40, 18, 56, 7, 17, 0
|0, 73, 14, 29, 38, 0, 70, 78, 58, 30, 28, 0, 0, 76, 0, 81, 0, 32, 0, 0, 68, 0, 0, 0, 0, 0, 0, 0, 41, 50, 67, 0, 0, 0, 0, 0, 74, 56, 0, 57, 72, 11, 40, 0, 55, 0, 0, 26, 43, 0, 0, 10, 65, 0, 60, 77, 5, 75, 0, 8, 64, 18, 12, 0, 0, 9, 0, 0, 42, 17, 15, 53, 47, 46, 2, 0, 0, 20, 0, 1, 0
|79, 28, 25, 74, 75, 61, 47, 1, 50, 72, 0, 0, 0, 68, 0, 0, 0, 73, 0, 45, 43, 2, 17, 60, 20, 23, 46, 8, 15, 0, 0, 10, 26, 0, 76, 51, 0, 80, 13, 0, 0, 0, 0, 7, 0, 55, 70, 0, 36, 0, 0, 0, 0, 24, 0, 31, 42, 0, 67, 40, 0, 0, 0, 14, 0, 0, 57, 78, 65, 0, 0, 0, 64, 0, 33, 30, 0, 5, 0, 0, 34
|0, 19, 52, 0, 18, 0, 0, 11, 0, 74, 0, 0, 0, 16, 51, 13, 0, 0, 55, 14, 29, 32, 0, 0, 0, 0, 34, 0, 0, 75, 3, 43, 0, 0, 0, 0, 0, 0, 0, 0, 0, 62, 58, 0, 49, 0, 57, 1, 0, 0, 0, 81, 0, 61, 0, 47, 0, 25, 6, 17, 0, 54, 36, 72, 0, 68, 46, 0, 0, 0, 0, 30, 77, 0, 39, 0, 15, 23, 70, 78, 0
|53, 24, 43, 0, 0, 0, 0, 0, 0, 0, 0, 0, 5, 3, 0, 75, 60, 0, 64, 0, 15, 66, 0, 0, 0, 0, 44, 0, 16, 68, 0, 77, 61, 33, 55, 47, 0, 0, 0, 0, 0, 0, 0, 0, 0, 6, 46, 0, 0, 54, 17, 0, 8, 35, 45, 0, 0, 20, 0, 0, 58, 38, 0, 23, 19, 0, 29, 62, 0, 25, 0, 1, 0, 67, 0, 73, 11, 0, 0, 0, 0
|15, 0, 45, 8, 0, 0, 0, 48, 44, 0, 70, 0, 24, 39, 38, 78, 0, 77, 0, 0, 0, 0, 75, 58, 5, 0, 71, 0, 25, 6, 0, 52, 0, 0, 81, 32, 20, 69, 61, 0, 0, 26, 64, 46, 0, 53, 33, 56, 66, 0, 31, 23, 59, 0, 34, 0, 27, 11, 0, 10, 43, 21, 0, 18, 36, 47, 0, 16, 3, 0, 40, 13, 0, 65, 19, 55, 0, 0, 0, 0, 0
|0, 36, 68, 17, 0, 0, 6, 67, 0, 15, 0, 55, 0, 31, 0, 54, 0, 48, 0, 0, 72, 0, 40, 0, 35, 0, 47, 78, 57, 5, 0, 0, 60, 0, 0, 23, 0, 0, 0, 71, 25, 0, 65, 50, 0, 49, 64, 0, 0, 0, 74, 0, 0, 0, 0, 0, 2, 46, 0, 0, 41, 0, 0, 0, 11, 12, 52, 44, 0, 0, 34, 0, 0, 0, 0, 0, 0, 0, 24, 27, 0
|33, 76, 65, 0, 0, 0, 0, 0, 0, 0, 20, 0, 29, 0, 0, 6, 56, 0, 48, 0, 9, 0, 0, 0, 0, 57, 0, 73, 45, 0, 0, 0, 13, 0, 40, 64, 21, 34, 0, 8, 0, 51, 0, 23, 78, 25, 69, 50, 44, 0, 0, 0, 2, 11, 61, 0, 15, 0, 0, 35, 0, 0, 0, 0, 4, 75, 0, 0, 5, 0, 0, 0, 0, 32, 0, 0, 0, 58, 0, 0, 0
|0, 0, 41, 22, 0, 0, 0, 6, 0, 0, 46, 70, 4, 0, 3, 0, 44, 0, 81, 0, 0, 0, 59, 0, 0, 0, 0, 0, 0, 24, 0, 36, 0, 0, 0, 0, 35, 0, 68, 0, 43, 57, 38, 73, 0, 7, 16, 28, 0, 18, 0, 54, 0, 53, 20, 62, 0, 0, 42, 0, 0, 0, 0, 0, 23, 56, 14, 12, 0, 76, 65, 39, 51, 72, 0, 45, 10, 0, 15, 58, 0
|0, 0, 0, 59, 0, 53, 0, 72, 0, 48, 0, 0, 0, 0, 0, 0, 0, 76, 0, 0, 0, 0, 0, 0, 49, 0, 0, 0, 0, 27, 0, 0, 0, 79, 0, 22, 47, 0, 71, 74, 65, 56, 0, 0, 0, 34, 0, 78, 0, 3, 1, 58, 0, 30, 0, 0, 0, 0, 0, 0, 0, 33, 55, 4, 0, 80, 42, 0, 0, 0, 0, 0, 0, 44, 14, 57, 0, 38, 0, 81, 24
|0, 42, 0, 0, 0, 0, 19, 76, 1, 0, 74, 0, 35, 67, 79, 9, 78, 0, 0, 2, 39, 71, 0, 0, 0, 0, 50, 0, 66, 49, 0, 0, 70, 0, 11, 0, 46, 0, 51, 0, 44, 34, 0, 0, 17, 0, 6, 45, 14, 25, 0, 0, 31, 10, 15, 48, 0, 22, 0, 16, 4, 81, 0, 0, 0, 61, 54, 68, 0, 0, 0, 0, 0, 56, 5, 0, 55, 0, 73, 23, 0
|0, 0, 75, 9, 60, 44, 81, 2, 0, 37, 0, 0, 34, 17, 0, 14, 0, 0, 0, 73, 0, 20, 0, 0, 0, 19, 0, 10, 0, 74, 0, 80, 47, 0, 0, 76, 0, 0, 0, 58, 0, 22, 66, 0, 50, 0, 0, 0, 64, 36, 4, 0, 68, 32, 38, 78, 0, 41, 0, 56, 67, 0, 72, 62, 0, 0, 16, 71, 57, 53, 0, 59, 11, 0, 0, 0, 63, 0, 0, 0, 0
|0, 64, 17, 0, 0, 52, 0, 0, 49, 22, 54, 0, 30, 0, 26, 0, 0, 38, 65, 0, 3, 42, 46, 0, 0, 0, 58, 40, 0, 0, 0, 21, 44, 63, 68, 0, 60, 27, 0, 45, 0, 0, 37, 0, 0, 20, 0, 0, 77, 0, 0, 51, 0, 0, 59, 71, 11, 0, 0, 6, 18, 0, 0, 0, 0, 35, 25, 9, 1, 0, 0, 79, 31, 4, 32, 47, 0, 0, 12, 0, 69
|0, 54, 0, 32, 0, 0, 0, 8, 0, 0, 0, 61, 31, 0, 63, 10, 0, 58, 0, 0, 0, 80, 0, 30, 66, 0, 21, 0, 0, 28, 0, 0, 0, 64, 3, 0, 78, 0, 40, 0, 52, 79, 0, 53, 29, 70, 72, 71, 26, 73, 0, 0, 49, 27, 0, 0, 57, 13, 47, 34, 75, 24, 7, 0, 33, 22, 0, 36, 0, 0, 17, 0, 0, 0, 0, 74, 0, 1, 76, 0, 42
|0, 0, 33, 34, 55, 70, 0, 0, 0, 73, 0, 0, 43, 45, 0, 36, 0, 42, 62, 72, 11, 0, 78, 6, 41, 31, 0, 0, 61, 0, 51, 65, 0, 0, 0, 0, 0, 16, 81, 67, 0, 10, 0, 0, 54, 76, 21, 23, 0, 44, 29, 0, 0, 69, 0, 79, 68, 0, 26, 0, 80, 0, 1, 0, 0, 0, 0, 5, 0, 74, 77, 52, 0, 30, 50, 22, 0, 71, 60, 66, 37
|68, 0, 0, 0, 50, 0, 4, 62, 66, 0, 0, 24, 0, 0, 0, 21, 72, 0, 35, 61, 40, 0, 10, 76, 0, 55, 0, 0, 31, 0, 0, 0, 0, 0, 45, 13, 11, 8, 7, 0, 5, 0, 0, 0, 32, 0, 17, 22, 19, 2, 33, 0, 0, 0, 0, 54, 0, 51, 0, 0, 30, 64, 65, 0, 0, 0, 0, 49, 0, 0, 0, 0, 52, 25, 0, 48, 67, 0, 0, 3, 0
|18, 0, 0, 0, 0, 0, 77, 39, 0, 0, 15, 0, 11, 0, 0, 0, 66, 29, 22, 43, 0, 0, 0, 44, 0, 68, 0, 60, 0, 59, 0, 0, 0, 32, 5, 62, 0, 0, 76, 1, 49, 41, 55, 21, 80, 8, 0, 0, 0, 0, 0, 42, 0, 56, 35, 9, 69, 45, 14, 0, 28, 0, 0, 0, 0, 72, 51, 0, 0, 34, 47, 0, 40, 0, 70, 26, 0, 65, 0, 0, 0
|1, 0, 0, 0, 81, 0, 0, 43, 0, 14, 30, 0, 0, 62, 0, 18, 33, 0, 9, 40, 0, 21, 69, 70, 0, 78, 0, 0, 0, 45, 0, 15, 5, 65, 0, 0, 24, 23, 36, 0, 0, 44, 0, 0, 16, 58, 0, 4, 0, 53, 48, 0, 26, 0, 0, 0, 0, 0, 0, 0, 37, 0, 0, 71, 0, 0, 72, 0, 0, 0, 0, 22, 12, 35, 0, 0, 13, 31, 6, 74, 77
|23, 0, 0, 0, 0, 36, 0, 42, 0, 13, 1, 0, 25, 0, 37, 0, 0, 72, 28, 39, 0, 0, 0, 0, 64, 33, 0, 0, 0, 58, 0, 8, 0, 0, 30, 24, 0, 0, 0, 0, 0, 68, 79, 0, 0, 0, 45, 40, 0, 0, 75, 19, 14, 20, 0, 69, 0, 0, 0, 0, 0, 0, 0, 46, 2, 0, 0, 6, 47, 54, 0, 0, 15, 0, 0, 0, 0, 0, 0, 21, 0
|20, 59, 37, 27, 0, 0, 0, 0, 0, 0, 0, 0, 17, 0, 0, 0, 0, 0, 0, 0, 57, 0, 58, 56, 31, 0, 0, 29, 0, 38, 0, 0, 74, 39, 18, 55, 0, 0, 0, 0, 0, 0, 35, 0, 0, 0, 0, 0, 0, 0, 0, 8, 3, 0, 0, 0, 24, 0, 1, 0, 13, 0, 15, 0, 0, 78, 48, 0, 4, 0, 30, 0, 53, 0, 51, 0, 0, 0, 0, 0, 0
|73, 49, 0, 0, 0, 33, 0, 0, 34, 3, 66, 39, 0, 38, 0, 61, 0, 0, 0, 30, 27, 46, 0, 0, 0, 59, 0, 32, 12, 0, 0, 78, 0, 14, 80, 41, 0, 0, 4, 53, 28, 0, 25, 26, 5, 0, 18, 31, 42, 0, 0, 7, 0, 81, 0, 67, 0, 0, 0, 0, 71, 0, 56, 76, 0, 79, 0, 0, 0, 0, 0, 0, 0, 0, 0, 0, 70, 44, 0, 0, 0
|0, 0, 46, 0, 0, 0, 0, 69, 63, 47, 0, 0, 41, 0, 0, 2, 0, 67, 0, 44, 0, 0, 0, 49, 0, 50, 0, 21, 23, 34, 0, 0, 10, 16, 0, 0, 0, 1, 0, 0, 74, 0, 0, 0, 18, 64, 0, 0, 79, 0, 6, 0, 54, 0, 76, 0, 38, 0, 66, 22, 0, 45, 0, 0, 25, 13, 0, 0, 59, 7, 0, 0, 0, 68, 0, 11, 32, 42, 0, 40, 36
|0, 52, 7, 0, 24, 0, 58, 45, 0, 0, 10, 0, 44, 0, 23, 0, 15, 0, 0, 0, 4, 0, 66, 0, 54, 0, 0, 0, 20, 79, 2, 0, 72, 0, 1, 0, 0, 0, 0, 0, 50, 0, 67, 12, 73, 68, 0, 0, 39, 0, 56, 61, 38, 0, 0, 41, 9, 59, 0, 11, 53, 0, 0, 0, 0, 42, 33, 0, 0, 0, 0, 80, 37, 0, 0, 0, 0, 0, 25, 0, 63
|0, 0, 57, 77, 0, 62, 38, 16, 0, 5, 7, 0, 51, 0, 80, 26, 0, 31, 42, 0, 24, 35, 0, 25, 61, 0, 0, 0, 0, 0, 0, 73, 0, 0, 67, 37, 72, 14, 52, 0, 32, 0, 59, 0, 64, 74, 0, 69, 27, 0, 0, 0, 9, 0, 0, 3, 23, 0, 34, 0, 70, 0, 0, 0, 0, 0, 36, 0, 68, 11, 75, 0, 0, 78, 49, 4, 0, 0, 39, 0, 0
|0, 8, 0, 2, 0, 64, 44, 15, 14, 0, 75, 0, 0, 32, 54, 0, 42, 0, 0, 0, 0, 19, 0, 36, 80, 0, 0, 50, 0, 25, 0, 0, 33, 3, 0, 0, 55, 17, 58, 51, 0, 7, 0, 0, 0, 16, 78, 0, 0, 0, 49, 35, 37, 0, 0, 0, 60, 68, 0, 46, 72, 73, 0, 0, 0, 0, 0, 0, 0, 0, 0, 24, 1, 0, 0, 0, 0, 45, 67, 59, 56
|0, 0, 54, 70, 26, 3, 0, 0, 0, 0, 27, 9, 46, 0, 0, 59, 36, 0, 0, 55, 16, 13, 79, 74, 38, 0, 0, 7, 4, 42, 57, 0, 0, 68, 0, 0, 0, 0, 0, 77, 22, 78, 0, 0, 20, 21, 0, 0, 0, 76, 0, 2, 17, 28, 75, 8, 0, 0, 63, 0, 0, 39, 0, 5, 73, 0, 0, 0, 0, 60, 0, 32, 0, 0, 0, 0, 0, 62, 23, 52, 61
|0, 30, 0, 0, 0, 0, 0, 4, 0, 17, 44, 0, 0, 58, 68, 29, 22, 0, 24, 20, 0, 61, 25, 23, 0, 0, 0, 28, 0, 0, 0, 0, 0, 8, 51, 6, 71, 0, 0, 0, 78, 0, 47, 0, 0, 15, 27, 0, 54, 69, 72, 0, 56, 70, 73, 53, 0, 0, 43, 0, 0, 41, 11, 66, 57, 0, 0, 79, 0, 0, 67, 0, 33, 80, 0, 13, 0, 0, 0, 0, 19
|0, 7, 20, 0, 0, 0, 42, 56, 0, 61, 0, 72, 9, 0, 0, 0, 69, 0, 2, 0, 0, 0, 0, 13, 0, 0, 64, 39, 0, 76, 77, 0, 0, 0, 22, 0, 80, 0, 31, 0, 0, 0, 5, 74, 33, 12, 0, 0, 55, 21, 30, 0, 0, 78, 0, 57, 0, 58, 0, 0, 52, 0, 38, 0, 53, 8, 81, 23, 50, 0, 37, 0, 66, 15, 0, 0, 0, 0, 35, 0, 0
|19, 81, 0, 0, 40, 58, 61, 0, 0, 36, 31, 30, 0, 48, 0, 32, 0, 78, 57, 71, 45, 33, 49, 68, 7, 8, 26, 18, 2, 0, 0, 0, 0, 0, 44, 0, 0, 4, 0, 6, 38, 43, 0, 64, 0, 0, 75, 0, 0, 34, 0, 0, 0, 66, 10, 0, 67, 17, 0, 1, 0, 28, 0, 0, 0, 0, 65, 0, 12, 0, 0, 0, 21, 0, 0, 0, 53, 0, 20, 0, 52
|0, 0, 34, 0, 0, 0, 0, 68, 21, 0, 0, 0, 0, 63, 59, 55, 79, 0, 0, 0, 0, 70, 0, 27, 0, 0, 40, 62, 0, 61, 0, 75, 0, 0, 56, 0, 28, 0, 0, 0, 0, 0, 17, 69, 0, 0, 0, 0, 47, 37, 0, 0, 10, 64, 0, 0, 0, 36, 23, 0, 44, 0, 0, 0, 0, 14, 39, 0, 13, 26, 51, 0, 0, 0, 0, 9, 0, 12, 2, 54, 1
|0, 0, 0, 76, 0, 43, 62, 0, 10, 0, 0, 13, 45, 51, 0, 0, 0, 25, 15, 69, 0, 0, 77, 12, 11, 0, 80, 0, 0, 23, 59, 53, 0, 67, 47, 71, 0, 35, 57, 0, 0, 0, 0, 70, 8, 31, 26, 49, 0, 0, 0, 44, 0, 33, 30, 20, 61, 74, 0, 0, 0, 0, 14, 16, 0, 19, 0, 28, 0, 0, 46, 29, 0, 0, 63, 0, 79, 0, 0, 60, 38
|0, 80, 0, 50, 0, 45, 32, 0, 52, 41, 19, 43, 76, 0, 2, 12, 39, 0, 0, 0, 0, 3, 28, 66, 79, 74, 0, 0, 0, 0, 0, 0, 0, 24, 0, 42, 0, 75, 27, 0, 58, 0, 30, 55, 1, 61, 73, 62, 0, 29, 0, 53, 0, 9, 0, 49, 81, 16, 0, 0, 0, 8, 0, 0, 0, 0, 31, 18, 0, 63, 0, 0, 0, 0, 0, 0, 0, 0, 59, 51, 0
|0, 66, 0, 25, 0, 0, 8, 0, 13, 64, 0, 40, 0, 4, 0, 7, 0, 37, 0, 0, 0, 22, 0, 50, 0, 6, 0, 0, 73, 0, 5, 35, 43, 0, 58, 0, 68, 41, 0, 0, 12, 14, 21, 45, 0, 0, 79, 24, 0, 1, 0, 36, 0, 42, 65, 0, 0, 0, 59, 71, 0, 70, 2, 0, 78, 33, 20, 0, 0, 0, 60, 76, 34, 49, 0, 0, 47, 27, 18, 0, 32
|54, 33, 0, 0, 0, 6, 14, 0, 59, 0, 5, 0, 0, 0, 0, 8, 65, 11, 1, 0, 0, 0, 0, 0, 0, 0, 0, 31, 0, 37, 55, 0, 0, 57, 0, 0, 0, 29, 0, 0, 0, 0, 62, 0, 0, 18, 0, 17, 20, 0, 2, 0, 0, 0, 51, 0, 13, 0, 0, 0, 15, 78, 75, 0, 77, 73, 0, 0, 58, 80, 68, 0, 0, 0, 67, 39, 0, 28, 72, 30, 25
|0, 77, 0, 71, 9, 0, 0, 24, 35, 80, 0, 0, 0, 26, 0, 0, 0, 33, 78, 0, 0, 58, 0, 0, 65, 0, 62, 0, 14, 0, 0, 50, 0, 0, 0, 0, 32, 54, 16, 0, 46, 0, 44, 61, 2, 60, 0, 19, 0, 52, 0, 25, 11, 0, 0, 12, 47, 76, 0, 0, 0, 68, 39, 7, 1, 0, 30, 74, 0, 43, 0, 27, 5, 0, 6, 23, 0, 41, 57, 4, 75
|4, 23, 9, 0, 35, 14, 0, 21, 6, 0, 0, 0, 0, 0, 70, 0, 0, 0, 77, 67, 22, 0, 5, 52, 0, 0, 72, 59, 0, 81, 66, 60, 30, 10, 0, 61, 0, 28, 24, 0, 3, 0, 57, 0, 0, 0, 54, 15, 0, 0, 53, 0, 36, 75, 37, 0, 0, 48, 0, 0, 20, 2, 0, 31, 32, 63, 0, 11, 0, 0, 18, 0, 0, 0, 46, 25, 62, 26, 0, 45, 47
|24, 0, 0, 62, 0, 0, 41, 0, 19, 0, 0, 29, 0, 1, 0, 0, 0, 0, 21, 36, 31, 0, 51, 0, 12, 0, 0, 0, 53, 0, 0, 42, 0, 0, 0, 68, 30, 0, 38, 0, 0, 0, 0, 0, 7, 0, 20, 0, 0, 0, 63, 0, 0, 2, 47, 0, 0, 18, 77, 50, 27, 0, 0, 9, 79, 4, 0, 10, 52, 37, 0, 40, 0, 0, 0, 0, 34, 0, 49, 0, 0
|42, 0, 76, 0, 0, 0, 22, 0, 0, 0, 4, 65, 32, 0, 43, 40, 30, 0, 0, 15, 56, 0, 29, 54, 25, 0, 41, 27, 28, 72, 0, 0, 0, 0, 0, 0, 5, 26, 0, 0, 0, 0, 50, 17, 0, 0, 39, 14, 8, 0, 18, 57, 51, 37, 49, 0, 1, 0, 0, 45, 0, 0, 0, 0, 46, 0, 58, 0, 67, 0, 0, 0, 73, 0, 0, 59, 7, 10, 63, 55, 0
|2, 11, 49, 18, 0, 0, 0, 20, 0, 0, 26, 41, 79, 0, 28, 50, 16, 53, 61, 58, 0, 24, 42, 37, 0, 13, 0, 0, 0, 0, 0, 0, 22, 0, 29, 0, 0, 0, 0, 0, 64, 12, 14, 0, 15, 9, 0, 47, 38, 0, 34, 0, 0, 0, 63, 55, 0, 31, 73, 52, 0, 0, 0, 0, 56, 74, 0, 0, 21, 0, 0, 0, 0, 0, 27, 0, 0, 40, 0, 32, 39
|0, 48, 0, 72, 77, 73, 54, 34, 67, 56, 0, 0, 58, 0, 66, 37, 24, 0, 0, 0, 74, 39, 33, 0, 0, 0, 0, 0, 0, 0, 0, 0, 0, 46, 0, 43, 0, 62, 18, 0, 4, 65, 0, 0, 0, 0, 0, 0, 41, 59, 55, 26, 0, 0, 9, 7, 79, 0, 0, 30, 42, 0, 3, 53, 38, 17, 0, 0, 8, 0, 76, 0, 0, 0, 80, 0, 12, 0, 81, 22, 71
|0, 0, 0, 75, 0, 0, 0, 65, 0, 59, 0, 23, 0, 36, 20, 72, 31, 0, 3, 64, 0, 0, 11, 0, 17, 81, 0, 0, 0, 0, 0, 5, 57, 2, 12, 14, 0, 0, 34, 0, 21, 54, 52, 32, 35, 80, 60, 0, 0, 40, 0, 0, 0, 4, 0, 0, 0, 26, 61, 0, 56, 0, 0, 0, 0, 0, 0, 30, 0, 29, 73, 0, 38, 76, 0, 33, 74, 0, 0, 37, 0
|12, 56, 0, 0, 52, 66, 0, 0, 0, 77, 0, 0, 0, 11, 10, 0, 3, 0, 0, 53, 0, 0, 9, 0, 0, 0, 6, 33, 19, 41, 0, 0, 0, 0, 0, 0, 0, 0, 0, 0, 0, 29, 0, 67, 0, 43, 30, 0, 0, 32, 0, 28, 64, 0, 0, 0, 4, 70, 0, 0, 51, 0, 0, 0, 39, 62, 0, 0, 0, 0, 0, 72, 16, 18, 24, 0, 0, 0, 21, 13, 0
|57, 55, 30, 0, 28, 0, 63, 51, 0, 68, 13, 78, 0, 61, 48, 39, 0, 14, 0, 0, 0, 0, 0, 65, 62, 0, 0, 0, 0, 0, 0, 0, 56, 0, 0, 52, 0, 0, 0, 60, 80, 19, 0, 0, 31, 0, 0, 0, 33, 74, 69, 49, 42, 0, 22, 40, 75, 0, 72, 0, 0, 0, 0, 34, 54, 36, 0, 24, 27, 64, 1, 66, 50, 0, 0, 20, 0, 9, 0, 0, 0
|0, 0, 8, 0, 36, 0, 0, 58, 64, 0, 0, 0, 6, 25, 18, 0, 0, 5, 70, 0, 0, 76, 0, 47, 44, 49, 0, 0, 24, 0, 0, 0, 0, 0, 0, 0, 0, 72, 0, 41, 37, 69, 63, 0, 71, 0, 52, 0, 0, 67, 0, 0, 0, 0, 0, 0, 0, 0, 0, 0, 16, 46, 0, 0, 0, 2, 0, 0, 26, 61, 0, 0, 0, 29, 0, 0, 0, 30, 19, 42, 68|];