order = 9;
grid = [|0, 77, 0, 0, 76, 0, 54, 0, 7, 0, 0, 12, 0, 15, 0, 11, 0, 80, 20, 0, 35, 0, 0, 8, 0, 0, 0, 50, 49, 0, 0, 41, 0, 10, 0, 0, 26, 0, 0, 55, 0, 0, 9, 65, 0, 51, 30, 64, 58, 0, 0, 81, 0, 70, 13, 3, 0, 0, 72, 48, 0, 42, 5, 44, 0, 33, 32, 0, 0, 47, 19, 28, 2, 0, 0, 0, 25, 0, 0, 0, 43
|0, 0, 47, 12, 17, 49, 0, 48, 0, 0, 0, 0, 0, 10, 8, 0, 0, 38, 0, 30, 32, 0, 11, 0, 15, 0, 56, 72, 45, 0, 0, 0, 73, 64, 0, 0, 6, 0, 0, 0, 60, 0, 0, 5, 52, 0, 0, 0, 25, 2, 69, 78, 65, 13, 63, 0, 0, 0, 0, 0, 0, 66, 0, 7, 14, 0, 0, 0, 54, 0, 0, 74, 76, 0, 0, 57, 0, 34, 0, 0, 0
|0, 0, 20, 0, 0, 0, 72, 0, 28, 34, 68, 0, 0, 81, 0, 0, 66, 0, 0, 0, 0, 9, 0, 0, 0, 13, 79, 4, 43, 0, 0, 0, 0, 0, 0, 60, 0, 29, 42, 0, 2, 47, 33, 44, 0, 6, 0, 19, 0, 50, 0, 32, 62, 0, 16, 0, 0, 0, 0, 58, 77, 0, 61, 15, 0, 0, 0, 24, 0, 0, 10, 0, 22, 0, 0, 0, 0, 8, 0, 51, 0
|0, 0, 0, 16, 0, 0, 9, 41, 0, 0, 5, 2, 52, 28, 64, 0, 60, 76, 22, 0, 0, 75, 0, 39, 0, 0, 0, 46, 61, 0, 0, 0, 0, 0, 0, 62, 0, 24, 12, 23, 50, 0, 0, 21, 0, 0, 0, 66, 0, 0, 0, 26, 0, 79, 45, 0, 0, 78, 30, 0, 73, 0, 0, 0, 0, 0, 0, 68, 0, 0, 0, 0, 69, 15, 0, 31, 0, 0, 71, 0, 10
|0, 0, 53, 0, 51, 19, 0, 52, 0, 0, 55, 0, 79, 0, 0, 67, 62, 0, 0, 78, 31, 0, 36, 73, 0, 2, 0, 0, 12, 21, 7, 0, 0, 11, 0, 0, 8, 40, 0, 76, 0, 10, 0, 80, 0, 39, 9, 24, 0, 0, 41, 0, 16, 22, 0, 0, 0, 0, 0, 0, 0, 0, 0, 42, 25, 70, 0, 49, 23, 0, 75, 35, 77, 45, 17, 60, 68, 30, 58, 0, 13
|70, 0, 0, 0, 0, 2, 0, 0, 0, 47, 19, 0, 0, 17, 0, 0, 20, 39, 5, 26, 1, 76, 48, 45, 0, 10, 25, 0, 0, 57, 77, 0, 0, 32, 81, 15, 0, 0, 34, 51, 73, 78, 75, 0, 0, 0, 0, 0, 0, 35, 14, 54, 0, 0, 0, 71, 55, 0, 24, 0, 9, 0, 43, 0, 13, 0, 0, 0, 16, 61, 50, 3, 41, 56, 28, 0, 52, 21, 0, 0, 64
|64, 21, 0, 46, 45, 0, 73, 59, 0, 0, 18, 0, 9, 0, 0, 0, 0, 0, 0, 0, 0, 51, 0, 0, 44, 0, 0, 67, 75, 0, 65, 0, 0, 0, 36, 55, 0, 27, 30, 72, 7, 37, 0, 41, 39, 28, 0, 0, 0, 71, 5, 15, 74, 48, 35, 0, 0, 0, 0, 0, 76, 50, 12, 0, 81, 0, 0, 0, 0, 0, 0, 31, 0, 32, 63, 0, 0, 0, 70, 47, 78
|30, 0, 26, 22, 0, 35, 0, 80, 0, 0, 49, 0, 78, 0, 45, 0, 46, 41, 0, 0, 0, 0, 0, 6, 0, 7, 0, 0, 18, 0, 0, 0, 0, 0, 0, 28, 0, 0, 67, 0, 79, 66, 0, 0, 70, 0, 44, 0, 0, 0, 0, 0, 0, 0, 25, 75, 0, 0, 8, 0, 0, 0, 0, 37, 62, 64, 0, 60, 0, 39, 0, 76, 14, 38, 0, 0, 0, 0, 19, 0, 0
|0, 0, 36, 10, 34, 0, 6, 0, 13, 14, 0, 0, 0, 42, 77, 0, 30, 51, 0, 68, 4, 0, 0, 0, 66, 0, 55, 39, 0, 0, 0, 58, 20, 0, 0, 0, 63, 0, 81, 61, 49, 25, 32, 0, 16, 38, 43, 0, 0, 0, 31, 0, 0, 0, 19, 59, 64, 44, 70, 0, 0, 0, 28, 0, 67, 52, 8, 69, 21, 0, 0, 0, 0, 0, 18, 65, 46, 0, 0, 0, 0
|0, 78, 28, 0, 22, 42, 0, 68, 0, 0, 16, 50, 46, 0, 0, 1, 9, 0, 0, 76, 0, 0, 53, 74, 20, 57, 17, 0, 56, 0, 55, 0, 52, 41, 12, 0, 0, 23, 64, 59, 0, 30, 7, 0, 47, 0, 0, 48, 0, 0, 0, 29, 0, 0, 62, 0, 0, 33, 0, 21, 60, 0, 0, 3, 75, 5, 35, 0, 0, 13, 0, 0, 38, 4, 79, 66, 0, 25, 44, 15, 0
|0, 47, 0, 0, 54, 0, 0, 0, 52, 12, 0, 7, 68, 0, 28, 29, 0, 71, 50, 0, 78, 0, 0, 24, 62, 0, 0, 44, 0, 0, 20, 0, 0, 0, 27, 0, 36, 0, 11, 53, 38, 0, 37, 69, 8, 42, 4, 31, 0, 1, 0, 0, 0, 26, 0, 0, 66, 0, 0, 55, 13, 70, 18, 0, 0, 48, 33, 0, 72, 0, 0, 58, 74, 0, 60, 0, 19, 73, 0, 0, 0
|0, 39, 0, 29, 74, 11, 41, 0, 60, 63, 0, 42, 17, 4, 0, 75, 0, 54, 18, 38, 0, 48, 0, 0, 51, 44, 0, 0, 69, 0, 46, 0, 66, 0, 0, 73, 0, 0, 0, 62, 0, 52, 81, 0, 0, 25, 21, 0, 40, 16, 0, 28, 0, 35, 49, 0, 43, 0, 59, 9, 0, 0, 0, 0, 26, 67, 0, 55, 0, 0, 64, 0, 45, 10, 0, 0, 3, 0, 57, 53, 20
|0, 0, 0, 0, 0, 33, 14, 5, 49, 27, 0, 0, 59, 0, 18, 25, 40, 52, 47, 7, 81, 0, 34, 43, 0, 72, 0, 68, 57, 76, 74, 26, 0, 0, 0, 48, 0, 0, 0, 77, 24, 0, 0, 50, 19, 0, 0, 0, 44, 58, 0, 80, 9, 0, 0, 51, 0, 11, 0, 39, 37, 0, 0, 0, 54, 0, 0, 0, 56, 8, 0, 73, 0, 0, 32, 0, 0, 0, 2, 0, 0
|0, 0, 0, 0, 58, 0, 0, 0, 0, 0, 0, 8, 3, 35, 22, 77, 0, 14, 79, 0, 71, 0, 0, 0, 0, 19, 0, 0, 5, 45, 28, 0, 0, 2, 0, 40, 0, 41, 0, 73, 0, 49, 25, 18, 0, 0, 64, 47, 0, 0, 17, 0, 0, 0, 65, 0, 0, 0, 0, 0, 0, 0, 0, 0, 0, 6, 44, 0, 60, 0, 0, 0, 56, 63, 0, 0, 0, 0, 0, 0, 76
|81, 70, 75, 0, 44, 0, 51, 0, 0, 13, 0, 65, 0, 76, 0, 53, 0, 74, 58, 0, 69, 66, 0, 46, 0, 0, 0, 0, 0, 35, 0, 0, 9, 0, 19, 37, 0, 48, 45, 4, 16, 40, 2, 22, 0, 61, 0, 71, 0, 78, 0, 8, 34, 0, 79, 0, 36, 0, 73, 0, 0, 0, 54, 17, 0, 63, 23, 0, 0, 0, 0, 0, 0, 11, 26, 77, 27, 0, 50, 0, 42
|0, 9, 3, 25, 38, 0, 48, 1, 77, 0, 56, 0, 0, 45, 0, 10, 0, 55, 0, 0, 6, 0, 0, 29, 0, 0, 61, 17, 0, 0, 59, 32, 0, 36, 78, 67, 34, 54, 33, 27, 13, 75, 79, 0, 28, 0, 0, 0, 39, 74, 0, 70, 7, 51, 0, 0, 0, 0, 0, 0, 0, 71, 0, 0, 47, 15, 0, 0, 0, 0, 0, 0, 52, 0, 35, 0, 41, 58, 68, 0, 0
|45, 19, 0, 0, 0, 55, 36, 0, 76, 0, 60, 72, 0, 0, 0, 0, 33, 61, 77, 64, 0, 0, 67, 10, 0, 3, 0, 71, 53, 18, 0, 0, 39, 50, 0, 1, 0, 44, 68, 0, 0, 0, 0, 0, 74, 0, 0, 0, 0, 0, 6, 12, 0, 27, 42, 28, 2, 0, 0, 0, 24, 35, 0, 0, 0, 0, 21, 9, 25, 0, 0, 11, 40, 0, 48, 0, 54, 81, 59, 0, 8
|27, 0, 0, 0, 71, 69, 0, 0, 73, 5, 0, 0, 2, 19, 49, 64, 0, 20, 13, 32, 28, 68, 0, 0, 0, 54, 30, 81, 10, 0, 60, 0, 38, 0, 75, 51, 0, 0, 0, 9, 46, 0, 0, 26, 0, 0, 76, 23, 79, 59, 53, 22, 50, 0, 0, 0, 0, 58, 0, 16, 0, 0, 3, 0, 0, 7, 77, 0, 80, 40, 0, 62, 24, 18, 12, 37, 1, 78, 61, 43, 0
|0, 60, 0, 13, 24, 0, 11, 32, 0, 0, 0, 61, 0, 51, 39, 0, 25, 50, 0, 31, 74, 0, 0, 14, 0, 18, 0, 15, 2, 0, 29, 20, 0, 1, 0, 44, 49, 0, 27, 0, 0, 0, 0, 71, 48, 0, 0, 0, 72, 3, 0, 55, 56, 0, 0, 0, 0, 46, 47, 33, 0, 0, 68, 0, 0, 0, 0, 0, 0, 0, 0, 16, 0, 0, 4, 0, 30, 0, 34, 59, 63
|21, 0, 0, 0, 61, 0, 77, 4, 42, 73, 0, 0, 7, 9, 30, 35, 57, 0, 0, 0, 0, 0, 25, 53, 0, 41, 15, 0, 58, 0, 45, 78, 54, 0, 32, 0, 60, 56, 0, 0, 59, 74, 70, 0, 0, 0, 0, 51, 68, 5, 40, 0, 0, 0, 2, 0, 0, 62, 71, 50, 80, 0, 48, 0, 46, 43, 3, 76, 0, 0, 0, 0, 0, 28, 10, 26, 0, 18, 65, 0, 39
|0, 0, 0, 17, 0, 44, 0, 75, 2, 0, 72, 0, 5, 67, 0, 13, 8, 10, 0, 0, 61, 0, 71, 56, 43, 1, 0, 55, 0, 47, 3, 19, 0, 76, 52, 0, 40, 33, 0, 0, 0, 46, 12, 54, 20, 16, 77, 59, 63, 70, 39, 48, 0, 14, 30, 29, 0, 0, 31, 73, 69, 0, 64, 0, 0, 0, 62, 65, 0, 68, 81, 51, 57, 0, 21, 24, 0, 0, 80, 35, 0
|1, 16, 0, 54, 0, 0, 0, 26, 0, 0, 46, 69, 47, 3, 0, 0, 0, 0, 28, 0, 52, 33, 0, 0, 0, 29, 0, 12, 73, 0, 0, 71, 0, 14, 0, 77, 0, 0, 0, 0, 75, 19, 0, 0, 0, 0, 78, 2, 50, 65, 76, 44, 0, 0, 55, 5, 0, 0, 0, 0, 36, 4, 70, 60, 0, 57, 24, 0, 0, 22, 39, 0, 51, 13, 27, 0, 0, 0, 0, 56, 0
|0, 3, 0, 33, 27, 0, 0, 62, 0, 0, 48, 0, 0, 59, 0, 0, 0, 53, 0, 0, 55, 0, 0, 21, 2, 51, 0, 0, 6, 0, 23, 0, 42, 0, 0, 0, 0, 0, 0, 39, 0, 0, 15, 0, 9, 0, 18, 0, 0, 0, 0, 43, 0, 66, 0, 0, 78, 24, 63, 61, 0, 0, 22, 0, 80, 0, 7, 19, 71, 0, 13, 34, 0, 0, 0, 75, 40, 0, 0, 0, 44
|55, 25, 0, 41, 64, 0, 0, 0, 0, 65, 0, 29, 0, 0, 0, 0, 0, 0, 0, 47, 72, 0, 63, 66, 0, 23, 6, 70, 0, 59, 0, 0, 8, 51, 22, 0, 31, 0, 0, 0, 0, 61, 0, 0, 67, 0, 62, 9, 46, 0, 0, 36, 0, 0, 7, 0, 0, 0, 0, 76, 0, 34, 19, 74, 0, 50, 0, 78, 0, 10, 52, 0, 12, 48, 73, 0, 16, 5, 0, 0, 77
|28, 0, 0, 0, 0, 68, 59, 18, 0, 0, 22, 0, 0, 74, 0, 78, 12, 40, 19, 0, 75, 0, 0, 9, 0, 0, 0, 0, 17, 39, 0, 0, 0, 0, 0, 34, 0, 0, 0, 0, 0, 0, 0, 14, 42, 67, 60, 11, 0, 13, 0, 71, 0, 7, 6, 0, 21, 0, 43, 1, 0, 38, 0, 55, 0, 61, 0, 0, 63, 0, 31, 0, 23, 0, 0, 0, 0, 0, 0, 0, 15
|69, 0, 71, 0, 0, 0, 0, 67, 66, 0, 2, 14, 0, 44, 0, 0, 38, 15, 68, 3, 48, 60, 0, 0, 0, 32, 0, 0, 62, 61, 5, 46, 0, 31, 35, 30, 0, 0, 0, 0, 77, 0, 26, 28, 55, 0, 0, 73, 41, 0, 0, 49, 23, 74, 12, 54, 42, 0, 0, 0, 0, 39, 0, 0, 56, 0, 59, 0, 17, 4, 8, 0, 0, 0, 0, 0, 0, 64, 76, 0, 25
|0, 0, 73, 0, 0, 58, 30, 31, 0, 0, 63, 0, 0, 55, 0, 20, 37, 0, 38, 39, 0, 78, 16, 67, 0, 0, 0, 0, 0, 49, 0, 48, 0, 0, 74, 68, 0, 5, 0, 0, 43, 34, 47, 0, 0, 4, 0, 15, 0, 45, 1, 6, 10, 28, 0, 0, 0, 0, 3, 8, 0, 59, 0, 21, 0, 0, 0, 2, 42, 0, 0, 64, 32, 0, 0, 81, 62, 69, 33, 0, 0
|0, 0, 0, 0, 0, 39, 19, 30, 0, 0, 0, 0, 65, 0, 60, 38, 0, 75, 73, 50, 0, 29, 0, 0, 45, 0, 0, 78, 34, 28, 0, 0, 23, 70, 11, 36, 0, 55, 0, 8, 31, 0, 0, 24, 33, 0, 0, 76, 9, 0, 49, 21, 0, 0, 0, 0, 12, 0, 20, 32, 0, 0, 0, 25, 63, 62, 16, 74, 40, 0, 0, 0, 0, 1, 0, 0, 5, 59, 0, 52, 0
|0, 0, 0, 64, 0, 67, 16, 11, 10, 0, 0, 0, 0, 0, 0, 0, 0, 49, 42, 0, 0, 0, 5, 0, 81, 0, 0, 14, 0, 0, 62, 63, 0, 0, 68, 50, 0, 0, 39, 0, 20, 0, 21, 0, 0, 70, 0, 0, 53, 0, 23, 0, 60, 0, 0, 0, 48, 0, 37, 71, 2, 15, 34, 57, 0, 18, 0, 54, 24, 0, 55, 9, 0, 26, 30, 0, 35, 0, 4, 25, 38
|0, 68, 0, 20, 0, 22, 0, 0, 0, 0, 0, 3, 0, 16, 0, 39, 0, 0, 54, 0, 0, 41, 0, 12, 24, 69, 0, 33, 0, 0, 0, 2, 18, 57, 40, 59, 72, 0, 0, 10, 25, 0, 71, 0, 0, 0, 65, 0, 0, 7, 0, 31, 66, 73, 0, 0, 44, 0, 0, 0, 0, 51, 0, 0, 60, 79, 75, 64, 0, 0, 5, 0, 0, 34, 0, 45, 50, 0, 23, 0, 27
|0, 0, 31, 0, 56, 74, 18, 38, 0, 68, 0, 0, 0, 0, 0, 0, 0, 0, 15, 80, 63, 26, 0, 0, 4, 78, 0, 35, 54, 53, 0, 0, 79, 61, 73, 64, 29, 0, 0, 0, 67, 43, 34, 12, 0, 5, 0, 28, 36, 81, 0, 10, 59, 0, 0, 0, 0, 0, 16, 0, 0, 46, 0, 76, 27, 0, 14, 0, 44, 0, 22, 0, 0, 0, 0, 0, 6, 49, 0, 0, 0
|0, 0, 0, 2, 0, 54, 0, 63, 0, 0, 0, 52, 51, 0, 0, 45, 11, 37, 40, 0, 66, 28, 79, 0, 0, 0, 22, 0, 0, 0, 6, 13, 76, 38, 0, 0, 59, 75, 0, 32, 0, 0, 0, 0, 77, 29, 0, 12, 0, 67, 0, 0, 30, 25, 4, 19, 0, 5, 39, 0, 0, 0, 0, 0, 0, 49, 0, 0, 47, 41, 0, 1, 0, 0, 0, 0, 64, 0, 0, 21, 0
|9, 6, 0, 0, 4, 78, 0, 0, 0, 1, 54, 63, 56, 32, 0, 0, 0, 0, 0, 0, 25, 62, 0, 0, 53, 0, 0, 0, 51, 0, 0, 0, 0, 0, 0, 49, 0, 45, 0, 41, 14, 0, 0, 0, 0, 44, 0, 18, 0, 0, 35, 0, 0, 0, 21, 0, 0, 0, 0, 59, 0, 76, 0, 0, 0, 73, 0, 13, 39, 30, 0, 0, 0, 20, 42, 0, 15, 74, 22, 0, 0
|80, 76, 0, 24, 53, 7, 0, 0, 0, 18, 13, 0, 0, 0, 19, 5, 72, 0, 0, 75, 39, 30, 59, 0, 0, 0, 0, 0, 0, 20, 0, 25, 44, 15, 9, 17, 0, 49, 0, 79, 0, 70, 63, 68, 0, 0, 0, 0, 48, 0, 46, 0, 0, 41, 38, 0, 0, 0, 40, 47, 11, 0, 6, 10, 58, 69, 0, 0, 78, 0, 0, 52, 8, 0, 0, 32, 81, 12, 16, 31, 62
|42, 13, 0, 8, 3, 0, 0, 0, 0, 0, 0, 0, 53, 69, 0, 70, 0, 81, 0, 6, 0, 44, 0, 0, 0, 0, 27, 5, 0, 16, 12, 0, 37, 60, 0, 0, 30, 11, 76, 2, 0, 50, 0, 0, 18, 63, 54, 0, 45, 38, 0, 20, 77, 0, 0, 36, 75, 0, 35, 0, 1, 9, 49, 67, 51, 23, 68, 0, 48, 72, 0, 80, 0, 0, 46, 0, 0, 40, 0, 0, 79
|0, 40, 0, 71, 0, 0, 21, 66, 0, 0, 44, 80, 20, 0, 46, 76, 0, 42, 9, 0, 0, 18, 0, 35, 7, 55, 16, 0, 1, 30, 0, 0, 0, 0, 0, 0, 4, 0, 0, 0, 0, 0, 0, 0, 53, 64, 0, 79, 74, 19, 34, 0, 0, 2, 54, 26, 0, 41, 0, 0, 31, 0, 72, 28, 50, 3, 0, 32, 38, 70, 59, 0, 36, 0, 0, 0, 0, 0, 0, 0, 0
|34, 0, 21, 0, 0, 41, 0, 0, 54, 76, 40, 0, 0, 50, 0, 0, 0, 0, 0, 0, 0, 61, 0, 7, 0, 46, 0, 32, 0, 0, 0, 44, 0, 24, 0, 16, 0, 35, 55, 0, 45, 8, 6, 0, 43, 0, 0, 0, 49, 39, 13, 0, 11, 1, 28, 78, 26, 12, 69, 0, 0, 17, 0, 4, 0, 0, 0, 0, 0, 0, 27, 18, 0, 73, 0, 72, 59, 37, 67, 63, 60
|0, 33, 0, 0, 8, 29, 0, 9, 14, 78, 4, 0, 35, 0, 0, 0, 0, 16, 67, 0, 42, 11, 50, 0, 68, 0, 0, 59, 0, 6, 0, 79, 71, 0, 0, 81, 0, 70, 0, 0, 0, 12, 0, 0, 60, 66, 24, 36, 65, 76, 0, 0, 0, 38, 80, 0, 0, 0, 57, 45, 0, 0, 27, 0, 1, 0, 69, 0, 52, 77, 0, 0, 53, 30, 15, 0, 0, 51, 0, 41, 0
|0, 61, 60, 0, 23, 0, 52, 16, 0, 32, 0, 49, 0, 0, 0, 0, 0, 0, 0, 65, 12, 8, 81, 51, 14, 0, 69, 0, 3, 0, 38, 10, 70, 17, 57, 0, 0, 0, 0, 0, 30, 13, 73, 0, 0, 0, 56, 0, 19, 79, 0, 64, 72, 0, 0, 6, 4, 0, 0, 0, 67, 0, 0, 0, 0, 21, 47, 0, 0, 0, 33, 0, 62, 46, 0, 35, 71, 0, 39, 78, 0
|0, 0, 0, 53, 55, 0, 0, 0, 0, 19, 11, 59, 0, 0, 23, 0, 0, 0, 56, 0, 73, 0, 0, 1, 0, 27, 45, 21, 0, 0, 2, 18, 72, 0, 0, 74, 0, 50, 0, 46, 0, 0, 0, 36, 78, 0, 0, 25, 0, 63, 0, 0, 51, 0, 0, 60, 0, 15, 0, 0, 0, 32, 13, 48, 76, 0, 58, 12, 75, 0, 41, 14, 0, 0, 0, 68, 0, 0, 24, 8, 0
|59, 0, 0, 72, 0, 0, 0, 0, 17, 57, 0, 0, 61, 0, 53, 0, 0, 0, 0, 0, 15, 71, 54, 31, 0, 9, 0, 76, 0, 25, 0, 67, 0, 77, 0, 35, 0, 26, 0, 75, 0, 39, 0, 0, 0, 0, 41, 0, 0, 0, 0, 0, 5, 12, 0, 0, 0, 0, 50, 30, 0, 0, 14, 8, 0, 0, 42, 0, 28, 0, 0, 0, 10, 0, 0, 0, 0, 0, 27, 2, 0
|63, 0, 0, 0, 0, 0, 12, 44, 0, 62, 0, 5, 69, 0, 7, 60, 1, 72, 0, 0, 0, 0, 6, 3, 0, 76, 0, 0, 19, 46, 8, 0, 0, 78, 51, 56, 0, 0, 0, 47, 17, 23, 0, 0, 65, 40, 0, 68, 59, 42, 30, 0, 37, 15, 70, 24, 10, 48, 0, 77, 71, 64, 0, 0, 35, 0, 0, 0, 0, 49, 80, 0, 0, 43, 55, 11, 18, 0, 0, 79, 0
|0, 64, 65, 0, 11, 0, 0, 0, 78, 24, 20, 13, 0, 36, 38, 0, 0, 29, 0, 0, 0, 39, 60, 0, 0, 0, 2, 0, 42, 0, 58, 0, 0, 0, 30, 9, 15, 61, 0, 67, 37, 0, 69, 0, 0, 0, 80, 27, 0, 0, 45, 46, 14, 0, 0, 0, 79, 0, 25, 44, 66, 41, 75, 0, 23, 0, 0, 0, 0, 7, 6, 0, 28, 52, 34, 0, 0, 0, 12, 57, 0
|0, 31, 0, 51, 10, 18, 20, 0, 24, 0, 79, 0, 0, 0, 0, 30, 0, 0, 0, 0, 0, 35, 0, 58, 0, 0, 0, 62, 0, 0, 49, 60, 61, 75, 54, 12, 42, 64, 0, 0, 0, 0, 11, 27, 32, 53, 0, 0, 69, 55, 0, 0, 0, 0, 0, 1, 7, 63, 2, 65, 40, 0, 23, 5, 0, 0, 78, 0, 0, 0, 57, 0, 50, 0, 0, 0, 13, 48, 0, 38, 0
|0, 0, 74, 3, 0, 46, 1, 0, 0, 31, 0, 39, 0, 0, 65, 55, 0, 0, 25, 0, 5, 72, 47, 13, 78, 0, 63, 0, 0, 14, 69, 0, 0, 37, 0, 7, 0, 66, 77, 52, 58, 0, 57, 9, 41, 62, 26, 4, 0, 44, 0, 60, 0, 0, 11, 0, 0, 53, 42, 20, 21, 81, 59, 0, 0, 0, 30, 38, 0, 79, 56, 17, 0, 0, 36, 0, 0, 0, 0, 0, 0
|0, 0, 77, 55, 0, 25, 0, 0, 81, 0, 0, 0, 0, 0, 56, 0, 0, 0, 78, 0, 0, 0, 73, 0, 3, 0, 13, 0, 0, 0, 72, 69, 26, 0, 76, 38, 0, 0, 0, 0, 0, 0, 0, 7, 31, 23, 0, 0, 0, 66, 0, 0, 0, 0, 75, 0, 0, 22, 60, 64, 0, 62, 37, 0, 0, 0, 0, 4, 32, 17, 45, 41, 16, 0, 39, 46, 0, 0, 29, 0, 0
|0, 49, 40, 0, 67, 0, 26, 0, 0, 72, 65, 25, 0, 54, 16, 0, 0, 28, 0, 33, 0, 0, 17, 80, 0, 0, 7, 0, 0, 0, 44, 6, 68, 63, 0, 11, 47, 0, 0, 71, 53, 9, 0, 58, 46, 0, 0, 0, 0, 0, 60, 0, 13, 0, 0, 34, 0, 32, 0, 79, 0, 0, 0, 77, 8, 51, 22, 0, 74, 48, 0, 0, 31, 0, 0, 5, 38, 23, 0, 12, 0
|0, 14, 18, 68, 2, 72, 47, 20, 69, 0, 78, 0, 11, 0, 0, 61, 76, 0, 0, 37, 0, 34, 66, 0, 0, 71, 9, 27, 23, 0, 19, 0, 31, 39, 33, 13, 77, 8, 17, 29, 0, 73, 40, 0, 15, 35, 45, 74, 0, 0, 0, 79, 48, 0, 1, 0, 0, 0, 0, 0, 0, 0, 0, 0, 0, 0, 54, 75, 6, 0, 0, 57, 0, 0, 0, 51, 0, 62, 64, 26, 0
|0, 22, 0, 0, 0, 37, 58, 65, 11, 49, 0, 0, 0, 43, 0, 17, 0, 0, 24, 52, 44, 0, 0, 0, 27, 0, 8, 9, 55, 70, 79, 0, 0, 16, 56, 75, 81, 0, 0, 0, 0, 32, 62, 23, 80, 0, 0, 0, 0, 18, 0, 34, 0, 0, 0, 0, 35, 57, 15, 26, 0, 72, 0, 31, 40, 10, 60, 0, 0, 0, 2, 66, 0, 71, 1, 25, 61, 0, 0, 42, 0
|0, 0, 0, 39, 0, 16, 79, 0, 0, 38, 35, 0, 8, 26, 0, 27, 0, 0, 0, 23, 0, 0, 1, 63, 56, 6, 0, 41, 37, 42, 32, 0, 65, 0, 0, 0, 68, 72, 0, 22, 0, 0, 45, 0, 50, 0, 0, 81, 0, 0, 0, 59, 0, 0, 24, 0, 73, 0, 0, 14, 12, 31, 7, 62, 0, 58, 43, 0, 0, 0, 0, 33, 0, 0, 0, 2, 0, 0, 54, 44, 80
|19, 0, 0, 70, 36, 32, 64, 0, 44, 0, 7, 21, 66, 57, 0, 0, 0, 5, 46, 0, 0, 0, 72, 0, 0, 12, 10, 45, 50, 0, 0, 0, 59, 74, 0, 0, 37, 67, 0, 0, 0, 0, 0, 0, 0, 2, 53, 0, 22, 24, 8, 56, 33, 0, 0, 0, 0, 6, 0, 17, 0, 13, 0, 0, 78, 0, 71, 0, 0, 27, 16, 69, 0, 0, 40, 0, 28, 79, 47, 0, 73
|56, 0, 0, 0, 0, 0, 0, 0, 21, 0, 24, 0, 0, 0, 0, 46, 50, 33, 0, 60, 0, 0, 0, 0, 0, 0, 0, 0, 0, 0, 0, 0, 0, 0, 17, 78, 70, 0, 0, 13, 3, 0, 0, 0, 75, 0, 67, 0, 32, 0, 0, 0, 0, 0, 36, 76, 0, 0, 27, 42, 61, 0, 44, 0, 7, 68, 0, 23, 0, 0, 0, 63, 18, 8, 37, 0, 58, 0, 0, 19, 0
|0, 0, 23, 78, 0, 1, 35, 53, 0, 0, 0, 40, 12, 0, 0, 0, 77, 19, 14, 0, 0, 32, 4, 0, 22, 64, 68, 10, 60, 54, 0, 0, 0, 0, 0, 0, 76, 28, 25, 0, 61, 0, 0, 0, 27, 49, 31, 0, 26, 0, 21, 0, 0, 44, 0, 0, 58, 0, 0, 0, 0, 5, 33, 0, 72, 47, 50, 59, 73, 42, 0, 0, 55, 0, 75, 56, 0, 0, 0, 13, 48
|0, 0, 0, 0, 0, 3, 46, 17, 48, 0, 29, 0, 73, 0, 0, 37, 22, 34, 75, 35, 0, 0, 18, 42, 31, 26, 11, 0, 0, 8, 0, 0, 0, 20, 58, 57, 0, 0, 0, 0, 65, 0, 0, 0, 0, 14, 0, 0, 28, 12, 38, 39, 0, 63, 71, 0, 0, 40, 53, 54, 0, 69, 0, 13, 70, 80, 0, 0, 0, 67, 0, 0, 0, 27, 76, 41, 0, 32, 15, 0, 0
|13, 0, 0, 58, 62, 34, 0, 0, 0, 45, 76, 0, 1, 18, 52, 41, 0, 0, 0, 73, 0, 0, 0, 0, 0, 79, 40, 0, 81, 32, 0, 12, 28, 65, 0, 22, 0, 0, 0, 0, 0, 0, 43, 61, 66, 80, 59, 42, 38, 0, 48, 0, 49, 19, 0, 37, 15, 39, 21, 74, 70, 36, 51, 29, 24, 8, 56, 11, 0, 71, 0, 0, 72, 0, 0, 55, 63, 0, 0, 5, 31
|0, 48, 0, 43, 0, 12, 65, 0, 41, 0, 32, 33, 36, 13, 0, 14, 0, 0, 0, 15, 24, 5, 56, 62, 0, 63, 78, 0, 0, 0, 50, 17, 0, 0, 0, 0, 0, 0, 0, 0, 44, 0, 0, 8, 0, 0, 68, 0, 54, 0, 11, 67, 69, 20, 27, 18, 0, 55, 0, 75, 0, 0, 0, 0, 66, 0, 0, 0, 0, 21, 0, 70, 30, 0, 7, 19, 34, 2, 0, 22, 37
|29, 46, 39, 0, 16, 50, 0, 0, 0, 0, 0, 47, 54, 0, 0, 63, 0, 0, 0, 0, 77, 0, 3, 0, 0, 0, 0, 0, 14, 0, 0, 0, 0, 0, 7, 69, 0, 0, 70, 0, 0, 0, 0, 79, 0, 0, 32, 30, 66, 0, 74, 5, 44, 57, 73, 12, 0, 0, 0, 4, 0, 28, 0, 0, 0, 27, 0, 0, 35, 34, 23, 0, 81, 67, 71, 0, 75, 0, 0, 0, 68
|15, 0, 0, 28, 0, 60, 53, 55, 64, 17, 70, 0, 4, 0, 0, 72, 68, 59, 41, 10, 27, 0, 0, 32, 30, 0, 0, 0, 0, 11, 0, 0, 0, 29, 0, 0, 0, 0, 19, 0, 78, 20, 22, 13, 62, 0, 34, 0, 0, 56, 9, 45, 0, 0, 23, 48, 0, 69, 0, 7, 25, 65, 0, 50, 18, 0, 0, 0, 61, 0, 0, 5, 0, 0, 58, 74, 77, 0, 0, 0, 0
|51, 0, 0, 0, 19, 0, 71, 76, 27, 30, 0, 74, 62, 0, 0, 50, 0, 23, 0, 20, 0, 0, 0, 57, 48, 0, 0, 0, 0, 55, 78, 0, 2, 0, 0, 0, 0, 0, 0, 0, 12, 58, 36, 0, 0, 0, 8, 70, 0, 0, 10, 0, 0, 46, 0, 0, 22, 59, 54, 0, 0, 0, 56, 40, 28, 41, 0, 0, 0, 63, 0, 0, 0, 0, 64, 0, 60, 0, 0, 14, 26
|68, 0, 63, 23, 21, 0, 24, 0, 32, 0, 0, 0, 81, 49, 0, 40, 65, 0, 0, 71, 0, 58, 0, 11, 0, 28, 0, 52, 76, 0, 10, 42, 27, 34, 80, 20, 0, 0, 60, 0, 48, 0, 18, 33, 0, 12, 16, 0, 0, 0, 79, 41, 0, 0, 0, 45, 31, 13, 64, 43, 0, 0, 50, 0, 0, 0, 25, 0, 0, 2, 9, 75, 0, 36, 61, 15, 78, 57, 0, 66, 0
|0, 74, 0, 37, 26, 0, 7, 79, 9, 0, 0, 27, 0, 48, 61, 44, 71, 0, 51, 69, 0, 22, 0, 0, 72, 0, 21, 0, 0, 5, 18, 39, 77, 0, 0, 19, 0, 47, 2, 0, 34, 0, 64, 31, 25, 0, 15, 14, 35, 0, 0, 0, 0, 0, 0, 33, 29, 0, 0, 0, 0, 0, 62, 12, 0, 0, 38, 80, 0, 0, 0, 32, 65, 0, 41, 0, 0, 0, 0, 50, 45
|0, 0, 11, 66, 6, 0, 56, 54, 31, 26, 0, 0, 19, 0, 0, 24, 0, 0, 0, 46, 0, 0, 0, 0, 37, 4, 81, 0, 48, 44, 0, 0, 63, 8, 0, 70, 0, 17, 32, 0, 42, 0, 0, 67, 0, 65, 7, 22, 27, 25, 0, 0, 0, 0, 52, 0, 0, 60, 0, 40, 0, 0, 0, 33, 0, 0, 0, 77, 0, 0, 0, 0, 0, 0, 62, 0, 0, 0, 0, 0, 47
|0, 17, 8, 44, 77, 59, 5, 0, 75, 11, 0, 0, 0, 22, 0, 0, 0, 0, 36, 0, 0, 19, 0, 47, 42, 68, 0, 0, 71, 67, 25, 0, 0, 35, 0, 0, 14, 0, 53, 0, 0, 0, 80, 0, 54, 0, 2, 50, 0, 51, 64, 23, 0, 0, 76, 30, 3, 9, 0, 49, 0, 24, 0, 0, 73, 0, 0, 62, 4, 0, 43, 0, 0, 21, 0, 0, 79, 0, 48, 0, 56
|0, 0, 35, 0, 79, 0, 27, 81, 0, 44, 0, 0, 0, 0, 0, 36, 49, 4, 0, 0, 2, 0, 61, 0, 9, 0, 46, 0, 22, 0, 11, 56, 0, 0, 0, 0, 0, 0, 1, 15, 0, 0, 5, 0, 73, 0, 14, 45, 0, 0, 0, 47, 21, 54, 37, 58, 39, 71, 80, 41, 17, 40, 0, 0, 0, 0, 0, 0, 65, 0, 67, 8, 29, 76, 0, 0, 0, 0, 0, 0, 0
|0, 1, 0, 0, 37, 0, 61, 78, 0, 2, 14, 0, 0, 0, 0, 0, 41, 67, 0, 0, 79, 21, 0, 72, 0, 45, 0, 0, 26, 0, 0, 0, 0, 0, 0, 0, 38, 0, 0, 0, 4, 17, 13, 0, 0, 0, 28, 0, 30, 57, 25, 18, 20, 64, 0, 63, 62, 0, 0, 69, 22, 54, 52, 0, 0, 0, 0, 0, 0, 0, 0, 0, 0, 55, 65, 40, 0, 0, 0, 0, 46
|14, 67, 49, 73, 0, 62, 55, 0, 0, 6, 81, 35, 0, 38, 0, 68, 0, 0, 0, 77, 47, 0, 0, 0, 0, 0, 0, 0, 0, 0, 0, 0, 0, 0, 0, 54, 0, 0, 52, 0, 0, 63, 78, 0, 58, 0, 0, 0, 13, 0, 65, 66, 40, 0, 31, 0, 0, 2, 7, 0, 0, 0, 0, 32, 0, 0, 19, 0, 26, 20, 0, 24, 61, 22, 0, 0, 45, 0, 0, 0, 0
|22, 26, 0, 36, 52, 0, 0, 74, 19, 66, 0, 30, 0, 23, 0, 0, 39, 7, 32, 0, 0, 0, 0, 34, 13, 0, 75, 20, 0, 0, 17, 64, 0, 6, 0, 0, 0, 3, 0, 0, 40, 0, 0, 57, 0, 73, 29, 0, 56, 31, 2, 63, 0, 0, 14, 79, 76, 27, 0, 70, 0, 49, 0, 35, 42, 78, 46, 0, 10, 62, 0, 15, 0, 12, 0, 21, 0, 0, 0, 4, 0
|0, 44, 68, 0, 29, 17, 0, 71, 51, 33, 3, 0, 0, 27, 0, 0, 0, 0, 0, 0, 53, 6, 78, 20, 0, 11, 67, 25, 0, 73, 0, 0, 46, 81, 42, 2, 10, 0, 0, 18, 0, 0, 0, 0, 35, 15, 0, 0, 77, 34, 50, 0, 0, 37, 5, 0, 61, 36, 0, 0, 48, 0, 0, 0, 0, 0, 74, 0, 22, 0, 76, 49, 63, 0, 0, 52, 0, 60, 0, 0, 0
|0, 0, 10, 0, 0, 0, 0, 0, 18, 0, 0, 78, 0, 0, 0, 0, 0, 0, 0, 58, 56, 74, 24, 54, 71, 73, 0, 61, 0, 0, 41, 0, 80, 40, 0, 32, 0, 0, 0, 70, 0, 69, 67, 0, 0, 0, 5, 52, 4, 49, 0, 0, 0, 0, 57, 0, 23, 35, 45, 0, 0, 44, 8, 9, 37, 55, 0, 63, 0, 28, 0, 21, 0, 0, 66, 30, 2, 14, 0, 3, 11
|16, 0, 76, 11, 69, 0, 25, 7, 0, 0, 1, 28, 0, 0, 9, 0, 0, 0, 30, 66, 23, 0, 0, 0, 0, 0, 0, 47, 0, 48, 35, 0, 75, 13, 0, 10, 2, 0, 0, 42, 39, 0, 27, 56, 12, 22, 0, 46, 0, 0, 72, 0, 0, 0, 32, 43, 0, 81, 67, 0, 0, 0, 77, 0, 3, 31, 0, 44, 36, 45, 14, 50, 54, 5, 19, 0, 80, 20, 0, 73, 59
|0, 66, 0, 0, 32, 0, 0, 0, 38, 74, 73, 0, 0, 0, 0, 0, 0, 60, 0, 48, 65, 63, 27, 0, 0, 0, 62, 0, 78, 34, 14, 52, 49, 44, 69, 0, 0, 0, 31, 0, 0, 77, 0, 25, 0, 0, 12, 0, 0, 80, 75, 11, 17, 0, 0, 0, 47, 0, 10, 19, 0, 0, 0, 0, 61, 0, 41, 1, 51, 58, 30, 4, 0, 0, 57, 70, 37, 0, 0, 0, 0
|5, 0, 0, 0, 59, 30, 0, 0, 56, 75, 0, 0, 0, 61, 47, 52, 0, 13, 33, 41, 60, 31, 0, 69, 0, 0, 4, 57, 0, 1, 0, 55, 21, 27, 0, 0, 66, 0, 6, 0, 0, 0, 46, 0, 49, 19, 0, 35, 0, 0, 36, 42, 24, 78, 0, 0, 50, 73, 0, 0, 74, 26, 0, 0, 39, 53, 80, 0, 0, 11, 40, 0, 34, 72, 25, 48, 0, 71, 0, 0, 0
|10, 57, 0, 0, 0, 0, 0, 43, 40, 56, 0, 18, 0, 0, 0, 28, 0, 69, 76, 0, 50, 0, 80, 0, 58, 0, 0, 36, 11, 51, 33, 0, 13, 0, 0, 0, 75, 20, 48, 0, 0, 0, 0, 63, 34, 0, 0, 0, 0, 0, 0, 0, 0, 72, 0, 81, 0, 16, 26, 0, 7, 27, 0, 0, 64, 66, 73, 0, 41, 0, 1, 38, 0, 0, 0, 0, 32, 29, 55, 0, 0
|20, 0, 41, 0, 1, 6, 78, 0, 16, 40, 66, 0, 0, 0, 0, 0, 3, 70, 7, 0, 14, 69, 45, 17, 0, 0, 5, 0, 79, 81, 39, 15, 57, 0, 0, 23, 28, 51, 0, 25, 0, 0, 0, 37, 0, 0, 11, 0, 0, 75, 26, 0, 0, 42, 0, 0, 0, 8, 19, 31, 0, 0, 0, 0, 21, 76, 0, 48, 50, 0, 0, 0, 0, 33, 24, 63, 0, 65, 0, 10, 0
|3, 59, 62, 48, 0, 0, 75, 14, 0, 64, 45, 11, 0, 24, 37, 0, 0, 0, 0, 0, 9, 40, 57, 0, 0, 49, 47, 0, 77, 0, 0, 66, 0, 22, 20, 0, 0, 10, 0, 21, 70, 33, 0, 0, 26, 0, 0, 0, 67, 68, 0, 53, 0, 0, 0, 4, 6, 30, 23, 72, 0, 0, 0, 58, 69, 0, 31, 0, 0, 0, 0, 29, 0, 74, 50, 0, 36, 0, 0, 0, 41
|18, 0, 0, 0, 0, 73, 28, 0, 0, 42, 61, 0, 0, 0, 0, 0, 5, 0, 0, 16, 0, 0, 0, 15, 0, 0, 71, 0, 46, 0, 76, 0, 0, 12, 0, 24, 0, 0, 0, 14, 0, 0, 50, 0, 4, 74, 48, 0, 8, 0, 0, 25, 63, 47, 40, 0, 41, 17, 36, 0, 58, 0, 21, 45, 0, 0, 70, 0, 67, 0, 0, 13, 20, 0, 0, 0, 57, 0, 49, 7, 75
|35, 0, 0, 0, 0, 51, 0, 37, 0, 53, 23, 81, 0, 0, 76, 33, 0, 65, 0, 0, 11, 3, 30, 0, 46, 0, 0, 0, 0, 0, 27, 68, 48, 9, 0, 4, 24, 0, 58, 40, 0, 0, 44, 49, 0, 31, 0, 0, 0, 0, 71, 0, 57, 43, 69, 13, 0, 0, 56, 0, 64, 0, 0, 0, 0, 0, 39, 10, 62, 75, 15, 7, 0, 14, 38, 0, 73, 0, 21, 0, 0
|0, 4, 0, 0, 31, 71, 0, 0, 0, 46, 62, 10, 0, 0, 0, 16, 0, 0, 6, 27, 0, 53, 0, 75, 0, 48, 51, 58, 70, 0, 0, 0, 5, 0, 0, 43, 0, 12, 0, 3, 22, 0, 0, 72, 0, 52, 81, 7, 34, 0, 44, 35, 0, 45, 0, 65, 28, 61, 74, 0, 0, 78, 0, 19, 0, 24, 20, 57, 37, 80, 0, 0, 11, 39, 0, 0, 66, 54, 13, 0, 0
|79, 0, 0, 32, 7, 13, 0, 0, 67, 20, 39, 0, 0, 12, 48, 0, 0, 36, 0, 0, 70, 0, 68, 78, 35, 0, 0, 37, 0, 17, 1, 0, 0, 0, 0, 18, 0, 71, 0, 80, 74, 29, 16, 30, 0, 0, 0, 40, 5, 0, 0, 62, 0, 0, 43, 11, 54, 0, 55, 0, 0, 75, 0, 0, 53, 4, 0, 0, 0, 0, 0, 47, 0, 58, 0, 9, 69, 61, 46, 64, 0
|61, 2, 0, 0, 5, 0, 81, 0, 34, 71, 0, 60, 0, 80, 13, 73, 75, 0, 8, 42, 64, 54, 0, 4, 19, 59, 0, 74, 0, 50, 52, 0, 40, 30, 0, 0, 0, 43, 0, 0, 1, 62, 66, 0, 0, 0, 55, 0, 0, 0, 0, 0, 12, 0, 48, 22, 0, 10, 0, 24, 33, 3, 0, 0, 0, 11, 0, 0, 68, 0, 0, 23, 0, 77, 0, 28, 67, 15, 18, 0, 72
|0, 0, 0, 38, 0, 0, 17, 0, 0, 58, 0, 0, 0, 63, 0, 15, 43, 35, 0, 0, 13, 0, 74, 23, 29, 77, 18, 16, 32, 0, 0, 59, 7, 21, 25, 0, 55, 0, 78, 0, 0, 0, 60, 0, 0, 0, 0, 0, 80, 28, 0, 14, 0, 0, 0, 20, 0, 0, 0, 0, 42, 57, 0, 0, 33, 40, 79, 5, 0, 0, 0, 0, 71, 0, 44, 8, 48, 22, 0, 81, 0|];