order = 9;
grid = [|0, 0, 19, 73, 0, 33, 0, 0, 51, 69, 27, 23, 60, 37, 79, 1, 7, 0, 53, 5, 16, 0, 0, 0, 71, 6, 0, 44, 13, 58, 57, 28, 0, 61, 0, 0, 0, 55, 0, 50, 0, 66, 0, 39, 43, 0, 65, 54, 67, 9, 34, 0, 70, 10, 0, 0, 4, 45, 0, 0, 0, 2, 25, 0, 0, 0, 11, 20, 0, 59, 0, 76, 56, 38, 0, 63, 22, 0, 0, 31, 47
|0, 0, 45, 0, 66, 0, 56, 21, 0, 0, 0, 0, 0, 48, 74, 63, 50, 0, 0, 0, 35, 60, 0, 0, 0, 24, 0, 51, 0, 0, 7, 31, 0, 0, 77, 0, 0, 65, 0, 53, 38, 0, 23, 13, 0, 43, 52, 27, 36, 3, 0, 0, 0, 0, 57, 26, 0, 12, 19, 0, 29, 0, 58, 0, 71, 0, 40, 0, 64, 49, 28, 33, 0, 73, 39, 55, 0, 0, 0, 0, 0
|13, 1, 10, 74, 27, 29, 44, 57, 81, 0, 59, 9, 0, 0, 51, 5, 20, 22, 62, 55, 43, 67, 0, 39, 0, 80, 0, 34, 0, 47, 0, 0, 66, 0, 76, 41, 0, 0, 0, 32, 0, 0, 68, 16, 0, 0, 0, 0, 0, 0, 0, 0, 64, 38, 0, 0, 6, 0, 0, 0, 0, 0, 0, 23, 12, 0, 30, 0, 0, 0, 0, 72, 0, 0, 40, 49, 11, 45, 0, 0, 0
|0, 63, 79, 0, 65, 0, 35, 0, 0, 43, 0, 49, 0, 0, 36, 0, 0, 0, 48, 0, 30, 18, 1, 7, 0, 0, 50, 0, 0, 37, 0, 46, 10, 0, 19, 75, 70, 80, 22, 0, 40, 31, 0, 29, 74, 0, 0, 4, 0, 0, 0, 0, 15, 0, 69, 47, 0, 3, 0, 44, 5, 17, 0, 6, 0, 77, 0, 67, 0, 0, 39, 0, 60, 0, 0, 59, 0, 2, 26, 81, 0
|0, 30, 64, 0, 15, 60, 36, 59, 0, 0, 0, 0, 24, 0, 0, 0, 0, 0, 27, 31, 0, 0, 0, 0, 11, 37, 68, 22, 79, 40, 50, 0, 0, 25, 12, 0, 69, 56, 67, 0, 2, 0, 0, 49, 0, 75, 0, 61, 0, 0, 0, 80, 45, 7, 16, 66, 43, 72, 0, 71, 77, 0, 0, 0, 13, 0, 63, 44, 21, 53, 0, 46, 74, 29, 32, 0, 0, 0, 0, 0, 65
|0, 7, 6, 0, 0, 0, 0, 0, 9, 0, 15, 78, 0, 0, 3, 75, 10, 62, 0, 0, 0, 0, 0, 36, 19, 76, 0, 0, 65, 74, 45, 23, 24, 0, 29, 0, 57, 0, 0, 0, 0, 0, 0, 47, 0, 0, 73, 0, 0, 0, 40, 18, 0, 0, 30, 0, 0, 41, 22, 0, 31, 49, 32, 26, 27, 80, 68, 5, 0, 0, 0, 0, 37, 53, 0, 0, 0, 0, 0, 43, 0
|0, 54, 0, 0, 0, 4, 16, 0, 34, 40, 31, 0, 55, 73, 0, 77, 0, 39, 66, 59, 0, 0, 0, 0, 45, 28, 0, 43, 32, 0, 0, 0, 0, 27, 36, 0, 25, 0, 42, 0, 0, 0, 18, 0, 0, 49, 11, 35, 46, 50, 69, 0, 0, 0, 33, 0, 68, 0, 21, 80, 64, 38, 10, 74, 24, 61, 0, 0, 51, 22, 37, 0, 30, 0, 0, 1, 0, 0, 78, 0, 0
|47, 52, 0, 25, 0, 0, 31, 12, 0, 64, 0, 0, 66, 21, 65, 0, 0, 0, 0, 0, 0, 0, 0, 17, 42, 0, 63, 0, 73, 0, 0, 54, 33, 62, 30, 0, 0, 0, 24, 14, 0, 0, 0, 58, 0, 0, 32, 2, 0, 16, 0, 74, 0, 0, 0, 0, 20, 0, 0, 56, 0, 0, 61, 0, 0, 0, 38, 43, 79, 0, 0, 55, 0, 0, 0, 50, 46, 0, 0, 0, 0
|58, 41, 5, 0, 0, 0, 0, 0, 68, 0, 16, 34, 18, 0, 0, 0, 0, 76, 57, 65, 0, 13, 0, 47, 0, 2, 0, 48, 55, 60, 0, 39, 38, 17, 0, 15, 0, 0, 0, 33, 36, 6, 3, 7, 44, 0, 59, 0, 12, 21, 63, 0, 78, 77, 14, 0, 70, 0, 28, 74, 0, 0, 0, 25, 0, 0, 35, 45, 62, 0, 54, 0, 19, 52, 10, 61, 0, 9, 80, 0, 24
|27, 0, 17, 45, 0, 56, 80, 35, 0, 0, 53, 0, 0, 0, 70, 43, 0, 0, 0, 0, 0, 0, 0, 0, 0, 0, 0, 0, 0, 66, 0, 0, 16, 37, 65, 0, 21, 28, 0, 7, 0, 0, 0, 63, 23, 0, 0, 42, 0, 0, 0, 29, 0, 69, 71, 0, 12, 0, 0, 0, 47, 0, 0, 51, 0, 0, 0, 0, 0, 62, 0, 0, 0, 9, 72, 5, 1, 13, 57, 77, 67
|0, 69, 77, 14, 78, 0, 40, 1, 0, 41, 19, 15, 0, 8, 13, 49, 0, 0, 56, 30, 72, 0, 12, 0, 0, 23, 39, 0, 47, 70, 33, 73, 68, 0, 28, 0, 48, 38, 0, 20, 75, 16, 50, 0, 65, 76, 26, 53, 0, 17, 0, 9, 63, 31, 52, 4, 42, 57, 0, 45, 0, 0, 44, 0, 37, 0, 0, 0, 0, 58, 0, 43, 21, 0, 0, 2, 62, 64, 81, 0, 0
|79, 53, 0, 8, 62, 0, 23, 0, 0, 0, 37, 0, 30, 0, 0, 0, 0, 0, 64, 80, 49, 73, 78, 54, 36, 0, 0, 31, 69, 0, 0, 63, 0, 0, 0, 0, 13, 0, 17, 0, 66, 81, 19, 0, 41, 0, 1, 0, 0, 47, 0, 0, 0, 51, 2, 0, 0, 76, 0, 0, 0, 0, 26, 0, 18, 0, 45, 60, 0, 70, 0, 10, 0, 0, 0, 0, 0, 0, 0, 58, 16
|0, 0, 0, 0, 59, 49, 0, 15, 47, 39, 44, 0, 0, 0, 0, 74, 0, 0, 0, 8, 67, 0, 0, 66, 0, 0, 0, 81, 0, 0, 53, 0, 45, 0, 32, 25, 11, 0, 37, 34, 52, 42, 71, 0, 29, 0, 20, 0, 14, 0, 55, 0, 0, 0, 0, 18, 0, 78, 46, 0, 0, 50, 43, 0, 1, 68, 0, 76, 26, 23, 0, 0, 0, 0, 31, 38, 65, 80, 27, 4, 40
|43, 68, 25, 52, 2, 5, 0, 33, 20, 0, 0, 0, 0, 69, 0, 0, 55, 67, 0, 7, 0, 0, 0, 71, 0, 46, 74, 30, 44, 12, 0, 40, 0, 0, 56, 19, 0, 49, 0, 8, 0, 0, 0, 76, 61, 3, 0, 0, 0, 0, 0, 27, 32, 62, 59, 0, 37, 38, 13, 34, 22, 0, 0, 0, 72, 36, 50, 39, 0, 0, 0, 15, 0, 0, 41, 0, 73, 0, 28, 0, 0
|0, 65, 0, 31, 0, 0, 76, 0, 0, 0, 0, 0, 57, 81, 0, 0, 0, 0, 0, 0, 0, 0, 0, 28, 47, 77, 38, 0, 0, 0, 62, 9, 58, 55, 78, 6, 0, 26, 27, 60, 0, 0, 0, 53, 0, 18, 0, 56, 34, 2, 71, 0, 41, 0, 25, 29, 39, 1, 0, 0, 0, 67, 69, 44, 16, 59, 52, 0, 0, 35, 0, 0, 0, 0, 0, 0, 54, 48, 0, 61, 0
|16, 0, 0, 0, 30, 81, 18, 32, 0, 0, 9, 75, 0, 78, 17, 0, 5, 0, 59, 0, 0, 0, 0, 68, 69, 43, 41, 0, 35, 0, 0, 38, 0, 0, 0, 0, 0, 0, 0, 0, 31, 0, 0, 10, 0, 0, 0, 0, 0, 49, 0, 8, 12, 25, 0, 0, 66, 0, 79, 51, 60, 0, 0, 0, 0, 21, 19, 28, 47, 0, 0, 0, 0, 34, 0, 46, 0, 0, 15, 0, 0
|0, 0, 0, 6, 0, 0, 60, 44, 0, 0, 0, 1, 0, 45, 0, 42, 0, 31, 3, 0, 40, 34, 53, 14, 0, 0, 0, 75, 0, 51, 0, 0, 4, 0, 0, 0, 62, 0, 0, 0, 59, 58, 9, 33, 0, 78, 30, 0, 0, 67, 66, 0, 16, 0, 0, 77, 28, 0, 10, 21, 0, 8, 0, 61, 20, 56, 0, 0, 0, 0, 0, 0, 0, 0, 0, 0, 25, 0, 36, 0, 0
|75, 26, 13, 71, 0, 19, 42, 51, 0, 77, 23, 64, 0, 16, 62, 0, 0, 0, 0, 9, 0, 63, 61, 0, 60, 0, 0, 39, 5, 3, 0, 24, 57, 8, 79, 27, 0, 0, 30, 69, 0, 0, 0, 78, 0, 0, 46, 0, 21, 0, 36, 44, 28, 68, 0, 6, 72, 58, 56, 31, 81, 48, 0, 0, 49, 65, 34, 11, 0, 0, 74, 40, 50, 0, 0, 66, 53, 0, 0, 10, 45
|0, 81, 30, 0, 0, 26, 0, 0, 0, 44, 65, 0, 0, 0, 47, 0, 0, 28, 20, 0, 0, 0, 0, 27, 0, 0, 16, 58, 33, 69, 0, 0, 43, 0, 0, 0, 75, 2, 0, 0, 35, 13, 0, 15, 0, 0, 0, 10, 54, 19, 14, 66, 0, 0, 46, 80, 79, 0, 0, 25, 0, 0, 1, 0, 23, 0, 0, 0, 0, 0, 9, 34, 0, 0, 29, 0, 0, 0, 40, 0, 49
|51, 0, 74, 0, 32, 0, 47, 52, 0, 26, 79, 27, 0, 0, 0, 34, 0, 33, 0, 67, 8, 1, 0, 50, 23, 0, 0, 66, 36, 24, 18, 11, 73, 0, 60, 0, 77, 62, 72, 25, 0, 0, 21, 37, 0, 0, 55, 31, 0, 41, 0, 39, 0, 4, 15, 53, 38, 0, 81, 14, 0, 44, 0, 0, 0, 0, 0, 46, 2, 0, 13, 0, 0, 22, 0, 0, 9, 70, 59, 0, 80
|0, 5, 69, 3, 28, 58, 72, 0, 0, 0, 0, 25, 56, 42, 0, 15, 0, 0, 10, 0, 19, 0, 9, 0, 0, 40, 0, 0, 22, 0, 0, 7, 23, 74, 54, 20, 31, 0, 8, 76, 33, 0, 79, 0, 0, 0, 0, 47, 73, 0, 49, 16, 0, 70, 0, 0, 0, 2, 27, 0, 0, 0, 0, 57, 62, 0, 24, 6, 81, 63, 0, 0, 26, 0, 44, 0, 51, 0, 41, 0, 36
|4, 0, 0, 0, 0, 0, 14, 29, 59, 55, 0, 0, 0, 0, 60, 0, 70, 23, 24, 2, 0, 0, 44, 0, 0, 0, 0, 65, 57, 19, 0, 5, 8, 71, 26, 0, 0, 66, 0, 0, 58, 0, 0, 40, 3, 0, 13, 32, 74, 6, 67, 69, 0, 0, 0, 51, 0, 0, 52, 0, 0, 68, 73, 0, 56, 43, 0, 77, 0, 18, 33, 0, 0, 0, 16, 0, 0, 37, 0, 0, 78
|55, 0, 0, 0, 36, 9, 7, 0, 0, 0, 2, 80, 0, 41, 0, 0, 0, 0, 43, 0, 0, 47, 25, 0, 31, 71, 0, 63, 0, 0, 0, 0, 0, 39, 10, 12, 49, 18, 0, 0, 56, 67, 51, 4, 57, 81, 0, 37, 22, 72, 0, 0, 0, 26, 66, 0, 65, 13, 0, 0, 0, 5, 29, 0, 68, 0, 32, 58, 40, 20, 50, 59, 34, 0, 3, 0, 76, 28, 0, 60, 33
|23, 0, 0, 16, 44, 54, 75, 18, 57, 24, 0, 38, 0, 68, 0, 0, 0, 40, 0, 0, 37, 0, 0, 32, 63, 0, 13, 14, 45, 0, 0, 67, 0, 77, 0, 0, 52, 47, 0, 30, 28, 50, 0, 81, 0, 0, 76, 0, 0, 80, 46, 0, 0, 12, 0, 3, 0, 9, 6, 0, 61, 0, 72, 0, 0, 0, 0, 22, 0, 0, 0, 27, 0, 43, 19, 79, 0, 0, 58, 71, 0
|0, 0, 0, 0, 0, 0, 0, 38, 0, 0, 69, 0, 0, 39, 0, 0, 59, 0, 0, 56, 26, 0, 14, 57, 54, 0, 0, 0, 0, 0, 31, 81, 0, 0, 44, 0, 0, 5, 0, 22, 6, 20, 0, 68, 17, 30, 0, 58, 48, 51, 0, 62, 3, 2, 37, 12, 0, 19, 0, 16, 0, 33, 0, 0, 0, 73, 60, 61, 0, 0, 0, 41, 0, 0, 15, 0, 0, 8, 74, 0, 0
|0, 0, 12, 0, 60, 64, 43, 25, 40, 0, 0, 0, 0, 19, 0, 0, 0, 0, 55, 72, 6, 0, 0, 0, 81, 0, 0, 13, 0, 21, 61, 75, 41, 15, 46, 56, 0, 0, 10, 0, 0, 0, 69, 14, 16, 0, 0, 0, 5, 0, 0, 0, 0, 0, 0, 0, 0, 59, 20, 0, 76, 7, 42, 35, 0, 47, 28, 53, 0, 36, 78, 31, 73, 2, 65, 4, 0, 0, 0, 30, 0
|37, 21, 67, 0, 0, 0, 0, 0, 0, 10, 32, 12, 62, 0, 0, 45, 0, 0, 22, 0, 0, 3, 0, 0, 0, 30, 0, 9, 0, 78, 35, 2, 0, 47, 0, 70, 55, 63, 0, 0, 41, 0, 0, 11, 19, 61, 0, 0, 0, 20, 0, 53, 0, 0, 0, 71, 0, 0, 0, 0, 36, 0, 0, 64, 0, 69, 0, 0, 76, 14, 15, 44, 81, 0, 0, 0, 48, 0, 17, 0, 42
|31, 0, 60, 69, 0, 38, 0, 0, 0, 0, 75, 0, 40, 0, 54, 0, 73, 0, 0, 50, 65, 0, 8, 42, 0, 0, 37, 17, 0, 0, 0, 3, 0, 0, 64, 28, 19, 48, 0, 0, 0, 47, 56, 70, 0, 14, 81, 0, 77, 0, 26, 0, 0, 53, 0, 76, 18, 0, 0, 20, 0, 9, 22, 13, 39, 0, 21, 80, 0, 0, 58, 12, 0, 55, 33, 0, 0, 0, 23, 0, 0
|0, 0, 0, 0, 55, 0, 19, 23, 44, 68, 0, 0, 53, 0, 0, 0, 0, 0, 77, 73, 0, 0, 76, 0, 41, 0, 54, 0, 78, 48, 81, 50, 0, 0, 27, 22, 0, 0, 16, 71, 0, 0, 0, 5, 0, 0, 0, 38, 2, 65, 75, 37, 0, 56, 0, 0, 24, 51, 34, 0, 1, 0, 47, 17, 0, 3, 20, 0, 43, 26, 0, 64, 45, 39, 62, 0, 0, 49, 0, 70, 9
|0, 0, 0, 1, 0, 45, 64, 0, 0, 0, 0, 0, 0, 49, 0, 38, 56, 55, 14, 0, 0, 5, 0, 0, 0, 33, 0, 0, 0, 42, 0, 0, 25, 0, 0, 0, 0, 0, 29, 0, 34, 12, 0, 41, 81, 54, 51, 0, 16, 30, 0, 0, 0, 0, 0, 69, 0, 68, 0, 32, 72, 0, 0, 52, 22, 24, 76, 47, 70, 50, 0, 74, 0, 36, 7, 0, 61, 73, 13, 11, 0
|39, 11, 47, 0, 0, 0, 0, 0, 0, 0, 48, 7, 0, 50, 45, 37, 63, 5, 13, 0, 0, 24, 27, 0, 44, 59, 22, 0, 0, 0, 0, 0, 0, 0, 43, 0, 26, 0, 6, 0, 0, 35, 17, 69, 2, 0, 34, 0, 78, 40, 0, 0, 19, 0, 55, 0, 0, 46, 71, 73, 80, 0, 0, 0, 0, 66, 10, 0, 0, 61, 0, 65, 77, 0, 30, 0, 0, 0, 29, 12, 0
|0, 17, 0, 78, 81, 0, 3, 0, 0, 14, 0, 0, 11, 26, 16, 65, 9, 20, 0, 0, 2, 68, 0, 0, 4, 0, 46, 0, 0, 0, 24, 33, 0, 80, 0, 72, 0, 0, 1, 0, 13, 22, 0, 54, 39, 0, 7, 0, 44, 45, 12, 32, 57, 61, 42, 0, 0, 0, 30, 10, 37, 0, 0, 28, 63, 40, 0, 56, 18, 0, 0, 77, 0, 64, 0, 47, 52, 0, 0, 34, 66
|12, 51, 68, 0, 46, 0, 2, 0, 79, 0, 64, 47, 43, 25, 33, 6, 0, 70, 69, 0, 18, 0, 48, 9, 32, 16, 34, 0, 4, 0, 0, 0, 77, 0, 74, 66, 0, 30, 62, 0, 0, 60, 0, 0, 58, 27, 42, 29, 0, 0, 0, 24, 52, 0, 0, 23, 7, 53, 67, 63, 0, 0, 41, 0, 0, 0, 75, 19, 38, 11, 72, 0, 35, 0, 81, 26, 0, 0, 31, 54, 59
|57, 0, 0, 77, 0, 0, 54, 0, 0, 0, 0, 0, 0, 0, 44, 0, 0, 66, 0, 0, 80, 23, 0, 45, 0, 19, 0, 12, 0, 39, 0, 0, 53, 73, 0, 52, 0, 15, 20, 0, 0, 24, 28, 38, 0, 21, 0, 64, 41, 11, 47, 0, 0, 0, 0, 0, 62, 61, 17, 0, 0, 0, 33, 36, 0, 35, 0, 0, 0, 60, 55, 0, 40, 0, 0, 32, 63, 0, 0, 51, 68
|0, 0, 7, 36, 37, 0, 73, 0, 0, 32, 51, 59, 80, 22, 0, 71, 12, 72, 28, 25, 0, 70, 0, 78, 6, 0, 0, 0, 26, 0, 0, 0, 0, 0, 13, 0, 74, 57, 0, 77, 3, 0, 8, 0, 0, 0, 60, 1, 9, 0, 62, 43, 0, 50, 0, 0, 0, 0, 38, 0, 0, 0, 2, 68, 0, 44, 41, 49, 0, 0, 0, 81, 27, 0, 0, 16, 0, 0, 69, 17, 21
|0, 4, 0, 0, 35, 27, 0, 61, 0, 62, 0, 24, 0, 74, 23, 29, 41, 0, 0, 1, 0, 0, 0, 0, 26, 0, 72, 69, 70, 46, 75, 0, 15, 49, 0, 0, 76, 33, 0, 0, 0, 0, 43, 0, 0, 36, 0, 17, 0, 0, 10, 0, 79, 0, 39, 0, 0, 0, 0, 0, 0, 0, 0, 0, 59, 54, 67, 73, 0, 0, 51, 53, 0, 0, 0, 6, 0, 18, 0, 80, 0
|0, 0, 59, 0, 61, 74, 20, 0, 0, 0, 12, 0, 15, 66, 0, 0, 77, 81, 45, 54, 0, 6, 0, 0, 0, 42, 14, 0, 23, 0, 0, 21, 0, 0, 0, 0, 0, 0, 69, 0, 0, 0, 0, 0, 71, 5, 72, 0, 29, 75, 0, 35, 27, 41, 0, 0, 50, 60, 0, 0, 0, 70, 0, 22, 0, 0, 0, 0, 53, 47, 40, 0, 0, 0, 0, 0, 67, 0, 24, 0, 0
|0, 64, 0, 7, 34, 0, 27, 78, 23, 0, 0, 0, 50, 13, 4, 0, 51, 0, 2, 77, 20, 0, 0, 0, 53, 52, 0, 0, 0, 68, 0, 66, 29, 75, 57, 39, 30, 61, 44, 0, 0, 18, 15, 3, 79, 0, 0, 12, 81, 60, 0, 10, 0, 76, 0, 38, 0, 0, 0, 69, 0, 58, 0, 0, 0, 0, 48, 0, 28, 0, 49, 0, 0, 21, 0, 0, 0, 0, 0, 46, 0
|0, 0, 35, 0, 40, 22, 58, 0, 0, 0, 3, 0, 0, 24, 0, 0, 0, 53, 0, 64, 51, 32, 0, 0, 0, 0, 18, 0, 77, 0, 69, 0, 46, 43, 0, 10, 23, 6, 75, 66, 67, 0, 7, 31, 73, 0, 0, 0, 0, 68, 0, 19, 0, 78, 81, 52, 0, 0, 0, 0, 9, 63, 0, 0, 54, 71, 0, 41, 0, 0, 0, 62, 0, 0, 4, 25, 60, 36, 30, 0, 0
|60, 0, 75, 0, 54, 73, 0, 68, 2, 49, 0, 65, 0, 0, 31, 0, 0, 0, 67, 0, 44, 0, 80, 0, 29, 3, 0, 0, 25, 17, 40, 0, 22, 33, 11, 48, 16, 0, 58, 0, 0, 59, 0, 55, 36, 0, 0, 0, 30, 28, 56, 7, 50, 57, 1, 74, 10, 0, 0, 0, 20, 0, 5, 69, 0, 9, 64, 0, 14, 43, 42, 0, 0, 0, 63, 0, 81, 53, 0, 0, 0
|0, 48, 0, 0, 52, 0, 30, 0, 0, 0, 68, 6, 69, 55, 0, 36, 79, 0, 0, 0, 1, 15, 59, 0, 62, 0, 28, 0, 64, 0, 0, 41, 0, 0, 0, 0, 46, 0, 40, 0, 0, 0, 12, 0, 0, 0, 9, 0, 0, 0, 39, 4, 0, 43, 72, 0, 53, 44, 11, 77, 0, 42, 66, 80, 0, 17, 0, 0, 24, 73, 0, 63, 0, 0, 0, 27, 0, 0, 5, 14, 23
|77, 44, 0, 0, 6, 0, 0, 36, 0, 67, 1, 21, 0, 58, 0, 46, 61, 0, 81, 12, 0, 0, 0, 16, 74, 0, 0, 0, 0, 0, 76, 19, 54, 0, 0, 53, 32, 0, 0, 80, 26, 0, 20, 0, 8, 34, 0, 63, 0, 38, 2, 0, 0, 11, 49, 0, 0, 0, 0, 0, 0, 0, 0, 55, 0, 33, 0, 37, 59, 0, 56, 0, 0, 65, 0, 0, 7, 0, 0, 0, 0
|50, 0, 39, 66, 0, 0, 25, 0, 8, 0, 28, 72, 45, 0, 0, 0, 0, 0, 0, 68, 69, 0, 0, 0, 79, 0, 0, 0, 81, 0, 80, 0, 30, 70, 0, 5, 0, 0, 2, 10, 51, 0, 24, 9, 62, 46, 53, 0, 13, 0, 22, 3, 0, 55, 0, 0, 0, 26, 0, 29, 19, 0, 0, 0, 7, 20, 4, 1, 0, 44, 77, 0, 0, 0, 6, 37, 16, 43, 64, 42, 0
|71, 49, 0, 56, 0, 55, 4, 13, 0, 33, 52, 0, 0, 17, 41, 0, 78, 29, 0, 57, 0, 38, 63, 10, 24, 72, 65, 0, 37, 59, 0, 62, 0, 0, 58, 61, 5, 14, 0, 74, 0, 0, 0, 43, 0, 0, 0, 0, 0, 64, 73, 47, 0, 66, 0, 46, 51, 34, 0, 0, 0, 36, 23, 0, 0, 27, 39, 0, 0, 0, 0, 0, 0, 0, 28, 0, 80, 69, 2, 50, 11
|32, 57, 14, 53, 47, 1, 79, 42, 0, 9, 0, 0, 0, 0, 38, 40, 0, 0, 0, 0, 0, 0, 23, 31, 0, 17, 11, 0, 0, 0, 49, 0, 7, 56, 0, 51, 68, 0, 34, 0, 0, 0, 72, 0, 0, 0, 0, 16, 15, 0, 0, 0, 65, 0, 0, 55, 0, 73, 2, 67, 0, 64, 0, 0, 5, 0, 0, 36, 0, 78, 25, 50, 0, 0, 0, 0, 0, 0, 0, 62, 44
|21, 0, 0, 0, 0, 6, 52, 0, 41, 0, 0, 61, 0, 18, 78, 14, 65, 0, 0, 13, 76, 0, 34, 0, 0, 0, 0, 47, 0, 0, 36, 53, 0, 31, 5, 67, 0, 0, 35, 16, 8, 0, 1, 22, 0, 0, 0, 0, 0, 0, 0, 26, 0, 0, 0, 49, 0, 39, 7, 81, 30, 57, 46, 0, 58, 62, 69, 70, 0, 0, 19, 0, 4, 0, 38, 12, 27, 0, 0, 48, 0
|81, 0, 51, 34, 0, 12, 0, 49, 33, 1, 74, 0, 41, 35, 0, 0, 22, 50, 0, 0, 15, 0, 17, 72, 0, 62, 23, 77, 0, 43, 0, 10, 40, 0, 0, 8, 0, 45, 68, 13, 0, 0, 61, 0, 0, 37, 0, 0, 11, 31, 0, 0, 0, 0, 0, 0, 0, 6, 0, 75, 0, 0, 0, 0, 0, 14, 18, 0, 0, 38, 0, 71, 0, 0, 0, 0, 21, 24, 46, 69, 0
|0, 73, 29, 75, 0, 0, 0, 53, 0, 30, 0, 11, 12, 6, 0, 20, 0, 34, 0, 0, 0, 0, 46, 0, 0, 0, 0, 62, 39, 0, 0, 0, 78, 60, 0, 0, 9, 0, 0, 0, 43, 72, 0, 27, 0, 0, 2, 77, 0, 0, 25, 38, 0, 5, 0, 17, 76, 4, 0, 42, 26, 35, 0, 65, 0, 0, 0, 0, 50, 0, 59, 51, 68, 16, 23, 13, 0, 71, 0, 33, 10
|3, 0, 0, 0, 69, 57, 0, 24, 0, 73, 66, 37, 0, 9, 0, 17, 36, 0, 0, 0, 5, 0, 0, 48, 0, 35, 0, 38, 12, 0, 23, 0, 28, 7, 22, 58, 81, 77, 55, 0, 10, 0, 41, 74, 53, 70, 27, 0, 0, 0, 0, 0, 30, 0, 0, 50, 0, 0, 1, 47, 18, 72, 0, 0, 75, 16, 46, 2, 44, 0, 4, 78, 64, 0, 43, 42, 0, 0, 0, 15, 25
|0, 25, 15, 26, 0, 44, 0, 47, 0, 0, 62, 0, 0, 51, 0, 0, 0, 68, 0, 71, 0, 49, 0, 19, 0, 0, 12, 79, 54, 0, 21, 0, 13, 0, 73, 29, 0, 0, 60, 46, 0, 0, 31, 23, 0, 0, 0, 0, 53, 34, 35, 0, 0, 0, 24, 0, 2, 48, 0, 38, 0, 3, 11, 27, 0, 67, 37, 0, 42, 0, 0, 0, 0, 0, 0, 8, 0, 0, 65, 0, 7
|18, 20, 0, 0, 0, 0, 0, 7, 17, 8, 0, 29, 72, 32, 0, 54, 0, 79, 0, 38, 41, 27, 0, 0, 51, 65, 55, 0, 63, 0, 0, 34, 6, 52, 0, 64, 0, 0, 25, 0, 48, 0, 33, 0, 28, 57, 74, 0, 39, 0, 0, 23, 0, 0, 0, 14, 0, 0, 0, 53, 0, 0, 68, 9, 0, 15, 77, 81, 0, 66, 24, 21, 75, 44, 0, 80, 0, 0, 50, 59, 60
|63, 35, 0, 54, 0, 78, 0, 0, 0, 75, 33, 40, 5, 27, 58, 0, 31, 7, 8, 28, 0, 25, 24, 4, 0, 50, 0, 49, 0, 0, 0, 0, 0, 0, 0, 0, 18, 0, 66, 56, 0, 0, 0, 65, 6, 67, 0, 59, 45, 0, 0, 48, 72, 0, 0, 0, 74, 43, 77, 0, 0, 0, 37, 0, 0, 13, 0, 12, 0, 0, 30, 0, 0, 0, 0, 0, 3, 20, 0, 0, 41
|0, 58, 72, 37, 0, 0, 45, 0, 0, 0, 0, 16, 63, 0, 21, 69, 44, 56, 68, 42, 0, 0, 39, 0, 2, 0, 52, 0, 0, 0, 0, 74, 48, 0, 70, 0, 71, 0, 0, 57, 47, 79, 0, 20, 34, 0, 4, 62, 49, 24, 17, 0, 0, 0, 28, 10, 0, 64, 0, 41, 73, 25, 13, 0, 0, 0, 0, 0, 36, 6, 22, 80, 0, 0, 0, 0, 26, 31, 0, 53, 19
|0, 0, 55, 0, 0, 59, 0, 39, 0, 46, 0, 0, 49, 0, 43, 25, 0, 47, 26, 0, 36, 0, 0, 0, 37, 70, 0, 15, 3, 0, 27, 65, 9, 0, 75, 69, 0, 4, 5, 0, 24, 0, 14, 0, 0, 0, 0, 41, 0, 0, 0, 52, 10, 0, 0, 56, 0, 0, 78, 0, 34, 0, 20, 0, 28, 0, 0, 29, 0, 0, 0, 48, 1, 0, 57, 0, 18, 0, 6, 35, 0
|76, 13, 0, 58, 0, 0, 0, 26, 62, 35, 20, 0, 0, 0, 0, 0, 0, 0, 73, 10, 31, 17, 0, 49, 67, 0, 0, 19, 0, 0, 39, 78, 0, 5, 0, 44, 24, 0, 0, 41, 0, 0, 0, 0, 0, 0, 57, 46, 0, 12, 0, 0, 37, 81, 54, 0, 0, 0, 65, 15, 59, 56, 0, 0, 50, 64, 27, 0, 34, 0, 0, 0, 0, 80, 0, 0, 0, 0, 4, 2, 0
|0, 3, 0, 0, 9, 31, 0, 0, 0, 0, 17, 45, 67, 0, 0, 0, 43, 6, 0, 4, 0, 0, 0, 0, 0, 57, 30, 33, 34, 0, 0, 0, 69, 0, 55, 0, 0, 0, 7, 0, 73, 28, 0, 0, 0, 0, 35, 0, 0, 10, 0, 2, 1, 52, 0, 39, 0, 0, 49, 0, 74, 75, 71, 0, 0, 0, 0, 0, 37, 19, 80, 0, 0, 0, 46, 0, 78, 0, 32, 0, 26
|42, 0, 0, 0, 56, 14, 41, 69, 6, 0, 61, 74, 0, 0, 49, 76, 0, 0, 34, 0, 0, 0, 0, 0, 7, 79, 0, 0, 0, 0, 15, 0, 0, 0, 48, 0, 0, 0, 0, 0, 55, 0, 2, 0, 0, 0, 47, 67, 59, 0, 0, 45, 62, 30, 0, 40, 0, 0, 80, 58, 50, 66, 60, 20, 0, 0, 0, 0, 46, 0, 0, 68, 52, 0, 37, 28, 31, 57, 54, 0, 63
|0, 0, 0, 21, 0, 17, 5, 30, 35, 58, 0, 41, 0, 0, 27, 62, 54, 0, 52, 0, 78, 55, 18, 80, 77, 64, 0, 56, 49, 31, 0, 4, 0, 0, 67, 2, 0, 0, 0, 12, 0, 65, 0, 42, 0, 26, 28, 0, 0, 22, 0, 40, 0, 0, 3, 34, 0, 20, 0, 37, 0, 69, 24, 0, 43, 0, 44, 0, 6, 0, 76, 0, 0, 0, 9, 0, 0, 11, 0, 72, 0
|44, 0, 49, 29, 0, 0, 0, 0, 52, 0, 0, 0, 39, 0, 0, 0, 75, 37, 0, 0, 45, 72, 0, 24, 21, 8, 0, 0, 0, 76, 43, 13, 0, 28, 47, 0, 0, 46, 0, 64, 60, 62, 59, 0, 67, 0, 0, 80, 79, 54, 77, 0, 0, 0, 0, 0, 16, 35, 14, 0, 32, 18, 0, 81, 0, 26, 0, 0, 3, 12, 0, 5, 0, 25, 42, 0, 0, 27, 0, 0, 0
|73, 47, 0, 40, 0, 0, 37, 0, 0, 0, 25, 0, 0, 0, 0, 0, 2, 42, 0, 0, 0, 35, 0, 0, 0, 66, 0, 54, 0, 62, 0, 0, 71, 0, 0, 26, 27, 0, 56, 0, 0, 80, 0, 0, 0, 16, 43, 33, 64, 44, 0, 50, 8, 34, 61, 45, 78, 0, 0, 1, 0, 41, 0, 75, 15, 0, 9, 57, 39, 13, 65, 70, 10, 0, 0, 53, 30, 0, 77, 18, 0
|0, 0, 33, 0, 0, 43, 51, 19, 0, 5, 26, 79, 77, 60, 40, 0, 30, 80, 0, 0, 0, 0, 0, 37, 15, 0, 42, 0, 0, 0, 0, 0, 0, 0, 0, 3, 0, 0, 0, 0, 0, 0, 0, 0, 0, 0, 14, 18, 0, 36, 0, 65, 53, 17, 0, 48, 46, 62, 12, 0, 0, 11, 0, 31, 0, 63, 0, 0, 0, 28, 45, 0, 0, 0, 73, 7, 13, 75, 47, 38, 0
|0, 0, 22, 0, 18, 0, 34, 74, 0, 38, 56, 0, 4, 0, 0, 0, 21, 1, 46, 11, 0, 0, 0, 6, 0, 0, 0, 57, 0, 0, 0, 0, 37, 12, 0, 0, 0, 0, 0, 0, 19, 0, 10, 0, 9, 24, 5, 75, 3, 27, 29, 0, 0, 0, 0, 72, 17, 0, 0, 28, 67, 73, 0, 79, 51, 30, 0, 0, 0, 54, 23, 32, 71, 0, 14, 36, 0, 35, 0, 0, 0
|8, 71, 16, 0, 72, 0, 81, 0, 75, 65, 46, 18, 0, 0, 24, 12, 3, 14, 0, 0, 54, 0, 0, 0, 0, 60, 47, 0, 53, 0, 0, 32, 0, 0, 0, 0, 0, 0, 74, 0, 0, 0, 0, 0, 0, 9, 0, 0, 4, 7, 0, 63, 25, 39, 0, 0, 0, 0, 0, 0, 0, 21, 0, 41, 17, 42, 59, 55, 0, 0, 35, 0, 0, 49, 67, 76, 34, 62, 0, 40, 58
|25, 0, 20, 0, 0, 15, 6, 73, 0, 0, 22, 70, 9, 0, 55, 3, 28, 0, 18, 0, 0, 52, 19, 0, 35, 32, 0, 26, 71, 61, 58, 47, 0, 66, 33, 30, 0, 78, 0, 48, 0, 0, 0, 46, 5, 0, 10, 0, 72, 0, 0, 64, 0, 0, 44, 0, 11, 0, 0, 68, 4, 81, 0, 0, 0, 0, 36, 50, 75, 0, 0, 0, 31, 41, 0, 77, 2, 42, 7, 23, 0
|0, 0, 0, 0, 14, 35, 29, 16, 24, 0, 67, 62, 0, 36, 0, 81, 42, 0, 71, 34, 21, 0, 57, 0, 65, 0, 0, 0, 38, 79, 0, 80, 0, 0, 0, 0, 59, 0, 63, 0, 0, 15, 0, 0, 0, 20, 50, 0, 32, 78, 0, 28, 0, 74, 0, 37, 0, 22, 0, 17, 13, 54, 53, 0, 77, 0, 0, 26, 5, 0, 0, 0, 0, 0, 0, 45, 10, 0, 39, 49, 0
|22, 79, 0, 30, 8, 0, 0, 0, 0, 0, 0, 0, 0, 56, 75, 39, 0, 2, 72, 0, 42, 4, 7, 0, 9, 0, 80, 0, 0, 13, 73, 0, 0, 0, 0, 0, 0, 0, 28, 29, 65, 0, 66, 0, 76, 77, 12, 36, 38, 0, 0, 46, 0, 0, 41, 0, 57, 0, 74, 0, 49, 0, 0, 0, 0, 25, 70, 23, 19, 81, 0, 3, 67, 0, 71, 62, 20, 55, 63, 64, 0
|0, 75, 40, 23, 0, 0, 0, 45, 56, 59, 73, 0, 33, 0, 0, 0, 0, 0, 0, 69, 68, 0, 13, 43, 0, 20, 1, 0, 0, 28, 25, 12, 0, 0, 0, 78, 0, 0, 79, 0, 0, 0, 0, 2, 31, 8, 0, 0, 55, 48, 0, 42, 0, 65, 0, 35, 0, 29, 72, 0, 0, 51, 39, 66, 4, 0, 7, 0, 63, 0, 14, 16, 11, 61, 0, 60, 0, 81, 44, 0, 52
|1, 42, 65, 27, 13, 36, 0, 0, 12, 79, 0, 0, 74, 0, 0, 0, 29, 21, 0, 0, 0, 0, 58, 25, 0, 48, 0, 37, 16, 18, 51, 64, 55, 20, 4, 0, 7, 41, 0, 0, 0, 0, 45, 0, 0, 0, 44, 0, 61, 26, 0, 0, 0, 14, 0, 73, 0, 70, 5, 0, 0, 31, 0, 0, 0, 2, 0, 0, 69, 30, 0, 0, 57, 0, 22, 0, 0, 0, 0, 0, 0
|72, 0, 71, 0, 53, 0, 49, 37, 0, 0, 0, 4, 20, 0, 0, 0, 34, 17, 31, 78, 0, 0, 67, 51, 0, 38, 24, 40, 0, 0, 0, 0, 2, 0, 39, 0, 0, 52, 0, 6, 0, 0, 57, 8, 55, 0, 0, 3, 33, 0, 0, 0, 68, 0, 36, 19, 0, 0, 42, 65, 0, 79, 0, 58, 64, 0, 0, 0, 0, 0, 0, 13, 46, 0, 26, 0, 0, 59, 0, 0, 0
|26, 31, 0, 57, 43, 52, 55, 64, 39, 76, 0, 51, 0, 23, 61, 0, 0, 0, 47, 81, 0, 0, 16, 0, 75, 0, 3, 8, 0, 0, 6, 36, 74, 48, 7, 24, 1, 58, 50, 0, 0, 0, 0, 21, 12, 11, 62, 0, 63, 25, 0, 0, 17, 49, 77, 67, 0, 0, 0, 46, 2, 32, 0, 0, 80, 0, 65, 0, 0, 33, 0, 0, 0, 0, 0, 0, 0, 0, 53, 0, 0
|74, 0, 0, 2, 0, 70, 32, 0, 66, 0, 47, 0, 0, 64, 7, 0, 0, 0, 0, 0, 0, 45, 0, 26, 0, 0, 60, 0, 0, 0, 22, 0, 5, 65, 0, 0, 0, 10, 0, 0, 44, 0, 0, 71, 0, 52, 0, 0, 0, 57, 0, 34, 0, 59, 0, 61, 0, 0, 0, 0, 63, 55, 0, 39, 0, 53, 51, 0, 73, 0, 0, 0, 0, 4, 0, 0, 38, 0, 79, 37, 56
|0, 0, 0, 76, 68, 0, 0, 0, 0, 80, 0, 0, 0, 31, 0, 32, 15, 69, 61, 0, 79, 0, 0, 74, 0, 63, 0, 59, 67, 0, 0, 70, 44, 41, 0, 0, 17, 0, 33, 0, 0, 0, 53, 26, 0, 0, 22, 0, 0, 0, 0, 71, 2, 37, 0, 0, 30, 7, 0, 43, 10, 0, 48, 0, 0, 28, 49, 0, 0, 34, 52, 24, 0, 0, 0, 73, 66, 0, 0, 8, 14
|54, 15, 0, 0, 0, 75, 0, 0, 0, 0, 70, 50, 48, 0, 29, 73, 0, 64, 0, 0, 38, 80, 37, 13, 0, 0, 62, 0, 0, 0, 28, 0, 0, 0, 81, 0, 0, 0, 0, 0, 0, 0, 0, 0, 11, 55, 0, 30, 0, 0, 0, 72, 0, 35, 0, 78, 0, 17, 0, 26, 0, 0, 0, 1, 74, 6, 0, 34, 67, 0, 0, 0, 66, 0, 0, 9, 42, 0, 33, 25, 77
|0, 29, 0, 0, 5, 0, 77, 66, 80, 31, 0, 67, 75, 76, 25, 0, 69, 46, 0, 0, 0, 0, 0, 55, 48, 0, 0, 0, 0, 0, 0, 0, 12, 14, 6, 33, 0, 70, 0, 73, 0, 0, 0, 30, 0, 0, 16, 9, 26, 4, 0, 0, 0, 0, 0, 0, 41, 79, 0, 60, 54, 28, 34, 32, 44, 0, 42, 0, 0, 24, 20, 49, 0, 0, 68, 0, 64, 0, 0, 0, 0
|67, 6, 0, 43, 0, 79, 46, 71, 0, 19, 4, 0, 27, 57, 56, 0, 0, 51, 0, 0, 63, 0, 70, 0, 0, 0, 31, 0, 0, 0, 10, 30, 0, 0, 0, 0, 66, 0, 0, 15, 0, 0, 0, 48, 0, 0, 41, 0, 0, 0, 78, 0, 69, 0, 0, 22, 36, 0, 29, 0, 38, 77, 0, 37, 0, 5, 25, 64, 58, 80, 68, 0, 16, 0, 13, 81, 40, 65, 0, 0, 0
|0, 8, 37, 24, 0, 68, 0, 0, 0, 42, 41, 0, 0, 80, 0, 0, 35, 0, 21, 29, 0, 0, 0, 75, 28, 0, 67, 71, 50, 38, 64, 61, 47, 40, 31, 4, 0, 0, 0, 58, 0, 0, 0, 17, 0, 6, 33, 13, 51, 0, 3, 81, 20, 22, 0, 62, 0, 0, 0, 72, 0, 0, 70, 60, 0, 0, 0, 78, 77, 16, 26, 18, 63, 0, 0, 0, 49, 23, 19, 5, 79
|0, 0, 0, 0, 25, 42, 0, 0, 0, 0, 24, 55, 0, 0, 0, 0, 72, 0, 0, 46, 10, 0, 0, 0, 14, 39, 19, 32, 0, 54, 0, 49, 70, 0, 0, 60, 51, 12, 0, 0, 0, 1, 0, 0, 0, 0, 71, 0, 28, 0, 59, 58, 0, 0, 7, 44, 5, 81, 0, 0, 40, 45, 0, 50, 0, 79, 0, 9, 0, 0, 66, 69, 0, 0, 11, 0, 6, 4, 0, 0, 17
|0, 0, 9, 18, 51, 62, 21, 0, 0, 0, 30, 0, 8, 0, 68, 0, 52, 63, 42, 0, 71, 16, 77, 60, 5, 26, 64, 0, 0, 0, 44, 76, 0, 0, 66, 0, 0, 20, 0, 79, 0, 0, 4, 0, 24, 12, 49, 34, 0, 37, 43, 0, 0, 0, 6, 0, 0, 31, 0, 48, 55, 19, 27, 0, 38, 81, 0, 59, 22, 46, 0, 0, 80, 0, 0, 72, 75, 15, 0, 0, 53
|0, 0, 0, 72, 12, 69, 0, 22, 0, 0, 0, 77, 0, 0, 10, 0, 37, 0, 0, 0, 25, 0, 0, 0, 27, 0, 0, 21, 0, 26, 34, 68, 0, 0, 80, 0, 6, 0, 41, 0, 74, 0, 0, 0, 0, 2, 17, 0, 40, 61, 70, 1, 0, 0, 23, 0, 35, 0, 39, 0, 0, 47, 9, 0, 48, 51, 0, 15, 0, 0, 11, 73, 0, 32, 0, 44, 0, 54, 0, 29, 62
|0, 0, 0, 17, 0, 0, 0, 58, 0, 78, 0, 39, 34, 0, 0, 11, 81, 45, 0, 0, 23, 69, 32, 52, 0, 0, 0, 0, 62, 0, 13, 0, 65, 0, 0, 0, 0, 60, 0, 2, 0, 0, 40, 0, 50, 10, 67, 14, 47, 0, 44, 76, 80, 0, 0, 0, 73, 74, 0, 66, 46, 0, 21, 54, 0, 0, 0, 35, 0, 0, 70, 0, 36, 48, 61, 0, 59, 26, 37, 55, 18
|70, 0, 26, 0, 76, 23, 0, 4, 60, 54, 49, 5, 32, 79, 0, 0, 74, 0, 0, 0, 34, 58, 0, 0, 0, 0, 0, 41, 75, 0, 48, 0, 63, 0, 59, 77, 0, 0, 9, 35, 22, 55, 42, 25, 69, 0, 19, 73, 0, 0, 0, 36, 38, 0, 80, 0, 15, 0, 0, 0, 14, 16, 67, 62, 47, 72, 0, 0, 13, 0, 0, 39, 0, 0, 0, 0, 0, 10, 71, 0, 31|];