order = 9;
grid = [|48, 64, 51, 81, 19, 20, 60, 0, 53, 0, 79, 0, 0, 0, 71, 0, 10, 0, 7, 0, 0, 43, 16, 0, 0, 40, 58, 0, 0, 0, 0, 0, 0, 0, 0, 31, 80, 0, 0, 24, 0, 0, 6, 30, 74, 0, 49, 0, 45, 22, 37, 0, 63, 77, 0, 15, 59, 0, 0, 61, 46, 12, 0, 50, 57, 0, 38, 0, 21, 0, 0, 17, 0, 65, 0, 0, 23, 0, 0, 67, 73
|28, 55, 32, 37, 0, 0, 11, 15, 61, 7, 0, 0, 0, 26, 65, 72, 49, 0, 0, 10, 51, 0, 0, 24, 23, 0, 0, 0, 38, 0, 0, 63, 46, 66, 34, 0, 0, 0, 56, 75, 0, 0, 0, 0, 76, 0, 0, 54, 13, 0, 0, 78, 1, 69, 0, 50, 0, 42, 6, 29, 30, 68, 0, 8, 40, 0, 58, 31, 67, 12, 43, 22, 71, 0, 0, 0, 53, 0, 77, 0, 74
|0, 0, 0, 0, 27, 14, 0, 0, 30, 57, 0, 8, 0, 13, 74, 22, 20, 47, 65, 71, 0, 0, 37, 0, 28, 26, 0, 53, 54, 81, 1, 42, 77, 67, 43, 0, 50, 0, 35, 52, 0, 59, 0, 29, 69, 18, 58, 55, 0, 0, 0, 39, 79, 0, 73, 0, 24, 49, 0, 0, 0, 45, 0, 19, 46, 3, 0, 56, 51, 0, 0, 0, 0, 41, 2, 0, 62, 0, 12, 0, 0
|0, 12, 0, 70, 0, 0, 39, 0, 23, 0, 3, 59, 34, 66, 0, 0, 30, 19, 0, 0, 0, 0, 62, 0, 47, 0, 63, 0, 0, 61, 8, 11, 21, 52, 0, 48, 20, 0, 25, 0, 0, 14, 0, 0, 26, 35, 0, 73, 17, 0, 0, 0, 0, 33, 0, 55, 7, 0, 74, 0, 0, 37, 67, 77, 24, 0, 16, 0, 0, 0, 5, 0, 51, 0, 0, 0, 79, 15, 22, 0, 0
|0, 0, 56, 10, 50, 0, 0, 40, 0, 0, 31, 58, 0, 36, 62, 0, 0, 0, 59, 0, 0, 0, 5, 0, 8, 0, 0, 0, 68, 60, 15, 0, 0, 0, 0, 64, 71, 0, 49, 0, 54, 0, 65, 16, 0, 6, 0, 67, 4, 38, 0, 0, 0, 12, 35, 63, 33, 72, 0, 41, 79, 0, 0, 0, 27, 0, 0, 39, 75, 0, 26, 0, 57, 48, 0, 0, 61, 70, 0, 76, 81
|0, 0, 17, 0, 59, 77, 0, 18, 0, 0, 67, 80, 45, 16, 0, 0, 0, 0, 74, 0, 0, 0, 36, 0, 81, 0, 50, 7, 0, 0, 0, 78, 0, 0, 0, 0, 0, 63, 15, 19, 0, 11, 64, 51, 73, 0, 0, 5, 23, 68, 0, 28, 0, 14, 27, 0, 0, 10, 44, 39, 21, 0, 4, 0, 60, 62, 48, 0, 25, 47, 30, 49, 0, 0, 38, 0, 56, 66, 72, 0, 26
|4, 0, 0, 31, 0, 41, 0, 75, 3, 5, 2, 27, 54, 0, 40, 0, 76, 25, 0, 0, 60, 0, 73, 0, 53, 30, 0, 59, 0, 0, 16, 0, 50, 0, 0, 69, 57, 1, 58, 0, 0, 0, 7, 0, 44, 0, 61, 0, 48, 26, 10, 19, 0, 0, 18, 0, 0, 51, 0, 0, 38, 0, 66, 0, 0, 0, 0, 0, 42, 0, 81, 11, 45, 0, 46, 0, 24, 0, 39, 17, 0
|0, 0, 73, 58, 0, 67, 49, 26, 38, 63, 0, 24, 15, 42, 0, 0, 0, 23, 0, 0, 0, 45, 0, 0, 11, 13, 75, 0, 79, 0, 47, 0, 41, 0, 0, 0, 0, 0, 37, 0, 0, 36, 0, 0, 8, 66, 0, 29, 0, 7, 0, 0, 31, 27, 0, 0, 0, 81, 60, 0, 0, 0, 0, 4, 33, 54, 0, 72, 44, 64, 0, 0, 80, 34, 0, 0, 0, 0, 0, 50, 0
|0, 0, 63, 0, 0, 0, 0, 29, 42, 0, 12, 0, 81, 39, 60, 0, 0, 0, 0, 0, 0, 15, 66, 0, 57, 0, 4, 0, 5, 0, 27, 0, 0, 0, 0, 74, 0, 22, 23, 0, 0, 0, 32, 72, 67, 62, 0, 52, 36, 76, 43, 0, 56, 0, 0, 0, 0, 0, 25, 0, 54, 0, 0, 0, 37, 0, 0, 55, 0, 41, 61, 0, 0, 20, 0, 13, 0, 64, 49, 0, 18
|6, 4, 0, 77, 0, 0, 0, 0, 63, 10, 0, 0, 68, 22, 21, 71, 27, 0, 25, 43, 0, 0, 0, 48, 0, 0, 0, 0, 16, 20, 37, 36, 0, 59, 31, 0, 72, 0, 7, 0, 0, 57, 0, 0, 0, 0, 45, 0, 29, 51, 24, 0, 49, 0, 0, 0, 0, 19, 0, 0, 0, 0, 0, 0, 0, 0, 41, 15, 30, 40, 0, 0, 50, 9, 0, 0, 47, 0, 13, 42, 0
|29, 32, 0, 0, 0, 38, 0, 69, 37, 62, 0, 0, 0, 3, 70, 0, 61, 49, 0, 77, 0, 26, 0, 11, 0, 5, 41, 56, 0, 0, 0, 7, 0, 0, 0, 0, 8, 0, 0, 20, 0, 65, 0, 36, 48, 0, 0, 18, 68, 50, 0, 0, 0, 31, 74, 44, 0, 55, 0, 66, 0, 0, 51, 0, 13, 24, 46, 0, 10, 0, 0, 23, 0, 0, 67, 21, 0, 30, 71, 0, 16
|0, 57, 31, 34, 8, 5, 0, 9, 2, 51, 13, 0, 0, 45, 0, 0, 60, 17, 29, 0, 0, 72, 3, 0, 16, 37, 0, 0, 0, 0, 0, 18, 0, 0, 0, 0, 41, 0, 24, 64, 0, 0, 0, 1, 0, 0, 0, 0, 40, 0, 62, 30, 0, 25, 75, 43, 0, 36, 0, 22, 0, 32, 0, 76, 56, 53, 21, 0, 0, 0, 0, 33, 44, 0, 48, 0, 14, 0, 23, 0, 0
|54, 58, 16, 0, 11, 73, 0, 0, 75, 9, 43, 55, 0, 72, 48, 0, 28, 0, 69, 0, 17, 0, 0, 0, 0, 0, 0, 0, 41, 0, 61, 0, 0, 0, 13, 0, 76, 3, 22, 0, 79, 66, 53, 0, 0, 33, 23, 0, 0, 0, 0, 56, 35, 32, 0, 10, 80, 0, 38, 67, 59, 49, 0, 14, 0, 26, 0, 57, 63, 1, 0, 12, 5, 19, 0, 0, 37, 40, 0, 62, 0
|61, 48, 71, 0, 12, 0, 0, 0, 36, 53, 63, 0, 32, 0, 0, 59, 0, 0, 0, 0, 0, 60, 0, 0, 0, 35, 0, 47, 0, 0, 10, 0, 23, 33, 4, 80, 0, 2, 5, 68, 25, 73, 0, 40, 0, 0, 67, 37, 46, 78, 22, 0, 57, 0, 41, 16, 15, 0, 45, 0, 0, 31, 0, 0, 79, 51, 44, 0, 19, 52, 72, 20, 0, 0, 74, 0, 1, 0, 3, 34, 0
|20, 46, 0, 0, 79, 0, 0, 78, 0, 0, 0, 50, 0, 0, 14, 77, 0, 26, 0, 0, 36, 0, 0, 74, 0, 63, 68, 67, 30, 0, 0, 62, 0, 0, 0, 24, 33, 0, 47, 39, 0, 19, 44, 0, 45, 53, 65, 0, 12, 0, 13, 0, 61, 0, 0, 72, 18, 3, 54, 17, 0, 1, 0, 0, 0, 0, 69, 0, 71, 29, 0, 0, 0, 0, 0, 70, 0, 0, 31, 25, 22
|10, 0, 52, 41, 0, 24, 0, 0, 0, 0, 0, 0, 30, 40, 47, 0, 67, 0, 20, 0, 1, 9, 42, 75, 70, 59, 0, 0, 48, 0, 34, 0, 0, 51, 68, 76, 0, 17, 0, 61, 46, 15, 0, 23, 49, 0, 69, 0, 0, 0, 0, 77, 0, 0, 58, 0, 0, 0, 0, 62, 5, 0, 0, 0, 2, 0, 32, 0, 22, 0, 38, 81, 0, 0, 0, 0, 0, 0, 56, 0, 0
|51, 0, 40, 0, 0, 50, 0, 22, 0, 12, 0, 0, 0, 0, 0, 0, 0, 0, 0, 30, 0, 57, 0, 0, 0, 0, 0, 0, 21, 6, 0, 44, 0, 45, 69, 53, 0, 0, 31, 0, 0, 34, 80, 18, 0, 17, 0, 11, 59, 0, 0, 0, 0, 0, 0, 14, 23, 0, 0, 0, 0, 0, 0, 43, 0, 0, 8, 0, 0, 0, 7, 61, 0, 4, 0, 60, 75, 0, 0, 0, 20
|74, 0, 0, 0, 35, 27, 0, 0, 0, 37, 24, 57, 76, 0, 0, 0, 23, 4, 40, 0, 31, 0, 0, 0, 50, 44, 0, 22, 0, 0, 0, 0, 5, 78, 60, 32, 38, 0, 29, 0, 62, 28, 0, 12, 59, 36, 54, 34, 0, 0, 0, 0, 0, 0, 0, 56, 0, 70, 61, 30, 71, 0, 0, 0, 48, 0, 0, 17, 0, 0, 11, 0, 49, 0, 0, 68, 63, 0, 26, 0, 33
|23, 0, 58, 0, 57, 9, 0, 52, 11, 17, 26, 65, 13, 0, 6, 0, 38, 0, 35, 47, 0, 67, 43, 77, 0, 0, 0, 0, 31, 27, 0, 75, 0, 0, 46, 0, 0, 16, 19, 0, 0, 12, 76, 22, 61, 51, 0, 2, 72, 30, 0, 0, 0, 53, 80, 0, 0, 0, 32, 0, 56, 0, 0, 78, 63, 0, 0, 0, 4, 0, 0, 54, 10, 0, 44, 1, 73, 0, 0, 71, 0
|26, 40, 0, 0, 7, 0, 0, 0, 0, 0, 53, 71, 73, 63, 66, 0, 36, 22, 0, 0, 58, 0, 0, 0, 0, 28, 57, 0, 0, 0, 0, 72, 67, 32, 0, 0, 0, 0, 45, 6, 0, 0, 50, 44, 0, 0, 0, 0, 8, 0, 0, 0, 0, 75, 0, 0, 0, 0, 33, 37, 55, 0, 31, 0, 62, 0, 0, 0, 18, 46, 0, 79, 0, 12, 0, 0, 0, 0, 19, 0, 15
|0, 0, 0, 0, 20, 59, 46, 0, 24, 0, 0, 21, 0, 0, 0, 0, 25, 0, 0, 0, 0, 38, 69, 0, 5, 50, 76, 52, 65, 0, 0, 0, 55, 15, 0, 30, 56, 66, 67, 0, 0, 10, 81, 0, 0, 9, 80, 48, 0, 63, 0, 43, 28, 0, 0, 0, 44, 22, 16, 0, 0, 0, 0, 73, 75, 0, 19, 35, 0, 0, 0, 64, 0, 6, 11, 74, 18, 0, 45, 13, 0
|0, 0, 0, 0, 44, 0, 0, 45, 0, 0, 57, 0, 48, 46, 0, 0, 0, 10, 72, 78, 0, 14, 7, 1, 0, 0, 73, 0, 0, 0, 40, 0, 26, 0, 12, 0, 0, 79, 0, 0, 0, 0, 30, 5, 18, 56, 0, 0, 39, 25, 0, 17, 23, 68, 70, 75, 0, 0, 0, 0, 8, 0, 13, 0, 65, 0, 6, 2, 0, 16, 67, 76, 62, 53, 33, 59, 41, 47, 54, 0, 32
|39, 56, 0, 25, 0, 0, 81, 36, 0, 0, 20, 54, 0, 0, 24, 67, 3, 0, 27, 16, 68, 22, 2, 0, 0, 66, 19, 0, 0, 80, 57, 47, 0, 0, 0, 70, 0, 0, 0, 40, 0, 0, 11, 53, 0, 64, 0, 0, 6, 0, 0, 10, 62, 74, 0, 0, 12, 0, 0, 0, 7, 0, 73, 41, 15, 0, 0, 45, 0, 0, 21, 8, 0, 76, 0, 28, 0, 0, 0, 0, 42
|0, 0, 13, 0, 0, 16, 0, 0, 0, 0, 0, 45, 0, 0, 0, 0, 0, 0, 55, 33, 0, 0, 23, 41, 71, 6, 0, 0, 74, 2, 42, 0, 49, 68, 0, 0, 0, 0, 8, 46, 24, 20, 0, 0, 75, 52, 44, 0, 0, 0, 0, 0, 32, 0, 0, 3, 77, 66, 36, 53, 25, 63, 0, 7, 0, 0, 30, 11, 59, 0, 56, 14, 0, 0, 0, 0, 0, 72, 21, 0, 0
|50, 69, 0, 0, 0, 17, 0, 0, 0, 0, 78, 0, 0, 0, 0, 2, 0, 0, 42, 79, 52, 0, 0, 0, 40, 0, 0, 0, 0, 7, 63, 0, 59, 0, 0, 0, 32, 72, 0, 0, 35, 0, 27, 0, 47, 0, 81, 0, 0, 0, 67, 76, 3, 0, 46, 21, 0, 0, 0, 14, 0, 0, 9, 57, 0, 0, 0, 0, 23, 0, 74, 48, 25, 0, 34, 56, 49, 0, 24, 66, 31
|76, 0, 19, 60, 0, 0, 0, 55, 64, 29, 9, 7, 4, 31, 0, 0, 74, 39, 0, 25, 0, 8, 0, 44, 45, 0, 0, 0, 0, 0, 0, 0, 71, 0, 36, 0, 73, 0, 2, 57, 0, 41, 69, 0, 23, 0, 0, 65, 78, 47, 0, 0, 42, 46, 6, 0, 0, 0, 40, 0, 0, 0, 48, 0, 12, 77, 49, 32, 0, 61, 0, 0, 35, 0, 16, 38, 20, 0, 63, 0, 0
|0, 6, 74, 0, 43, 0, 29, 41, 0, 0, 35, 0, 0, 0, 0, 12, 19, 68, 0, 17, 0, 59, 21, 9, 0, 51, 46, 16, 61, 66, 23, 53, 76, 0, 0, 38, 28, 0, 64, 0, 14, 0, 0, 48, 31, 11, 22, 45, 0, 55, 7, 73, 77, 49, 26, 42, 0, 0, 67, 0, 0, 78, 0, 0, 0, 34, 0, 0, 0, 0, 0, 5, 0, 37, 50, 0, 0, 39, 8, 79, 0
|0, 81, 10, 0, 0, 42, 73, 20, 0, 80, 0, 0, 0, 0, 0, 66, 65, 5, 0, 19, 44, 58, 0, 2, 68, 0, 64, 8, 0, 59, 43, 48, 24, 7, 51, 0, 0, 18, 32, 9, 55, 0, 23, 0, 79, 0, 0, 0, 34, 0, 6, 53, 0, 0, 0, 0, 21, 0, 0, 38, 0, 0, 40, 67, 69, 49, 0, 0, 26, 0, 0, 16, 0, 50, 70, 15, 30, 25, 35, 29, 0
|0, 49, 55, 0, 30, 0, 61, 0, 51, 0, 1, 0, 36, 11, 79, 0, 64, 67, 26, 0, 43, 0, 0, 28, 0, 0, 47, 0, 0, 18, 0, 0, 0, 39, 0, 0, 0, 0, 65, 0, 42, 0, 33, 14, 0, 0, 66, 0, 0, 10, 0, 0, 0, 59, 9, 0, 34, 16, 0, 12, 0, 0, 0, 0, 32, 29, 3, 0, 0, 0, 53, 62, 58, 31, 45, 0, 0, 0, 0, 0, 0
|70, 63, 0, 0, 0, 65, 0, 14, 58, 13, 0, 72, 77, 19, 0, 0, 50, 0, 0, 0, 0, 0, 0, 0, 10, 0, 0, 0, 11, 12, 0, 76, 0, 34, 0, 3, 61, 68, 17, 27, 0, 21, 2, 0, 15, 74, 0, 0, 0, 54, 0, 48, 0, 81, 0, 0, 0, 73, 57, 0, 0, 26, 42, 40, 28, 0, 5, 41, 0, 0, 55, 56, 0, 0, 9, 0, 0, 0, 0, 44, 53
|1, 0, 22, 0, 64, 0, 13, 0, 16, 38, 0, 30, 24, 0, 49, 0, 0, 0, 0, 35, 0, 0, 0, 21, 54, 0, 59, 69, 33, 0, 66, 32, 73, 28, 0, 67, 52, 0, 77, 0, 0, 0, 0, 0, 20, 78, 0, 40, 0, 65, 29, 0, 0, 0, 0, 0, 14, 17, 31, 0, 0, 81, 0, 0, 70, 12, 45, 34, 0, 0, 27, 0, 76, 57, 47, 0, 68, 0, 0, 48, 0
|0, 0, 0, 0, 0, 0, 31, 0, 0, 0, 59, 0, 12, 0, 0, 42, 0, 40, 50, 0, 76, 0, 0, 5, 6, 48, 0, 74, 0, 0, 0, 54, 80, 0, 22, 77, 63, 53, 0, 16, 0, 0, 58, 67, 0, 0, 14, 0, 18, 0, 0, 0, 69, 9, 39, 0, 0, 65, 0, 28, 0, 0, 0, 68, 72, 0, 64, 20, 0, 8, 19, 52, 55, 0, 0, 0, 26, 0, 51, 0, 41
|53, 62, 0, 75, 68, 12, 0, 59, 0, 8, 0, 0, 0, 0, 0, 18, 0, 0, 66, 61, 16, 0, 71, 14, 0, 9, 30, 79, 26, 0, 0, 38, 0, 29, 0, 0, 69, 0, 0, 72, 0, 0, 0, 24, 0, 0, 63, 44, 0, 73, 0, 64, 0, 0, 0, 67, 0, 0, 0, 76, 70, 80, 19, 0, 58, 0, 0, 0, 37, 0, 0, 0, 42, 0, 0, 0, 0, 22, 0, 0, 77
|21, 0, 0, 0, 9, 71, 0, 34, 0, 0, 0, 56, 0, 0, 22, 0, 26, 0, 0, 0, 0, 0, 55, 0, 63, 79, 0, 0, 0, 49, 0, 0, 0, 50, 0, 35, 0, 30, 0, 62, 0, 8, 0, 0, 0, 0, 13, 0, 0, 5, 58, 20, 0, 0, 0, 53, 0, 0, 0, 74, 3, 44, 1, 0, 0, 0, 25, 66, 61, 0, 0, 0, 0, 80, 0, 73, 0, 19, 0, 12, 27
|0, 26, 0, 0, 0, 52, 32, 0, 0, 61, 0, 0, 35, 53, 0, 62, 33, 0, 77, 0, 69, 65, 0, 78, 0, 0, 0, 41, 0, 0, 0, 0, 0, 0, 55, 0, 0, 36, 74, 0, 0, 0, 49, 73, 0, 0, 57, 12, 0, 17, 31, 0, 25, 0, 8, 0, 6, 0, 4, 64, 0, 0, 0, 60, 44, 0, 11, 50, 0, 18, 0, 47, 20, 75, 24, 16, 71, 21, 5, 0, 0
|44, 0, 0, 72, 0, 35, 56, 11, 60, 68, 0, 0, 0, 9, 37, 63, 73, 0, 3, 0, 33, 20, 0, 62, 0, 0, 45, 0, 0, 53, 58, 0, 64, 0, 0, 0, 81, 47, 10, 66, 29, 0, 59, 80, 25, 55, 0, 76, 50, 0, 79, 71, 0, 0, 0, 61, 49, 0, 15, 78, 0, 0, 0, 31, 0, 0, 77, 0, 0, 74, 1, 39, 28, 32, 7, 0, 0, 0, 67, 0, 34
|0, 27, 0, 33, 0, 75, 51, 30, 55, 56, 5, 0, 67, 61, 0, 0, 72, 48, 80, 62, 45, 0, 47, 0, 0, 10, 23, 37, 63, 15, 69, 0, 66, 0, 0, 79, 0, 32, 0, 59, 73, 0, 26, 0, 0, 0, 78, 0, 0, 0, 9, 41, 0, 64, 0, 28, 68, 0, 0, 0, 39, 0, 36, 0, 0, 22, 18, 0, 46, 0, 0, 0, 40, 0, 3, 49, 38, 81, 50, 70, 0
|77, 29, 81, 0, 0, 0, 79, 0, 52, 0, 0, 0, 55, 0, 50, 53, 1, 66, 76, 0, 0, 39, 57, 0, 74, 73, 11, 12, 42, 0, 0, 0, 75, 0, 6, 40, 0, 5, 4, 0, 0, 61, 48, 0, 0, 43, 18, 0, 0, 20, 17, 27, 15, 0, 2, 19, 0, 67, 13, 0, 16, 0, 44, 56, 0, 71, 62, 58, 24, 49, 0, 36, 0, 0, 0, 54, 60, 0, 0, 37, 23
|36, 0, 26, 0, 0, 22, 3, 0, 21, 0, 0, 18, 58, 0, 0, 70, 12, 0, 0, 0, 71, 0, 54, 13, 35, 27, 0, 2, 0, 38, 0, 50, 43, 49, 0, 0, 78, 0, 0, 0, 0, 74, 0, 0, 62, 61, 68, 23, 0, 11, 0, 69, 0, 63, 14, 45, 31, 6, 0, 40, 57, 0, 10, 47, 73, 0, 52, 60, 0, 0, 0, 0, 34, 0, 59, 0, 0, 0, 0, 0, 46
|0, 0, 20, 0, 58, 0, 0, 49, 0, 0, 0, 0, 0, 0, 0, 54, 69, 38, 0, 51, 40, 24, 81, 0, 0, 0, 0, 62, 23, 8, 0, 0, 30, 0, 57, 47, 0, 0, 52, 0, 18, 0, 0, 0, 0, 46, 19, 0, 77, 56, 0, 33, 45, 71, 0, 0, 0, 21, 0, 35, 0, 74, 12, 0, 7, 68, 1, 0, 5, 0, 15, 0, 66, 0, 79, 27, 0, 0, 0, 61, 0
|0, 0, 0, 53, 0, 0, 0, 60, 0, 59, 0, 41, 57, 0, 36, 0, 0, 0, 0, 15, 0, 5, 0, 0, 0, 0, 0, 3, 18, 0, 0, 68, 35, 0, 0, 11, 29, 0, 55, 79, 0, 0, 0, 13, 22, 2, 0, 6, 0, 1, 73, 0, 0, 0, 0, 38, 30, 47, 0, 33, 4, 0, 0, 0, 50, 0, 54, 0, 69, 27, 0, 72, 24, 0, 0, 20, 0, 62, 48, 64, 0
|40, 0, 2, 0, 0, 44, 63, 13, 32, 0, 0, 0, 60, 71, 4, 0, 0, 0, 0, 0, 0, 0, 0, 0, 0, 77, 0, 0, 70, 0, 22, 19, 27, 64, 16, 0, 0, 24, 0, 0, 0, 0, 0, 0, 0, 0, 0, 79, 74, 49, 30, 0, 76, 0, 0, 0, 0, 1, 0, 73, 0, 0, 18, 0, 41, 0, 0, 0, 0, 23, 0, 0, 65, 72, 0, 0, 29, 67, 53, 0, 14
|45, 14, 41, 0, 0, 0, 0, 0, 72, 0, 10, 0, 63, 25, 17, 30, 0, 0, 0, 2, 0, 0, 56, 26, 18, 0, 0, 5, 0, 67, 0, 0, 0, 0, 0, 0, 0, 0, 0, 70, 71, 0, 0, 0, 0, 39, 0, 21, 0, 24, 48, 12, 0, 54, 0, 29, 0, 0, 49, 0, 0, 43, 32, 53, 3, 0, 40, 0, 66, 0, 0, 38, 15, 0, 0, 0, 0, 57, 7, 77, 0
|0, 0, 68, 0, 5, 76, 0, 0, 0, 74, 0, 0, 40, 0, 0, 0, 34, 15, 0, 8, 0, 53, 28, 16, 61, 65, 36, 80, 0, 0, 0, 0, 1, 0, 45, 0, 9, 54, 33, 0, 0, 27, 63, 0, 0, 0, 62, 72, 0, 70, 75, 0, 66, 60, 0, 0, 0, 0, 0, 7, 17, 0, 0, 25, 29, 21, 0, 77, 32, 13, 79, 0, 0, 58, 0, 0, 11, 0, 0, 0, 0
|0, 0, 0, 38, 0, 0, 0, 70, 0, 0, 0, 22, 0, 0, 0, 0, 0, 13, 0, 0, 29, 0, 0, 0, 0, 33, 0, 0, 78, 0, 48, 0, 58, 24, 0, 0, 0, 0, 0, 56, 69, 49, 28, 0, 0, 0, 0, 47, 0, 42, 0, 0, 0, 40, 76, 0, 0, 0, 20, 5, 0, 27, 0, 0, 30, 0, 26, 0, 55, 0, 8, 0, 0, 74, 0, 0, 21, 6, 0, 0, 1
|0, 0, 0, 0, 62, 0, 35, 0, 19, 0, 73, 0, 0, 78, 27, 40, 71, 0, 56, 0, 0, 0, 0, 4, 22, 0, 33, 0, 0, 76, 0, 28, 0, 0, 29, 0, 70, 44, 0, 0, 0, 0, 0, 11, 0, 0, 47, 0, 53, 0, 0, 37, 0, 55, 7, 49, 0, 0, 12, 42, 0, 8, 0, 0, 6, 58, 0, 48, 74, 0, 25, 75, 0, 0, 31, 0, 0, 34, 0, 18, 0
|38, 24, 14, 12, 0, 0, 0, 10, 81, 23, 48, 20, 0, 0, 0, 0, 55, 62, 44, 37, 50, 18, 0, 51, 72, 0, 43, 78, 3, 69, 0, 39, 13, 0, 52, 16, 0, 0, 57, 0, 1, 63, 71, 0, 64, 0, 11, 66, 0, 0, 36, 0, 27, 0, 21, 0, 17, 54, 0, 31, 0, 35, 0, 45, 0, 32, 61, 0, 65, 68, 9, 41, 0, 49, 0, 0, 28, 59, 0, 0, 0
|69, 0, 28, 61, 0, 0, 33, 39, 47, 0, 0, 0, 25, 0, 0, 0, 0, 0, 0, 32, 54, 7, 0, 0, 20, 78, 0, 60, 34, 0, 0, 0, 70, 0, 72, 49, 6, 0, 75, 31, 27, 0, 0, 0, 0, 19, 17, 10, 81, 80, 42, 0, 26, 50, 11, 62, 0, 0, 14, 65, 43, 0, 16, 0, 5, 37, 0, 59, 0, 0, 0, 0, 53, 0, 23, 0, 0, 24, 76, 51, 44
|59, 0, 25, 17, 0, 36, 40, 0, 50, 0, 0, 0, 0, 6, 13, 0, 52, 2, 34, 0, 0, 23, 49, 8, 46, 0, 16, 0, 0, 58, 21, 0, 0, 26, 18, 0, 68, 33, 0, 0, 0, 9, 12, 61, 29, 14, 48, 0, 0, 4, 0, 0, 24, 0, 0, 0, 0, 0, 72, 10, 74, 28, 39, 0, 67, 43, 70, 0, 78, 71, 69, 0, 41, 0, 66, 0, 0, 38, 0, 32, 57
|57, 23, 0, 42, 0, 21, 0, 0, 0, 0, 0, 0, 0, 0, 59, 0, 0, 0, 41, 0, 0, 0, 39, 71, 52, 0, 26, 43, 40, 55, 0, 0, 74, 56, 0, 0, 18, 51, 0, 69, 32, 2, 17, 0, 0, 68, 0, 64, 0, 0, 0, 0, 0, 58, 81, 0, 47, 48, 0, 60, 77, 20, 0, 0, 34, 14, 0, 0, 0, 33, 28, 0, 7, 0, 80, 0, 9, 3, 36, 0, 0
|65, 0, 9, 46, 0, 0, 30, 0, 0, 31, 22, 0, 0, 0, 0, 26, 0, 0, 0, 0, 0, 61, 27, 0, 0, 0, 0, 42, 0, 11, 75, 6, 7, 38, 20, 0, 0, 40, 34, 0, 59, 0, 10, 74, 43, 57, 0, 0, 0, 12, 63, 54, 0, 23, 0, 0, 37, 78, 18, 68, 0, 50, 0, 0, 0, 8, 0, 0, 52, 66, 0, 0, 0, 13, 0, 0, 0, 29, 0, 0, 0
|71, 0, 53, 4, 6, 0, 52, 0, 15, 33, 46, 0, 65, 44, 45, 69, 0, 0, 60, 0, 0, 74, 68, 0, 0, 0, 0, 61, 0, 24, 0, 27, 0, 0, 0, 19, 0, 67, 0, 0, 28, 0, 21, 54, 0, 0, 0, 7, 35, 0, 0, 16, 0, 0, 0, 0, 29, 30, 0, 0, 0, 0, 75, 55, 47, 0, 56, 23, 0, 0, 0, 57, 39, 77, 17, 25, 0, 0, 73, 43, 58
|0, 0, 11, 7, 0, 0, 0, 63, 66, 47, 0, 0, 14, 0, 28, 39, 32, 72, 0, 36, 75, 35, 0, 57, 42, 0, 80, 0, 0, 0, 2, 12, 54, 71, 8, 0, 0, 0, 50, 0, 41, 23, 0, 0, 0, 44, 0, 60, 0, 0, 33, 34, 0, 0, 24, 0, 26, 53, 70, 0, 0, 67, 0, 0, 64, 27, 0, 0, 0, 0, 13, 51, 0, 22, 0, 48, 10, 20, 0, 21, 61
|0, 0, 0, 79, 18, 70, 8, 73, 0, 0, 0, 0, 0, 0, 68, 74, 17, 0, 10, 65, 14, 28, 0, 76, 0, 19, 15, 30, 0, 0, 53, 0, 32, 0, 64, 57, 0, 39, 20, 78, 0, 16, 46, 35, 58, 40, 0, 0, 0, 69, 41, 0, 13, 1, 0, 0, 55, 38, 0, 0, 0, 0, 0, 0, 0, 72, 29, 26, 0, 0, 62, 60, 12, 0, 0, 0, 0, 5, 0, 27, 0
|55, 34, 0, 13, 0, 0, 20, 27, 0, 0, 0, 0, 78, 0, 0, 0, 0, 0, 51, 0, 42, 12, 0, 73, 0, 52, 0, 0, 0, 29, 0, 69, 38, 0, 39, 0, 0, 64, 0, 2, 67, 0, 0, 79, 1, 59, 0, 0, 56, 9, 45, 0, 7, 0, 0, 11, 0, 0, 5, 50, 0, 0, 28, 0, 25, 6, 22, 0, 47, 72, 0, 43, 26, 61, 0, 0, 0, 8, 0, 0, 71
|0, 0, 0, 29, 45, 0, 0, 51, 0, 22, 0, 0, 42, 50, 0, 32, 0, 0, 0, 69, 5, 47, 77, 10, 43, 54, 0, 0, 72, 0, 49, 2, 12, 0, 67, 0, 0, 56, 0, 41, 33, 18, 0, 3, 0, 48, 0, 26, 0, 0, 11, 52, 0, 17, 36, 65, 66, 46, 9, 0, 14, 75, 0, 0, 0, 0, 27, 8, 0, 37, 0, 0, 74, 38, 4, 0, 0, 23, 0, 81, 68
|49, 39, 75, 35, 0, 46, 0, 61, 70, 0, 81, 15, 0, 0, 26, 8, 0, 73, 53, 0, 0, 0, 50, 6, 0, 0, 0, 0, 0, 16, 0, 0, 25, 43, 33, 0, 47, 0, 12, 0, 0, 68, 0, 69, 0, 0, 32, 0, 30, 37, 3, 13, 0, 72, 31, 57, 78, 0, 27, 0, 0, 24, 0, 42, 14, 0, 60, 21, 41, 0, 0, 28, 48, 0, 55, 0, 77, 79, 65, 0, 0
|0, 0, 79, 52, 0, 0, 5, 47, 0, 66, 0, 28, 0, 0, 57, 0, 0, 36, 63, 0, 67, 44, 0, 0, 60, 68, 0, 40, 0, 0, 0, 22, 11, 42, 0, 78, 0, 0, 30, 0, 81, 32, 0, 0, 0, 0, 29, 0, 0, 0, 0, 0, 6, 62, 4, 0, 0, 61, 0, 34, 0, 0, 53, 0, 18, 0, 0, 12, 0, 0, 0, 58, 37, 14, 64, 2, 0, 0, 69, 0, 43
|72, 17, 0, 11, 0, 40, 0, 0, 0, 70, 0, 38, 18, 49, 0, 0, 47, 0, 57, 14, 0, 0, 41, 0, 2, 75, 13, 0, 32, 0, 80, 15, 0, 0, 0, 52, 0, 0, 44, 0, 0, 0, 0, 42, 0, 0, 0, 68, 0, 34, 69, 25, 0, 22, 0, 74, 67, 0, 0, 55, 81, 0, 0, 0, 0, 0, 66, 61, 54, 53, 64, 26, 60, 16, 0, 0, 0, 0, 0, 1, 0
|0, 50, 0, 65, 0, 0, 36, 42, 0, 69, 54, 0, 62, 34, 25, 17, 13, 79, 0, 0, 30, 0, 0, 40, 9, 21, 1, 14, 64, 26, 0, 55, 8, 0, 75, 6, 0, 28, 43, 80, 15, 0, 0, 27, 0, 0, 0, 57, 0, 61, 0, 49, 0, 18, 32, 0, 0, 12, 0, 0, 0, 0, 7, 51, 16, 0, 24, 3, 68, 0, 71, 35, 47, 0, 0, 0, 67, 73, 10, 0, 45
|12, 0, 69, 78, 81, 0, 77, 43, 0, 21, 0, 39, 0, 0, 0, 0, 0, 0, 45, 56, 0, 46, 31, 18, 0, 58, 24, 17, 0, 62, 13, 37, 61, 76, 0, 7, 0, 0, 14, 25, 0, 48, 0, 0, 0, 0, 0, 0, 51, 0, 54, 8, 47, 0, 0, 0, 0, 0, 0, 26, 44, 33, 0, 0, 11, 1, 0, 29, 0, 15, 0, 0, 70, 0, 72, 0, 52, 75, 0, 53, 0
|0, 0, 0, 6, 71, 57, 0, 21, 18, 1, 0, 51, 0, 0, 0, 0, 0, 27, 15, 0, 0, 32, 0, 25, 26, 64, 62, 0, 56, 9, 28, 0, 0, 48, 44, 81, 0, 65, 0, 0, 17, 0, 52, 0, 77, 0, 2, 0, 0, 0, 4, 40, 0, 0, 49, 73, 60, 80, 0, 0, 0, 0, 72, 0, 0, 45, 0, 38, 34, 10, 0, 63, 0, 0, 0, 24, 0, 58, 46, 19, 54
|60, 73, 8, 26, 0, 25, 0, 0, 0, 14, 0, 0, 33, 12, 43, 37, 0, 0, 0, 76, 61, 16, 65, 81, 0, 72, 0, 0, 1, 0, 35, 0, 47, 46, 0, 0, 0, 31, 0, 0, 49, 4, 0, 9, 36, 42, 0, 24, 0, 0, 28, 0, 75, 44, 62, 6, 52, 0, 0, 51, 0, 0, 0, 0, 0, 0, 78, 0, 13, 0, 70, 59, 0, 0, 0, 17, 34, 11, 18, 57, 0
|18, 20, 42, 21, 63, 0, 24, 53, 12, 0, 77, 17, 71, 0, 5, 0, 31, 0, 0, 57, 0, 0, 61, 0, 0, 0, 0, 0, 0, 22, 0, 40, 0, 81, 1, 37, 0, 0, 73, 0, 23, 0, 47, 76, 16, 0, 64, 0, 0, 75, 0, 0, 9, 11, 55, 41, 79, 32, 8, 48, 36, 0, 74, 62, 35, 0, 28, 67, 43, 0, 29, 46, 56, 45, 49, 14, 3, 51, 58, 0, 0
|0, 30, 34, 0, 69, 0, 14, 57, 0, 55, 0, 0, 0, 18, 0, 28, 22, 43, 5, 0, 35, 10, 0, 0, 0, 62, 0, 11, 66, 3, 0, 0, 2, 0, 0, 0, 0, 0, 81, 42, 50, 0, 77, 0, 0, 0, 0, 0, 0, 33, 0, 58, 54, 24, 0, 25, 46, 76, 75, 15, 0, 56, 49, 0, 61, 0, 36, 0, 0, 0, 0, 27, 0, 1, 0, 67, 0, 0, 41, 0, 0
|0, 0, 60, 0, 32, 0, 27, 0, 26, 48, 40, 0, 0, 62, 29, 64, 0, 0, 0, 7, 41, 0, 0, 42, 0, 8, 0, 49, 17, 13, 54, 0, 6, 20, 74, 0, 0, 71, 11, 0, 0, 0, 0, 0, 0, 25, 56, 28, 0, 57, 1, 45, 55, 30, 16, 0, 0, 5, 39, 59, 51, 21, 0, 0, 0, 78, 47, 76, 38, 58, 0, 73, 0, 0, 0, 61, 0, 0, 2, 0, 79
|0, 0, 59, 40, 73, 0, 55, 56, 45, 4, 0, 53, 0, 54, 0, 0, 42, 30, 58, 0, 0, 27, 38, 36, 65, 0, 66, 0, 76, 0, 0, 0, 60, 0, 0, 23, 46, 14, 48, 49, 3, 0, 0, 70, 68, 37, 43, 19, 26, 29, 0, 22, 0, 0, 61, 77, 0, 44, 28, 47, 0, 0, 0, 16, 8, 0, 0, 0, 0, 0, 0, 34, 0, 62, 63, 0, 0, 33, 0, 0, 0
|0, 0, 6, 0, 38, 0, 75, 54, 0, 0, 58, 70, 3, 20, 0, 11, 14, 59, 19, 0, 79, 4, 0, 37, 1, 71, 0, 0, 55, 0, 68, 0, 0, 0, 77, 0, 66, 80, 28, 15, 0, 64, 62, 33, 40, 0, 12, 0, 0, 18, 47, 0, 34, 0, 72, 23, 65, 0, 7, 24, 0, 29, 26, 5, 0, 0, 0, 44, 0, 0, 0, 0, 0, 10, 22, 53, 0, 0, 0, 31, 0
|0, 71, 0, 0, 61, 48, 0, 0, 44, 73, 0, 0, 16, 0, 39, 60, 37, 34, 47, 0, 0, 55, 63, 0, 12, 43, 0, 0, 0, 0, 32, 0, 28, 10, 0, 51, 25, 0, 78, 0, 0, 22, 9, 52, 0, 38, 0, 0, 42, 81, 0, 62, 0, 0, 0, 66, 1, 0, 58, 0, 31, 64, 0, 21, 45, 0, 7, 0, 53, 70, 3, 69, 0, 11, 0, 77, 0, 0, 20, 0, 72
|43, 70, 36, 0, 23, 0, 0, 79, 0, 0, 0, 13, 74, 47, 41, 0, 63, 61, 0, 44, 28, 0, 0, 54, 0, 67, 0, 24, 0, 46, 26, 0, 0, 0, 0, 73, 0, 59, 0, 0, 58, 0, 0, 32, 27, 0, 60, 0, 0, 39, 76, 0, 14, 0, 17, 0, 50, 11, 10, 0, 42, 53, 0, 0, 71, 0, 72, 0, 12, 0, 37, 18, 64, 0, 0, 0, 19, 35, 57, 15, 0
|35, 15, 50, 0, 51, 58, 41, 7, 0, 0, 76, 32, 0, 68, 19, 0, 81, 0, 0, 64, 0, 21, 29, 31, 0, 0, 0, 9, 8, 0, 14, 70, 0, 5, 0, 0, 2, 37, 0, 60, 61, 45, 36, 63, 12, 20, 59, 53, 10, 3, 23, 67, 17, 0, 38, 0, 0, 0, 0, 0, 0, 0, 0, 26, 55, 0, 4, 79, 0, 80, 0, 1, 46, 54, 0, 0, 0, 0, 0, 0, 0
|64, 5, 4, 0, 2, 0, 0, 81, 0, 15, 0, 0, 0, 51, 72, 75, 0, 50, 24, 0, 11, 13, 76, 3, 0, 0, 49, 0, 0, 52, 0, 41, 0, 63, 0, 61, 35, 19, 18, 0, 21, 53, 79, 8, 10, 0, 0, 0, 65, 0, 0, 36, 0, 0, 0, 0, 70, 0, 80, 57, 0, 0, 0, 0, 0, 0, 9, 54, 0, 22, 0, 25, 16, 43, 73, 0, 0, 0, 0, 68, 38
|11, 52, 18, 0, 70, 45, 12, 0, 0, 72, 0, 0, 51, 0, 0, 0, 0, 0, 0, 0, 0, 0, 44, 39, 0, 32, 5, 0, 57, 0, 0, 0, 0, 0, 0, 0, 43, 0, 0, 10, 38, 0, 73, 78, 21, 0, 42, 62, 0, 0, 0, 0, 0, 28, 0, 0, 36, 0, 23, 0, 15, 7, 0, 22, 0, 0, 34, 71, 33, 56, 0, 40, 0, 0, 0, 0, 0, 0, 0, 0, 0
|0, 60, 78, 0, 0, 0, 0, 5, 80, 44, 0, 0, 52, 4, 34, 0, 15, 0, 0, 50, 10, 64, 0, 58, 0, 0, 28, 32, 0, 0, 0, 73, 0, 0, 70, 0, 0, 74, 0, 0, 39, 0, 0, 0, 0, 0, 77, 0, 0, 0, 0, 18, 0, 0, 0, 0, 8, 0, 0, 56, 62, 6, 71, 72, 38, 0, 0, 0, 0, 0, 0, 0, 13, 68, 54, 0, 0, 9, 0, 0, 49
|0, 0, 46, 23, 47, 0, 0, 0, 0, 0, 66, 0, 10, 0, 78, 0, 57, 0, 13, 26, 73, 0, 0, 79, 51, 0, 65, 0, 43, 0, 0, 0, 0, 0, 9, 0, 0, 0, 0, 0, 0, 0, 0, 0, 0, 0, 8, 0, 58, 40, 12, 0, 64, 0, 0, 2, 61, 0, 0, 44, 0, 0, 68, 18, 0, 41, 0, 7, 62, 0, 0, 0, 0, 70, 60, 0, 0, 0, 0, 39, 0
|0, 0, 38, 2, 0, 19, 0, 0, 43, 65, 25, 0, 26, 17, 33, 27, 53, 32, 8, 0, 48, 0, 40, 23, 0, 70, 56, 46, 0, 5, 24, 0, 51, 31, 61, 0, 0, 0, 68, 18, 0, 0, 22, 0, 0, 0, 0, 0, 0, 0, 0, 0, 0, 0, 12, 54, 0, 20, 0, 11, 0, 76, 29, 0, 1, 39, 74, 75, 0, 0, 42, 44, 72, 21, 0, 47, 0, 0, 59, 4, 0
|0, 41, 7, 74, 76, 0, 22, 65, 62, 0, 0, 11, 0, 21, 0, 0, 0, 0, 30, 20, 0, 69, 0, 0, 29, 0, 77, 0, 71, 0, 79, 52, 0, 8, 48, 66, 0, 12, 63, 14, 0, 0, 15, 50, 0, 0, 0, 35, 44, 0, 0, 0, 68, 61, 0, 31, 0, 33, 0, 0, 53, 16, 43, 0, 9, 55, 0, 78, 0, 0, 36, 3, 73, 40, 25, 57, 27, 0, 6, 10, 0
|32, 0, 0, 24, 0, 0, 0, 58, 69, 0, 0, 0, 0, 48, 0, 0, 0, 56, 43, 0, 12, 11, 33, 60, 75, 57, 0, 72, 0, 0, 0, 0, 0, 1, 0, 0, 0, 8, 54, 7, 0, 0, 0, 2, 0, 0, 6, 0, 0, 53, 0, 0, 22, 80, 52, 0, 38, 0, 81, 0, 65, 0, 78, 0, 66, 0, 0, 0, 15, 0, 0, 68, 0, 0, 0, 0, 44, 0, 37, 0, 62
|0, 0, 0, 73, 75, 0, 44, 0, 0, 0, 28, 23, 22, 0, 0, 50, 0, 76, 0, 0, 74, 0, 59, 15, 19, 0, 54, 33, 0, 45, 3, 0, 0, 0, 27, 0, 0, 0, 0, 58, 0, 0, 0, 0, 0, 31, 10, 56, 0, 0, 0, 0, 38, 0, 0, 0, 5, 0, 0, 80, 24, 0, 0, 0, 20, 65, 0, 64, 0, 0, 2, 67, 79, 51, 61, 29, 0, 71, 43, 55, 0
|0, 61, 27, 0, 0, 0, 0, 0, 33, 0, 0, 74, 43, 0, 1, 0, 40, 6, 16, 0, 66, 31, 35, 0, 0, 45, 42, 0, 22, 63, 0, 23, 37, 0, 0, 13, 26, 0, 76, 0, 0, 0, 0, 77, 0, 0, 50, 17, 0, 0, 0, 24, 0, 0, 57, 18, 72, 0, 47, 70, 75, 0, 0, 32, 80, 69, 14, 0, 49, 54, 0, 0, 0, 46, 0, 0, 0, 0, 38, 20, 30
|3, 59, 54, 1, 0, 28, 68, 50, 0, 79, 0, 63, 8, 69, 77, 20, 18, 29, 71, 0, 0, 0, 0, 0, 0, 7, 9, 15, 0, 47, 0, 0, 40, 0, 0, 0, 31, 25, 0, 0, 0, 0, 0, 0, 0, 26, 0, 78, 33, 48, 0, 0, 0, 52, 30, 39, 42, 0, 0, 0, 0, 0, 0, 61, 21, 0, 0, 0, 0, 0, 10, 6, 0, 0, 0, 64, 0, 45, 0, 65, 67|];