order = 9;
grid = [|31, 77, 0, 0, 0, 23, 0, 0, 7, 22, 0, 0, 0, 15, 0, 11, 63, 80, 0, 74, 35, 16, 0, 8, 38, 0, 0, 0, 49, 0, 0, 41, 0, 10, 0, 52, 26, 0, 46, 55, 0, 53, 9, 0, 1, 51, 0, 64, 0, 0, 0, 81, 0, 70, 13, 0, 18, 0, 72, 48, 0, 0, 0, 44, 59, 33, 32, 0, 0, 47, 0, 0, 2, 62, 6, 36, 25, 75, 79, 61, 0
|0, 0, 47, 12, 17, 49, 50, 48, 1, 21, 0, 0, 0, 0, 0, 0, 0, 38, 0, 0, 0, 0, 0, 0, 0, 0, 0, 72, 45, 22, 53, 3, 73, 64, 59, 42, 6, 0, 36, 28, 0, 0, 0, 0, 52, 68, 0, 55, 25, 0, 0, 78, 65, 0, 63, 27, 0, 0, 62, 23, 29, 66, 26, 7, 14, 77, 18, 41, 0, 0, 0, 0, 76, 44, 16, 0, 0, 34, 0, 20, 67
|0, 55, 0, 67, 63, 0, 0, 25, 0, 0, 68, 0, 75, 81, 70, 0, 0, 0, 21, 14, 0, 0, 64, 18, 0, 0, 0, 4, 0, 0, 80, 35, 0, 48, 37, 60, 0, 29, 42, 0, 2, 0, 0, 44, 0, 0, 0, 19, 0, 50, 7, 0, 0, 59, 0, 0, 69, 0, 0, 0, 77, 11, 0, 15, 36, 17, 26, 24, 0, 73, 0, 0, 0, 23, 54, 0, 74, 0, 0, 0, 0
|11, 0, 44, 0, 0, 0, 0, 0, 0, 35, 5, 0, 52, 28, 0, 0, 60, 76, 22, 34, 0, 0, 77, 39, 0, 0, 54, 0, 61, 13, 70, 74, 0, 19, 0, 62, 43, 24, 0, 0, 0, 4, 0, 21, 0, 0, 0, 66, 0, 0, 47, 26, 0, 79, 45, 0, 0, 0, 30, 0, 73, 6, 67, 0, 29, 0, 0, 68, 0, 0, 63, 0, 0, 0, 0, 0, 49, 7, 0, 48, 0
|0, 0, 0, 0, 51, 19, 0, 0, 3, 0, 0, 43, 0, 0, 0, 67, 0, 26, 57, 0, 31, 0, 36, 0, 50, 2, 0, 63, 0, 21, 7, 29, 0, 0, 38, 0, 8, 0, 71, 76, 18, 10, 0, 80, 0, 39, 0, 0, 0, 0, 41, 0, 16, 22, 15, 46, 0, 4, 0, 37, 47, 0, 32, 0, 25, 70, 0, 49, 23, 0, 0, 0, 0, 45, 0, 0, 0, 0, 58, 72, 13
|0, 42, 0, 0, 60, 2, 29, 33, 58, 47, 0, 31, 37, 0, 72, 0, 20, 0, 0, 0, 1, 76, 0, 0, 0, 0, 0, 0, 44, 0, 0, 30, 0, 0, 81, 15, 0, 74, 0, 0, 0, 78, 0, 0, 0, 8, 0, 0, 18, 35, 0, 54, 0, 49, 68, 71, 0, 79, 24, 0, 9, 7, 43, 0, 0, 65, 0, 46, 0, 61, 50, 3, 41, 0, 0, 0, 52, 21, 0, 11, 0
|0, 0, 0, 46, 0, 0, 0, 59, 79, 0, 18, 0, 0, 40, 0, 0, 0, 0, 17, 53, 0, 51, 43, 0, 44, 42, 0, 67, 75, 0, 0, 8, 0, 0, 36, 55, 69, 27, 30, 0, 7, 37, 77, 0, 39, 0, 0, 0, 0, 0, 0, 15, 74, 48, 0, 14, 33, 0, 0, 0, 0, 50, 0, 0, 81, 0, 0, 22, 0, 0, 58, 31, 66, 0, 0, 4, 0, 26, 70, 47, 78
|30, 56, 26, 22, 68, 35, 15, 0, 0, 0, 49, 16, 78, 53, 0, 32, 46, 41, 0, 0, 29, 0, 23, 0, 0, 7, 24, 0, 0, 40, 0, 0, 0, 0, 0, 0, 58, 0, 0, 0, 79, 66, 0, 0, 70, 27, 0, 34, 52, 77, 12, 0, 73, 0, 25, 0, 20, 31, 8, 10, 0, 2, 0, 37, 62, 64, 4, 60, 43, 0, 0, 76, 0, 0, 59, 0, 0, 3, 19, 33, 0
|24, 0, 0, 10, 0, 5, 6, 40, 0, 14, 0, 0, 50, 0, 0, 0, 30, 0, 0, 68, 4, 37, 0, 27, 0, 0, 55, 39, 0, 79, 26, 0, 0, 0, 0, 0, 63, 62, 0, 0, 0, 25, 0, 0, 0, 38, 0, 17, 60, 0, 31, 3, 0, 23, 19, 0, 0, 44, 0, 0, 41, 22, 0, 0, 0, 52, 8, 0, 21, 0, 0, 0, 73, 9, 18, 0, 46, 35, 0, 0, 0
|72, 0, 28, 31, 0, 0, 43, 0, 0, 39, 16, 0, 0, 0, 0, 0, 9, 24, 27, 76, 0, 0, 53, 74, 20, 0, 0, 65, 0, 0, 55, 0, 52, 0, 12, 8, 61, 23, 64, 59, 80, 30, 0, 0, 47, 18, 0, 48, 0, 0, 77, 0, 0, 32, 0, 0, 63, 0, 0, 0, 0, 67, 0, 3, 0, 5, 0, 34, 0, 0, 36, 2, 0, 4, 0, 0, 51, 25, 0, 15, 71
|17, 0, 61, 63, 0, 0, 0, 0, 0, 12, 80, 0, 0, 34, 28, 0, 67, 71, 0, 0, 0, 0, 15, 24, 62, 35, 0, 0, 21, 0, 0, 0, 0, 0, 27, 25, 0, 32, 11, 0, 0, 0, 37, 0, 0, 0, 0, 0, 0, 1, 43, 2, 81, 0, 0, 0, 0, 75, 76, 0, 13, 0, 0, 0, 0, 0, 0, 0, 72, 0, 65, 0, 74, 6, 0, 22, 19, 73, 0, 9, 0
|0, 39, 24, 0, 0, 11, 0, 50, 0, 63, 47, 42, 0, 0, 15, 0, 58, 54, 0, 0, 0, 48, 0, 0, 0, 0, 12, 23, 69, 0, 46, 72, 66, 79, 34, 0, 1, 0, 0, 0, 71, 0, 81, 78, 6, 25, 0, 5, 0, 0, 37, 28, 0, 35, 49, 0, 0, 14, 0, 9, 0, 8, 30, 0, 26, 0, 0, 0, 19, 76, 0, 0, 45, 0, 0, 0, 0, 13, 57, 53, 20
|12, 79, 0, 30, 20, 33, 0, 0, 49, 0, 0, 41, 59, 78, 0, 0, 0, 52, 47, 7, 0, 0, 0, 43, 63, 72, 0, 0, 57, 0, 0, 26, 22, 42, 6, 48, 0, 0, 3, 77, 0, 0, 10, 0, 19, 0, 0, 65, 44, 0, 0, 0, 9, 62, 0, 51, 17, 0, 29, 39, 0, 0, 15, 0, 0, 28, 0, 71, 56, 8, 0, 0, 21, 0, 0, 67, 0, 46, 0, 0, 0
|53, 37, 0, 7, 58, 26, 57, 0, 62, 51, 31, 0, 0, 0, 0, 0, 0, 14, 79, 0, 71, 0, 0, 55, 75, 19, 0, 11, 0, 45, 28, 0, 4, 0, 0, 40, 12, 41, 43, 73, 0, 49, 25, 18, 21, 0, 64, 0, 0, 54, 0, 52, 0, 24, 65, 69, 27, 74, 68, 0, 20, 23, 0, 46, 10, 0, 0, 81, 0, 50, 0, 59, 0, 0, 0, 0, 39, 0, 36, 34, 0
|81, 70, 75, 18, 0, 21, 0, 10, 59, 13, 38, 0, 0, 0, 0, 53, 32, 0, 0, 0, 69, 66, 39, 0, 0, 0, 0, 31, 7, 0, 0, 0, 0, 80, 19, 37, 67, 48, 0, 0, 0, 0, 2, 22, 14, 0, 0, 0, 3, 78, 0, 8, 0, 56, 0, 64, 0, 0, 73, 0, 72, 52, 0, 17, 30, 0, 23, 0, 12, 0, 0, 0, 0, 11, 0, 0, 27, 28, 0, 55, 0
|66, 0, 0, 25, 0, 80, 0, 1, 77, 0, 56, 73, 23, 0, 0, 0, 0, 0, 11, 0, 0, 0, 31, 29, 40, 8, 61, 0, 0, 0, 0, 32, 24, 0, 78, 0, 34, 54, 33, 0, 13, 75, 79, 76, 0, 60, 72, 0, 0, 74, 0, 0, 0, 0, 0, 50, 5, 19, 0, 0, 0, 0, 4, 49, 0, 15, 0, 0, 0, 0, 42, 0, 52, 65, 35, 62, 41, 0, 0, 30, 0
|45, 0, 0, 34, 65, 0, 36, 23, 76, 43, 60, 0, 30, 0, 66, 0, 0, 61, 0, 64, 16, 52, 67, 0, 0, 3, 26, 71, 53, 18, 0, 14, 0, 50, 63, 1, 5, 44, 0, 0, 0, 0, 0, 0, 0, 0, 69, 38, 0, 41, 6, 0, 75, 0, 0, 0, 2, 7, 0, 80, 24, 0, 47, 78, 4, 32, 21, 9, 0, 0, 0, 11, 40, 29, 0, 0, 54, 81, 0, 0, 8
|27, 0, 0, 0, 71, 69, 0, 35, 73, 0, 36, 0, 2, 19, 0, 64, 70, 20, 0, 0, 0, 68, 0, 25, 65, 54, 30, 0, 10, 29, 0, 33, 0, 47, 0, 51, 0, 0, 66, 0, 0, 0, 72, 26, 0, 11, 0, 23, 0, 0, 0, 0, 0, 0, 34, 0, 57, 58, 6, 16, 45, 0, 3, 41, 52, 7, 77, 0, 0, 40, 74, 0, 0, 0, 12, 0, 1, 78, 0, 43, 0
|0, 60, 22, 13, 24, 0, 0, 32, 0, 0, 0, 0, 64, 0, 0, 26, 25, 50, 0, 31, 0, 0, 76, 14, 0, 0, 42, 0, 2, 0, 0, 0, 0, 0, 67, 0, 0, 0, 27, 6, 62, 21, 23, 0, 0, 0, 0, 0, 72, 3, 80, 0, 0, 17, 41, 0, 53, 46, 0, 33, 57, 0, 0, 0, 0, 0, 0, 28, 0, 12, 0, 16, 78, 0, 0, 43, 0, 45, 0, 0, 0
|21, 0, 29, 81, 0, 0, 77, 4, 42, 73, 34, 6, 7, 0, 30, 35, 0, 1, 0, 24, 0, 0, 25, 53, 12, 41, 0, 69, 58, 27, 0, 78, 54, 0, 0, 0, 0, 56, 0, 66, 59, 0, 70, 64, 0, 33, 37, 0, 0, 0, 0, 19, 0, 0, 2, 0, 0, 62, 71, 0, 80, 0, 48, 0, 0, 0, 3, 0, 0, 0, 47, 0, 79, 0, 10, 26, 55, 18, 0, 17, 39
|7, 0, 6, 17, 0, 0, 23, 0, 0, 28, 72, 0, 5, 0, 58, 0, 0, 10, 4, 22, 61, 0, 0, 56, 43, 0, 34, 55, 9, 0, 0, 19, 36, 0, 0, 26, 0, 0, 0, 78, 0, 0, 0, 0, 0, 16, 0, 59, 63, 0, 0, 0, 0, 14, 0, 0, 49, 0, 0, 73, 69, 0, 0, 27, 32, 0, 62, 0, 18, 68, 0, 51, 0, 0, 0, 0, 0, 38, 0, 0, 0
|1, 16, 48, 54, 0, 0, 38, 26, 0, 0, 0, 0, 47, 0, 79, 0, 42, 0, 28, 0, 0, 33, 0, 40, 0, 29, 64, 12, 0, 37, 81, 0, 43, 0, 66, 77, 32, 0, 63, 0, 75, 0, 30, 45, 0, 0, 78, 0, 0, 0, 0, 44, 0, 53, 0, 0, 0, 0, 0, 18, 0, 0, 70, 60, 41, 57, 24, 15, 0, 0, 0, 0, 0, 13, 27, 6, 0, 31, 0, 56, 0
|0, 0, 0, 0, 27, 76, 37, 62, 0, 0, 48, 45, 0, 59, 31, 0, 0, 53, 81, 57, 0, 0, 0, 21, 2, 0, 0, 28, 0, 38, 0, 11, 0, 0, 0, 65, 0, 4, 50, 39, 69, 36, 0, 0, 0, 0, 0, 0, 12, 0, 29, 43, 0, 66, 56, 0, 0, 24, 0, 61, 79, 0, 22, 30, 80, 0, 7, 0, 0, 1, 0, 0, 67, 41, 0, 0, 40, 47, 0, 68, 44
|0, 0, 43, 0, 0, 0, 39, 0, 0, 0, 0, 29, 0, 0, 0, 0, 0, 68, 69, 0, 72, 20, 63, 66, 0, 0, 0, 70, 80, 0, 0, 57, 8, 0, 0, 21, 31, 37, 0, 0, 0, 61, 0, 2, 0, 75, 0, 0, 0, 0, 81, 0, 0, 30, 0, 15, 0, 26, 0, 76, 28, 0, 19, 0, 38, 0, 40, 0, 58, 0, 52, 0, 12, 0, 73, 0, 0, 0, 3, 1, 77
|0, 0, 0, 0, 0, 0, 0, 18, 70, 0, 0, 36, 0, 74, 0, 0, 12, 0, 19, 45, 0, 0, 26, 9, 0, 30, 73, 79, 17, 39, 56, 4, 53, 0, 0, 34, 3, 16, 72, 0, 8, 0, 0, 0, 0, 67, 0, 11, 47, 0, 54, 71, 35, 0, 6, 0, 0, 0, 0, 0, 0, 38, 0, 55, 48, 0, 37, 66, 63, 0, 0, 77, 0, 2, 0, 58, 0, 0, 0, 0, 15
|69, 0, 71, 47, 0, 0, 0, 67, 66, 0, 2, 0, 0, 0, 0, 19, 0, 15, 68, 0, 0, 60, 58, 79, 0, 0, 0, 0, 62, 0, 0, 46, 50, 31, 35, 0, 0, 52, 13, 1, 0, 7, 0, 28, 0, 0, 27, 73, 41, 21, 57, 0, 23, 74, 12, 54, 0, 45, 0, 81, 75, 39, 40, 72, 56, 0, 59, 0, 17, 4, 8, 0, 37, 70, 0, 53, 0, 64, 0, 0, 25
|0, 65, 73, 0, 0, 58, 0, 31, 12, 23, 0, 56, 76, 55, 75, 20, 0, 18, 38, 39, 80, 0, 16, 0, 0, 70, 0, 0, 0, 49, 0, 48, 0, 7, 74, 68, 0, 0, 29, 0, 0, 34, 0, 0, 0, 4, 22, 0, 24, 45, 1, 6, 0, 28, 0, 52, 0, 77, 0, 8, 27, 0, 0, 0, 0, 0, 0, 2, 42, 36, 0, 64, 32, 66, 14, 0, 62, 69, 0, 71, 61
|26, 35, 0, 0, 41, 39, 19, 0, 0, 0, 0, 4, 0, 0, 0, 38, 27, 0, 0, 50, 68, 0, 2, 48, 0, 17, 0, 0, 34, 28, 0, 0, 23, 0, 0, 0, 0, 55, 0, 0, 31, 0, 0, 0, 33, 56, 0, 0, 0, 14, 49, 0, 0, 58, 81, 0, 12, 43, 20, 0, 18, 80, 0, 25, 0, 62, 0, 0, 40, 0, 53, 71, 0, 0, 0, 0, 0, 0, 0, 0, 0
|0, 27, 0, 0, 47, 67, 16, 0, 0, 0, 58, 0, 28, 0, 0, 12, 0, 49, 0, 0, 46, 0, 0, 0, 0, 0, 0, 14, 8, 19, 62, 0, 0, 0, 0, 0, 78, 0, 39, 0, 20, 0, 0, 73, 0, 70, 52, 72, 0, 0, 0, 0, 0, 0, 0, 0, 0, 0, 0, 71, 0, 15, 0, 57, 6, 0, 65, 54, 24, 43, 55, 9, 0, 0, 30, 61, 35, 0, 0, 0, 38
|0, 0, 46, 20, 28, 0, 0, 0, 43, 0, 30, 0, 48, 16, 0, 0, 0, 0, 0, 0, 0, 41, 0, 0, 24, 69, 0, 0, 0, 26, 21, 2, 0, 57, 40, 59, 0, 0, 0, 0, 25, 15, 71, 0, 0, 0, 0, 13, 0, 0, 0, 0, 0, 73, 74, 0, 44, 0, 58, 0, 0, 51, 0, 0, 0, 79, 0, 0, 0, 0, 0, 42, 0, 34, 67, 0, 0, 0, 0, 76, 27
|48, 0, 0, 1, 0, 74, 0, 0, 0, 68, 0, 62, 40, 2, 0, 57, 23, 0, 0, 0, 63, 26, 0, 65, 4, 0, 72, 0, 0, 0, 0, 0, 79, 61, 73, 64, 0, 58, 69, 60, 0, 0, 34, 0, 0, 5, 39, 0, 0, 0, 32, 10, 59, 0, 3, 7, 0, 0, 0, 66, 30, 46, 0, 76, 27, 0, 0, 0, 44, 0, 0, 0, 70, 37, 0, 0, 6, 0, 0, 24, 0
|60, 58, 0, 2, 0, 0, 0, 63, 23, 0, 0, 52, 0, 31, 0, 45, 0, 0, 40, 0, 0, 28, 0, 0, 0, 0, 22, 42, 74, 65, 0, 13, 0, 0, 0, 46, 59, 75, 16, 32, 9, 80, 0, 0, 0, 29, 0, 0, 55, 0, 62, 0, 0, 0, 4, 0, 0, 0, 0, 0, 0, 0, 57, 56, 0, 0, 0, 26, 47, 0, 7, 0, 48, 0, 0, 0, 64, 72, 53, 21, 0
|9, 0, 0, 52, 0, 78, 0, 36, 0, 0, 54, 63, 56, 0, 33, 71, 47, 43, 64, 0, 0, 0, 10, 0, 53, 0, 0, 80, 0, 69, 31, 0, 0, 0, 0, 0, 0, 0, 0, 0, 14, 0, 0, 40, 5, 44, 57, 18, 75, 11, 35, 0, 0, 0, 0, 68, 8, 50, 79, 0, 23, 76, 0, 0, 77, 0, 2, 0, 39, 30, 34, 12, 19, 20, 0, 29, 15, 0, 0, 28, 65
|80, 76, 50, 0, 0, 7, 0, 0, 0, 18, 0, 22, 74, 0, 0, 0, 72, 0, 0, 75, 39, 30, 59, 60, 0, 0, 33, 0, 66, 0, 0, 25, 0, 0, 0, 17, 0, 49, 0, 79, 0, 0, 63, 0, 36, 3, 42, 0, 0, 27, 0, 0, 43, 41, 0, 0, 0, 0, 0, 47, 0, 0, 6, 10, 58, 69, 45, 0, 78, 35, 4, 0, 0, 54, 0, 32, 0, 0, 0, 0, 0
|0, 13, 0, 0, 3, 0, 0, 57, 55, 0, 26, 34, 0, 0, 29, 0, 0, 81, 74, 0, 21, 44, 0, 71, 0, 0, 27, 5, 0, 16, 12, 24, 37, 60, 10, 0, 0, 0, 76, 0, 19, 0, 0, 66, 0, 0, 0, 0, 0, 0, 22, 0, 77, 0, 0, 0, 75, 0, 35, 28, 1, 9, 49, 0, 51, 23, 0, 0, 48, 72, 0, 80, 0, 0, 0, 0, 14, 0, 56, 58, 0
|0, 0, 0, 71, 0, 75, 0, 66, 0, 15, 44, 0, 0, 0, 0, 0, 24, 0, 0, 0, 49, 0, 52, 35, 0, 0, 16, 0, 1, 0, 48, 0, 0, 58, 0, 39, 4, 6, 23, 0, 0, 27, 0, 62, 0, 0, 47, 0, 74, 0, 34, 0, 0, 2, 54, 26, 45, 0, 0, 22, 31, 25, 72, 0, 50, 0, 0, 0, 0, 0, 59, 81, 36, 51, 69, 0, 0, 0, 0, 60, 33
|0, 5, 0, 80, 0, 41, 0, 47, 54, 76, 0, 70, 0, 50, 81, 0, 0, 0, 10, 0, 30, 0, 0, 7, 77, 0, 0, 32, 20, 52, 0, 44, 0, 24, 65, 16, 25, 35, 0, 48, 45, 8, 6, 0, 0, 57, 23, 0, 0, 0, 13, 0, 11, 1, 0, 78, 0, 12, 0, 0, 0, 17, 0, 4, 31, 71, 66, 0, 64, 3, 27, 18, 0, 73, 33, 72, 59, 37, 0, 63, 60
|0, 33, 25, 0, 0, 29, 32, 0, 0, 0, 4, 0, 35, 21, 10, 48, 0, 16, 0, 0, 0, 0, 50, 37, 0, 75, 0, 59, 0, 6, 64, 79, 0, 28, 5, 0, 44, 70, 74, 19, 63, 12, 0, 3, 60, 66, 0, 36, 65, 76, 0, 61, 0, 38, 80, 0, 72, 0, 57, 0, 0, 55, 27, 0, 0, 13, 69, 40, 0, 77, 62, 0, 53, 30, 0, 0, 26, 0, 0, 41, 22
|0, 61, 60, 75, 0, 0, 0, 0, 22, 32, 0, 49, 15, 41, 0, 0, 45, 0, 55, 0, 0, 8, 0, 0, 14, 53, 0, 48, 3, 80, 0, 0, 0, 17, 57, 0, 18, 7, 40, 20, 0, 0, 73, 0, 0, 50, 0, 77, 0, 79, 0, 0, 72, 34, 0, 6, 0, 76, 5, 0, 0, 68, 74, 24, 2, 21, 0, 37, 11, 0, 33, 0, 62, 46, 0, 35, 71, 0, 0, 78, 0
|57, 0, 0, 53, 55, 0, 0, 0, 30, 0, 11, 59, 0, 37, 0, 0, 0, 0, 56, 29, 0, 0, 0, 1, 0, 0, 45, 21, 39, 0, 2, 18, 0, 0, 47, 0, 0, 50, 28, 0, 10, 81, 4, 0, 78, 0, 35, 0, 17, 63, 67, 7, 51, 0, 22, 0, 0, 0, 9, 3, 52, 32, 13, 0, 0, 0, 0, 0, 75, 0, 41, 0, 0, 0, 5, 0, 65, 0, 0, 0, 0
|59, 0, 7, 72, 0, 0, 0, 0, 17, 57, 0, 46, 61, 47, 0, 3, 0, 44, 52, 36, 0, 0, 54, 31, 21, 0, 48, 76, 0, 0, 63, 0, 0, 0, 0, 35, 0, 0, 0, 0, 0, 0, 0, 0, 24, 81, 0, 0, 0, 0, 16, 74, 0, 12, 18, 0, 19, 0, 50, 0, 38, 0, 14, 0, 0, 60, 42, 73, 0, 32, 68, 65, 0, 0, 45, 0, 0, 0, 0, 0, 0
|0, 0, 27, 0, 0, 81, 0, 44, 0, 0, 0, 0, 0, 0, 0, 60, 0, 72, 0, 0, 0, 57, 6, 0, 41, 0, 32, 0, 19, 0, 8, 0, 0, 78, 0, 56, 21, 0, 0, 47, 17, 0, 14, 38, 65, 40, 20, 0, 59, 42, 0, 58, 37, 0, 0, 0, 0, 0, 0, 0, 0, 0, 0, 61, 35, 0, 0, 67, 53, 49, 0, 54, 0, 0, 55, 0, 0, 0, 0, 79, 0
|76, 64, 0, 0, 0, 0, 0, 0, 78, 24, 20, 13, 0, 36, 38, 51, 0, 0, 0, 0, 40, 0, 60, 0, 49, 74, 0, 0, 0, 0, 58, 43, 1, 53, 0, 9, 0, 61, 0, 0, 37, 0, 69, 16, 71, 47, 80, 0, 70, 0, 45, 46, 14, 0, 8, 0, 0, 0, 25, 0, 0, 0, 0, 63, 0, 72, 81, 50, 0, 0, 6, 0, 0, 52, 0, 0, 0, 56, 12, 57, 0
|37, 31, 70, 51, 10, 0, 0, 15, 24, 0, 79, 0, 25, 71, 0, 30, 26, 0, 44, 0, 33, 35, 22, 0, 0, 0, 66, 62, 0, 41, 0, 60, 61, 75, 54, 0, 0, 0, 0, 0, 76, 0, 11, 27, 0, 0, 0, 0, 0, 0, 0, 0, 0, 0, 0, 1, 0, 63, 2, 65, 40, 43, 23, 0, 74, 59, 78, 0, 45, 19, 57, 46, 0, 0, 3, 0, 13, 0, 81, 0, 0
|67, 73, 74, 0, 48, 46, 1, 45, 0, 31, 0, 0, 0, 8, 0, 0, 28, 0, 0, 43, 0, 72, 47, 13, 78, 0, 0, 40, 27, 14, 0, 23, 34, 0, 0, 0, 54, 66, 0, 52, 0, 0, 0, 9, 0, 62, 26, 4, 0, 44, 33, 0, 32, 10, 0, 61, 51, 53, 42, 20, 0, 81, 59, 0, 0, 22, 30, 38, 0, 79, 56, 17, 0, 0, 36, 80, 76, 19, 75, 0, 29
|8, 0, 77, 0, 43, 25, 0, 0, 0, 0, 15, 0, 80, 68, 0, 42, 44, 0, 0, 0, 59, 0, 73, 0, 0, 40, 0, 49, 35, 0, 72, 0, 26, 0, 76, 0, 0, 18, 10, 0, 0, 14, 48, 0, 31, 0, 61, 0, 0, 66, 20, 0, 0, 9, 0, 0, 30, 22, 0, 0, 50, 62, 37, 36, 0, 0, 0, 0, 32, 0, 45, 0, 16, 0, 0, 46, 53, 63, 0, 65, 52
|0, 0, 0, 0, 67, 0, 26, 0, 50, 0, 0, 0, 0, 0, 0, 81, 0, 0, 0, 33, 0, 0, 0, 80, 70, 0, 0, 0, 0, 0, 0, 0, 0, 0, 21, 0, 47, 57, 0, 0, 53, 9, 39, 0, 46, 0, 36, 0, 73, 0, 0, 4, 13, 69, 10, 0, 0, 32, 78, 79, 0, 0, 0, 0, 8, 51, 22, 0, 0, 0, 0, 55, 0, 0, 20, 0, 0, 23, 35, 0, 0
|0, 0, 18, 68, 2, 0, 0, 20, 0, 55, 78, 0, 11, 0, 63, 61, 0, 32, 0, 0, 36, 0, 66, 30, 28, 0, 0, 27, 0, 7, 19, 0, 0, 39, 0, 13, 77, 0, 17, 0, 0, 73, 0, 0, 15, 35, 45, 74, 0, 0, 0, 0, 48, 0, 1, 0, 67, 0, 0, 52, 43, 0, 38, 81, 65, 0, 0, 75, 0, 0, 12, 57, 0, 0, 22, 51, 0, 62, 64, 0, 0
|0, 0, 12, 76, 0, 0, 0, 65, 11, 49, 6, 64, 13, 43, 0, 0, 36, 0, 24, 52, 0, 0, 0, 77, 0, 0, 8, 9, 55, 70, 0, 28, 0, 16, 0, 75, 0, 63, 59, 0, 0, 0, 62, 23, 0, 78, 0, 0, 7, 18, 0, 0, 0, 0, 20, 0, 0, 0, 0, 0, 0, 0, 45, 31, 0, 10, 0, 53, 0, 0, 2, 66, 33, 71, 1, 25, 0, 67, 30, 0, 21
|0, 0, 13, 0, 57, 16, 79, 28, 0, 38, 0, 0, 8, 26, 0, 27, 0, 0, 0, 0, 20, 67, 1, 63, 0, 6, 0, 0, 0, 0, 0, 40, 65, 52, 0, 0, 0, 72, 51, 0, 66, 64, 45, 11, 0, 0, 25, 81, 0, 46, 70, 0, 76, 77, 0, 0, 0, 0, 0, 14, 12, 31, 7, 0, 34, 58, 43, 3, 9, 0, 0, 33, 0, 78, 74, 2, 17, 0, 0, 0, 0
|0, 63, 52, 0, 36, 32, 64, 0, 44, 4, 7, 0, 0, 0, 3, 0, 0, 5, 46, 54, 58, 43, 72, 0, 0, 12, 0, 45, 0, 15, 0, 51, 59, 74, 0, 14, 0, 67, 0, 26, 0, 0, 38, 42, 30, 2, 53, 75, 0, 0, 8, 0, 0, 65, 9, 23, 80, 0, 0, 0, 0, 0, 0, 0, 78, 0, 0, 18, 76, 0, 0, 0, 68, 0, 40, 0, 28, 0, 0, 0, 73
|0, 51, 0, 5, 0, 31, 45, 29, 0, 59, 0, 53, 0, 20, 0, 0, 50, 33, 0, 0, 0, 47, 0, 0, 39, 65, 74, 0, 25, 12, 0, 0, 0, 0, 0, 78, 0, 34, 49, 0, 3, 0, 0, 55, 75, 72, 0, 80, 0, 52, 15, 40, 54, 11, 36, 0, 0, 28, 27, 0, 61, 0, 0, 26, 7, 0, 64, 23, 0, 38, 0, 0, 18, 8, 0, 10, 0, 4, 0, 19, 0
|62, 38, 0, 78, 80, 1, 35, 53, 15, 0, 0, 40, 12, 0, 0, 0, 0, 0, 14, 81, 45, 32, 0, 16, 0, 64, 68, 10, 60, 0, 0, 34, 29, 18, 46, 0, 76, 28, 0, 0, 61, 79, 0, 6, 27, 49, 0, 0, 26, 17, 0, 30, 0, 0, 0, 0, 58, 0, 0, 51, 0, 0, 33, 52, 72, 47, 50, 0, 0, 42, 20, 0, 0, 0, 0, 0, 7, 0, 0, 13, 0
|6, 7, 9, 0, 33, 0, 0, 17, 48, 0, 0, 23, 0, 0, 1, 37, 22, 0, 0, 35, 0, 55, 18, 0, 31, 0, 0, 77, 24, 0, 0, 81, 64, 20, 58, 0, 52, 0, 0, 36, 0, 2, 19, 0, 44, 0, 0, 62, 28, 12, 0, 0, 0, 0, 71, 0, 56, 0, 0, 54, 0, 0, 0, 13, 0, 0, 0, 0, 0, 67, 0, 0, 0, 27, 76, 0, 0, 0, 15, 45, 66
|0, 0, 0, 58, 62, 34, 0, 2, 0, 45, 76, 0, 0, 18, 0, 41, 0, 46, 0, 73, 0, 0, 0, 44, 0, 0, 0, 0, 0, 0, 0, 12, 0, 65, 0, 0, 0, 68, 75, 0, 27, 26, 43, 0, 0, 80, 0, 42, 0, 0, 0, 77, 49, 0, 78, 37, 0, 39, 0, 0, 0, 36, 0, 0, 0, 8, 0, 0, 14, 0, 60, 30, 0, 25, 23, 55, 0, 53, 0, 5, 0
|47, 0, 0, 0, 25, 0, 0, 61, 0, 79, 0, 33, 0, 13, 0, 14, 64, 6, 35, 0, 0, 0, 56, 62, 0, 0, 0, 0, 0, 0, 50, 0, 58, 0, 45, 72, 9, 39, 4, 49, 44, 3, 29, 0, 0, 0, 0, 0, 0, 53, 11, 0, 0, 0, 0, 18, 46, 55, 77, 0, 81, 10, 0, 0, 66, 42, 0, 52, 0, 21, 26, 0, 0, 59, 7, 19, 34, 2, 28, 22, 0
|29, 0, 39, 0, 16, 0, 42, 22, 0, 0, 43, 0, 54, 0, 78, 63, 0, 31, 45, 1, 0, 0, 0, 2, 26, 0, 53, 6, 0, 56, 0, 0, 0, 59, 0, 0, 41, 0, 70, 0, 52, 11, 0, 0, 10, 0, 0, 0, 0, 0, 0, 0, 0, 57, 73, 0, 38, 72, 0, 0, 8, 0, 0, 64, 19, 27, 0, 58, 0, 0, 0, 0, 81, 0, 71, 13, 75, 24, 20, 18, 68
|0, 52, 0, 28, 0, 60, 53, 55, 0, 17, 70, 0, 0, 73, 0, 0, 68, 0, 41, 0, 0, 0, 0, 32, 30, 66, 76, 0, 36, 11, 0, 31, 0, 29, 0, 47, 57, 0, 0, 24, 0, 0, 22, 0, 62, 0, 34, 63, 0, 56, 0, 45, 39, 0, 23, 48, 0, 0, 44, 7, 0, 65, 2, 50, 18, 46, 0, 0, 0, 16, 0, 0, 0, 0, 58, 74, 0, 0, 8, 54, 35
|51, 0, 1, 0, 0, 45, 0, 76, 27, 0, 21, 74, 0, 7, 5, 0, 29, 0, 0, 20, 0, 0, 0, 0, 0, 0, 43, 0, 0, 0, 0, 49, 2, 0, 0, 0, 0, 73, 37, 38, 0, 58, 36, 0, 0, 0, 8, 70, 0, 4, 10, 17, 52, 0, 0, 42, 0, 59, 0, 0, 0, 47, 0, 0, 0, 41, 0, 39, 13, 0, 0, 79, 3, 0, 0, 0, 60, 9, 0, 0, 26
|0, 30, 0, 0, 0, 0, 24, 73, 0, 0, 0, 0, 81, 0, 67, 40, 65, 0, 0, 71, 54, 0, 38, 11, 74, 28, 0, 52, 0, 62, 10, 0, 0, 0, 80, 20, 0, 46, 0, 35, 0, 59, 0, 0, 0, 12, 16, 3, 6, 0, 79, 0, 55, 29, 0, 45, 31, 13, 64, 43, 0, 19, 0, 69, 0, 0, 0, 47, 0, 0, 9, 75, 0, 36, 0, 0, 78, 0, 0, 66, 0
|0, 0, 81, 37, 26, 70, 7, 0, 9, 0, 42, 0, 10, 48, 61, 0, 0, 56, 51, 0, 0, 22, 0, 0, 72, 60, 0, 24, 40, 5, 0, 39, 0, 0, 13, 0, 23, 0, 2, 0, 34, 0, 0, 0, 25, 58, 0, 14, 0, 0, 0, 0, 0, 75, 53, 33, 0, 20, 0, 0, 0, 63, 62, 0, 55, 36, 38, 80, 0, 0, 0, 0, 65, 0, 0, 0, 0, 6, 0, 0, 0
|38, 0, 0, 66, 6, 10, 0, 54, 0, 0, 0, 0, 0, 58, 0, 0, 0, 0, 0, 46, 18, 80, 0, 0, 37, 4, 0, 64, 0, 44, 0, 0, 63, 0, 23, 70, 0, 0, 32, 5, 42, 1, 0, 0, 51, 65, 0, 22, 0, 25, 0, 0, 0, 36, 0, 57, 34, 60, 41, 0, 0, 14, 0, 0, 0, 0, 0, 77, 3, 0, 78, 0, 0, 0, 0, 12, 0, 39, 73, 0, 47
|0, 17, 0, 0, 77, 59, 5, 72, 0, 0, 0, 57, 0, 22, 34, 66, 0, 12, 36, 70, 7, 19, 55, 47, 0, 68, 0, 60, 0, 67, 25, 1, 41, 35, 61, 33, 14, 15, 0, 0, 6, 45, 80, 0, 54, 0, 0, 50, 31, 51, 0, 23, 18, 0, 0, 0, 3, 0, 0, 0, 0, 0, 58, 65, 73, 37, 10, 62, 4, 0, 0, 20, 46, 21, 0, 38, 79, 27, 0, 69, 56
|0, 0, 0, 0, 0, 28, 0, 0, 0, 44, 0, 0, 63, 0, 20, 36, 49, 4, 0, 0, 2, 0, 0, 0, 0, 38, 0, 0, 22, 68, 11, 56, 0, 0, 77, 0, 0, 0, 0, 0, 0, 0, 5, 34, 73, 0, 14, 45, 62, 0, 55, 47, 0, 0, 37, 58, 0, 71, 80, 0, 17, 40, 66, 0, 0, 75, 0, 0, 0, 0, 67, 8, 29, 76, 0, 0, 0, 0, 0, 74, 0
|33, 0, 0, 0, 37, 0, 61, 78, 0, 2, 0, 15, 42, 0, 24, 43, 41, 0, 3, 19, 0, 21, 35, 0, 0, 45, 0, 0, 0, 0, 0, 0, 0, 0, 8, 0, 0, 80, 44, 16, 0, 0, 13, 81, 0, 32, 28, 39, 0, 57, 25, 18, 0, 0, 59, 0, 62, 68, 75, 69, 0, 0, 52, 0, 71, 12, 5, 0, 0, 0, 48, 60, 0, 0, 65, 0, 0, 0, 0, 49, 46
|0, 0, 0, 73, 70, 62, 0, 39, 0, 0, 81, 0, 0, 38, 57, 68, 0, 64, 0, 77, 47, 42, 0, 0, 0, 15, 0, 30, 59, 72, 16, 0, 0, 0, 29, 0, 74, 0, 52, 33, 21, 0, 78, 75, 58, 0, 10, 44, 0, 60, 65, 66, 0, 0, 0, 0, 0, 0, 7, 34, 3, 1, 0, 32, 0, 0, 19, 0, 26, 20, 18, 0, 61, 0, 0, 0, 45, 0, 41, 0, 50
|22, 0, 54, 0, 52, 48, 0, 0, 19, 0, 8, 0, 16, 0, 11, 80, 0, 7, 0, 0, 43, 81, 0, 0, 0, 25, 0, 0, 0, 9, 0, 64, 0, 6, 24, 45, 0, 0, 0, 0, 0, 71, 59, 0, 0, 0, 29, 53, 0, 0, 2, 63, 0, 0, 0, 79, 76, 0, 18, 0, 65, 49, 55, 0, 42, 0, 0, 0, 0, 0, 69, 15, 0, 0, 0, 21, 47, 0, 38, 4, 51
|43, 0, 0, 0, 0, 17, 80, 71, 51, 0, 3, 19, 0, 0, 12, 0, 0, 0, 1, 40, 53, 6, 0, 20, 59, 0, 67, 0, 0, 0, 66, 0, 46, 0, 0, 0, 10, 0, 0, 18, 0, 0, 0, 0, 0, 0, 58, 26, 77, 34, 50, 0, 0, 37, 0, 0, 61, 0, 4, 0, 0, 30, 24, 47, 57, 54, 74, 0, 0, 0, 0, 0, 63, 75, 8, 0, 0, 60, 0, 39, 28
|0, 0, 0, 65, 75, 20, 0, 64, 18, 0, 59, 0, 0, 0, 17, 22, 0, 0, 0, 58, 56, 0, 0, 54, 71, 73, 50, 61, 15, 60, 0, 0, 80, 40, 0, 32, 19, 36, 62, 0, 0, 0, 0, 0, 0, 0, 0, 52, 4, 49, 0, 1, 0, 81, 0, 16, 0, 0, 45, 0, 51, 0, 8, 9, 0, 0, 0, 63, 33, 0, 0, 0, 7, 79, 66, 0, 0, 0, 42, 0, 11
|0, 0, 0, 0, 0, 0, 25, 0, 4, 0, 0, 0, 0, 65, 0, 58, 0, 0, 30, 0, 23, 17, 0, 68, 55, 0, 0, 47, 0, 48, 35, 37, 75, 13, 18, 0, 2, 53, 8, 42, 39, 24, 27, 0, 12, 0, 74, 0, 51, 61, 0, 0, 0, 0, 0, 0, 60, 0, 67, 78, 15, 33, 0, 79, 0, 0, 0, 0, 36, 45, 14, 50, 54, 5, 19, 64, 80, 20, 6, 73, 0
|0, 66, 2, 9, 0, 0, 13, 0, 0, 0, 0, 79, 72, 0, 0, 18, 0, 0, 0, 0, 0, 63, 0, 0, 16, 39, 62, 43, 78, 34, 0, 0, 49, 0, 0, 71, 0, 76, 0, 45, 55, 0, 0, 25, 7, 59, 12, 8, 0, 80, 75, 11, 17, 0, 46, 21, 47, 64, 10, 19, 0, 0, 42, 23, 0, 81, 41, 1, 0, 58, 30, 0, 0, 0, 0, 70, 0, 0, 26, 0, 0
|5, 15, 0, 45, 59, 0, 63, 0, 0, 75, 37, 0, 0, 61, 47, 0, 0, 13, 33, 0, 0, 31, 0, 69, 0, 0, 4, 57, 0, 1, 0, 0, 0, 27, 0, 79, 0, 0, 0, 0, 51, 0, 46, 0, 0, 0, 0, 35, 23, 0, 36, 0, 0, 0, 29, 38, 50, 0, 0, 12, 0, 26, 0, 16, 39, 0, 0, 70, 2, 11, 0, 68, 34, 72, 0, 0, 0, 0, 17, 0, 81
|10, 57, 42, 15, 9, 0, 0, 43, 40, 0, 25, 18, 0, 0, 0, 0, 0, 0, 76, 0, 50, 0, 0, 61, 0, 21, 0, 0, 0, 51, 33, 0, 0, 71, 0, 0, 0, 20, 48, 54, 0, 5, 68, 63, 34, 0, 79, 0, 0, 30, 59, 0, 0, 72, 44, 81, 0, 0, 26, 0, 7, 27, 0, 0, 0, 0, 0, 0, 0, 0, 1, 0, 0, 31, 0, 23, 32, 0, 0, 0, 0
|0, 0, 0, 74, 0, 0, 78, 0, 0, 40, 0, 68, 0, 72, 4, 47, 3, 70, 7, 0, 14, 0, 0, 17, 32, 0, 0, 0, 79, 81, 0, 15, 57, 62, 0, 0, 28, 51, 73, 25, 0, 0, 0, 37, 2, 9, 0, 61, 64, 0, 0, 13, 27, 42, 0, 0, 0, 8, 19, 0, 59, 29, 0, 0, 0, 0, 55, 0, 0, 52, 46, 56, 35, 0, 24, 63, 0, 65, 43, 0, 0
|3, 0, 0, 48, 46, 65, 0, 14, 0, 64, 0, 0, 0, 24, 0, 0, 7, 78, 43, 0, 9, 40, 57, 0, 0, 0, 47, 0, 77, 0, 54, 66, 35, 22, 20, 0, 13, 10, 15, 21, 70, 0, 0, 52, 0, 1, 0, 32, 0, 68, 73, 0, 38, 0, 51, 4, 6, 30, 0, 72, 0, 0, 0, 58, 0, 0, 31, 0, 0, 0, 0, 29, 0, 0, 0, 42, 36, 76, 25, 0, 0
|0, 0, 19, 0, 0, 73, 0, 69, 0, 42, 61, 0, 0, 29, 54, 0, 5, 22, 0, 0, 10, 0, 0, 0, 1, 34, 0, 3, 46, 0, 76, 65, 55, 12, 0, 0, 0, 77, 0, 0, 0, 0, 50, 0, 4, 74, 48, 56, 8, 0, 51, 25, 0, 0, 40, 0, 0, 17, 36, 53, 0, 79, 0, 0, 0, 0, 70, 43, 0, 78, 0, 13, 0, 0, 0, 0, 57, 0, 0, 0, 0
|0, 0, 55, 0, 0, 51, 22, 0, 47, 53, 23, 81, 41, 0, 76, 33, 74, 65, 60, 72, 11, 3, 0, 26, 46, 0, 52, 8, 0, 0, 0, 68, 0, 9, 0, 0, 24, 0, 58, 0, 0, 0, 0, 49, 61, 0, 19, 54, 20, 6, 0, 50, 0, 43, 69, 0, 0, 0, 0, 5, 64, 0, 0, 34, 0, 0, 0, 10, 0, 75, 15, 0, 0, 14, 38, 0, 73, 0, 21, 16, 2
|0, 0, 0, 0, 31, 0, 0, 0, 0, 46, 62, 10, 0, 30, 32, 16, 0, 79, 0, 0, 0, 53, 33, 75, 0, 48, 51, 58, 70, 0, 42, 0, 5, 0, 0, 0, 0, 0, 41, 3, 0, 0, 0, 0, 0, 0, 0, 0, 0, 0, 44, 35, 0, 0, 50, 65, 0, 61, 0, 0, 0, 0, 0, 19, 0, 0, 0, 57, 37, 80, 77, 0, 0, 0, 56, 0, 66, 0, 13, 0, 0
|79, 50, 33, 32, 7, 13, 0, 0, 0, 0, 0, 77, 21, 0, 0, 0, 0, 0, 63, 25, 0, 0, 0, 0, 35, 81, 0, 37, 72, 0, 0, 38, 14, 0, 41, 0, 0, 71, 57, 0, 0, 0, 0, 30, 0, 10, 66, 0, 5, 0, 0, 62, 0, 60, 0, 0, 54, 52, 0, 0, 0, 75, 0, 59, 0, 4, 0, 0, 8, 65, 28, 0, 0, 0, 0, 0, 69, 0, 46, 0, 19
|0, 0, 45, 0, 5, 56, 81, 70, 0, 0, 17, 0, 0, 80, 0, 0, 0, 57, 0, 0, 64, 0, 0, 4, 19, 59, 0, 0, 47, 50, 52, 0, 0, 30, 0, 29, 0, 0, 9, 0, 1, 62, 0, 0, 79, 69, 0, 16, 21, 36, 0, 0, 0, 39, 48, 22, 32, 0, 0, 0, 0, 0, 25, 0, 0, 0, 0, 0, 68, 0, 51, 0, 6, 0, 0, 28, 0, 15, 18, 37, 0
|0, 0, 0, 38, 0, 0, 0, 0, 26, 58, 51, 0, 49, 63, 50, 0, 0, 0, 65, 62, 0, 56, 74, 23, 0, 0, 18, 0, 0, 10, 75, 59, 0, 21, 0, 0, 0, 69, 0, 0, 64, 6, 60, 19, 76, 0, 0, 0, 80, 28, 24, 0, 46, 4, 47, 0, 0, 66, 1, 67, 42, 57, 0, 2, 0, 40, 0, 5, 27, 0, 3, 72, 0, 53, 44, 0, 0, 22, 45, 0, 0|];