order = 9;
grid = [|0, 43, 0, 48, 54, 1, 25, 0, 0, 45, 0, 39, 0, 0, 29, 0, 65, 41, 0, 64, 17, 0, 0, 55, 52, 69, 0, 21, 0, 28, 0, 37, 51, 80, 33, 26, 0, 10, 0, 79, 0, 24, 58, 76, 0, 49, 5, 63, 40, 72, 67, 20, 0, 0, 0, 0, 18, 23, 30, 9, 38, 34, 0, 2, 59, 57, 0, 0, 47, 6, 0, 74, 66, 0, 32, 27, 0, 0, 11, 0, 0
|70, 14, 58, 38, 0, 9, 39, 0, 78, 0, 27, 35, 80, 31, 52, 26, 0, 0, 0, 0, 30, 0, 73, 0, 0, 0, 81, 20, 0, 43, 0, 11, 32, 10, 0, 0, 0, 69, 0, 0, 0, 0, 15, 0, 0, 66, 79, 50, 34, 0, 75, 44, 29, 16, 2, 7, 0, 0, 0, 0, 0, 12, 3, 0, 0, 40, 0, 48, 53, 8, 19, 0, 0, 24, 4, 0, 62, 0, 0, 23, 0
|81, 0, 11, 0, 0, 21, 26, 80, 0, 0, 0, 23, 30, 0, 0, 0, 1, 46, 0, 0, 48, 0, 13, 31, 0, 0, 0, 63, 0, 3, 65, 0, 57, 76, 12, 7, 0, 0, 39, 54, 5, 0, 34, 4, 0, 8, 0, 41, 22, 52, 0, 74, 0, 0, 0, 0, 0, 78, 77, 75, 40, 0, 0, 0, 0, 25, 0, 0, 0, 0, 0, 0, 0, 0, 59, 19, 20, 0, 0, 43, 68
|27, 42, 0, 0, 0, 0, 0, 47, 0, 0, 51, 56, 0, 0, 70, 0, 0, 63, 3, 0, 39, 76, 2, 0, 0, 0, 0, 0, 79, 0, 0, 30, 0, 53, 69, 0, 12, 0, 62, 0, 40, 21, 50, 7, 6, 13, 0, 0, 0, 0, 64, 32, 0, 0, 61, 0, 65, 0, 73, 0, 0, 0, 0, 0, 75, 0, 0, 9, 68, 23, 52, 0, 0, 18, 45, 0, 72, 25, 0, 0, 0
|0, 68, 67, 56, 2, 0, 0, 18, 0, 34, 3, 33, 0, 0, 9, 0, 0, 0, 0, 32, 0, 40, 0, 75, 0, 0, 57, 0, 6, 19, 55, 0, 70, 0, 59, 0, 22, 52, 46, 0, 72, 65, 23, 64, 0, 0, 0, 0, 80, 0, 0, 0, 0, 0, 0, 0, 14, 0, 16, 39, 0, 0, 26, 0, 63, 0, 0, 60, 0, 0, 50, 0, 0, 8, 73, 0, 0, 0, 0, 0, 79
|10, 22, 0, 0, 0, 8, 45, 15, 0, 79, 0, 54, 0, 0, 13, 62, 18, 0, 0, 0, 0, 0, 26, 27, 0, 60, 0, 67, 0, 16, 39, 0, 73, 44, 0, 0, 2, 0, 74, 43, 33, 0, 66, 0, 0, 0, 0, 0, 48, 70, 0, 30, 0, 0, 0, 63, 51, 0, 0, 0, 19, 0, 0, 0, 0, 64, 3, 0, 0, 34, 0, 0, 7, 0, 42, 0, 55, 0, 52, 0, 58
|0, 32, 0, 0, 77, 13, 0, 64, 0, 0, 14, 44, 21, 0, 0, 0, 0, 71, 74, 56, 0, 0, 62, 0, 11, 79, 67, 0, 23, 0, 35, 66, 0, 0, 0, 29, 0, 0, 27, 19, 75, 0, 78, 59, 0, 0, 0, 0, 73, 0, 0, 25, 0, 55, 0, 24, 47, 1, 49, 0, 0, 0, 0, 0, 0, 0, 0, 26, 0, 65, 0, 46, 0, 0, 51, 0, 0, 0, 2, 0, 0
|60, 0, 0, 35, 0, 0, 0, 0, 0, 19, 40, 0, 68, 0, 67, 0, 42, 50, 0, 0, 10, 0, 28, 0, 0, 4, 25, 56, 17, 0, 9, 0, 0, 0, 64, 38, 0, 0, 0, 0, 61, 0, 14, 80, 16, 37, 65, 0, 0, 0, 77, 33, 45, 0, 58, 0, 8, 11, 72, 0, 20, 52, 62, 0, 12, 21, 7, 0, 0, 0, 78, 81, 70, 76, 57, 54, 47, 74, 75, 0, 0
|23, 75, 0, 5, 46, 0, 34, 0, 0, 0, 0, 0, 0, 0, 58, 0, 0, 0, 0, 51, 9, 0, 0, 38, 0, 0, 0, 0, 0, 14, 78, 40, 52, 0, 0, 0, 0, 0, 11, 47, 45, 0, 56, 0, 3, 7, 2, 4, 0, 43, 61, 0, 0, 0, 0, 64, 0, 13, 0, 0, 0, 0, 0, 0, 0, 69, 0, 28, 0, 0, 15, 0, 65, 50, 31, 0, 53, 0, 0, 26, 0
|0, 0, 30, 0, 0, 49, 72, 9, 80, 41, 0, 0, 53, 0, 0, 37, 63, 0, 0, 0, 0, 57, 0, 78, 0, 0, 3, 1, 24, 0, 60, 67, 26, 0, 0, 6, 0, 0, 0, 74, 34, 0, 0, 71, 68, 51, 39, 65, 77, 16, 0, 7, 50, 0, 0, 0, 44, 62, 11, 0, 0, 27, 0, 36, 0, 0, 22, 0, 46, 0, 0, 0, 0, 0, 0, 0, 0, 69, 0, 5, 35
|77, 0, 1, 0, 0, 51, 0, 38, 20, 0, 0, 76, 19, 0, 15, 0, 0, 0, 13, 0, 0, 0, 40, 63, 0, 0, 46, 0, 64, 30, 36, 39, 0, 0, 37, 0, 0, 0, 0, 0, 44, 52, 61, 0, 59, 2, 78, 0, 0, 0, 0, 49, 4, 0, 14, 0, 0, 57, 0, 0, 0, 66, 80, 0, 0, 42, 29, 34, 0, 0, 0, 50, 26, 65, 0, 0, 16, 7, 0, 0, 0
|61, 0, 0, 0, 74, 58, 6, 50, 0, 0, 0, 59, 0, 0, 18, 0, 0, 30, 0, 80, 27, 0, 64, 56, 0, 0, 28, 0, 57, 15, 17, 5, 0, 0, 66, 0, 7, 77, 0, 0, 37, 0, 72, 0, 69, 0, 0, 0, 60, 0, 0, 19, 0, 0, 0, 52, 0, 0, 0, 31, 0, 0, 0, 0, 0, 0, 78, 0, 40, 0, 0, 47, 38, 0, 24, 12, 0, 0, 62, 0, 14
|0, 45, 0, 0, 0, 19, 28, 76, 0, 66, 0, 0, 0, 14, 62, 75, 27, 80, 0, 11, 0, 0, 0, 0, 0, 48, 0, 34, 0, 0, 0, 0, 0, 0, 4, 78, 0, 53, 12, 0, 55, 47, 36, 2, 0, 0, 52, 0, 0, 0, 81, 0, 22, 0, 67, 0, 54, 0, 64, 26, 6, 0, 0, 0, 0, 23, 0, 71, 43, 74, 0, 7, 0, 3, 25, 79, 0, 0, 0, 9, 50
|0, 0, 27, 63, 23, 0, 0, 78, 0, 51, 50, 0, 42, 0, 4, 0, 0, 5, 0, 47, 12, 0, 0, 62, 68, 0, 0, 0, 0, 7, 0, 0, 77, 0, 0, 74, 0, 79, 33, 0, 0, 0, 0, 19, 20, 43, 71, 0, 46, 0, 26, 0, 0, 0, 0, 0, 0, 0, 32, 49, 0, 0, 25, 0, 0, 0, 2, 3, 81, 0, 0, 0, 72, 0, 0, 73, 0, 0, 39, 59, 0
|2, 0, 8, 3, 64, 69, 0, 0, 7, 68, 0, 67, 38, 0, 0, 0, 0, 24, 0, 0, 0, 31, 23, 0, 60, 0, 34, 35, 53, 10, 0, 14, 0, 75, 0, 0, 29, 81, 0, 0, 13, 50, 0, 26, 0, 0, 66, 0, 0, 12, 0, 36, 0, 80, 0, 0, 0, 71, 0, 43, 47, 0, 78, 0, 0, 0, 44, 0, 0, 0, 21, 15, 52, 19, 0, 0, 0, 0, 58, 49, 70
|4, 26, 62, 24, 44, 41, 66, 29, 42, 7, 36, 0, 0, 0, 55, 70, 11, 65, 0, 0, 0, 81, 0, 10, 0, 0, 0, 0, 0, 0, 0, 0, 22, 69, 0, 51, 31, 32, 64, 57, 35, 3, 0, 0, 48, 34, 73, 14, 23, 0, 0, 8, 59, 0, 74, 15, 58, 0, 0, 0, 28, 61, 75, 17, 1, 80, 0, 12, 19, 0, 0, 39, 53, 20, 78, 13, 60, 37, 43, 0, 0
|0, 0, 0, 53, 67, 0, 79, 0, 5, 0, 0, 34, 3, 45, 0, 21, 0, 57, 0, 0, 0, 59, 0, 0, 71, 26, 55, 65, 0, 0, 70, 0, 0, 0, 46, 0, 4, 27, 18, 0, 10, 14, 39, 28, 1, 0, 64, 0, 0, 58, 40, 24, 15, 41, 72, 0, 0, 50, 0, 0, 12, 0, 0, 0, 48, 0, 73, 0, 37, 0, 16, 62, 80, 81, 0, 42, 0, 0, 23, 0, 0
|57, 0, 0, 40, 0, 10, 35, 0, 0, 17, 0, 0, 8, 52, 0, 0, 0, 0, 0, 39, 0, 24, 0, 29, 0, 0, 0, 0, 16, 47, 62, 43, 0, 23, 0, 0, 0, 80, 54, 15, 9, 76, 0, 45, 0, 0, 0, 21, 0, 0, 1, 0, 75, 0, 0, 0, 0, 5, 0, 0, 0, 0, 68, 72, 0, 60, 0, 38, 41, 31, 26, 0, 77, 44, 0, 0, 64, 0, 0, 27, 66
|75, 66, 53, 0, 0, 56, 65, 2, 0, 0, 0, 71, 0, 0, 24, 0, 0, 52, 68, 0, 0, 0, 5, 0, 45, 0, 59, 0, 0, 0, 34, 0, 0, 57, 0, 0, 0, 0, 0, 0, 0, 13, 25, 0, 0, 80, 4, 74, 18, 17, 63, 22, 0, 15, 0, 41, 43, 0, 0, 0, 0, 6, 0, 16, 0, 48, 0, 0, 64, 50, 0, 0, 30, 0, 55, 0, 32, 79, 0, 0, 0
|74, 21, 4, 67, 28, 23, 0, 70, 52, 20, 62, 9, 0, 0, 0, 59, 77, 0, 19, 43, 75, 0, 15, 2, 0, 0, 56, 79, 0, 0, 0, 26, 66, 37, 27, 65, 39, 0, 35, 50, 22, 0, 0, 31, 14, 53, 61, 16, 0, 64, 51, 34, 0, 0, 0, 0, 1, 0, 0, 24, 0, 5, 81, 0, 0, 0, 6, 78, 33, 40, 0, 71, 0, 72, 8, 0, 46, 0, 0, 48, 0
|68, 0, 0, 0, 0, 0, 37, 0, 38, 2, 46, 7, 0, 36, 56, 0, 0, 8, 70, 62, 0, 64, 0, 0, 0, 81, 63, 0, 0, 51, 18, 0, 0, 49, 0, 0, 0, 0, 3, 0, 15, 0, 74, 0, 0, 23, 54, 0, 78, 65, 0, 31, 0, 0, 0, 27, 67, 79, 0, 0, 4, 39, 0, 25, 45, 9, 72, 75, 21, 0, 30, 0, 24, 29, 19, 0, 80, 0, 44, 0, 0
|0, 0, 0, 0, 47, 0, 20, 44, 81, 39, 0, 63, 0, 0, 0, 0, 29, 0, 0, 0, 0, 0, 0, 0, 79, 10, 0, 24, 0, 0, 76, 12, 0, 0, 0, 30, 0, 75, 0, 0, 23, 78, 6, 0, 0, 40, 67, 71, 0, 32, 21, 66, 0, 0, 59, 17, 77, 38, 0, 0, 0, 15, 37, 0, 0, 0, 0, 73, 0, 2, 56, 0, 11, 0, 69, 0, 0, 0, 0, 4, 0
|0, 0, 0, 0, 0, 6, 0, 45, 55, 0, 16, 70, 31, 0, 0, 27, 0, 19, 0, 0, 0, 9, 0, 13, 0, 23, 0, 36, 56, 0, 0, 80, 54, 0, 0, 42, 0, 58, 0, 0, 0, 69, 0, 11, 51, 0, 24, 0, 0, 0, 25, 0, 76, 79, 0, 0, 20, 29, 0, 53, 0, 78, 66, 44, 0, 0, 35, 0, 3, 12, 1, 0, 0, 0, 0, 0, 67, 0, 0, 61, 39
|18, 0, 0, 0, 0, 25, 29, 0, 0, 78, 0, 0, 0, 0, 0, 0, 0, 22, 20, 0, 8, 38, 0, 3, 0, 46, 0, 5, 0, 67, 0, 0, 0, 63, 0, 44, 43, 0, 0, 0, 1, 68, 0, 61, 0, 0, 0, 0, 33, 0, 50, 11, 0, 0, 0, 0, 71, 10, 0, 0, 49, 0, 0, 51, 0, 19, 0, 0, 42, 14, 0, 0, 0, 0, 40, 65, 31, 0, 0, 12, 0
|32, 78, 0, 0, 0, 7, 0, 12, 0, 0, 0, 6, 18, 0, 0, 0, 15, 0, 0, 0, 66, 27, 76, 0, 0, 33, 0, 0, 22, 0, 47, 19, 60, 0, 0, 0, 0, 0, 29, 34, 79, 0, 0, 42, 0, 0, 0, 3, 72, 10, 0, 0, 0, 0, 8, 73, 11, 55, 0, 48, 0, 0, 13, 80, 61, 24, 69, 0, 63, 46, 0, 0, 50, 41, 0, 0, 0, 0, 38, 75, 0
|64, 50, 0, 0, 0, 0, 30, 0, 0, 1, 0, 65, 54, 0, 11, 10, 0, 73, 0, 0, 0, 21, 0, 42, 6, 14, 61, 48, 0, 72, 46, 0, 53, 0, 0, 39, 67, 20, 0, 37, 0, 0, 12, 0, 0, 0, 58, 38, 0, 0, 0, 0, 0, 0, 0, 0, 0, 0, 75, 0, 0, 68, 76, 8, 0, 0, 13, 77, 32, 81, 79, 0, 0, 0, 0, 45, 17, 78, 0, 15, 60
|0, 0, 0, 26, 0, 0, 54, 40, 0, 0, 35, 0, 0, 38, 0, 0, 75, 44, 0, 0, 57, 71, 0, 0, 0, 0, 78, 50, 45, 64, 0, 0, 0, 0, 29, 0, 41, 62, 0, 0, 0, 0, 0, 49, 4, 0, 0, 0, 0, 0, 0, 0, 0, 6, 31, 72, 74, 19, 25, 33, 65, 30, 14, 7, 18, 43, 0, 0, 10, 67, 20, 0, 42, 0, 5, 66, 36, 56, 16, 0, 63
|16, 11, 54, 0, 75, 48, 0, 0, 21, 0, 0, 0, 51, 0, 0, 55, 60, 77, 61, 0, 0, 30, 0, 59, 34, 0, 7, 18, 0, 0, 0, 0, 56, 0, 78, 0, 14, 72, 53, 0, 80, 0, 47, 24, 0, 38, 13, 33, 66, 0, 0, 0, 0, 68, 0, 0, 0, 73, 79, 46, 0, 0, 44, 0, 0, 0, 23, 0, 0, 37, 31, 0, 12, 57, 0, 0, 19, 0, 0, 0, 0
|0, 15, 23, 0, 12, 36, 5, 0, 33, 18, 0, 28, 0, 0, 0, 0, 0, 32, 51, 48, 0, 2, 24, 4, 0, 0, 0, 0, 0, 77, 16, 68, 8, 0, 0, 73, 0, 0, 7, 0, 19, 0, 0, 0, 26, 0, 0, 53, 0, 0, 49, 0, 0, 17, 52, 0, 9, 0, 13, 0, 30, 0, 0, 78, 42, 0, 45, 0, 6, 0, 0, 0, 0, 0, 0, 0, 81, 0, 0, 71, 0
|69, 0, 64, 45, 22, 0, 56, 0, 60, 54, 0, 13, 72, 0, 0, 0, 9, 0, 46, 0, 62, 0, 20, 0, 3, 0, 0, 38, 0, 0, 0, 0, 0, 24, 2, 48, 51, 0, 43, 42, 0, 0, 0, 0, 0, 73, 0, 0, 0, 0, 0, 10, 7, 0, 0, 57, 0, 0, 0, 0, 70, 19, 0, 0, 74, 0, 52, 1, 49, 29, 0, 0, 40, 23, 44, 0, 0, 55, 0, 79, 32
|9, 0, 50, 44, 79, 0, 0, 0, 28, 0, 64, 17, 59, 0, 19, 78, 0, 0, 0, 76, 36, 73, 0, 0, 0, 0, 29, 0, 20, 0, 66, 6, 7, 47, 43, 69, 23, 11, 68, 21, 0, 58, 33, 39, 13, 0, 31, 0, 15, 0, 0, 54, 70, 0, 0, 0, 75, 0, 0, 56, 10, 0, 53, 0, 0, 22, 0, 0, 0, 16, 0, 32, 0, 0, 63, 0, 37, 72, 30, 80, 0
|76, 0, 0, 0, 37, 53, 78, 67, 25, 65, 0, 0, 23, 7, 16, 0, 34, 14, 66, 75, 0, 13, 0, 0, 17, 15, 0, 32, 80, 1, 0, 0, 0, 3, 39, 60, 0, 73, 41, 0, 70, 0, 52, 44, 0, 0, 50, 57, 0, 9, 48, 79, 64, 0, 0, 5, 0, 0, 6, 12, 0, 58, 0, 24, 77, 62, 51, 20, 59, 0, 0, 0, 36, 0, 0, 0, 42, 0, 0, 0, 0
|73, 0, 18, 6, 68, 63, 0, 0, 0, 0, 0, 0, 0, 0, 0, 0, 24, 0, 0, 0, 52, 72, 0, 5, 78, 44, 19, 58, 59, 27, 51, 0, 0, 28, 0, 40, 17, 57, 60, 0, 64, 0, 31, 0, 10, 0, 8, 0, 0, 81, 0, 0, 11, 30, 49, 54, 22, 66, 47, 0, 1, 77, 41, 3, 9, 0, 48, 46, 50, 35, 0, 21, 0, 74, 7, 53, 0, 4, 34, 76, 25
|14, 20, 24, 81, 27, 32, 0, 58, 19, 73, 0, 61, 4, 0, 0, 0, 0, 0, 0, 10, 0, 0, 0, 0, 0, 56, 45, 0, 0, 0, 0, 65, 0, 35, 0, 67, 63, 5, 37, 0, 0, 9, 0, 0, 0, 22, 0, 0, 0, 6, 0, 60, 46, 0, 0, 0, 0, 74, 43, 40, 0, 8, 0, 0, 2, 34, 0, 47, 66, 44, 0, 0, 51, 77, 0, 0, 0, 0, 0, 70, 0
|59, 0, 0, 0, 0, 30, 10, 0, 0, 0, 68, 20, 46, 70, 48, 0, 0, 15, 0, 0, 0, 0, 9, 32, 33, 53, 0, 0, 14, 0, 23, 0, 44, 64, 0, 0, 6, 0, 66, 22, 0, 0, 18, 0, 0, 58, 63, 34, 0, 0, 56, 77, 0, 62, 0, 0, 0, 80, 0, 16, 21, 0, 24, 40, 0, 0, 0, 19, 72, 75, 39, 0, 0, 0, 0, 3, 0, 0, 35, 54, 0
|13, 51, 0, 34, 0, 0, 46, 26, 4, 0, 0, 40, 0, 1, 0, 67, 53, 49, 0, 70, 81, 68, 0, 0, 0, 18, 23, 57, 63, 0, 0, 0, 0, 0, 0, 0, 25, 0, 0, 30, 0, 0, 0, 29, 0, 44, 0, 0, 24, 71, 0, 0, 43, 0, 62, 0, 0, 61, 59, 32, 0, 0, 0, 0, 11, 12, 56, 0, 76, 15, 69, 33, 0, 0, 52, 0, 0, 0, 0, 58, 0
|56, 0, 0, 0, 0, 0, 0, 48, 0, 55, 13, 68, 36, 0, 0, 73, 0, 67, 0, 0, 72, 0, 61, 0, 0, 57, 0, 0, 0, 0, 0, 53, 10, 33, 0, 0, 58, 31, 0, 0, 51, 46, 29, 60, 0, 0, 0, 69, 0, 0, 37, 0, 3, 63, 0, 47, 0, 0, 0, 80, 11, 62, 64, 9, 0, 0, 49, 0, 0, 21, 59, 16, 4, 75, 0, 35, 0, 27, 0, 0, 0
|0, 9, 0, 0, 0, 0, 61, 0, 0, 0, 56, 45, 0, 30, 69, 39, 0, 0, 42, 0, 26, 10, 0, 0, 0, 0, 40, 0, 0, 0, 57, 7, 43, 0, 47, 59, 0, 0, 0, 0, 78, 0, 37, 0, 22, 18, 44, 12, 0, 73, 15, 62, 2, 0, 0, 0, 0, 0, 63, 76, 0, 16, 54, 0, 36, 0, 31, 29, 77, 0, 74, 79, 25, 0, 58, 64, 0, 0, 0, 0, 0
|0, 0, 0, 80, 34, 0, 47, 0, 0, 59, 9, 58, 0, 79, 0, 57, 78, 26, 16, 0, 22, 0, 70, 0, 0, 52, 41, 75, 46, 0, 0, 0, 20, 30, 55, 64, 0, 42, 61, 10, 25, 0, 0, 0, 0, 5, 43, 51, 0, 76, 7, 0, 0, 32, 35, 19, 40, 0, 0, 6, 0, 71, 36, 0, 8, 28, 38, 63, 0, 60, 0, 11, 0, 45, 2, 0, 33, 0, 0, 0, 0
|25, 0, 0, 20, 0, 0, 52, 0, 45, 0, 31, 15, 0, 0, 0, 0, 0, 0, 0, 0, 5, 0, 0, 0, 0, 51, 9, 26, 11, 0, 49, 0, 37, 0, 0, 54, 0, 36, 0, 35, 41, 0, 4, 0, 0, 0, 0, 79, 1, 80, 70, 0, 0, 0, 48, 30, 28, 67, 0, 78, 0, 46, 17, 73, 0, 81, 39, 0, 61, 53, 44, 0, 0, 0, 50, 0, 0, 0, 0, 0, 0
|29, 0, 0, 22, 0, 0, 24, 0, 0, 64, 4, 0, 27, 8, 0, 51, 0, 1, 0, 0, 0, 63, 59, 14, 77, 0, 0, 6, 0, 0, 21, 0, 72, 0, 0, 0, 52, 2, 70, 0, 39, 0, 0, 57, 11, 48, 0, 0, 9, 47, 30, 0, 10, 0, 13, 0, 41, 0, 0, 0, 68, 0, 0, 37, 62, 0, 0, 0, 65, 71, 0, 75, 0, 60, 0, 0, 5, 20, 31, 0, 15
|0, 0, 5, 79, 0, 0, 2, 0, 0, 70, 0, 0, 62, 0, 0, 0, 0, 0, 0, 0, 31, 53, 66, 45, 19, 68, 0, 23, 0, 39, 0, 61, 0, 1, 0, 80, 0, 54, 0, 67, 7, 74, 0, 18, 49, 0, 0, 0, 36, 0, 0, 6, 65, 75, 0, 0, 3, 69, 0, 0, 58, 0, 4, 0, 0, 0, 42, 30, 35, 0, 0, 0, 44, 78, 26, 16, 0, 0, 56, 0, 51
|11, 53, 44, 0, 0, 75, 0, 0, 0, 60, 7, 0, 0, 3, 42, 0, 80, 0, 36, 13, 4, 0, 71, 0, 0, 20, 0, 0, 50, 0, 0, 0, 0, 9, 74, 0, 5, 0, 0, 56, 17, 0, 64, 14, 0, 26, 68, 0, 16, 38, 0, 61, 78, 0, 21, 0, 79, 0, 51, 0, 0, 55, 12, 0, 70, 0, 1, 0, 15, 0, 57, 45, 32, 0, 0, 30, 52, 0, 0, 6, 49
|0, 0, 66, 0, 0, 15, 0, 0, 6, 33, 54, 47, 29, 0, 0, 0, 0, 23, 32, 0, 34, 0, 0, 73, 0, 30, 64, 51, 38, 0, 28, 0, 58, 0, 0, 0, 0, 19, 45, 0, 0, 79, 71, 75, 0, 0, 0, 0, 0, 0, 60, 39, 0, 49, 0, 37, 25, 0, 0, 77, 0, 0, 56, 18, 72, 0, 41, 0, 0, 7, 0, 0, 0, 0, 0, 0, 61, 0, 1, 8, 0
|0, 37, 68, 0, 0, 0, 0, 0, 0, 75, 0, 0, 52, 65, 14, 0, 2, 53, 48, 0, 0, 25, 0, 76, 0, 1, 0, 15, 36, 0, 0, 0, 0, 0, 45, 0, 47, 30, 0, 27, 63, 0, 77, 9, 80, 19, 0, 0, 58, 20, 31, 0, 34, 0, 66, 0, 59, 0, 61, 38, 5, 0, 74, 32, 0, 0, 0, 0, 0, 0, 0, 0, 0, 55, 67, 0, 41, 21, 46, 72, 7
|0, 18, 0, 0, 45, 46, 0, 5, 40, 0, 0, 0, 0, 0, 37, 35, 0, 62, 0, 8, 77, 0, 72, 20, 0, 0, 69, 0, 3, 0, 0, 70, 67, 34, 0, 56, 0, 33, 0, 0, 0, 36, 0, 81, 64, 59, 9, 0, 54, 27, 71, 65, 0, 60, 0, 66, 68, 2, 39, 52, 0, 50, 79, 0, 15, 0, 17, 41, 7, 0, 0, 0, 0, 0, 0, 0, 0, 44, 0, 11, 23
|0, 0, 0, 0, 31, 54, 0, 49, 10, 15, 0, 74, 57, 0, 73, 14, 0, 27, 62, 29, 61, 0, 55, 0, 26, 0, 0, 0, 78, 0, 0, 0, 30, 6, 48, 0, 0, 0, 0, 0, 0, 0, 0, 3, 47, 52, 0, 0, 0, 0, 66, 0, 41, 33, 20, 0, 70, 9, 4, 28, 0, 23, 0, 56, 0, 0, 0, 0, 0, 0, 65, 0, 0, 36, 0, 0, 8, 77, 0, 0, 43
|35, 55, 59, 65, 0, 50, 81, 0, 0, 0, 0, 0, 47, 72, 33, 58, 45, 21, 0, 0, 0, 48, 39, 0, 0, 0, 75, 77, 0, 0, 24, 0, 68, 0, 32, 14, 0, 0, 79, 28, 53, 0, 0, 27, 0, 62, 34, 0, 38, 0, 8, 0, 20, 0, 17, 0, 0, 31, 19, 64, 0, 74, 10, 69, 0, 51, 5, 0, 57, 36, 0, 9, 0, 2, 0, 0, 0, 0, 70, 0, 0
|0, 16, 17, 47, 52, 39, 0, 7, 43, 0, 79, 0, 70, 9, 10, 0, 19, 0, 0, 0, 0, 0, 80, 53, 35, 0, 0, 31, 15, 0, 0, 0, 0, 0, 0, 55, 13, 4, 73, 0, 77, 0, 75, 37, 21, 74, 0, 58, 2, 57, 0, 0, 63, 64, 0, 0, 0, 0, 0, 36, 0, 67, 0, 0, 71, 26, 0, 40, 0, 68, 0, 0, 0, 0, 0, 0, 66, 0, 0, 65, 20
|0, 0, 20, 0, 0, 0, 0, 28, 62, 0, 75, 36, 69, 0, 0, 0, 49, 0, 41, 23, 59, 0, 79, 0, 0, 0, 0, 45, 0, 9, 43, 0, 0, 0, 58, 72, 48, 0, 78, 0, 54, 0, 0, 51, 8, 3, 76, 15, 0, 0, 0, 0, 0, 22, 0, 1, 0, 33, 0, 0, 7, 65, 47, 63, 0, 44, 32, 0, 70, 0, 25, 35, 39, 10, 0, 55, 0, 0, 0, 37, 0
|0, 63, 36, 0, 0, 0, 0, 0, 58, 16, 81, 3, 7, 18, 0, 0, 59, 0, 0, 0, 0, 66, 44, 71, 0, 2, 0, 0, 0, 0, 37, 28, 0, 0, 0, 17, 15, 56, 65, 12, 0, 5, 0, 40, 34, 0, 0, 0, 31, 48, 19, 70, 6, 23, 25, 78, 0, 42, 0, 69, 0, 0, 77, 0, 43, 46, 74, 53, 0, 0, 0, 8, 0, 14, 72, 0, 0, 0, 0, 0, 0
|44, 0, 0, 76, 48, 0, 0, 24, 13, 0, 17, 0, 26, 0, 0, 31, 23, 34, 81, 0, 0, 5, 0, 0, 22, 0, 36, 0, 8, 71, 0, 0, 0, 65, 50, 0, 0, 0, 0, 20, 0, 0, 0, 0, 0, 0, 75, 39, 37, 42, 0, 0, 72, 69, 29, 21, 0, 58, 41, 0, 57, 11, 51, 4, 0, 78, 0, 0, 62, 0, 0, 0, 0, 0, 33, 46, 27, 0, 0, 56, 6
|34, 0, 0, 9, 0, 0, 53, 30, 69, 0, 0, 55, 63, 0, 8, 0, 66, 0, 0, 12, 68, 17, 0, 0, 0, 3, 76, 62, 19, 74, 0, 0, 2, 11, 0, 23, 59, 0, 10, 52, 0, 0, 0, 0, 50, 35, 14, 0, 43, 51, 0, 78, 13, 0, 26, 49, 24, 15, 54, 0, 0, 0, 71, 0, 6, 20, 0, 72, 75, 0, 0, 0, 0, 16, 81, 7, 0, 0, 0, 0, 0
|0, 0, 0, 72, 0, 0, 0, 0, 56, 0, 39, 64, 0, 0, 0, 60, 6, 51, 65, 57, 15, 19, 0, 0, 10, 43, 52, 0, 0, 0, 20, 0, 47, 0, 0, 35, 0, 67, 0, 0, 0, 22, 62, 0, 0, 28, 81, 24, 30, 77, 4, 0, 53, 0, 63, 59, 0, 44, 0, 0, 0, 0, 61, 34, 0, 0, 27, 0, 80, 48, 42, 54, 0, 9, 0, 0, 0, 0, 40, 0, 0
|0, 0, 0, 4, 0, 37, 58, 35, 0, 53, 0, 0, 76, 51, 74, 0, 16, 0, 73, 9, 13, 7, 11, 21, 0, 0, 0, 8, 67, 0, 6, 0, 78, 68, 34, 0, 0, 0, 0, 14, 0, 28, 1, 0, 29, 57, 42, 62, 0, 0, 0, 0, 0, 0, 19, 56, 0, 0, 0, 0, 43, 72, 0, 30, 0, 0, 0, 0, 39, 61, 0, 0, 0, 0, 66, 0, 24, 0, 0, 0, 10
|0, 0, 46, 15, 0, 79, 0, 31, 66, 42, 0, 75, 0, 0, 0, 38, 0, 6, 0, 5, 23, 0, 0, 0, 0, 78, 39, 0, 9, 53, 13, 0, 0, 16, 0, 0, 0, 25, 0, 0, 0, 0, 0, 47, 74, 0, 0, 77, 0, 22, 73, 72, 0, 0, 24, 0, 0, 70, 71, 0, 54, 0, 34, 0, 49, 56, 76, 0, 14, 28, 12, 0, 0, 27, 35, 8, 0, 0, 69, 0, 0
|0, 0, 0, 0, 21, 65, 9, 0, 0, 67, 0, 26, 35, 57, 77, 0, 0, 3, 0, 0, 0, 0, 0, 0, 56, 0, 0, 0, 54, 80, 2, 47, 0, 14, 0, 0, 37, 0, 51, 0, 0, 0, 46, 63, 79, 0, 0, 0, 0, 4, 55, 53, 39, 0, 0, 32, 36, 40, 0, 0, 18, 42, 16, 0, 0, 0, 0, 62, 0, 64, 0, 0, 0, 6, 0, 0, 38, 34, 59, 0, 0
|0, 0, 0, 7, 0, 0, 42, 10, 0, 0, 52, 0, 32, 69, 0, 63, 13, 0, 0, 40, 0, 44, 19, 49, 0, 0, 0, 73, 66, 0, 0, 0, 0, 0, 35, 0, 0, 48, 72, 23, 36, 0, 0, 21, 67, 15, 18, 68, 0, 50, 0, 0, 27, 0, 0, 74, 0, 0, 0, 0, 75, 47, 0, 0, 0, 53, 37, 6, 0, 0, 54, 5, 17, 70, 80, 0, 0, 0, 22, 0, 0
|0, 0, 77, 55, 0, 81, 0, 19, 12, 27, 18, 21, 0, 0, 72, 0, 0, 37, 0, 61, 0, 0, 0, 0, 76, 0, 53, 0, 0, 0, 0, 74, 0, 0, 40, 63, 0, 0, 8, 0, 0, 0, 0, 62, 39, 0, 6, 35, 13, 0, 0, 9, 0, 66, 50, 0, 49, 30, 0, 0, 46, 0, 0, 0, 0, 15, 0, 33, 0, 32, 51, 0, 0, 0, 64, 0, 0, 52, 0, 28, 54
|50, 28, 0, 0, 0, 0, 0, 39, 0, 62, 19, 0, 0, 0, 64, 0, 54, 31, 0, 66, 67, 58, 0, 37, 55, 0, 0, 0, 30, 0, 0, 0, 46, 0, 76, 20, 70, 78, 15, 24, 59, 49, 0, 34, 43, 0, 74, 75, 0, 0, 0, 2, 0, 0, 81, 0, 6, 0, 0, 68, 44, 0, 9, 0, 25, 72, 0, 0, 13, 3, 0, 17, 45, 32, 65, 40, 1, 63, 0, 41, 0
|53, 52, 6, 0, 20, 45, 0, 0, 74, 71, 15, 0, 24, 0, 0, 4, 0, 39, 0, 0, 0, 0, 46, 18, 28, 42, 26, 44, 0, 29, 64, 72, 3, 0, 0, 0, 27, 22, 0, 13, 2, 0, 0, 50, 0, 47, 0, 8, 0, 49, 0, 14, 0, 0, 79, 58, 73, 0, 0, 0, 0, 0, 1, 59, 66, 0, 0, 0, 0, 9, 0, 55, 31, 43, 0, 0, 51, 11, 0, 0, 19
|0, 2, 0, 0, 56, 0, 0, 0, 34, 0, 30, 80, 0, 47, 43, 66, 55, 0, 0, 59, 0, 75, 63, 0, 0, 0, 35, 0, 0, 0, 0, 15, 0, 0, 0, 19, 77, 6, 31, 0, 60, 18, 0, 0, 0, 0, 0, 0, 0, 0, 0, 3, 0, 0, 0, 0, 0, 28, 38, 11, 0, 51, 0, 0, 0, 73, 65, 44, 0, 0, 22, 0, 9, 37, 0, 0, 49, 48, 79, 74, 0
|0, 8, 0, 0, 36, 16, 22, 27, 0, 49, 0, 73, 0, 0, 0, 0, 0, 56, 31, 72, 0, 3, 29, 81, 0, 0, 0, 0, 28, 0, 0, 0, 0, 58, 21, 0, 0, 65, 0, 0, 69, 0, 0, 30, 75, 63, 0, 0, 11, 59, 43, 0, 38, 0, 41, 0, 12, 35, 0, 66, 0, 80, 0, 45, 46, 0, 47, 57, 0, 4, 0, 2, 0, 61, 13, 78, 23, 0, 0, 53, 76
|0, 72, 69, 0, 0, 70, 0, 0, 0, 77, 53, 0, 0, 59, 45, 0, 0, 75, 0, 0, 0, 0, 0, 0, 0, 0, 0, 0, 21, 78, 0, 35, 9, 0, 0, 27, 0, 0, 19, 64, 73, 40, 67, 41, 0, 65, 0, 32, 7, 11, 0, 0, 12, 71, 33, 0, 0, 0, 80, 0, 56, 0, 50, 76, 0, 0, 15, 14, 26, 0, 0, 0, 0, 0, 0, 22, 74, 0, 36, 20, 24
|0, 0, 0, 0, 0, 0, 12, 0, 0, 80, 0, 0, 14, 6, 60, 36, 69, 4, 45, 0, 76, 0, 0, 0, 0, 0, 0, 3, 0, 0, 73, 0, 0, 42, 0, 58, 21, 0, 59, 75, 0, 27, 0, 74, 61, 0, 22, 67, 19, 29, 72, 15, 25, 0, 47, 0, 31, 0, 46, 41, 0, 26, 0, 48, 79, 0, 0, 0, 0, 0, 0, 0, 56, 0, 0, 81, 57, 0, 0, 7, 16
|0, 0, 75, 31, 0, 74, 0, 56, 35, 9, 65, 0, 0, 22, 0, 0, 0, 55, 54, 0, 0, 0, 0, 24, 4, 70, 0, 53, 0, 59, 38, 32, 0, 72, 0, 41, 0, 34, 0, 0, 46, 0, 7, 16, 0, 0, 0, 80, 0, 37, 13, 73, 0, 0, 0, 2, 0, 0, 62, 60, 0, 18, 67, 5, 0, 36, 0, 0, 12, 77, 0, 0, 0, 0, 0, 11, 15, 42, 0, 0, 0
|0, 40, 42, 77, 9, 5, 0, 0, 41, 29, 0, 0, 73, 76, 0, 0, 0, 0, 0, 34, 0, 56, 0, 25, 0, 49, 66, 0, 0, 45, 67, 48, 11, 13, 0, 47, 0, 0, 14, 0, 0, 0, 22, 58, 0, 24, 0, 0, 0, 33, 2, 17, 0, 52, 7, 0, 0, 12, 0, 0, 79, 0, 8, 0, 31, 0, 28, 0, 0, 0, 0, 4, 46, 0, 75, 50, 0, 0, 60, 0, 0
|0, 0, 0, 0, 7, 64, 0, 20, 0, 52, 0, 0, 17, 63, 66, 0, 0, 0, 0, 0, 0, 0, 75, 0, 0, 0, 12, 0, 5, 0, 71, 51, 0, 29, 0, 0, 0, 37, 0, 70, 4, 11, 79, 0, 0, 31, 0, 60, 0, 0, 74, 0, 18, 21, 0, 39, 19, 36, 0, 42, 73, 0, 49, 0, 0, 0, 57, 0, 0, 0, 0, 58, 28, 0, 0, 77, 0, 0, 0, 0, 41
|0, 1, 0, 0, 15, 0, 0, 11, 36, 0, 21, 8, 0, 0, 27, 0, 0, 0, 80, 14, 46, 0, 32, 40, 0, 0, 0, 0, 4, 63, 33, 0, 0, 0, 0, 0, 0, 0, 5, 0, 0, 12, 81, 0, 52, 77, 0, 78, 0, 75, 0, 0, 0, 0, 0, 0, 0, 0, 9, 0, 0, 54, 0, 50, 20, 29, 60, 0, 38, 45, 7, 0, 0, 0, 62, 0, 0, 13, 0, 19, 55
|52, 19, 28, 59, 26, 0, 0, 0, 0, 0, 48, 11, 0, 0, 41, 0, 0, 0, 0, 77, 71, 0, 0, 0, 0, 64, 50, 0, 12, 36, 0, 20, 76, 0, 0, 0, 3, 39, 0, 0, 62, 2, 30, 0, 0, 14, 45, 0, 42, 66, 0, 58, 0, 4, 27, 23, 35, 75, 29, 74, 0, 0, 0, 22, 0, 0, 0, 21, 17, 33, 0, 37, 43, 0, 0, 1, 54, 47, 0, 40, 8
|8, 0, 0, 0, 0, 60, 0, 0, 47, 0, 0, 50, 13, 0, 0, 33, 40, 0, 29, 0, 0, 0, 22, 69, 67, 41, 42, 14, 74, 62, 0, 0, 0, 54, 0, 46, 0, 0, 77, 0, 32, 0, 0, 0, 0, 0, 0, 0, 56, 0, 9, 0, 79, 0, 0, 0, 0, 21, 5, 0, 0, 24, 59, 68, 0, 0, 0, 49, 73, 11, 64, 0, 0, 0, 0, 52, 12, 0, 72, 0, 17
|0, 3, 0, 21, 0, 80, 0, 14, 0, 0, 44, 0, 0, 0, 0, 0, 64, 0, 79, 0, 0, 0, 7, 0, 0, 47, 62, 16, 39, 57, 50, 0, 40, 26, 0, 0, 0, 0, 56, 53, 24, 0, 45, 0, 60, 54, 0, 0, 76, 0, 59, 43, 69, 1, 4, 0, 63, 0, 0, 0, 77, 22, 28, 75, 0, 74, 70, 67, 0, 41, 0, 0, 0, 58, 27, 0, 0, 51, 0, 0, 0
|0, 4, 0, 0, 72, 0, 27, 0, 0, 0, 6, 51, 40, 0, 0, 0, 0, 70, 56, 0, 0, 0, 0, 0, 58, 61, 0, 52, 0, 0, 0, 0, 0, 0, 73, 15, 80, 0, 0, 0, 16, 0, 0, 5, 0, 0, 48, 13, 14, 78, 39, 1, 32, 0, 0, 77, 0, 76, 74, 0, 0, 29, 0, 0, 0, 45, 0, 66, 0, 0, 18, 63, 0, 0, 12, 33, 0, 57, 68, 31, 0
|26, 0, 0, 0, 0, 0, 0, 23, 14, 0, 72, 27, 78, 0, 5, 20, 0, 17, 0, 55, 38, 0, 0, 68, 0, 0, 80, 0, 37, 44, 0, 1, 21, 56, 19, 33, 79, 0, 47, 39, 42, 25, 0, 43, 58, 30, 28, 0, 64, 0, 22, 0, 57, 65, 34, 13, 0, 0, 0, 61, 41, 0, 60, 15, 0, 52, 4, 0, 36, 0, 0, 3, 0, 54, 0, 0, 9, 66, 45, 0, 0
|39, 74, 55, 8, 0, 0, 16, 0, 0, 14, 0, 60, 81, 42, 0, 0, 0, 59, 0, 0, 24, 54, 0, 12, 0, 40, 0, 0, 10, 23, 0, 0, 0, 0, 13, 32, 65, 50, 4, 3, 38, 0, 76, 0, 9, 41, 0, 0, 52, 56, 33, 80, 51, 0, 0, 71, 48, 68, 70, 0, 0, 0, 58, 0, 30, 77, 0, 0, 0, 0, 62, 0, 0, 46, 0, 44, 25, 0, 0, 22, 18
|42, 0, 0, 43, 6, 76, 3, 0, 0, 0, 0, 0, 0, 0, 0, 50, 0, 25, 0, 0, 44, 29, 17, 52, 0, 13, 0, 0, 58, 24, 79, 60, 0, 0, 0, 53, 0, 0, 22, 36, 0, 19, 69, 0, 57, 0, 0, 37, 62, 0, 0, 27, 0, 0, 0, 0, 66, 32, 0, 81, 26, 0, 0, 12, 34, 68, 0, 74, 54, 78, 49, 0, 0, 11, 0, 2, 0, 14, 41, 0, 0
|0, 7, 0, 0, 0, 0, 0, 34, 54, 24, 0, 0, 0, 0, 63, 76, 73, 18, 2, 37, 1, 0, 57, 0, 5, 62, 0, 0, 69, 0, 31, 16, 0, 67, 0, 0, 0, 14, 0, 41, 56, 64, 0, 0, 0, 21, 0, 0, 75, 0, 17, 0, 0, 58, 53, 0, 39, 0, 44, 0, 25, 0, 0, 0, 0, 38, 9, 13, 23, 0, 40, 0, 27, 79, 74, 48, 10, 8, 4, 42, 0
|20, 0, 56, 0, 0, 35, 0, 61, 70, 48, 23, 4, 0, 55, 0, 0, 52, 13, 28, 0, 42, 0, 3, 0, 31, 71, 0, 41, 77, 0, 30, 2, 29, 62, 0, 76, 0, 0, 75, 72, 0, 63, 32, 6, 0, 60, 46, 0, 49, 0, 53, 0, 40, 0, 54, 0, 0, 0, 0, 0, 0, 59, 0, 10, 0, 0, 64, 16, 69, 0, 0, 0, 19, 15, 21, 36, 43, 0, 0, 67, 5
|12, 64, 32, 0, 0, 0, 19, 0, 0, 0, 26, 16, 0, 10, 0, 45, 0, 0, 22, 41, 0, 0, 30, 0, 25, 59, 0, 0, 42, 0, 0, 3, 74, 0, 0, 0, 0, 0, 44, 49, 0, 34, 0, 73, 0, 6, 70, 54, 50, 0, 76, 0, 0, 8, 5, 0, 0, 4, 17, 14, 0, 37, 15, 0, 0, 39, 0, 0, 31, 0, 0, 0, 81, 52, 0, 0, 0, 80, 0, 0, 72
|15, 81, 0, 0, 0, 62, 18, 0, 9, 8, 0, 0, 0, 0, 65, 0, 37, 0, 0, 35, 78, 0, 33, 48, 7, 0, 73, 66, 0, 0, 0, 0, 0, 25, 0, 45, 0, 0, 28, 0, 21, 0, 13, 0, 2, 10, 26, 0, 29, 3, 79, 4, 0, 0, 0, 0, 30, 0, 67, 19, 24, 31, 43, 0, 0, 41, 58, 27, 44, 0, 0, 22, 55, 69, 0, 0, 0, 40, 50, 0, 71
|0, 0, 13, 17, 0, 0, 80, 41, 0, 0, 77, 66, 15, 54, 0, 0, 22, 0, 21, 0, 0, 32, 36, 0, 0, 0, 0, 0, 0, 49, 4, 38, 61, 55, 0, 0, 0, 0, 0, 0, 12, 0, 0, 0, 0, 42, 59, 20, 25, 24, 44, 0, 16, 2, 11, 65, 0, 47, 10, 72, 0, 63, 0, 0, 50, 1, 0, 5, 0, 0, 0, 76, 6, 56, 0, 60, 0, 0, 37, 0, 64|];