order = 9;
grid = [|0, 43, 0, 0, 74, 72, 0, 54, 41, 0, 0, 0, 0, 0, 5, 62, 0, 0, 0, 0, 26, 63, 0, 0, 69, 60, 20, 0, 19, 0, 81, 0, 0, 0, 0, 0, 8, 51, 0, 34, 1, 25, 30, 0, 2, 28, 0, 0, 70, 0, 10, 75, 0, 18, 31, 0, 15, 42, 64, 0, 0, 59, 0, 0, 16, 52, 7, 53, 0, 55, 0, 0, 36, 0, 61, 4, 3, 67, 0, 12, 0
|9, 7, 15, 0, 19, 0, 61, 0, 49, 0, 64, 0, 56, 65, 0, 77, 6, 66, 0, 79, 0, 25, 0, 41, 0, 0, 24, 0, 12, 67, 0, 28, 0, 0, 46, 0, 17, 20, 78, 54, 71, 0, 0, 70, 0, 69, 0, 0, 48, 30, 39, 76, 0, 0, 0, 33, 13, 21, 22, 23, 37, 0, 0, 0, 11, 0, 44, 0, 0, 0, 0, 0, 0, 0, 73, 51, 34, 16, 81, 0, 0
|1, 0, 0, 22, 18, 0, 50, 75, 12, 63, 51, 80, 0, 0, 23, 0, 61, 0, 11, 27, 0, 0, 0, 0, 30, 0, 0, 17, 0, 36, 73, 65, 20, 0, 52, 8, 0, 0, 19, 0, 0, 69, 0, 0, 35, 0, 56, 34, 0, 43, 31, 0, 7, 0, 16, 77, 0, 0, 0, 58, 0, 6, 0, 48, 70, 0, 0, 0, 38, 0, 68, 78, 60, 10, 0, 0, 9, 14, 0, 0, 57
|57, 0, 0, 0, 0, 0, 36, 0, 81, 0, 8, 0, 30, 0, 0, 35, 38, 12, 68, 47, 43, 0, 0, 48, 17, 54, 15, 45, 9, 7, 0, 44, 0, 39, 0, 0, 0, 10, 33, 23, 0, 0, 0, 0, 31, 66, 0, 0, 73, 65, 0, 0, 19, 2, 52, 0, 26, 20, 5, 49, 0, 0, 29, 4, 3, 62, 0, 64, 24, 76, 50, 61, 0, 0, 37, 63, 0, 0, 0, 69, 6
|44, 0, 77, 65, 0, 69, 0, 37, 28, 0, 0, 0, 0, 0, 0, 25, 21, 0, 45, 0, 0, 0, 80, 0, 0, 52, 0, 0, 0, 0, 0, 59, 0, 0, 63, 53, 0, 0, 36, 0, 0, 0, 0, 12, 0, 41, 74, 42, 78, 0, 0, 0, 0, 0, 0, 40, 30, 71, 8, 0, 0, 17, 7, 51, 15, 35, 0, 0, 10, 73, 0, 0, 0, 33, 0, 39, 24, 46, 43, 48, 29
|0, 10, 40, 0, 0, 59, 0, 29, 67, 28, 0, 0, 36, 19, 0, 0, 31, 0, 0, 38, 12, 53, 0, 32, 0, 73, 70, 61, 60, 0, 0, 50, 34, 0, 0, 30, 0, 63, 80, 43, 0, 0, 0, 0, 39, 52, 15, 3, 0, 0, 51, 0, 0, 57, 0, 0, 62, 46, 76, 0, 56, 0, 0, 77, 0, 41, 2, 0, 0, 17, 37, 0, 72, 45, 0, 0, 0, 35, 0, 58, 0
|56, 31, 0, 53, 35, 55, 80, 68, 0, 0, 42, 0, 0, 47, 7, 0, 0, 10, 0, 0, 0, 0, 0, 57, 75, 2, 0, 76, 0, 64, 69, 0, 24, 0, 0, 66, 52, 11, 0, 0, 0, 0, 0, 0, 40, 29, 22, 0, 0, 0, 12, 0, 77, 0, 0, 0, 60, 45, 0, 0, 3, 0, 28, 21, 0, 0, 0, 0, 0, 49, 63, 0, 17, 0, 20, 23, 74, 0, 30, 13, 0
|58, 0, 0, 4, 0, 0, 0, 0, 2, 0, 59, 0, 0, 0, 75, 0, 15, 0, 0, 0, 72, 81, 0, 0, 0, 0, 0, 51, 0, 0, 0, 0, 10, 0, 0, 25, 26, 0, 0, 76, 21, 0, 38, 0, 45, 17, 71, 67, 0, 0, 0, 6, 0, 27, 0, 0, 50, 0, 0, 0, 0, 0, 0, 34, 56, 29, 12, 46, 30, 0, 0, 31, 78, 0, 0, 66, 0, 32, 0, 0, 18
|0, 0, 48, 0, 0, 27, 5, 63, 25, 0, 4, 0, 17, 34, 0, 0, 32, 0, 0, 0, 56, 71, 0, 0, 58, 40, 21, 74, 3, 0, 29, 0, 0, 41, 0, 15, 0, 0, 0, 0, 46, 77, 55, 0, 6, 0, 0, 44, 61, 16, 0, 0, 0, 0, 24, 0, 0, 75, 0, 65, 70, 12, 10, 0, 0, 0, 0, 39, 81, 22, 0, 43, 0, 0, 11, 76, 59, 0, 62, 0, 26
|80, 0, 0, 0, 25, 21, 0, 58, 7, 0, 50, 76, 0, 0, 0, 15, 0, 0, 52, 0, 0, 0, 0, 45, 0, 37, 28, 0, 0, 0, 0, 0, 0, 73, 71, 75, 0, 0, 0, 0, 2, 0, 53, 0, 0, 0, 0, 26, 0, 34, 29, 78, 0, 0, 66, 0, 44, 74, 31, 0, 11, 0, 0, 32, 38, 43, 0, 0, 63, 30, 19, 4, 1, 14, 18, 0, 27, 0, 0, 0, 0
|16, 0, 0, 0, 3, 73, 13, 64, 50, 78, 30, 62, 0, 0, 21, 0, 0, 0, 2, 0, 0, 7, 17, 36, 34, 51, 0, 0, 65, 18, 0, 41, 28, 0, 43, 52, 47, 0, 0, 58, 0, 75, 27, 54, 26, 0, 40, 0, 0, 0, 0, 38, 0, 60, 0, 0, 0, 49, 61, 70, 0, 0, 0, 24, 0, 5, 76, 0, 0, 53, 0, 79, 45, 0, 6, 68, 37, 25, 0, 0, 74
|0, 42, 0, 36, 24, 54, 53, 49, 0, 34, 44, 73, 0, 67, 0, 0, 52, 48, 69, 29, 0, 3, 30, 59, 0, 16, 0, 0, 0, 47, 0, 26, 0, 32, 0, 0, 0, 0, 25, 74, 0, 21, 0, 0, 68, 0, 13, 41, 0, 0, 0, 0, 65, 0, 0, 0, 0, 0, 75, 63, 0, 0, 0, 0, 0, 17, 37, 27, 0, 0, 0, 64, 0, 11, 0, 50, 0, 0, 0, 0, 2
|0, 66, 75, 0, 61, 0, 29, 0, 0, 0, 0, 0, 37, 55, 58, 0, 0, 0, 63, 19, 68, 0, 72, 38, 0, 67, 0, 13, 0, 0, 0, 0, 0, 54, 0, 0, 0, 0, 0, 17, 48, 64, 0, 0, 0, 70, 81, 5, 12, 0, 0, 0, 0, 0, 0, 0, 53, 0, 33, 21, 0, 0, 0, 0, 0, 2, 16, 0, 0, 10, 0, 1, 73, 0, 32, 0, 0, 0, 49, 43, 0
|70, 0, 55, 0, 52, 11, 47, 0, 20, 7, 0, 45, 0, 64, 12, 0, 36, 0, 0, 0, 80, 5, 0, 35, 73, 0, 0, 0, 56, 0, 0, 31, 0, 23, 39, 0, 63, 37, 0, 77, 78, 30, 0, 81, 44, 0, 0, 0, 3, 0, 18, 0, 0, 0, 0, 69, 32, 0, 9, 0, 65, 15, 0, 0, 0, 0, 0, 25, 29, 0, 75, 60, 22, 13, 21, 46, 0, 61, 0, 34, 0
|0, 0, 79, 40, 78, 30, 0, 0, 74, 14, 0, 0, 47, 0, 63, 0, 22, 68, 0, 56, 0, 57, 43, 0, 27, 1, 0, 53, 33, 0, 0, 0, 0, 0, 81, 35, 18, 60, 0, 6, 80, 0, 0, 61, 0, 0, 73, 0, 44, 32, 75, 21, 76, 46, 0, 13, 0, 41, 17, 37, 0, 0, 52, 0, 0, 3, 0, 0, 8, 54, 0, 0, 0, 7, 24, 29, 48, 51, 15, 55, 0
|34, 27, 0, 63, 72, 0, 0, 19, 0, 59, 31, 0, 0, 0, 3, 0, 18, 0, 6, 33, 25, 0, 0, 8, 0, 0, 78, 70, 55, 0, 0, 0, 0, 9, 38, 0, 35, 0, 12, 0, 0, 10, 0, 0, 0, 0, 58, 0, 52, 36, 67, 0, 0, 0, 0, 0, 0, 64, 62, 0, 0, 0, 0, 0, 44, 0, 66, 48, 15, 0, 21, 50, 0, 0, 0, 0, 71, 0, 40, 0, 0
|5, 60, 0, 0, 32, 6, 0, 59, 0, 0, 0, 24, 33, 75, 79, 0, 0, 20, 0, 70, 76, 61, 0, 0, 0, 0, 12, 0, 49, 0, 0, 45, 8, 2, 29, 36, 0, 0, 11, 62, 13, 73, 43, 19, 66, 50, 0, 0, 0, 0, 0, 0, 0, 25, 0, 58, 7, 0, 26, 0, 0, 56, 0, 0, 0, 72, 31, 22, 34, 77, 39, 41, 35, 23, 44, 16, 0, 38, 67, 81, 0
|0, 0, 38, 26, 37, 0, 0, 56, 0, 49, 0, 35, 80, 27, 0, 0, 0, 0, 0, 0, 32, 0, 0, 0, 55, 24, 14, 7, 46, 77, 0, 17, 0, 0, 78, 21, 0, 34, 0, 36, 8, 0, 79, 39, 52, 11, 0, 0, 6, 31, 69, 1, 0, 0, 0, 0, 0, 59, 0, 0, 16, 0, 43, 47, 33, 12, 68, 62, 40, 51, 13, 0, 0, 0, 0, 0, 0, 0, 19, 0, 0
|3, 0, 58, 0, 0, 0, 56, 0, 0, 37, 0, 38, 44, 0, 17, 0, 0, 36, 0, 0, 79, 18, 0, 0, 77, 71, 0, 0, 20, 78, 39, 72, 15, 0, 0, 0, 0, 52, 0, 55, 59, 0, 8, 63, 60, 62, 0, 10, 0, 0, 54, 14, 2, 0, 35, 65, 0, 0, 42, 68, 34, 0, 33, 73, 64, 76, 69, 0, 0, 61, 0, 12, 0, 57, 49, 0, 0, 31, 41, 75, 7
|53, 39, 54, 0, 0, 0, 0, 57, 0, 0, 20, 0, 25, 0, 0, 0, 0, 0, 41, 0, 7, 23, 70, 55, 51, 6, 0, 0, 29, 38, 0, 0, 75, 0, 69, 0, 12, 31, 0, 0, 0, 72, 0, 0, 0, 0, 66, 0, 22, 56, 34, 5, 18, 0, 0, 0, 0, 0, 0, 28, 0, 19, 0, 50, 21, 0, 0, 15, 0, 0, 14, 2, 76, 0, 0, 0, 0, 24, 16, 0, 0
|0, 62, 0, 5, 0, 0, 0, 15, 0, 0, 0, 71, 70, 0, 46, 31, 0, 4, 0, 1, 0, 0, 68, 50, 0, 0, 0, 33, 0, 76, 0, 54, 56, 14, 32, 0, 0, 39, 53, 0, 0, 0, 0, 24, 0, 19, 65, 28, 55, 0, 44, 0, 0, 37, 29, 43, 0, 2, 79, 0, 60, 0, 0, 0, 23, 34, 8, 0, 0, 48, 0, 0, 18, 0, 0, 0, 0, 0, 0, 0, 0
|49, 0, 68, 0, 0, 67, 21, 0, 0, 12, 40, 0, 0, 0, 0, 0, 58, 0, 0, 64, 2, 34, 0, 0, 76, 27, 8, 0, 41, 0, 57, 51, 37, 47, 0, 60, 0, 79, 62, 0, 36, 0, 0, 0, 20, 0, 0, 0, 71, 39, 77, 52, 0, 0, 0, 0, 10, 23, 24, 26, 0, 0, 30, 72, 0, 0, 70, 0, 17, 0, 0, 28, 3, 0, 0, 0, 0, 33, 22, 0, 0
|74, 0, 73, 0, 0, 0, 0, 0, 72, 0, 5, 0, 54, 0, 62, 34, 51, 0, 30, 0, 0, 80, 60, 0, 33, 0, 11, 0, 67, 0, 50, 1, 0, 17, 44, 65, 43, 18, 23, 38, 14, 0, 0, 42, 0, 63, 26, 0, 4, 47, 0, 0, 21, 3, 0, 48, 71, 0, 0, 52, 0, 0, 0, 13, 39, 0, 0, 0, 0, 0, 0, 0, 28, 0, 0, 61, 0, 0, 0, 0, 69
|60, 77, 76, 0, 0, 0, 0, 0, 35, 0, 14, 29, 8, 32, 39, 61, 0, 63, 0, 46, 0, 44, 0, 43, 22, 0, 81, 11, 21, 0, 62, 0, 45, 71, 12, 0, 0, 0, 54, 0, 0, 26, 9, 0, 0, 6, 33, 23, 0, 0, 0, 16, 13, 75, 0, 0, 0, 0, 59, 55, 0, 47, 0, 0, 0, 0, 0, 1, 0, 0, 67, 53, 0, 68, 50, 0, 0, 73, 0, 37, 0
|30, 0, 4, 46, 51, 12, 0, 50, 0, 18, 0, 43, 0, 69, 0, 0, 53, 27, 31, 61, 57, 14, 36, 47, 42, 0, 38, 0, 73, 68, 7, 55, 0, 79, 25, 28, 37, 3, 75, 40, 32, 0, 6, 0, 0, 72, 70, 9, 76, 41, 58, 0, 0, 29, 74, 8, 0, 62, 0, 0, 22, 0, 39, 81, 0, 0, 35, 20, 54, 63, 0, 80, 0, 0, 1, 11, 13, 0, 60, 45, 48
|0, 18, 0, 0, 8, 0, 71, 66, 10, 45, 0, 0, 65, 0, 0, 0, 0, 0, 0, 72, 0, 26, 0, 0, 0, 32, 0, 0, 0, 40, 0, 0, 22, 24, 13, 48, 0, 0, 0, 0, 0, 33, 0, 56, 81, 0, 12, 0, 0, 42, 0, 7, 0, 0, 78, 4, 0, 31, 14, 1, 38, 0, 0, 44, 0, 57, 0, 47, 0, 0, 60, 0, 39, 0, 54, 20, 2, 23, 0, 0, 0
|0, 11, 37, 34, 0, 0, 25, 81, 0, 57, 41, 72, 0, 0, 68, 0, 35, 0, 0, 39, 0, 0, 0, 58, 59, 0, 10, 0, 0, 52, 9, 49, 74, 0, 36, 0, 16, 17, 50, 0, 70, 0, 0, 5, 48, 8, 60, 0, 0, 0, 0, 69, 20, 78, 45, 0, 0, 0, 40, 3, 0, 0, 61, 42, 0, 0, 0, 0, 18, 31, 0, 7, 0, 26, 27, 0, 14, 12, 47, 0, 71
|13, 15, 21, 74, 31, 0, 0, 0, 46, 0, 0, 0, 3, 0, 36, 0, 0, 0, 0, 0, 78, 52, 0, 0, 63, 10, 0, 0, 68, 0, 0, 8, 0, 0, 33, 0, 0, 80, 0, 0, 0, 0, 70, 75, 62, 40, 0, 0, 59, 0, 0, 0, 0, 48, 56, 0, 38, 0, 0, 0, 69, 71, 0, 7, 47, 39, 60, 0, 66, 0, 0, 34, 43, 0, 23, 45, 51, 0, 12, 18, 22
|0, 0, 0, 0, 0, 0, 0, 0, 16, 2, 0, 0, 68, 5, 32, 0, 47, 0, 0, 13, 0, 36, 73, 31, 67, 55, 48, 41, 59, 0, 20, 0, 21, 30, 26, 45, 0, 25, 0, 1, 0, 63, 0, 0, 74, 27, 10, 0, 65, 51, 23, 0, 35, 53, 0, 57, 0, 54, 18, 0, 0, 0, 0, 0, 0, 38, 0, 0, 22, 79, 0, 0, 0, 81, 28, 0, 0, 0, 0, 0, 0
|0, 22, 2, 0, 75, 10, 0, 43, 0, 0, 71, 81, 23, 38, 78, 69, 0, 0, 0, 25, 15, 60, 0, 0, 0, 0, 77, 63, 52, 0, 0, 0, 46, 0, 0, 76, 31, 6, 7, 0, 0, 35, 41, 36, 54, 44, 0, 74, 45, 64, 21, 0, 39, 58, 50, 67, 0, 0, 66, 33, 0, 0, 0, 0, 0, 0, 0, 0, 49, 80, 0, 0, 0, 0, 34, 72, 0, 20, 0, 0, 61
|66, 56, 0, 0, 5, 0, 0, 42, 0, 0, 0, 19, 27, 63, 29, 0, 60, 0, 0, 0, 75, 0, 35, 0, 0, 9, 0, 0, 77, 11, 34, 43, 0, 0, 61, 0, 46, 0, 0, 0, 53, 37, 0, 0, 0, 0, 50, 0, 0, 72, 0, 0, 0, 0, 0, 22, 0, 0, 52, 0, 0, 0, 12, 0, 74, 0, 13, 4, 0, 36, 32, 0, 0, 0, 0, 21, 0, 0, 68, 76, 0
|0, 47, 9, 0, 0, 0, 0, 65, 0, 0, 73, 37, 59, 13, 0, 44, 0, 54, 76, 0, 74, 68, 32, 0, 0, 0, 61, 25, 0, 66, 38, 36, 0, 0, 22, 17, 58, 0, 0, 0, 5, 14, 77, 0, 0, 42, 11, 18, 34, 70, 0, 55, 33, 6, 49, 20, 2, 28, 0, 31, 0, 0, 0, 64, 35, 0, 0, 8, 75, 0, 52, 10, 29, 0, 0, 0, 0, 0, 0, 63, 0
|35, 0, 0, 0, 73, 25, 0, 0, 0, 52, 33, 0, 0, 0, 16, 70, 75, 0, 58, 0, 0, 1, 0, 42, 28, 7, 71, 0, 2, 51, 27, 40, 0, 0, 0, 81, 0, 0, 0, 0, 0, 29, 32, 72, 0, 20, 14, 0, 31, 0, 0, 36, 49, 0, 15, 63, 0, 0, 0, 0, 0, 0, 4, 69, 0, 0, 53, 68, 26, 0, 41, 17, 0, 60, 3, 38, 54, 0, 59, 57, 50
|54, 34, 33, 0, 0, 52, 0, 69, 71, 66, 48, 1, 79, 46, 0, 8, 10, 43, 0, 21, 38, 0, 0, 17, 0, 29, 16, 49, 0, 0, 35, 78, 4, 44, 57, 14, 0, 0, 68, 12, 30, 47, 73, 0, 15, 0, 0, 0, 7, 2, 0, 9, 0, 19, 0, 59, 39, 0, 55, 42, 0, 13, 3, 0, 0, 63, 67, 0, 0, 5, 0, 0, 11, 40, 36, 0, 32, 56, 31, 24, 25
|0, 0, 0, 49, 0, 63, 68, 0, 76, 11, 0, 0, 0, 50, 25, 0, 65, 21, 0, 0, 41, 0, 0, 0, 0, 0, 0, 0, 0, 0, 0, 0, 60, 29, 0, 56, 55, 0, 67, 52, 0, 0, 0, 59, 61, 37, 43, 24, 0, 0, 0, 0, 46, 0, 73, 34, 36, 30, 35, 0, 77, 0, 0, 78, 31, 18, 0, 0, 0, 0, 0, 0, 6, 0, 71, 42, 33, 2, 0, 4, 10
|41, 17, 0, 0, 0, 51, 39, 0, 37, 67, 0, 0, 0, 12, 0, 0, 0, 49, 66, 45, 33, 0, 0, 14, 0, 0, 0, 0, 15, 32, 0, 71, 0, 69, 73, 70, 64, 0, 26, 60, 0, 43, 22, 34, 28, 0, 0, 52, 75, 0, 80, 8, 0, 0, 25, 74, 27, 7, 0, 0, 10, 0, 6, 54, 2, 0, 56, 0, 42, 21, 0, 0, 0, 0, 13, 0, 55, 0, 0, 44, 16
|0, 0, 0, 0, 14, 0, 27, 17, 0, 0, 0, 0, 0, 0, 0, 79, 0, 37, 0, 52, 0, 0, 0, 66, 0, 11, 0, 22, 0, 0, 33, 0, 26, 38, 31, 0, 0, 53, 46, 0, 0, 0, 0, 0, 70, 0, 55, 0, 0, 0, 64, 80, 16, 0, 0, 0, 0, 67, 0, 0, 51, 48, 56, 0, 59, 1, 0, 40, 12, 78, 0, 76, 5, 0, 0, 0, 0, 0, 32, 0, 0
|61, 0, 26, 54, 0, 7, 0, 0, 0, 50, 0, 21, 29, 73, 44, 0, 34, 33, 0, 0, 0, 0, 0, 0, 65, 12, 0, 6, 0, 17, 46, 69, 16, 56, 23, 0, 49, 0, 58, 14, 19, 13, 71, 79, 0, 0, 0, 0, 0, 75, 41, 0, 0, 81, 55, 62, 0, 0, 0, 4, 0, 0, 0, 28, 60, 64, 0, 67, 36, 15, 0, 47, 38, 0, 31, 0, 57, 43, 0, 0, 27
|77, 0, 35, 50, 0, 29, 2, 74, 0, 38, 0, 69, 0, 4, 19, 0, 42, 28, 34, 5, 0, 45, 0, 46, 0, 18, 0, 78, 0, 0, 0, 0, 25, 0, 58, 1, 0, 0, 65, 37, 67, 55, 0, 0, 0, 0, 0, 0, 8, 0, 0, 0, 0, 54, 68, 71, 0, 22, 0, 36, 33, 52, 47, 0, 32, 80, 0, 0, 0, 14, 7, 0, 51, 6, 0, 44, 0, 30, 61, 0, 40
|0, 81, 0, 69, 0, 0, 0, 0, 0, 35, 47, 0, 52, 0, 0, 11, 57, 0, 50, 59, 70, 49, 10, 67, 0, 0, 0, 79, 0, 39, 65, 0, 0, 0, 0, 61, 32, 56, 0, 0, 0, 1, 0, 0, 0, 14, 19, 4, 0, 7, 38, 33, 37, 0, 3, 16, 0, 0, 63, 77, 0, 53, 0, 0, 0, 66, 62, 75, 23, 20, 5, 0, 0, 0, 0, 0, 0, 0, 0, 0, 0
|32, 0, 0, 0, 0, 39, 66, 12, 58, 68, 63, 65, 0, 74, 26, 0, 77, 41, 0, 0, 0, 0, 0, 33, 1, 0, 0, 0, 51, 15, 53, 73, 70, 60, 0, 0, 2, 0, 10, 22, 0, 0, 0, 25, 0, 0, 0, 6, 17, 0, 35, 44, 34, 28, 7, 19, 76, 14, 13, 0, 0, 81, 0, 0, 61, 30, 0, 69, 0, 9, 0, 54, 67, 62, 4, 55, 0, 49, 23, 0, 0
|38, 0, 67, 0, 64, 56, 20, 30, 0, 48, 0, 0, 12, 0, 0, 0, 59, 8, 47, 32, 0, 28, 76, 79, 0, 63, 74, 0, 14, 0, 0, 9, 0, 0, 80, 0, 0, 0, 0, 16, 0, 0, 0, 0, 0, 0, 27, 40, 0, 60, 0, 70, 0, 0, 0, 17, 0, 0, 0, 2, 54, 34, 0, 37, 0, 0, 0, 21, 0, 0, 0, 77, 69, 0, 53, 19, 22, 71, 35, 0, 0
|0, 0, 51, 10, 45, 0, 49, 0, 0, 0, 18, 0, 20, 14, 0, 0, 17, 46, 37, 0, 61, 55, 3, 0, 72, 68, 0, 54, 74, 0, 0, 7, 57, 0, 47, 0, 0, 0, 0, 80, 60, 0, 34, 31, 50, 0, 0, 56, 29, 0, 65, 2, 42, 9, 0, 30, 6, 0, 28, 0, 40, 66, 0, 0, 81, 8, 52, 70, 0, 11, 0, 0, 0, 0, 0, 0, 75, 0, 76, 0, 15
|52, 0, 36, 0, 0, 37, 0, 8, 0, 0, 70, 0, 43, 0, 66, 51, 0, 0, 0, 6, 0, 0, 0, 26, 39, 0, 60, 0, 0, 19, 10, 29, 0, 11, 0, 63, 0, 61, 17, 45, 73, 0, 0, 28, 5, 0, 3, 68, 0, 67, 71, 74, 0, 0, 21, 79, 0, 0, 0, 59, 0, 0, 25, 0, 13, 0, 0, 0, 58, 42, 0, 56, 0, 0, 0, 0, 47, 0, 0, 9, 0
|0, 24, 0, 18, 0, 0, 0, 11, 34, 53, 0, 15, 5, 54, 61, 56, 23, 0, 0, 35, 81, 16, 0, 0, 80, 57, 0, 30, 0, 0, 0, 32, 40, 0, 0, 0, 69, 72, 0, 42, 0, 0, 3, 77, 4, 0, 0, 62, 13, 78, 52, 0, 73, 0, 58, 0, 0, 50, 0, 0, 0, 0, 0, 65, 68, 79, 0, 45, 0, 0, 49, 63, 10, 0, 70, 48, 0, 0, 14, 7, 0
|36, 0, 0, 13, 0, 0, 0, 0, 70, 43, 45, 0, 67, 16, 2, 81, 41, 26, 44, 0, 0, 47, 74, 0, 21, 22, 56, 0, 71, 20, 0, 11, 0, 0, 10, 79, 0, 55, 0, 5, 0, 39, 46, 0, 0, 80, 54, 0, 25, 0, 33, 77, 15, 61, 0, 0, 34, 0, 0, 73, 0, 65, 0, 52, 78, 0, 49, 24, 0, 0, 0, 37, 0, 0, 0, 8, 0, 0, 0, 51, 0
|25, 9, 0, 66, 10, 0, 0, 27, 0, 0, 0, 0, 61, 0, 37, 78, 1, 0, 0, 0, 19, 12, 0, 11, 36, 0, 0, 26, 0, 0, 0, 0, 0, 0, 0, 57, 4, 77, 0, 56, 76, 50, 40, 21, 0, 18, 29, 20, 2, 45, 0, 31, 0, 39, 38, 0, 51, 43, 0, 0, 0, 44, 0, 0, 73, 0, 22, 13, 0, 0, 74, 0, 0, 24, 63, 0, 23, 0, 46, 62, 34
|12, 0, 0, 0, 0, 32, 0, 0, 38, 17, 0, 46, 74, 57, 40, 0, 44, 3, 55, 0, 29, 6, 28, 10, 0, 0, 0, 35, 16, 49, 43, 33, 0, 0, 0, 0, 13, 58, 0, 65, 0, 31, 2, 0, 63, 0, 0, 0, 0, 0, 8, 73, 30, 0, 0, 0, 4, 0, 0, 0, 0, 0, 0, 0, 50, 20, 19, 76, 0, 56, 11, 0, 0, 0, 67, 0, 0, 0, 0, 0, 0
|39, 61, 0, 0, 0, 16, 44, 7, 56, 0, 0, 50, 0, 51, 28, 18, 5, 14, 0, 0, 0, 58, 49, 77, 0, 62, 40, 0, 0, 0, 36, 0, 0, 0, 66, 2, 0, 12, 0, 64, 26, 80, 60, 0, 0, 10, 0, 0, 0, 17, 0, 24, 0, 0, 76, 0, 0, 48, 0, 0, 0, 0, 21, 29, 0, 33, 25, 65, 0, 0, 0, 0, 81, 0, 0, 0, 19, 74, 0, 0, 0
|6, 8, 0, 81, 0, 0, 0, 0, 53, 65, 0, 0, 42, 0, 4, 0, 27, 0, 54, 18, 0, 78, 5, 0, 0, 26, 0, 15, 0, 13, 12, 0, 0, 0, 0, 74, 10, 73, 43, 0, 0, 0, 20, 0, 0, 0, 64, 19, 57, 0, 76, 67, 0, 0, 0, 0, 0, 66, 58, 0, 0, 28, 2, 9, 0, 7, 0, 63, 44, 0, 0, 0, 0, 41, 0, 14, 0, 0, 77, 0, 0
|0, 0, 28, 62, 34, 43, 0, 21, 52, 71, 0, 23, 0, 8, 22, 0, 0, 35, 0, 0, 31, 0, 1, 72, 0, 80, 0, 3, 0, 0, 0, 56, 81, 61, 65, 0, 25, 57, 0, 59, 0, 0, 19, 47, 18, 74, 0, 0, 0, 0, 13, 0, 0, 11, 0, 68, 0, 0, 45, 7, 29, 78, 24, 0, 79, 15, 0, 36, 2, 0, 0, 0, 0, 0, 0, 0, 12, 0, 10, 30, 55
|0, 0, 0, 33, 0, 68, 0, 0, 11, 64, 0, 75, 32, 0, 0, 38, 0, 0, 0, 0, 3, 2, 81, 24, 16, 0, 0, 0, 34, 0, 0, 0, 0, 0, 37, 31, 0, 28, 0, 0, 0, 0, 1, 48, 0, 0, 44, 50, 0, 0, 14, 56, 12, 22, 19, 42, 52, 0, 0, 74, 79, 0, 0, 0, 0, 47, 77, 35, 41, 0, 17, 62, 20, 0, 25, 57, 0, 40, 0, 26, 13
|0, 63, 0, 0, 26, 0, 0, 3, 0, 13, 39, 0, 0, 0, 0, 12, 0, 11, 0, 23, 73, 0, 52, 9, 0, 0, 0, 62, 44, 0, 0, 0, 19, 68, 0, 50, 34, 0, 0, 30, 0, 24, 81, 35, 42, 0, 0, 0, 0, 28, 60, 0, 0, 69, 0, 0, 17, 25, 41, 0, 71, 0, 0, 57, 51, 45, 0, 18, 53, 72, 0, 5, 21, 0, 0, 0, 16, 36, 2, 0, 80
|64, 0, 74, 0, 0, 0, 0, 0, 0, 24, 54, 0, 72, 62, 0, 0, 0, 30, 61, 75, 63, 0, 13, 0, 0, 0, 57, 0, 25, 22, 0, 0, 18, 78, 76, 0, 44, 0, 41, 0, 0, 27, 0, 29, 79, 0, 0, 59, 0, 35, 4, 34, 0, 0, 0, 26, 0, 47, 50, 0, 12, 0, 5, 10, 0, 46, 0, 0, 1, 3, 31, 0, 7, 0, 0, 0, 15, 60, 9, 28, 49
|0, 0, 3, 24, 0, 0, 0, 0, 0, 0, 0, 17, 0, 53, 0, 66, 0, 0, 9, 0, 0, 0, 0, 0, 0, 0, 0, 29, 0, 46, 0, 0, 0, 0, 0, 0, 0, 0, 56, 25, 50, 0, 33, 0, 0, 73, 80, 0, 0, 52, 49, 0, 45, 0, 22, 1, 61, 12, 11, 0, 27, 0, 0, 75, 0, 0, 0, 7, 4, 0, 78, 67, 0, 0, 0, 0, 0, 0, 0, 0, 28
|18, 0, 46, 60, 0, 71, 0, 80, 0, 20, 36, 0, 0, 0, 45, 42, 4, 31, 73, 43, 0, 74, 12, 63, 3, 0, 13, 72, 79, 0, 5, 0, 44, 0, 49, 78, 11, 0, 0, 0, 0, 53, 37, 0, 0, 0, 0, 17, 0, 29, 0, 65, 8, 0, 0, 0, 0, 0, 0, 0, 35, 54, 0, 0, 9, 0, 40, 66, 62, 41, 77, 81, 0, 19, 0, 32, 0, 0, 0, 61, 0
|15, 0, 0, 0, 13, 0, 72, 0, 66, 25, 16, 0, 62, 40, 0, 0, 0, 0, 53, 44, 0, 46, 0, 0, 0, 0, 1, 39, 0, 0, 0, 0, 17, 0, 0, 38, 74, 0, 0, 0, 81, 0, 76, 78, 73, 0, 0, 0, 0, 0, 50, 22, 64, 51, 0, 0, 43, 26, 4, 0, 0, 58, 0, 68, 0, 0, 32, 5, 0, 34, 0, 0, 0, 36, 0, 0, 29, 0, 0, 0, 0
|0, 0, 0, 0, 0, 0, 33, 22, 0, 61, 0, 0, 0, 0, 60, 1, 0, 18, 40, 0, 0, 64, 77, 0, 79, 45, 0, 0, 0, 14, 0, 58, 27, 16, 8, 0, 0, 36, 0, 0, 72, 15, 54, 0, 24, 0, 75, 32, 0, 76, 0, 0, 38, 43, 62, 70, 68, 55, 10, 0, 25, 0, 0, 71, 52, 0, 26, 73, 0, 0, 0, 0, 41, 37, 0, 17, 0, 0, 53, 35, 5
|78, 0, 11, 32, 29, 0, 73, 1, 17, 8, 13, 0, 0, 0, 0, 59, 0, 0, 18, 81, 58, 0, 0, 69, 0, 0, 0, 34, 23, 80, 54, 47, 0, 0, 21, 0, 0, 0, 0, 0, 0, 79, 0, 0, 41, 30, 6, 0, 77, 10, 74, 62, 28, 0, 0, 0, 65, 0, 0, 40, 0, 60, 49, 31, 0, 0, 14, 61, 46, 43, 0, 0, 25, 22, 42, 75, 0, 76, 0, 0, 9
|0, 23, 53, 56, 0, 0, 0, 55, 27, 0, 0, 0, 0, 0, 77, 3, 70, 0, 25, 0, 0, 67, 11, 22, 26, 4, 0, 0, 0, 35, 40, 0, 76, 0, 41, 0, 5, 0, 31, 0, 16, 0, 10, 38, 0, 47, 0, 0, 0, 0, 0, 71, 0, 0, 80, 24, 0, 39, 0, 0, 36, 64, 13, 63, 0, 49, 0, 0, 0, 0, 69, 0, 68, 58, 30, 0, 0, 81, 0, 0, 43
|50, 20, 61, 0, 48, 28, 74, 35, 0, 0, 10, 79, 39, 37, 0, 41, 0, 0, 0, 0, 6, 0, 0, 60, 0, 0, 0, 0, 0, 53, 64, 0, 65, 62, 67, 0, 59, 0, 0, 7, 0, 17, 26, 0, 80, 46, 0, 55, 0, 0, 0, 0, 54, 34, 0, 0, 19, 0, 0, 0, 44, 0, 66, 56, 0, 24, 0, 0, 25, 0, 0, 0, 0, 18, 51, 0, 73, 69, 3, 0, 0
|0, 36, 62, 58, 67, 0, 10, 0, 64, 0, 0, 0, 0, 0, 43, 65, 0, 80, 0, 48, 35, 41, 0, 49, 0, 50, 0, 0, 0, 60, 68, 15, 0, 20, 0, 7, 28, 0, 0, 0, 0, 0, 69, 0, 30, 0, 9, 70, 0, 13, 0, 0, 3, 40, 0, 0, 0, 18, 47, 78, 0, 0, 0, 53, 76, 54, 1, 33, 72, 16, 0, 0, 0, 44, 59, 0, 0, 63, 26, 0, 56
|0, 21, 0, 0, 0, 75, 8, 16, 0, 0, 0, 27, 76, 68, 15, 0, 14, 34, 0, 7, 0, 32, 33, 56, 52, 66, 0, 2, 30, 37, 0, 0, 6, 55, 48, 0, 0, 0, 77, 39, 62, 0, 58, 0, 0, 36, 63, 0, 0, 0, 53, 0, 0, 44, 72, 0, 3, 9, 20, 67, 59, 42, 0, 60, 29, 70, 65, 0, 0, 0, 10, 35, 0, 38, 0, 0, 0, 0, 0, 54, 24
|0, 29, 80, 0, 0, 61, 0, 0, 14, 0, 2, 39, 0, 79, 18, 0, 45, 0, 0, 37, 0, 0, 0, 3, 54, 0, 0, 0, 27, 34, 0, 0, 0, 0, 0, 0, 0, 0, 6, 0, 0, 5, 0, 62, 78, 33, 53, 0, 69, 19, 0, 0, 10, 74, 0, 11, 0, 65, 0, 66, 0, 0, 0, 0, 0, 0, 81, 32, 13, 46, 0, 72, 0, 0, 58, 0, 0, 48, 0, 8, 0
|43, 0, 0, 39, 0, 66, 11, 0, 0, 3, 0, 8, 4, 30, 0, 0, 68, 44, 0, 0, 0, 0, 9, 0, 56, 65, 0, 42, 0, 0, 49, 0, 41, 0, 45, 0, 0, 54, 0, 0, 74, 18, 0, 60, 1, 0, 0, 13, 0, 0, 0, 0, 0, 5, 2, 25, 35, 0, 0, 0, 63, 70, 32, 0, 0, 0, 23, 0, 0, 0, 36, 58, 0, 75, 72, 0, 0, 19, 64, 0, 0
|0, 49, 25, 0, 7, 0, 35, 41, 0, 0, 0, 60, 11, 20, 14, 0, 37, 0, 0, 0, 0, 4, 58, 0, 0, 0, 18, 0, 48, 0, 0, 0, 0, 0, 0, 23, 67, 0, 0, 0, 63, 16, 15, 0, 0, 3, 57, 0, 0, 0, 0, 0, 66, 0, 59, 0, 0, 77, 0, 0, 75, 8, 0, 55, 0, 50, 5, 31, 0, 64, 51, 33, 62, 43, 0, 0, 38, 0, 0, 40, 0
|68, 0, 0, 0, 56, 0, 0, 0, 23, 55, 0, 0, 0, 0, 0, 0, 43, 0, 72, 0, 0, 27, 75, 74, 0, 48, 67, 0, 69, 0, 17, 0, 0, 0, 16, 0, 19, 0, 0, 0, 0, 0, 61, 0, 58, 0, 28, 49, 0, 25, 40, 64, 22, 4, 0, 10, 81, 0, 0, 0, 47, 0, 80, 0, 0, 0, 57, 54, 3, 26, 0, 21, 0, 30, 0, 0, 0, 0, 37, 0, 0
|62, 57, 63, 16, 20, 5, 0, 67, 0, 56, 28, 0, 6, 36, 48, 0, 72, 81, 0, 55, 22, 66, 34, 80, 0, 44, 47, 38, 37, 0, 21, 4, 0, 25, 0, 11, 9, 43, 14, 2, 0, 0, 0, 0, 0, 75, 51, 39, 0, 0, 0, 0, 0, 0, 0, 78, 0, 13, 0, 0, 15, 74, 64, 0, 19, 60, 0, 30, 0, 71, 70, 0, 0, 0, 41, 0, 50, 3, 0, 31, 23
|8, 0, 34, 0, 0, 13, 0, 53, 0, 23, 19, 0, 0, 0, 71, 0, 0, 0, 39, 0, 0, 0, 0, 0, 2, 81, 0, 20, 70, 0, 0, 57, 0, 0, 74, 0, 24, 30, 0, 0, 0, 0, 0, 49, 46, 12, 0, 76, 68, 0, 0, 0, 0, 14, 0, 45, 0, 0, 0, 0, 0, 0, 0, 0, 0, 10, 63, 0, 28, 0, 0, 48, 42, 47, 16, 0, 5, 26, 0, 59, 0
|0, 37, 22, 0, 0, 0, 0, 0, 0, 32, 0, 0, 49, 31, 0, 5, 26, 0, 0, 63, 45, 0, 0, 28, 6, 25, 76, 71, 78, 0, 61, 0, 39, 46, 0, 0, 38, 4, 0, 8, 51, 40, 0, 66, 55, 34, 0, 80, 0, 24, 0, 0, 0, 15, 48, 0, 0, 0, 0, 0, 21, 0, 79, 1, 0, 0, 29, 2, 0, 0, 9, 74, 0, 0, 68, 0, 60, 44, 13, 0, 0
|0, 0, 0, 0, 0, 42, 18, 44, 0, 0, 53, 74, 1, 0, 59, 0, 0, 0, 0, 49, 0, 0, 16, 7, 0, 15, 68, 0, 58, 0, 0, 63, 50, 52, 0, 62, 75, 64, 13, 0, 0, 0, 25, 0, 3, 78, 0, 0, 0, 0, 0, 0, 31, 70, 0, 37, 14, 40, 0, 0, 0, 0, 71, 17, 0, 61, 11, 0, 6, 0, 0, 0, 27, 0, 2, 56, 67, 0, 0, 22, 21
|81, 0, 0, 51, 77, 0, 0, 0, 0, 58, 0, 61, 21, 0, 38, 63, 16, 0, 43, 0, 0, 0, 0, 13, 57, 0, 29, 0, 35, 30, 80, 0, 5, 75, 7, 0, 0, 0, 34, 0, 17, 0, 0, 71, 22, 0, 0, 0, 72, 54, 6, 0, 67, 0, 44, 31, 0, 1, 56, 12, 0, 68, 0, 20, 25, 53, 0, 0, 0, 0, 8, 0, 55, 28, 69, 0, 0, 18, 66, 0, 33
|40, 0, 29, 0, 0, 0, 42, 13, 0, 21, 56, 0, 28, 23, 0, 43, 0, 0, 0, 62, 0, 0, 57, 0, 0, 0, 52, 0, 0, 74, 0, 0, 0, 7, 0, 4, 0, 69, 0, 31, 0, 0, 0, 0, 0, 76, 0, 27, 30, 6, 70, 0, 0, 0, 26, 0, 48, 78, 34, 0, 2, 61, 0, 33, 49, 0, 3, 0, 0, 45, 0, 68, 0, 32, 0, 18, 0, 17, 63, 0, 64
|0, 33, 6, 67, 44, 60, 0, 0, 61, 0, 0, 66, 63, 45, 0, 0, 48, 38, 0, 24, 0, 0, 0, 15, 35, 0, 58, 64, 13, 0, 0, 70, 0, 0, 62, 40, 0, 42, 39, 0, 0, 52, 5, 73, 0, 0, 0, 69, 0, 22, 19, 0, 0, 0, 0, 0, 0, 0, 0, 0, 0, 3, 0, 8, 0, 0, 0, 74, 7, 0, 28, 65, 0, 0, 9, 0, 30, 0, 0, 23, 20
|0, 0, 14, 11, 0, 0, 0, 0, 0, 0, 24, 0, 40, 0, 0, 75, 13, 0, 17, 28, 67, 43, 0, 0, 19, 33, 0, 73, 0, 0, 30, 22, 0, 66, 0, 12, 77, 0, 0, 0, 25, 3, 35, 0, 0, 0, 0, 0, 0, 0, 0, 0, 0, 0, 42, 52, 0, 60, 21, 0, 0, 0, 0, 15, 0, 0, 0, 44, 56, 0, 0, 0, 37, 2, 7, 0, 0, 0, 0, 0, 0
|27, 5, 78, 75, 0, 24, 0, 0, 57, 0, 0, 0, 0, 35, 0, 74, 0, 0, 0, 0, 0, 13, 0, 0, 20, 39, 0, 0, 0, 21, 55, 37, 69, 0, 9, 0, 0, 0, 0, 71, 0, 7, 17, 0, 34, 64, 61, 47, 60, 0, 0, 0, 0, 73, 46, 38, 0, 0, 0, 25, 0, 79, 72, 0, 0, 67, 0, 0, 70, 23, 0, 0, 33, 48, 52, 41, 43, 0, 0, 56, 8
|20, 0, 0, 0, 0, 0, 12, 32, 0, 0, 0, 0, 78, 0, 69, 64, 0, 0, 51, 0, 0, 0, 45, 0, 14, 53, 0, 0, 0, 0, 0, 19, 0, 0, 17, 47, 66, 70, 0, 0, 37, 68, 23, 80, 0, 0, 7, 0, 41, 81, 56, 28, 57, 0, 9, 27, 0, 4, 6, 0, 50, 0, 0, 58, 0, 0, 0, 0, 52, 39, 0, 46, 26, 0, 60, 25, 0, 0, 0, 0, 0
|22, 0, 0, 0, 49, 34, 0, 77, 55, 0, 37, 0, 0, 0, 76, 27, 33, 17, 1, 3, 0, 0, 0, 0, 61, 8, 6, 0, 0, 59, 14, 46, 0, 72, 0, 68, 30, 81, 64, 18, 79, 0, 74, 0, 13, 23, 52, 0, 0, 0, 0, 0, 29, 0, 67, 28, 0, 0, 0, 39, 0, 7, 0, 0, 53, 32, 75, 80, 0, 19, 66, 9, 40, 16, 0, 62, 0, 0, 0, 21, 42
|45, 0, 0, 9, 0, 64, 30, 0, 0, 0, 0, 68, 57, 10, 52, 60, 55, 0, 7, 0, 23, 48, 0, 12, 0, 0, 0, 0, 0, 41, 24, 5, 0, 0, 34, 0, 0, 0, 40, 0, 58, 0, 0, 6, 75, 0, 0, 78, 42, 0, 17, 39, 0, 0, 33, 0, 0, 56, 74, 18, 43, 0, 44, 0, 22, 51, 0, 0, 0, 0, 20, 13, 0, 0, 15, 0, 0, 28, 50, 71, 0
|72, 28, 0, 0, 0, 81, 65, 0, 80, 15, 7, 3, 34, 71, 0, 0, 0, 50, 0, 0, 0, 0, 22, 0, 32, 0, 79, 43, 0, 29, 0, 0, 0, 0, 1, 58, 60, 19, 8, 4, 11, 46, 78, 0, 0, 0, 49, 37, 0, 0, 0, 0, 44, 0, 0, 55, 66, 35, 68, 0, 30, 69, 0, 12, 0, 0, 61, 41, 0, 0, 0, 57, 13, 0, 0, 73, 70, 10, 0, 5, 0
|46, 52, 0, 0, 68, 0, 0, 26, 0, 0, 0, 0, 0, 0, 30, 72, 81, 0, 16, 0, 50, 56, 69, 0, 0, 0, 41, 0, 18, 27, 48, 23, 11, 45, 0, 0, 0, 0, 0, 10, 0, 0, 44, 33, 57, 0, 34, 71, 67, 79, 0, 0, 14, 31, 63, 15, 5, 70, 0, 54, 13, 37, 0, 0, 77, 25, 6, 0, 0, 62, 64, 0, 0, 0, 75, 0, 0, 0, 51, 74, 0|];