order = 9;
grid = [|60, 17, 74, 0, 10, 0, 36, 45, 0, 0, 0, 26, 63, 79, 0, 54, 14, 65, 0, 0, 1, 0, 22, 21, 0, 0, 0, 0, 0, 52, 0, 15, 0, 0, 0, 25, 0, 5, 41, 0, 0, 0, 0, 0, 0, 0, 0, 0, 0, 0, 75, 0, 58, 0, 23, 0, 67, 0, 0, 0, 40, 72, 0, 0, 0, 76, 0, 0, 50, 0, 66, 78, 49, 0, 0, 0, 18, 0, 0, 0, 51
|0, 28, 16, 0, 19, 13, 0, 2, 0, 0, 40, 0, 3, 33, 0, 0, 0, 31, 59, 30, 9, 17, 0, 0, 0, 14, 24, 0, 0, 0, 0, 0, 49, 5, 48, 67, 38, 0, 57, 74, 0, 0, 0, 0, 0, 0, 0, 11, 0, 77, 0, 0, 0, 1, 0, 80, 0, 0, 0, 0, 75, 70, 0, 58, 64, 6, 0, 0, 43, 47, 0, 0, 0, 0, 68, 61, 0, 0, 0, 22, 37
|43, 14, 0, 63, 0, 0, 80, 81, 0, 0, 23, 36, 20, 0, 0, 0, 60, 35, 27, 42, 6, 0, 0, 0, 72, 39, 0, 0, 74, 0, 0, 0, 0, 0, 0, 41, 64, 0, 0, 37, 28, 0, 50, 0, 0, 0, 76, 0, 48, 19, 0, 17, 79, 0, 0, 61, 0, 58, 0, 0, 12, 0, 0, 0, 24, 0, 49, 0, 0, 0, 0, 0, 0, 44, 0, 31, 0, 0, 0, 0, 0
|0, 0, 0, 79, 78, 68, 0, 0, 0, 0, 0, 18, 57, 1, 0, 41, 0, 47, 70, 0, 80, 40, 31, 28, 0, 0, 36, 58, 0, 0, 26, 10, 55, 13, 76, 0, 27, 34, 61, 0, 14, 0, 56, 0, 77, 45, 49, 0, 25, 0, 4, 0, 12, 0, 0, 0, 29, 0, 0, 0, 43, 22, 0, 0, 69, 42, 21, 16, 48, 0, 35, 74, 71, 0, 0, 0, 0, 0, 0, 60, 50
|55, 0, 6, 0, 0, 24, 0, 9, 44, 10, 0, 49, 34, 38, 32, 61, 50, 0, 13, 0, 0, 0, 26, 0, 15, 0, 43, 0, 0, 0, 65, 31, 0, 0, 0, 73, 0, 0, 20, 0, 40, 0, 0, 75, 0, 5, 46, 80, 0, 0, 53, 0, 56, 71, 79, 64, 52, 74, 62, 0, 81, 0, 0, 0, 0, 0, 0, 37, 3, 0, 39, 19, 67, 4, 0, 14, 41, 0, 21, 25, 0
|7, 0, 0, 0, 70, 69, 0, 25, 59, 0, 9, 67, 5, 0, 0, 30, 0, 58, 0, 32, 73, 0, 0, 0, 35, 0, 0, 0, 0, 0, 0, 71, 0, 64, 24, 0, 10, 49, 0, 52, 0, 0, 0, 47, 0, 81, 13, 39, 22, 0, 21, 0, 38, 0, 19, 0, 14, 0, 68, 0, 0, 0, 0, 20, 0, 65, 26, 0, 0, 12, 61, 60, 0, 0, 62, 0, 0, 27, 0, 72, 0
|0, 0, 30, 0, 0, 0, 47, 50, 77, 0, 0, 0, 0, 48, 28, 53, 56, 71, 0, 66, 25, 0, 20, 0, 69, 0, 0, 0, 43, 0, 0, 79, 0, 0, 0, 35, 80, 0, 0, 3, 0, 0, 39, 11, 0, 0, 51, 42, 0, 0, 0, 62, 0, 0, 6, 0, 24, 73, 0, 9, 0, 0, 0, 0, 0, 55, 18, 8, 52, 0, 0, 0, 12, 0, 46, 54, 1, 0, 65, 36, 0
|0, 56, 49, 39, 66, 64, 1, 0, 53, 0, 74, 8, 37, 22, 19, 0, 43, 45, 0, 0, 29, 0, 61, 38, 0, 65, 3, 0, 17, 54, 21, 23, 0, 7, 0, 0, 6, 0, 25, 79, 0, 67, 0, 0, 73, 0, 0, 28, 0, 0, 72, 63, 2, 27, 50, 20, 48, 55, 0, 18, 60, 0, 0, 0, 0, 0, 57, 0, 0, 0, 62, 46, 0, 0, 30, 69, 0, 40, 0, 80, 0
|0, 0, 62, 33, 0, 4, 12, 0, 0, 0, 42, 0, 39, 13, 73, 55, 0, 29, 0, 77, 0, 50, 0, 0, 0, 46, 76, 0, 0, 72, 45, 0, 0, 6, 44, 1, 22, 31, 81, 16, 0, 24, 30, 36, 65, 40, 68, 0, 0, 0, 14, 34, 10, 0, 26, 0, 0, 8, 27, 0, 0, 0, 0, 0, 0, 15, 0, 25, 0, 63, 56, 0, 79, 5, 0, 0, 0, 0, 0, 2, 0
|0, 78, 0, 0, 0, 0, 0, 0, 0, 0, 0, 61, 0, 80, 72, 0, 12, 50, 8, 65, 47, 76, 0, 0, 0, 18, 69, 0, 23, 0, 67, 0, 64, 15, 0, 0, 11, 0, 60, 27, 0, 0, 14, 0, 71, 0, 0, 0, 0, 46, 0, 74, 41, 10, 81, 0, 22, 37, 24, 0, 63, 0, 0, 0, 35, 34, 45, 66, 53, 0, 40, 0, 0, 0, 36, 0, 28, 0, 31, 0, 0
|0, 0, 42, 19, 0, 12, 0, 40, 45, 8, 17, 6, 0, 0, 54, 15, 2, 66, 0, 0, 31, 77, 0, 0, 0, 1, 0, 78, 0, 65, 0, 0, 69, 52, 0, 0, 9, 63, 0, 0, 62, 53, 0, 0, 18, 0, 16, 23, 58, 0, 73, 7, 0, 0, 0, 67, 0, 0, 35, 34, 36, 0, 0, 61, 0, 75, 0, 41, 25, 3, 0, 0, 0, 71, 59, 13, 27, 64, 50, 56, 0
|0, 58, 8, 50, 3, 53, 0, 0, 0, 13, 0, 38, 47, 0, 78, 28, 55, 0, 0, 0, 0, 67, 11, 32, 2, 75, 61, 59, 0, 79, 0, 41, 0, 40, 1, 0, 0, 0, 7, 0, 70, 66, 31, 51, 0, 29, 30, 0, 81, 43, 49, 0, 80, 65, 0, 48, 0, 0, 0, 27, 0, 0, 62, 19, 0, 12, 64, 24, 63, 22, 23, 52, 34, 18, 15, 0, 0, 0, 0, 0, 0
|9, 43, 0, 0, 0, 56, 7, 0, 0, 34, 0, 0, 0, 0, 0, 0, 0, 0, 0, 46, 37, 68, 0, 0, 40, 0, 0, 0, 4, 0, 0, 73, 0, 10, 0, 2, 0, 0, 24, 0, 23, 0, 26, 0, 49, 0, 11, 63, 14, 3, 33, 48, 69, 0, 0, 21, 20, 0, 32, 64, 6, 0, 0, 0, 0, 77, 65, 28, 8, 1, 0, 29, 0, 0, 0, 0, 61, 5, 39, 58, 38
|81, 0, 13, 21, 0, 72, 0, 10, 20, 0, 0, 0, 74, 0, 0, 0, 0, 0, 0, 15, 0, 0, 38, 25, 0, 23, 39, 0, 47, 0, 0, 56, 0, 0, 8, 6, 46, 3, 0, 0, 0, 40, 0, 4, 54, 2, 67, 45, 0, 0, 68, 0, 0, 0, 0, 0, 50, 7, 0, 65, 1, 18, 0, 0, 36, 0, 0, 0, 0, 17, 80, 0, 22, 29, 52, 0, 0, 63, 0, 0, 0
|24, 22, 0, 0, 60, 77, 0, 14, 0, 0, 4, 0, 25, 0, 37, 40, 32, 0, 0, 0, 0, 0, 0, 0, 0, 0, 0, 0, 0, 0, 33, 0, 0, 55, 42, 0, 0, 0, 0, 80, 0, 0, 15, 0, 43, 39, 0, 34, 0, 0, 0, 0, 18, 52, 8, 0, 73, 54, 29, 0, 0, 0, 11, 0, 71, 48, 0, 0, 44, 81, 0, 0, 0, 0, 53, 67, 6, 78, 0, 0, 0
|70, 25, 23, 0, 0, 2, 0, 0, 0, 1, 0, 0, 16, 81, 0, 0, 0, 26, 6, 0, 0, 7, 48, 0, 73, 44, 0, 0, 0, 17, 0, 24, 0, 0, 0, 71, 0, 72, 37, 20, 19, 0, 0, 0, 35, 47, 0, 0, 4, 54, 28, 0, 22, 0, 80, 0, 13, 0, 58, 66, 49, 10, 61, 0, 0, 0, 5, 0, 0, 27, 78, 69, 9, 0, 75, 0, 14, 55, 8, 30, 0
|0, 0, 0, 34, 41, 0, 18, 80, 5, 43, 63, 0, 30, 0, 0, 0, 0, 10, 0, 0, 0, 0, 0, 9, 74, 0, 78, 7, 21, 16, 0, 0, 0, 0, 0, 68, 67, 0, 17, 0, 55, 29, 38, 81, 0, 36, 19, 0, 71, 0, 8, 0, 42, 37, 0, 69, 53, 0, 0, 3, 59, 0, 0, 0, 13, 0, 0, 15, 58, 11, 31, 0, 65, 76, 1, 0, 2, 25, 72, 0, 54
|0, 55, 71, 38, 17, 0, 0, 0, 47, 29, 73, 0, 0, 0, 0, 57, 0, 18, 0, 0, 24, 54, 0, 22, 0, 60, 0, 35, 0, 19, 14, 37, 74, 81, 0, 53, 0, 28, 39, 0, 0, 32, 34, 25, 2, 64, 0, 0, 13, 0, 70, 0, 0, 5, 0, 56, 78, 16, 9, 0, 44, 43, 15, 0, 0, 0, 10, 0, 76, 4, 0, 0, 0, 0, 0, 0, 23, 80, 0, 11, 0
|0, 0, 76, 0, 0, 0, 45, 0, 72, 37, 43, 29, 6, 34, 44, 0, 66, 41, 0, 0, 0, 39, 65, 0, 0, 0, 26, 52, 42, 67, 3, 28, 25, 0, 0, 0, 31, 71, 0, 55, 0, 79, 0, 12, 63, 0, 0, 49, 11, 0, 0, 0, 0, 81, 0, 0, 54, 69, 0, 24, 0, 50, 78, 0, 57, 4, 0, 0, 62, 40, 0, 77, 60, 51, 0, 20, 0, 0, 33, 0, 9
|58, 0, 70, 20, 24, 0, 0, 0, 0, 0, 38, 0, 4, 0, 47, 0, 26, 0, 0, 0, 0, 0, 0, 27, 0, 57, 0, 54, 9, 0, 0, 80, 34, 0, 0, 76, 0, 8, 0, 17, 29, 0, 0, 39, 0, 50, 0, 0, 0, 31, 46, 41, 0, 56, 15, 42, 0, 71, 0, 52, 0, 65, 0, 0, 66, 37, 0, 0, 0, 28, 67, 0, 0, 0, 0, 75, 0, 62, 0, 0, 0
|3, 36, 14, 74, 75, 0, 0, 57, 7, 32, 49, 0, 0, 0, 0, 12, 62, 22, 0, 0, 69, 11, 53, 10, 80, 48, 55, 47, 51, 0, 0, 81, 0, 26, 61, 0, 50, 54, 43, 35, 67, 28, 0, 0, 0, 0, 4, 71, 0, 0, 0, 42, 0, 76, 68, 0, 45, 0, 19, 0, 27, 37, 0, 0, 60, 0, 0, 59, 0, 0, 0, 0, 21, 40, 0, 41, 0, 0, 56, 0, 30
|61, 0, 48, 9, 29, 65, 0, 5, 50, 31, 0, 53, 0, 10, 0, 0, 0, 0, 0, 0, 79, 13, 0, 0, 75, 0, 66, 0, 0, 0, 0, 0, 19, 78, 0, 62, 1, 32, 0, 22, 0, 80, 0, 0, 42, 67, 3, 51, 0, 0, 0, 0, 35, 63, 38, 28, 0, 36, 0, 0, 14, 0, 60, 49, 0, 0, 41, 21, 20, 0, 17, 0, 0, 0, 47, 74, 0, 0, 18, 0, 52
|2, 0, 78, 13, 0, 33, 44, 30, 6, 0, 18, 0, 0, 0, 0, 0, 0, 0, 0, 0, 0, 0, 5, 42, 4, 72, 54, 0, 0, 0, 0, 0, 27, 79, 0, 31, 41, 0, 0, 0, 81, 0, 19, 34, 47, 17, 0, 12, 40, 0, 0, 77, 0, 0, 0, 0, 57, 0, 70, 0, 0, 9, 26, 64, 39, 11, 75, 0, 0, 7, 51, 71, 38, 0, 67, 80, 48, 10, 49, 0, 0
|0, 0, 37, 69, 42, 0, 68, 8, 0, 14, 0, 74, 51, 0, 35, 80, 0, 0, 76, 78, 41, 19, 25, 0, 0, 0, 0, 0, 0, 0, 71, 0, 40, 23, 0, 18, 36, 11, 15, 58, 16, 64, 52, 0, 0, 79, 60, 0, 65, 72, 0, 13, 0, 6, 0, 34, 0, 0, 75, 0, 21, 12, 0, 50, 3, 0, 0, 0, 61, 9, 44, 43, 4, 0, 17, 46, 0, 70, 0, 26, 7
|80, 52, 0, 49, 28, 67, 0, 0, 4, 0, 0, 33, 68, 39, 0, 50, 0, 81, 46, 6, 0, 45, 1, 0, 23, 0, 0, 44, 11, 0, 70, 0, 41, 56, 0, 12, 66, 0, 0, 75, 51, 0, 0, 30, 0, 61, 0, 0, 5, 0, 37, 0, 0, 9, 0, 0, 0, 0, 0, 7, 62, 17, 0, 26, 19, 35, 48, 0, 0, 16, 38, 53, 55, 0, 0, 71, 0, 0, 42, 13, 0
|0, 0, 73, 51, 0, 31, 10, 59, 0, 17, 19, 78, 0, 9, 20, 1, 48, 21, 0, 0, 71, 0, 0, 0, 30, 0, 52, 75, 0, 0, 0, 0, 0, 0, 0, 72, 0, 0, 0, 0, 0, 0, 0, 3, 0, 53, 2, 38, 15, 58, 43, 80, 74, 0, 0, 4, 0, 41, 0, 33, 0, 79, 0, 24, 12, 69, 14, 0, 45, 56, 42, 0, 0, 0, 29, 0, 0, 23, 28, 0, 57
|66, 0, 60, 0, 22, 0, 27, 41, 18, 0, 24, 76, 55, 46, 42, 0, 71, 0, 0, 49, 0, 61, 51, 0, 64, 0, 28, 0, 0, 0, 0, 0, 17, 48, 15, 4, 0, 0, 26, 0, 13, 0, 0, 9, 0, 0, 0, 14, 29, 25, 62, 45, 0, 34, 0, 53, 30, 0, 0, 0, 0, 0, 0, 47, 0, 36, 80, 1, 0, 0, 0, 0, 32, 79, 0, 0, 50, 0, 63, 6, 35
|0, 5, 0, 32, 80, 0, 6, 66, 13, 27, 67, 35, 0, 62, 0, 22, 58, 0, 52, 79, 0, 0, 71, 31, 0, 0, 44, 19, 3, 26, 64, 0, 0, 0, 0, 0, 63, 0, 0, 7, 1, 39, 0, 73, 41, 0, 61, 0, 0, 74, 0, 11, 0, 0, 21, 0, 0, 0, 51, 0, 38, 77, 0, 14, 4, 57, 0, 0, 59, 48, 0, 75, 0, 45, 0, 0, 0, 0, 0, 15, 0
|69, 10, 0, 68, 65, 57, 0, 12, 64, 25, 46, 7, 75, 56, 0, 0, 0, 13, 48, 28, 0, 24, 0, 19, 0, 0, 0, 16, 14, 0, 60, 62, 1, 0, 0, 70, 0, 0, 5, 0, 0, 11, 3, 67, 72, 0, 73, 58, 33, 4, 54, 0, 44, 30, 0, 29, 0, 0, 6, 36, 45, 0, 42, 79, 63, 0, 61, 0, 0, 15, 0, 0, 50, 59, 76, 0, 0, 47, 40, 20, 41
|0, 0, 0, 0, 2, 0, 28, 35, 73, 0, 68, 0, 0, 29, 0, 6, 0, 0, 7, 0, 60, 0, 3, 47, 0, 0, 20, 0, 75, 30, 78, 0, 0, 0, 79, 51, 70, 0, 4, 0, 53, 0, 37, 0, 0, 59, 71, 9, 0, 16, 0, 0, 0, 41, 76, 55, 0, 0, 1, 0, 0, 80, 67, 0, 0, 49, 8, 10, 17, 0, 0, 32, 77, 0, 0, 0, 0, 0, 5, 34, 0
|0, 29, 44, 0, 0, 14, 0, 63, 22, 60, 0, 57, 64, 0, 0, 0, 0, 0, 73, 62, 68, 0, 36, 40, 76, 45, 0, 0, 67, 0, 17, 8, 72, 41, 0, 0, 0, 59, 0, 0, 0, 0, 0, 78, 16, 0, 0, 20, 53, 0, 55, 65, 24, 0, 18, 0, 0, 0, 0, 0, 0, 0, 0, 0, 58, 0, 0, 0, 0, 0, 33, 39, 46, 21, 6, 3, 0, 1, 54, 0, 0
|0, 70, 67, 41, 34, 76, 0, 0, 62, 0, 0, 12, 0, 0, 38, 8, 1, 0, 0, 0, 4, 16, 0, 61, 26, 80, 0, 49, 0, 0, 47, 54, 18, 36, 0, 21, 14, 23, 55, 0, 2, 45, 0, 0, 0, 56, 0, 0, 60, 28, 0, 64, 25, 0, 66, 10, 0, 78, 0, 43, 13, 0, 0, 0, 27, 20, 29, 68, 0, 0, 77, 0, 0, 37, 9, 73, 24, 0, 35, 65, 63
|0, 49, 0, 53, 4, 15, 0, 21, 0, 0, 0, 69, 14, 40, 0, 20, 0, 0, 0, 11, 67, 46, 0, 65, 0, 0, 64, 32, 0, 63, 22, 34, 0, 71, 2, 0, 0, 12, 0, 0, 0, 77, 58, 33, 0, 0, 38, 52, 0, 81, 0, 0, 27, 26, 0, 0, 16, 0, 73, 0, 37, 0, 79, 30, 0, 74, 24, 0, 0, 0, 3, 54, 17, 55, 80, 68, 0, 0, 29, 19, 10
|0, 0, 0, 0, 26, 0, 0, 58, 0, 0, 34, 0, 0, 0, 49, 74, 0, 79, 66, 0, 39, 0, 0, 0, 0, 0, 37, 15, 29, 76, 0, 0, 52, 42, 0, 0, 0, 38, 48, 0, 0, 0, 44, 24, 75, 22, 21, 68, 19, 0, 0, 0, 1, 0, 59, 54, 63, 0, 64, 2, 69, 0, 0, 41, 0, 9, 0, 0, 0, 6, 0, 62, 0, 0, 0, 70, 0, 31, 51, 71, 0
|0, 0, 81, 77, 27, 1, 71, 24, 11, 50, 59, 0, 80, 0, 0, 45, 36, 0, 0, 54, 75, 0, 0, 0, 0, 38, 72, 0, 68, 0, 31, 0, 0, 12, 0, 0, 19, 64, 0, 0, 0, 25, 57, 0, 0, 51, 0, 0, 0, 7, 0, 0, 63, 0, 0, 0, 0, 32, 14, 0, 41, 0, 0, 69, 0, 28, 0, 65, 0, 0, 16, 35, 0, 62, 0, 43, 74, 44, 0, 0, 66
|0, 0, 0, 47, 59, 78, 72, 33, 60, 0, 0, 0, 70, 3, 0, 0, 37, 51, 63, 0, 55, 69, 0, 0, 0, 0, 0, 0, 73, 0, 43, 40, 46, 0, 77, 11, 0, 9, 0, 0, 0, 54, 0, 15, 0, 10, 0, 0, 0, 0, 0, 0, 34, 17, 0, 0, 0, 0, 0, 68, 65, 0, 0, 0, 0, 22, 31, 0, 81, 0, 76, 0, 0, 0, 7, 64, 67, 0, 38, 0, 56
|0, 0, 0, 0, 0, 32, 0, 0, 0, 80, 3, 47, 38, 0, 70, 76, 5, 15, 0, 0, 0, 0, 0, 0, 79, 61, 0, 0, 13, 0, 30, 0, 0, 0, 0, 0, 0, 0, 58, 25, 33, 0, 9, 0, 50, 0, 23, 29, 52, 0, 81, 0, 0, 21, 75, 49, 0, 0, 0, 60, 0, 0, 0, 16, 0, 27, 62, 42, 64, 0, 0, 0, 0, 24, 77, 57, 54, 12, 0, 74, 0
|0, 44, 0, 0, 73, 0, 0, 0, 0, 0, 79, 0, 31, 0, 30, 0, 0, 4, 0, 69, 0, 71, 39, 0, 50, 78, 0, 0, 62, 41, 57, 6, 23, 0, 0, 81, 55, 52, 0, 0, 0, 15, 60, 0, 0, 0, 74, 0, 63, 51, 58, 0, 45, 0, 42, 0, 8, 77, 7, 10, 11, 0, 0, 0, 47, 0, 38, 18, 0, 5, 20, 13, 0, 2, 37, 0, 65, 0, 76, 0, 0
|0, 0, 65, 58, 0, 0, 8, 69, 0, 57, 0, 39, 62, 0, 0, 0, 23, 34, 28, 0, 42, 0, 0, 55, 0, 35, 0, 20, 0, 0, 10, 0, 0, 27, 19, 0, 0, 66, 0, 0, 44, 61, 12, 77, 0, 54, 78, 33, 36, 73, 47, 6, 0, 60, 72, 0, 0, 59, 0, 80, 67, 0, 0, 0, 52, 68, 46, 0, 29, 0, 11, 3, 63, 48, 0, 0, 0, 0, 0, 0, 0
|49, 79, 0, 0, 72, 22, 23, 6, 0, 66, 52, 0, 56, 0, 0, 11, 0, 67, 10, 0, 0, 0, 0, 0, 68, 59, 34, 26, 48, 42, 77, 60, 45, 0, 0, 44, 0, 0, 63, 73, 76, 0, 0, 46, 13, 14, 35, 62, 0, 0, 0, 57, 40, 80, 0, 0, 41, 0, 0, 29, 61, 0, 19, 12, 17, 0, 32, 0, 0, 0, 0, 0, 78, 0, 0, 53, 38, 36, 4, 0, 0
|0, 54, 33, 0, 9, 0, 15, 17, 35, 45, 71, 0, 61, 16, 0, 77, 6, 46, 0, 26, 18, 0, 0, 0, 81, 0, 0, 3, 0, 5, 37, 47, 0, 70, 56, 0, 0, 30, 0, 0, 74, 0, 0, 0, 0, 0, 0, 48, 0, 0, 0, 75, 32, 0, 0, 31, 0, 0, 0, 1, 0, 0, 0, 2, 0, 0, 0, 34, 57, 8, 0, 21, 0, 52, 79, 72, 80, 0, 66, 0, 0
|36, 0, 0, 0, 0, 29, 70, 0, 28, 0, 0, 0, 1, 0, 51, 9, 68, 55, 25, 20, 72, 0, 40, 0, 0, 0, 0, 0, 80, 2, 63, 64, 59, 0, 21, 0, 0, 4, 0, 0, 71, 81, 35, 57, 0, 0, 0, 0, 0, 34, 17, 44, 0, 0, 0, 16, 76, 46, 0, 14, 0, 0, 5, 37, 0, 50, 0, 43, 0, 79, 0, 0, 19, 60, 0, 0, 0, 30, 0, 0, 33
|0, 0, 0, 2, 0, 66, 30, 1, 0, 18, 27, 0, 0, 26, 0, 0, 0, 42, 32, 0, 77, 0, 0, 63, 0, 0, 80, 0, 46, 0, 0, 52, 0, 0, 73, 9, 0, 0, 0, 54, 11, 0, 0, 0, 0, 3, 0, 72, 0, 0, 0, 24, 0, 0, 0, 33, 58, 0, 15, 6, 0, 0, 40, 10, 14, 0, 36, 0, 0, 0, 0, 0, 44, 39, 25, 0, 0, 0, 81, 59, 0
|0, 0, 31, 80, 46, 0, 57, 78, 19, 0, 0, 28, 0, 0, 59, 0, 44, 0, 16, 0, 0, 0, 13, 0, 43, 6, 0, 0, 39, 0, 38, 0, 15, 0, 0, 0, 75, 53, 0, 0, 0, 72, 0, 0, 1, 0, 56, 66, 0, 22, 42, 18, 0, 79, 27, 0, 0, 0, 0, 0, 20, 0, 73, 0, 0, 81, 76, 67, 54, 0, 0, 0, 64, 0, 11, 62, 0, 61, 23, 47, 0
|0, 0, 39, 42, 0, 48, 0, 38, 0, 0, 0, 0, 19, 7, 0, 63, 78, 0, 3, 0, 62, 57, 0, 0, 8, 0, 73, 0, 76, 33, 69, 0, 0, 0, 0, 0, 0, 79, 0, 0, 31, 16, 23, 49, 0, 0, 0, 70, 77, 0, 0, 20, 0, 15, 0, 65, 55, 0, 0, 47, 51, 52, 81, 0, 0, 0, 66, 6, 80, 0, 0, 25, 29, 58, 0, 0, 0, 18, 43, 5, 46
|39, 57, 36, 56, 20, 30, 4, 79, 46, 0, 62, 16, 0, 0, 0, 0, 25, 0, 0, 38, 0, 0, 70, 0, 77, 24, 0, 0, 44, 6, 0, 17, 0, 0, 0, 0, 0, 0, 78, 0, 21, 43, 0, 55, 0, 58, 0, 0, 3, 67, 0, 0, 5, 0, 47, 74, 0, 10, 0, 51, 0, 29, 65, 35, 0, 53, 1, 0, 49, 80, 0, 0, 11, 19, 0, 0, 0, 69, 64, 0, 0
|0, 0, 0, 59, 81, 0, 74, 71, 0, 47, 0, 15, 45, 0, 43, 29, 0, 0, 75, 0, 34, 25, 76, 60, 0, 0, 49, 5, 0, 0, 0, 0, 0, 69, 70, 0, 53, 42, 8, 0, 54, 0, 0, 31, 0, 0, 0, 4, 0, 79, 13, 0, 16, 48, 40, 0, 0, 0, 20, 0, 0, 0, 77, 21, 0, 39, 0, 38, 0, 67, 0, 0, 62, 0, 72, 0, 66, 0, 7, 0, 0
|53, 0, 0, 0, 0, 0, 73, 0, 0, 23, 55, 1, 0, 0, 66, 0, 46, 48, 0, 72, 45, 4, 14, 0, 21, 0, 35, 67, 15, 56, 0, 68, 0, 3, 0, 60, 76, 26, 0, 0, 50, 20, 0, 0, 0, 0, 0, 0, 0, 8, 9, 0, 0, 49, 11, 0, 81, 2, 42, 54, 30, 0, 22, 0, 5, 71, 74, 40, 65, 0, 0, 0, 0, 33, 0, 44, 79, 17, 25, 31, 61
|32, 13, 0, 16, 54, 58, 0, 0, 78, 0, 0, 0, 0, 0, 22, 71, 0, 20, 30, 0, 0, 9, 33, 0, 56, 0, 0, 31, 37, 0, 0, 48, 0, 73, 0, 14, 0, 0, 0, 0, 45, 0, 0, 52, 60, 0, 69, 15, 0, 53, 0, 2, 62, 29, 43, 0, 75, 6, 0, 0, 0, 0, 66, 0, 81, 0, 0, 0, 0, 77, 0, 0, 26, 68, 49, 23, 0, 0, 55, 28, 18
|67, 0, 0, 5, 0, 37, 0, 0, 0, 0, 69, 68, 0, 0, 0, 0, 30, 0, 11, 0, 32, 53, 0, 23, 20, 0, 41, 40, 2, 28, 76, 29, 0, 0, 43, 74, 0, 0, 0, 72, 63, 62, 0, 70, 0, 42, 34, 0, 0, 44, 0, 0, 71, 54, 0, 36, 21, 0, 0, 17, 16, 0, 58, 0, 22, 64, 50, 0, 0, 45, 7, 47, 0, 0, 0, 39, 0, 0, 15, 12, 0
|15, 0, 72, 14, 0, 3, 29, 55, 0, 38, 60, 0, 0, 41, 0, 0, 21, 0, 0, 44, 0, 47, 0, 43, 0, 36, 0, 39, 0, 59, 0, 0, 0, 0, 0, 75, 48, 24, 67, 0, 0, 7, 17, 74, 28, 23, 18, 0, 51, 0, 32, 10, 0, 45, 0, 70, 0, 0, 0, 57, 0, 76, 50, 13, 73, 63, 54, 20, 31, 0, 69, 11, 0, 80, 71, 52, 30, 16, 0, 0, 1
|25, 61, 0, 35, 77, 7, 0, 31, 0, 3, 2, 72, 0, 0, 58, 0, 0, 0, 0, 10, 0, 0, 79, 0, 28, 0, 0, 21, 8, 1, 62, 32, 22, 18, 0, 0, 12, 0, 0, 0, 0, 0, 0, 59, 37, 24, 0, 36, 0, 0, 0, 47, 81, 0, 0, 0, 80, 0, 0, 26, 0, 0, 0, 0, 0, 14, 6, 19, 0, 23, 0, 0, 0, 0, 78, 45, 0, 0, 20, 0, 0
|0, 0, 0, 0, 0, 41, 0, 0, 0, 40, 0, 0, 0, 51, 0, 0, 0, 0, 0, 0, 54, 80, 6, 0, 71, 68, 0, 0, 0, 9, 0, 30, 0, 58, 0, 47, 3, 0, 2, 5, 15, 0, 0, 1, 0, 0, 0, 26, 21, 12, 0, 38, 20, 25, 0, 35, 0, 62, 79, 19, 48, 0, 31, 0, 0, 33, 72, 78, 0, 34, 0, 8, 0, 0, 0, 29, 0, 32, 0, 0, 0
|22, 0, 0, 62, 0, 0, 0, 0, 49, 0, 53, 0, 12, 59, 0, 35, 24, 0, 50, 8, 81, 37, 0, 0, 13, 31, 0, 63, 0, 20, 0, 16, 42, 80, 45, 0, 25, 77, 0, 4, 0, 0, 0, 44, 0, 74, 0, 7, 70, 33, 57, 0, 0, 11, 67, 18, 64, 0, 0, 0, 73, 39, 0, 3, 46, 56, 0, 0, 9, 30, 0, 26, 0, 0, 5, 0, 0, 0, 0, 40, 48
|68, 0, 0, 11, 0, 40, 78, 7, 0, 39, 25, 4, 44, 55, 61, 38, 0, 0, 0, 0, 0, 26, 0, 0, 0, 29, 0, 53, 77, 0, 0, 27, 10, 14, 51, 16, 72, 0, 56, 0, 0, 0, 0, 0, 0, 0, 52, 81, 0, 0, 80, 33, 0, 0, 49, 0, 15, 0, 17, 70, 0, 0, 0, 63, 0, 0, 42, 3, 6, 20, 0, 34, 0, 0, 0, 0, 0, 0, 0, 75, 45
|29, 0, 0, 52, 0, 0, 77, 0, 0, 0, 47, 2, 72, 8, 31, 0, 51, 49, 55, 41, 0, 0, 9, 69, 0, 0, 0, 24, 0, 0, 40, 0, 12, 0, 0, 17, 79, 0, 0, 53, 20, 0, 16, 0, 0, 38, 10, 22, 59, 21, 11, 0, 39, 68, 0, 0, 6, 67, 0, 0, 76, 56, 54, 0, 0, 0, 81, 23, 0, 0, 4, 70, 0, 7, 0, 78, 64, 0, 57, 63, 0
|0, 19, 41, 4, 0, 0, 24, 46, 56, 0, 50, 32, 0, 0, 57, 73, 10, 14, 0, 60, 0, 2, 0, 0, 0, 81, 13, 29, 55, 21, 15, 0, 37, 33, 0, 30, 0, 0, 3, 0, 18, 0, 0, 0, 0, 34, 6, 0, 0, 69, 48, 0, 70, 0, 0, 0, 0, 43, 0, 12, 5, 0, 0, 0, 76, 0, 0, 77, 0, 44, 71, 0, 80, 49, 0, 0, 17, 0, 0, 0, 20
|0, 0, 69, 55, 32, 0, 53, 13, 61, 15, 0, 59, 46, 77, 60, 0, 20, 16, 45, 0, 70, 79, 42, 80, 0, 52, 25, 0, 0, 0, 0, 0, 65, 0, 6, 0, 54, 7, 0, 12, 30, 76, 41, 0, 0, 63, 0, 0, 0, 0, 2, 0, 4, 0, 78, 24, 0, 72, 0, 0, 50, 71, 68, 0, 0, 58, 35, 0, 0, 0, 49, 33, 10, 66, 0, 0, 0, 56, 11, 18, 0
|30, 0, 5, 0, 67, 10, 0, 28, 0, 6, 0, 13, 78, 54, 63, 52, 0, 0, 35, 0, 0, 20, 0, 0, 59, 0, 62, 23, 0, 60, 2, 49, 76, 57, 0, 26, 34, 0, 0, 70, 0, 51, 55, 0, 0, 43, 0, 1, 0, 0, 0, 3, 0, 58, 69, 0, 0, 80, 65, 45, 0, 11, 36, 0, 16, 47, 7, 0, 0, 0, 0, 50, 0, 0, 0, 0, 0, 0, 0, 68, 0
|14, 60, 0, 6, 0, 70, 0, 0, 42, 0, 41, 0, 0, 68, 0, 67, 53, 69, 0, 1, 0, 0, 10, 33, 0, 74, 0, 45, 58, 0, 0, 59, 7, 72, 32, 0, 0, 0, 0, 0, 0, 8, 46, 0, 36, 0, 0, 0, 0, 56, 0, 51, 55, 19, 73, 47, 0, 0, 0, 16, 0, 81, 4, 78, 0, 0, 0, 62, 39, 0, 0, 64, 3, 0, 0, 0, 25, 50, 13, 61, 0
|0, 0, 25, 18, 64, 0, 2, 27, 16, 0, 0, 0, 22, 75, 7, 0, 3, 37, 0, 39, 0, 0, 0, 68, 24, 0, 0, 0, 0, 0, 13, 0, 0, 20, 0, 0, 0, 0, 0, 45, 0, 0, 0, 0, 0, 0, 47, 0, 0, 0, 65, 40, 0, 62, 0, 0, 0, 79, 52, 0, 0, 51, 33, 80, 8, 10, 0, 69, 0, 0, 21, 55, 48, 0, 0, 0, 0, 4, 58, 76, 36
|47, 0, 0, 17, 49, 0, 0, 65, 0, 0, 0, 71, 0, 0, 1, 0, 0, 64, 0, 12, 0, 0, 28, 0, 0, 37, 16, 0, 0, 0, 0, 0, 0, 50, 4, 79, 0, 80, 52, 11, 0, 14, 74, 0, 78, 0, 29, 0, 26, 0, 25, 0, 53, 7, 34, 0, 0, 0, 0, 55, 0, 8, 0, 0, 0, 13, 0, 0, 46, 0, 0, 0, 0, 35, 21, 0, 0, 43, 62, 0, 0
|23, 59, 79, 0, 0, 0, 38, 0, 80, 58, 0, 0, 66, 27, 0, 18, 0, 0, 51, 3, 0, 0, 7, 0, 65, 0, 4, 68, 0, 0, 74, 36, 63, 19, 0, 0, 81, 33, 0, 0, 0, 17, 10, 0, 15, 0, 0, 13, 0, 0, 0, 35, 0, 0, 0, 0, 0, 0, 48, 0, 2, 20, 0, 0, 72, 43, 11, 57, 0, 0, 0, 0, 0, 6, 0, 1, 52, 73, 9, 0, 39
|0, 0, 3, 65, 47, 0, 0, 0, 41, 0, 64, 0, 76, 0, 0, 0, 0, 0, 79, 0, 0, 62, 68, 0, 0, 69, 0, 0, 0, 57, 52, 13, 0, 66, 0, 24, 78, 0, 0, 0, 75, 59, 45, 60, 27, 0, 54, 0, 0, 55, 22, 0, 26, 0, 29, 0, 31, 4, 0, 0, 9, 0, 30, 77, 0, 0, 0, 48, 35, 0, 25, 44, 0, 38, 32, 0, 20, 0, 70, 33, 0
|0, 0, 22, 29, 36, 0, 13, 18, 0, 30, 80, 60, 81, 6, 33, 0, 38, 27, 0, 0, 20, 0, 47, 3, 0, 0, 0, 65, 40, 0, 73, 0, 0, 1, 53, 0, 51, 67, 0, 0, 0, 63, 2, 0, 52, 4, 41, 0, 23, 0, 59, 58, 17, 0, 0, 76, 0, 11, 0, 0, 70, 32, 0, 0, 28, 0, 9, 61, 69, 74, 14, 0, 5, 54, 43, 0, 49, 75, 68, 0, 16
|56, 37, 0, 57, 0, 0, 0, 44, 0, 24, 61, 42, 0, 0, 0, 0, 7, 54, 0, 73, 65, 70, 52, 53, 33, 0, 67, 0, 0, 3, 0, 20, 80, 51, 34, 0, 0, 0, 1, 0, 0, 46, 0, 0, 58, 75, 62, 78, 2, 0, 45, 32, 0, 0, 63, 59, 43, 0, 0, 49, 0, 0, 72, 0, 41, 30, 0, 0, 0, 76, 13, 81, 0, 31, 39, 0, 40, 0, 0, 0, 74
|1, 0, 4, 0, 0, 0, 20, 0, 40, 67, 26, 37, 0, 0, 2, 0, 17, 0, 0, 0, 0, 0, 46, 0, 57, 0, 77, 0, 0, 0, 29, 0, 0, 44, 0, 56, 0, 0, 0, 6, 0, 0, 28, 0, 0, 52, 0, 76, 43, 0, 0, 0, 0, 0, 0, 0, 10, 0, 0, 0, 54, 42, 0, 0, 0, 60, 39, 0, 0, 0, 27, 18, 0, 47, 0, 0, 0, 79, 0, 0, 78
|0, 27, 12, 0, 0, 45, 0, 0, 30, 0, 0, 0, 79, 0, 0, 13, 0, 3, 0, 0, 36, 0, 0, 0, 0, 8, 81, 71, 0, 0, 0, 0, 14, 0, 16, 7, 0, 70, 0, 0, 0, 0, 0, 0, 0, 11, 0, 47, 0, 40, 29, 0, 49, 0, 65, 52, 56, 0, 57, 0, 0, 0, 51, 0, 0, 0, 0, 0, 0, 2, 0, 20, 0, 10, 0, 6, 62, 0, 37, 0, 0
|0, 0, 0, 61, 0, 0, 75, 70, 52, 78, 0, 0, 15, 4, 71, 47, 0, 9, 0, 13, 0, 32, 16, 0, 0, 30, 7, 11, 0, 0, 0, 0, 0, 0, 46, 36, 65, 41, 0, 0, 73, 0, 0, 0, 0, 0, 0, 0, 0, 0, 0, 0, 0, 0, 3, 39, 0, 50, 0, 20, 58, 74, 27, 0, 0, 8, 0, 54, 0, 49, 0, 0, 0, 22, 63, 0, 29, 81, 44, 0, 0
|0, 51, 32, 0, 7, 0, 64, 0, 67, 74, 0, 48, 0, 44, 45, 0, 49, 1, 12, 0, 35, 18, 58, 72, 0, 0, 22, 0, 41, 0, 54, 0, 0, 0, 26, 19, 56, 0, 50, 43, 0, 0, 62, 23, 69, 0, 42, 10, 0, 38, 0, 0, 13, 20, 0, 0, 33, 75, 0, 53, 24, 60, 2, 31, 0, 0, 73, 0, 66, 57, 0, 80, 0, 0, 3, 0, 9, 65, 0, 17, 0
|38, 0, 0, 66, 0, 0, 46, 0, 58, 20, 0, 0, 0, 0, 0, 0, 0, 52, 1, 0, 0, 42, 0, 4, 6, 54, 0, 0, 70, 0, 18, 2, 39, 0, 0, 49, 32, 0, 0, 0, 25, 0, 0, 0, 80, 0, 31, 30, 0, 0, 5, 36, 65, 0, 0, 0, 69, 45, 0, 0, 17, 13, 48, 0, 0, 0, 0, 63, 0, 50, 0, 0, 0, 67, 51, 56, 0, 0, 73, 0, 0
|50, 0, 77, 71, 0, 0, 0, 73, 0, 0, 22, 0, 0, 0, 0, 0, 65, 0, 0, 0, 0, 0, 0, 0, 0, 0, 40, 27, 61, 4, 28, 21, 0, 31, 60, 0, 13, 81, 9, 0, 0, 0, 54, 0, 20, 15, 44, 0, 0, 0, 0, 39, 67, 33, 0, 0, 0, 19, 47, 0, 0, 35, 25, 0, 0, 3, 52, 53, 12, 0, 6, 72, 24, 30, 0, 0, 58, 45, 80, 0, 69
|0, 0, 19, 0, 39, 6, 0, 42, 66, 22, 13, 9, 32, 0, 0, 3, 63, 56, 0, 0, 50, 52, 0, 71, 61, 10, 53, 8, 0, 37, 0, 70, 28, 35, 69, 0, 15, 78, 0, 1, 0, 0, 0, 0, 0, 33, 79, 0, 7, 0, 76, 46, 11, 2, 0, 0, 0, 47, 0, 0, 29, 0, 0, 60, 38, 0, 4, 14, 5, 0, 0, 0, 0, 0, 0, 26, 0, 0, 17, 51, 0
|0, 53, 0, 0, 13, 0, 34, 3, 70, 0, 33, 45, 0, 0, 39, 43, 0, 38, 0, 0, 74, 0, 80, 0, 25, 0, 51, 0, 0, 7, 19, 77, 0, 0, 66, 0, 21, 44, 0, 63, 5, 18, 0, 0, 79, 0, 24, 60, 0, 0, 0, 12, 0, 55, 0, 57, 0, 0, 71, 11, 52, 59, 0, 8, 6, 0, 0, 76, 0, 0, 0, 27, 15, 1, 0, 30, 0, 67, 0, 0, 40
|33, 0, 0, 12, 30, 35, 0, 23, 51, 71, 6, 0, 0, 0, 0, 46, 8, 7, 0, 22, 13, 75, 69, 24, 0, 77, 0, 25, 0, 58, 1, 57, 0, 0, 31, 55, 0, 36, 38, 48, 47, 0, 0, 0, 67, 0, 0, 0, 0, 0, 0, 0, 0, 0, 0, 0, 0, 0, 0, 0, 42, 0, 0, 39, 50, 0, 34, 44, 0, 64, 52, 56, 0, 0, 0, 0, 32, 0, 41, 0, 2
|0, 0, 0, 0, 0, 8, 14, 76, 0, 55, 31, 21, 0, 70, 0, 0, 15, 0, 0, 2, 0, 0, 0, 17, 39, 79, 0, 9, 0, 40, 44, 42, 61, 0, 0, 0, 71, 75, 0, 0, 66, 0, 53, 0, 0, 72, 0, 0, 0, 13, 0, 52, 57, 38, 0, 0, 62, 30, 0, 67, 0, 0, 6, 0, 0, 0, 0, 45, 0, 0, 0, 0, 74, 50, 0, 48, 19, 11, 0, 0, 0
|64, 50, 17, 15, 0, 36, 0, 4, 68, 0, 0, 0, 0, 0, 0, 0, 0, 0, 9, 48, 0, 1, 66, 0, 44, 0, 0, 0, 72, 24, 0, 78, 11, 43, 0, 0, 7, 0, 0, 76, 8, 19, 61, 0, 26, 41, 40, 18, 0, 0, 27, 67, 0, 0, 0, 0, 35, 0, 0, 21, 33, 0, 0, 74, 0, 79, 71, 32, 0, 53, 81, 0, 42, 0, 0, 55, 37, 0, 75, 0, 0
|0, 0, 57, 31, 44, 49, 26, 22, 0, 0, 1, 77, 27, 42, 0, 60, 64, 0, 0, 55, 11, 0, 0, 0, 46, 0, 68, 30, 50, 71, 0, 0, 0, 63, 0, 15, 4, 17, 32, 0, 0, 0, 25, 41, 0, 0, 20, 19, 0, 29, 51, 0, 0, 0, 0, 81, 0, 0, 69, 0, 0, 0, 8, 0, 0, 7, 0, 0, 33, 0, 73, 61, 59, 0, 58, 76, 45, 0, 78, 62, 0
|0, 65, 43, 67, 0, 0, 0, 32, 0, 62, 35, 66, 0, 0, 4, 0, 47, 0, 81, 40, 30, 60, 0, 0, 7, 20, 0, 0, 0, 0, 16, 53, 0, 0, 33, 39, 24, 37, 0, 0, 0, 0, 51, 56, 46, 69, 58, 0, 68, 1, 0, 54, 15, 64, 0, 0, 0, 0, 0, 48, 19, 0, 9, 55, 0, 23, 3, 0, 0, 0, 0, 36, 31, 8, 44, 0, 5, 21, 12, 0, 0
|0, 0, 29, 0, 0, 0, 58, 77, 37, 51, 30, 0, 53, 0, 0, 0, 0, 12, 19, 64, 8, 3, 0, 59, 49, 26, 0, 0, 81, 23, 0, 0, 0, 0, 0, 0, 60, 0, 0, 13, 6, 34, 69, 43, 0, 0, 0, 5, 56, 0, 39, 70, 0, 0, 1, 25, 0, 0, 54, 0, 0, 0, 0, 0, 18, 16, 20, 35, 0, 0, 0, 15, 0, 9, 38, 10, 0, 33, 36, 0, 4
|0, 0, 54, 10, 0, 0, 55, 56, 0, 0, 48, 0, 0, 0, 0, 0, 0, 0, 5, 33, 0, 0, 37, 0, 47, 32, 21, 0, 0, 0, 0, 18, 36, 46, 0, 52, 0, 0, 16, 28, 0, 70, 73, 45, 74, 0, 0, 0, 66, 49, 31, 0, 0, 42, 24, 0, 0, 60, 78, 0, 79, 0, 0, 0, 0, 0, 0, 0, 0, 0, 1, 51, 39, 53, 22, 34, 7, 0, 0, 0, 0|];