order = 9;
grid = [|0, 54, 0, 0, 0, 0, 74, 0, 75, 0, 66, 28, 7, 81, 0, 64, 0, 0, 0, 41, 31, 58, 0, 20, 0, 34, 32, 0, 79, 11, 0, 0, 0, 70, 63, 56, 0, 0, 18, 30, 78, 55, 73, 51, 59, 23, 15, 77, 25, 0, 0, 14, 0, 3, 44, 0, 72, 60, 0, 65, 10, 9, 0, 0, 0, 45, 6, 36, 0, 52, 0, 0, 71, 0, 0, 0, 0, 0, 0, 0, 0
|47, 0, 0, 63, 78, 0, 0, 0, 0, 0, 75, 0, 0, 14, 79, 0, 0, 0, 10, 0, 0, 0, 33, 0, 0, 0, 50, 46, 49, 65, 0, 0, 58, 0, 0, 0, 0, 21, 0, 0, 0, 24, 0, 0, 12, 22, 0, 0, 0, 36, 39, 31, 0, 62, 0, 23, 0, 0, 59, 56, 0, 7, 0, 64, 0, 0, 0, 26, 17, 0, 42, 0, 0, 0, 81, 0, 40, 76, 0, 48, 55
|0, 14, 0, 3, 73, 0, 38, 0, 59, 69, 0, 12, 49, 31, 0, 0, 0, 44, 0, 54, 16, 0, 18, 0, 62, 0, 0, 36, 10, 0, 78, 27, 30, 0, 19, 29, 13, 68, 79, 0, 0, 42, 0, 0, 17, 0, 0, 0, 0, 2, 35, 0, 0, 72, 0, 0, 0, 0, 0, 55, 0, 48, 28, 0, 0, 32, 71, 41, 0, 0, 0, 75, 0, 0, 0, 0, 56, 63, 45, 0, 0
|71, 0, 0, 13, 31, 58, 41, 0, 64, 76, 0, 24, 0, 42, 25, 0, 33, 0, 0, 0, 17, 0, 6, 0, 67, 0, 0, 0, 0, 57, 12, 35, 50, 0, 9, 51, 47, 43, 63, 0, 0, 0, 0, 74, 0, 5, 0, 65, 0, 78, 79, 0, 54, 40, 0, 66, 0, 0, 38, 0, 21, 0, 0, 19, 0, 0, 0, 0, 4, 0, 70, 28, 0, 0, 62, 0, 0, 0, 0, 0, 46
|0, 68, 10, 5, 0, 0, 0, 0, 0, 20, 0, 17, 46, 36, 0, 58, 0, 62, 74, 0, 26, 55, 44, 76, 45, 0, 9, 13, 0, 28, 14, 71, 0, 59, 67, 21, 0, 0, 0, 7, 72, 0, 0, 65, 0, 29, 50, 32, 0, 0, 47, 0, 0, 81, 0, 0, 22, 0, 0, 0, 78, 35, 0, 0, 60, 0, 0, 0, 0, 0, 11, 73, 0, 18, 41, 61, 19, 0, 0, 0, 16
|0, 12, 0, 0, 0, 0, 0, 0, 0, 48, 0, 15, 41, 0, 0, 26, 54, 0, 0, 0, 0, 0, 0, 0, 0, 0, 0, 34, 0, 76, 80, 22, 0, 1, 0, 8, 0, 0, 0, 40, 75, 69, 0, 50, 0, 24, 59, 28, 0, 4, 0, 74, 0, 0, 47, 0, 71, 14, 16, 61, 63, 2, 68, 0, 81, 37, 44, 33, 0, 0, 77, 62, 30, 0, 38, 79, 0, 0, 39, 35, 0
|2, 0, 0, 0, 0, 0, 7, 0, 0, 78, 0, 61, 34, 0, 68, 56, 0, 16, 0, 0, 66, 0, 0, 0, 0, 0, 0, 38, 0, 0, 41, 81, 53, 0, 45, 55, 57, 37, 0, 0, 23, 0, 0, 26, 4, 63, 44, 0, 48, 49, 10, 42, 0, 0, 24, 0, 0, 0, 3, 40, 25, 54, 36, 0, 12, 0, 67, 0, 59, 31, 50, 5, 80, 70, 0, 0, 58, 8, 22, 14, 47
|81, 0, 34, 0, 0, 52, 0, 24, 40, 0, 59, 0, 0, 0, 0, 1, 57, 0, 25, 69, 27, 0, 0, 63, 0, 73, 39, 15, 7, 32, 48, 75, 43, 66, 44, 0, 71, 0, 16, 2, 22, 0, 0, 31, 36, 76, 0, 0, 56, 0, 0, 30, 58, 8, 11, 17, 0, 0, 18, 0, 0, 77, 74, 0, 0, 49, 0, 65, 10, 0, 0, 78, 0, 6, 0, 51, 0, 0, 0, 0, 0
|0, 72, 0, 18, 65, 4, 45, 0, 32, 50, 0, 0, 22, 2, 0, 71, 0, 74, 47, 60, 0, 0, 70, 78, 30, 0, 0, 69, 0, 0, 0, 64, 0, 0, 23, 0, 0, 0, 0, 28, 0, 5, 1, 0, 0, 57, 68, 6, 0, 52, 0, 0, 27, 0, 0, 58, 31, 12, 42, 0, 41, 46, 0, 0, 21, 66, 76, 55, 0, 0, 63, 0, 7, 59, 53, 0, 36, 10, 0, 49, 0
|13, 0, 0, 0, 25, 0, 2, 0, 20, 0, 0, 35, 0, 33, 66, 46, 50, 59, 78, 75, 71, 0, 32, 74, 0, 0, 0, 0, 6, 0, 0, 40, 51, 47, 22, 68, 16, 77, 0, 62, 0, 0, 0, 0, 0, 54, 0, 0, 31, 73, 28, 0, 0, 0, 0, 0, 39, 0, 0, 0, 11, 8, 0, 80, 0, 0, 0, 0, 0, 4, 81, 0, 0, 0, 7, 21, 0, 5, 49, 10, 69
|18, 8, 80, 0, 50, 0, 73, 7, 43, 57, 0, 0, 68, 0, 29, 53, 0, 58, 0, 11, 0, 0, 12, 1, 0, 27, 0, 0, 0, 0, 67, 0, 49, 20, 48, 74, 42, 34, 0, 0, 0, 64, 71, 0, 0, 0, 0, 0, 17, 0, 13, 0, 66, 47, 0, 19, 0, 0, 0, 69, 0, 0, 0, 0, 62, 63, 0, 60, 45, 0, 0, 0, 22, 0, 0, 6, 0, 25, 0, 38, 0
|0, 0, 78, 12, 0, 0, 57, 41, 30, 72, 0, 75, 0, 0, 0, 0, 0, 0, 0, 65, 0, 0, 0, 0, 59, 36, 60, 2, 0, 0, 61, 0, 29, 0, 0, 42, 0, 40, 19, 54, 0, 22, 74, 0, 25, 0, 69, 0, 53, 18, 49, 35, 0, 52, 0, 0, 0, 0, 5, 0, 81, 0, 46, 0, 0, 0, 0, 0, 20, 47, 76, 67, 0, 0, 0, 0, 73, 43, 77, 0, 39
|35, 0, 0, 0, 33, 0, 47, 0, 11, 0, 0, 3, 69, 76, 34, 0, 0, 67, 0, 0, 0, 16, 2, 0, 41, 0, 0, 39, 0, 64, 77, 54, 0, 19, 0, 4, 7, 0, 0, 0, 0, 0, 53, 13, 0, 32, 9, 0, 42, 45, 78, 59, 12, 0, 0, 6, 63, 0, 49, 68, 26, 25, 57, 5, 61, 0, 0, 66, 0, 18, 55, 50, 8, 40, 1, 0, 29, 0, 70, 0, 28
|51, 0, 0, 0, 0, 0, 23, 58, 0, 39, 54, 41, 56, 60, 45, 0, 0, 0, 0, 48, 0, 0, 9, 0, 44, 61, 62, 10, 75, 0, 0, 25, 0, 0, 26, 7, 81, 0, 55, 66, 1, 29, 15, 35, 46, 2, 11, 19, 0, 0, 0, 0, 76, 0, 0, 47, 0, 0, 0, 0, 20, 0, 52, 12, 69, 0, 57, 73, 0, 79, 8, 0, 0, 27, 33, 16, 68, 14, 3, 78, 59
|0, 0, 56, 0, 27, 0, 68, 0, 54, 1, 55, 0, 5, 63, 47, 22, 26, 71, 0, 0, 35, 0, 17, 0, 0, 15, 0, 0, 66, 0, 0, 0, 0, 41, 16, 14, 0, 0, 57, 0, 0, 20, 0, 0, 28, 0, 0, 0, 0, 43, 77, 39, 29, 48, 0, 0, 58, 23, 0, 38, 75, 0, 0, 78, 0, 21, 9, 3, 0, 0, 52, 0, 0, 0, 11, 60, 0, 0, 0, 65, 53
|0, 15, 42, 0, 0, 0, 71, 40, 44, 6, 81, 0, 13, 70, 20, 0, 0, 21, 43, 68, 47, 0, 29, 69, 0, 49, 0, 0, 0, 35, 0, 0, 57, 0, 0, 63, 23, 0, 0, 0, 61, 0, 45, 8, 48, 46, 0, 0, 0, 72, 55, 38, 0, 16, 36, 64, 60, 4, 0, 54, 50, 12, 0, 33, 0, 74, 0, 1, 0, 59, 39, 0, 41, 32, 37, 9, 0, 51, 75, 0, 18
|39, 0, 0, 0, 19, 69, 0, 49, 0, 0, 44, 16, 0, 43, 38, 0, 0, 51, 0, 0, 20, 72, 0, 0, 0, 37, 76, 0, 8, 0, 0, 1, 0, 32, 0, 0, 59, 0, 0, 9, 0, 0, 68, 11, 26, 67, 0, 58, 15, 40, 0, 50, 0, 0, 0, 41, 0, 2, 0, 0, 3, 0, 0, 0, 0, 0, 0, 6, 75, 35, 7, 22, 45, 81, 56, 30, 0, 46, 66, 12, 61
|36, 0, 24, 0, 75, 62, 26, 0, 48, 0, 0, 0, 80, 49, 0, 0, 0, 0, 77, 18, 0, 46, 67, 0, 0, 0, 5, 0, 0, 0, 28, 0, 9, 0, 69, 43, 12, 6, 0, 76, 0, 0, 0, 2, 0, 1, 8, 0, 0, 0, 0, 4, 0, 34, 0, 70, 14, 55, 0, 7, 0, 0, 0, 0, 0, 0, 13, 0, 0, 58, 56, 0, 0, 0, 64, 0, 35, 72, 47, 23, 0
|55, 2, 0, 28, 13, 0, 0, 54, 0, 0, 19, 79, 58, 0, 0, 50, 59, 0, 57, 0, 0, 9, 0, 0, 14, 17, 81, 18, 0, 0, 56, 0, 76, 0, 0, 27, 40, 16, 0, 0, 32, 0, 60, 7, 73, 0, 74, 72, 0, 44, 8, 21, 69, 0, 0, 39, 10, 0, 70, 15, 0, 0, 38, 0, 43, 0, 61, 29, 51, 0, 0, 20, 1, 0, 63, 67, 0, 0, 0, 30, 0
|5, 60, 0, 76, 56, 0, 39, 0, 0, 15, 21, 1, 0, 0, 9, 14, 0, 55, 0, 0, 65, 0, 0, 26, 0, 44, 0, 40, 0, 0, 42, 0, 80, 0, 0, 12, 0, 0, 69, 0, 24, 11, 22, 0, 43, 19, 45, 29, 0, 0, 0, 0, 18, 33, 0, 63, 20, 0, 0, 0, 0, 0, 0, 0, 0, 0, 36, 0, 0, 17, 0, 0, 75, 0, 16, 0, 62, 0, 0, 0, 0
|0, 0, 51, 0, 0, 16, 0, 18, 0, 0, 0, 0, 0, 32, 0, 54, 35, 0, 0, 62, 0, 50, 0, 73, 0, 0, 25, 44, 0, 39, 22, 8, 0, 57, 0, 37, 31, 0, 26, 0, 45, 14, 0, 0, 80, 0, 0, 15, 49, 0, 0, 0, 0, 0, 41, 0, 56, 13, 0, 0, 0, 0, 0, 67, 0, 0, 0, 0, 40, 0, 0, 71, 0, 61, 17, 0, 0, 0, 65, 66, 72
|67, 0, 7, 0, 4, 0, 78, 80, 25, 0, 0, 0, 0, 20, 0, 48, 0, 12, 32, 0, 8, 0, 46, 70, 0, 43, 79, 59, 0, 14, 0, 0, 21, 0, 2, 0, 0, 42, 54, 0, 41, 17, 0, 0, 39, 35, 81, 40, 0, 64, 0, 0, 0, 26, 0, 31, 36, 0, 0, 0, 0, 45, 11, 63, 13, 0, 0, 0, 0, 60, 0, 65, 9, 0, 71, 0, 0, 24, 0, 0, 6
|6, 37, 9, 57, 21, 20, 0, 33, 0, 34, 45, 42, 28, 4, 44, 0, 0, 38, 0, 55, 0, 0, 1, 0, 0, 67, 0, 0, 0, 48, 26, 69, 15, 65, 61, 0, 51, 0, 36, 5, 0, 81, 66, 56, 63, 0, 75, 39, 0, 0, 25, 0, 0, 0, 0, 24, 0, 0, 71, 18, 0, 16, 7, 0, 73, 0, 41, 0, 32, 0, 0, 70, 0, 0, 43, 46, 8, 54, 19, 0, 10
|34, 24, 49, 0, 81, 0, 11, 0, 0, 0, 3, 0, 0, 40, 43, 31, 64, 0, 0, 0, 19, 0, 0, 45, 28, 0, 61, 70, 0, 30, 1, 33, 77, 0, 0, 0, 37, 75, 9, 0, 0, 0, 8, 0, 23, 41, 0, 0, 0, 80, 53, 71, 50, 46, 48, 65, 0, 54, 0, 44, 0, 5, 0, 0, 0, 6, 0, 0, 0, 0, 0, 16, 79, 22, 0, 0, 2, 0, 25, 76, 20
|75, 61, 50, 1, 0, 12, 0, 52, 19, 60, 0, 0, 0, 0, 69, 0, 5, 68, 0, 0, 0, 0, 41, 0, 0, 0, 78, 32, 0, 0, 0, 10, 0, 0, 34, 0, 38, 0, 0, 15, 67, 6, 0, 72, 0, 65, 4, 0, 30, 0, 0, 0, 28, 0, 0, 8, 0, 0, 66, 79, 9, 0, 2, 45, 0, 0, 0, 0, 44, 14, 57, 54, 29, 3, 0, 0, 53, 27, 0, 40, 0
|73, 22, 17, 32, 0, 14, 0, 0, 0, 23, 0, 74, 0, 0, 0, 6, 8, 26, 0, 0, 0, 33, 0, 0, 0, 0, 30, 0, 20, 0, 0, 0, 0, 0, 0, 0, 0, 0, 46, 0, 48, 28, 0, 0, 0, 0, 0, 66, 0, 0, 0, 0, 0, 61, 77, 60, 0, 0, 52, 0, 0, 0, 67, 0, 1, 12, 37, 24, 5, 2, 0, 53, 57, 42, 36, 0, 0, 4, 51, 0, 0
|0, 66, 31, 8, 0, 36, 0, 0, 42, 0, 0, 33, 53, 73, 52, 2, 80, 30, 0, 0, 0, 0, 0, 11, 0, 0, 0, 0, 0, 71, 63, 46, 0, 75, 7, 0, 0, 0, 0, 0, 58, 0, 79, 76, 0, 51, 0, 34, 43, 57, 0, 47, 0, 0, 69, 78, 64, 0, 17, 0, 29, 4, 37, 9, 27, 0, 26, 0, 0, 19, 0, 0, 0, 0, 68, 59, 0, 0, 0, 70, 0
|53, 34, 58, 0, 37, 75, 4, 3, 50, 0, 39, 56, 31, 0, 23, 0, 16, 46, 22, 0, 0, 0, 0, 0, 0, 0, 63, 71, 9, 51, 0, 0, 41, 18, 0, 0, 8, 0, 0, 0, 81, 77, 0, 10, 30, 45, 0, 0, 54, 0, 0, 28, 0, 1, 0, 52, 15, 0, 0, 0, 0, 0, 35, 76, 0, 0, 60, 5, 6, 0, 0, 26, 73, 0, 0, 36, 0, 0, 33, 19, 0
|78, 0, 64, 0, 0, 15, 0, 60, 31, 71, 4, 53, 73, 0, 0, 0, 0, 2, 0, 0, 0, 24, 0, 28, 0, 0, 48, 0, 0, 22, 0, 0, 32, 0, 37, 0, 79, 17, 0, 45, 9, 46, 55, 57, 0, 44, 34, 59, 13, 0, 0, 23, 5, 0, 20, 77, 67, 0, 10, 26, 0, 6, 40, 18, 41, 0, 0, 80, 0, 0, 0, 0, 0, 12, 0, 29, 51, 0, 0, 39, 0
|38, 77, 0, 0, 0, 0, 70, 67, 0, 0, 42, 0, 0, 79, 18, 0, 1, 5, 44, 0, 0, 0, 80, 0, 0, 0, 0, 0, 48, 0, 43, 0, 63, 0, 54, 11, 2, 0, 73, 64, 69, 0, 78, 52, 0, 47, 0, 30, 4, 0, 0, 0, 0, 0, 0, 50, 53, 27, 0, 57, 24, 36, 0, 62, 0, 51, 0, 9, 0, 0, 17, 0, 0, 0, 0, 0, 0, 21, 81, 0, 0
|10, 0, 0, 0, 26, 0, 56, 25, 0, 0, 0, 0, 12, 66, 0, 0, 0, 0, 41, 36, 79, 0, 0, 39, 9, 38, 34, 0, 0, 59, 0, 0, 0, 64, 0, 1, 18, 0, 28, 0, 7, 0, 35, 0, 0, 69, 0, 49, 60, 0, 0, 0, 0, 77, 22, 3, 0, 0, 0, 63, 0, 19, 32, 23, 0, 0, 52, 0, 67, 0, 0, 0, 0, 0, 13, 24, 50, 2, 0, 57, 0
|48, 20, 0, 2, 0, 0, 0, 72, 45, 70, 0, 0, 3, 0, 51, 33, 62, 0, 73, 0, 59, 0, 50, 64, 29, 31, 57, 0, 5, 6, 0, 0, 8, 23, 39, 0, 0, 22, 0, 0, 63, 54, 0, 0, 40, 0, 0, 10, 27, 24, 81, 0, 0, 74, 30, 0, 0, 9, 0, 46, 0, 14, 61, 0, 53, 0, 0, 0, 0, 32, 0, 77, 0, 78, 0, 0, 60, 69, 0, 41, 0
|0, 63, 18, 0, 0, 54, 59, 13, 0, 0, 0, 52, 0, 80, 7, 69, 0, 6, 23, 33, 0, 81, 0, 43, 0, 51, 3, 75, 34, 0, 0, 0, 0, 36, 0, 0, 0, 0, 0, 47, 39, 61, 0, 14, 0, 0, 38, 70, 0, 65, 31, 0, 20, 0, 0, 0, 49, 0, 48, 8, 71, 60, 0, 0, 44, 29, 55, 0, 73, 0, 24, 37, 0, 5, 10, 22, 28, 30, 0, 0, 0
|0, 65, 0, 0, 0, 0, 0, 0, 0, 0, 0, 27, 0, 13, 57, 78, 55, 0, 1, 76, 30, 0, 20, 19, 0, 21, 56, 42, 0, 77, 0, 0, 0, 58, 0, 0, 6, 80, 41, 0, 34, 0, 0, 68, 0, 66, 0, 3, 0, 0, 72, 0, 75, 50, 0, 0, 70, 17, 0, 29, 51, 0, 54, 0, 0, 0, 59, 0, 49, 39, 0, 0, 0, 0, 0, 0, 61, 53, 0, 67, 0
|23, 0, 29, 40, 0, 0, 0, 0, 0, 44, 34, 0, 63, 0, 0, 24, 36, 10, 0, 17, 45, 26, 0, 60, 7, 68, 0, 50, 69, 0, 33, 72, 38, 0, 12, 0, 43, 0, 0, 71, 0, 0, 0, 3, 62, 56, 0, 64, 16, 0, 67, 53, 32, 58, 0, 11, 0, 37, 0, 0, 0, 0, 79, 70, 22, 75, 78, 0, 61, 1, 0, 57, 18, 76, 77, 54, 0, 0, 35, 0, 0
|0, 0, 0, 0, 0, 73, 17, 0, 0, 22, 0, 0, 75, 0, 0, 0, 0, 65, 0, 53, 52, 0, 42, 0, 69, 6, 0, 21, 0, 0, 15, 0, 0, 0, 0, 47, 0, 0, 32, 58, 0, 0, 0, 0, 0, 37, 63, 80, 0, 25, 26, 0, 9, 78, 13, 33, 43, 0, 0, 0, 74, 39, 0, 0, 10, 79, 0, 0, 0, 0, 0, 3, 14, 0, 0, 0, 0, 0, 0, 0, 7
|22, 19, 0, 58, 66, 18, 0, 2, 70, 0, 14, 0, 44, 77, 0, 9, 0, 73, 31, 0, 75, 0, 25, 0, 0, 0, 43, 54, 17, 0, 74, 30, 0, 8, 0, 0, 53, 35, 0, 20, 0, 40, 29, 78, 34, 7, 0, 42, 46, 0, 0, 3, 0, 0, 63, 0, 65, 57, 72, 23, 0, 0, 0, 0, 48, 67, 0, 0, 0, 56, 0, 69, 76, 36, 47, 28, 80, 39, 59, 0, 0
|0, 0, 26, 80, 0, 77, 0, 31, 33, 36, 0, 45, 0, 0, 0, 0, 0, 48, 49, 0, 53, 0, 8, 32, 0, 39, 65, 0, 55, 0, 0, 78, 0, 0, 24, 2, 0, 0, 37, 0, 0, 68, 0, 58, 0, 0, 30, 0, 0, 75, 0, 0, 23, 0, 7, 0, 0, 34, 0, 0, 59, 1, 0, 0, 71, 76, 72, 0, 0, 21, 64, 15, 44, 50, 46, 0, 0, 35, 0, 0, 0
|7, 21, 0, 0, 59, 28, 55, 0, 6, 17, 0, 0, 0, 0, 0, 0, 0, 78, 0, 0, 64, 0, 0, 67, 1, 0, 0, 0, 72, 0, 18, 58, 0, 0, 0, 80, 14, 66, 0, 75, 0, 15, 0, 0, 38, 0, 0, 13, 0, 47, 0, 65, 0, 0, 3, 71, 0, 33, 0, 0, 0, 0, 51, 0, 5, 57, 0, 0, 0, 36, 0, 0, 0, 0, 8, 0, 41, 0, 9, 0, 0
|0, 3, 15, 0, 0, 78, 53, 8, 0, 75, 10, 72, 20, 0, 0, 13, 81, 33, 0, 0, 74, 0, 54, 0, 0, 2, 0, 0, 0, 0, 71, 0, 7, 0, 70, 0, 0, 0, 0, 0, 0, 0, 0, 0, 1, 43, 0, 0, 0, 0, 27, 0, 22, 0, 9, 38, 55, 79, 0, 14, 36, 0, 31, 25, 30, 0, 0, 0, 0, 65, 37, 47, 0, 77, 26, 68, 0, 0, 18, 73, 29
|74, 0, 68, 0, 0, 25, 13, 12, 0, 0, 52, 32, 0, 34, 41, 79, 0, 54, 26, 0, 0, 15, 0, 0, 16, 0, 20, 66, 0, 4, 37, 61, 36, 0, 81, 75, 0, 48, 0, 19, 0, 0, 69, 62, 0, 0, 0, 0, 0, 28, 14, 2, 0, 0, 35, 80, 8, 67, 0, 43, 0, 49, 5, 0, 0, 0, 0, 17, 0, 6, 45, 0, 72, 0, 70, 7, 64, 65, 56, 33, 0
|41, 0, 0, 45, 0, 0, 63, 0, 51, 5, 0, 0, 0, 67, 59, 0, 0, 80, 0, 0, 33, 35, 0, 12, 18, 0, 68, 56, 64, 1, 47, 0, 28, 0, 0, 0, 9, 0, 72, 0, 0, 0, 27, 71, 0, 34, 24, 53, 36, 0, 44, 0, 0, 69, 0, 0, 62, 46, 21, 48, 17, 11, 0, 13, 3, 40, 0, 77, 0, 0, 78, 0, 0, 60, 20, 58, 54, 0, 0, 0, 38
|0, 75, 65, 0, 0, 0, 40, 0, 0, 0, 64, 18, 39, 24, 22, 47, 0, 0, 45, 0, 73, 6, 5, 80, 63, 41, 0, 0, 0, 0, 20, 0, 48, 0, 10, 0, 0, 0, 74, 0, 8, 59, 0, 33, 0, 0, 0, 50, 12, 0, 0, 0, 1, 0, 60, 26, 54, 68, 76, 4, 58, 42, 0, 2, 0, 0, 0, 35, 70, 29, 0, 66, 0, 13, 67, 0, 57, 0, 0, 17, 0
|0, 69, 0, 0, 1, 0, 0, 0, 49, 61, 26, 55, 0, 15, 16, 68, 25, 42, 0, 0, 76, 0, 0, 34, 13, 46, 0, 0, 43, 0, 59, 0, 27, 0, 32, 53, 0, 0, 0, 0, 18, 0, 0, 0, 77, 79, 0, 8, 78, 0, 0, 80, 6, 57, 0, 56, 50, 0, 73, 74, 0, 0, 0, 0, 0, 0, 0, 44, 0, 0, 19, 0, 10, 71, 40, 48, 3, 62, 31, 45, 2
|27, 0, 36, 34, 60, 0, 0, 10, 0, 0, 0, 58, 0, 0, 0, 40, 66, 56, 51, 0, 0, 0, 47, 0, 0, 7, 37, 57, 0, 0, 6, 0, 65, 0, 15, 19, 0, 0, 23, 63, 0, 2, 0, 81, 0, 4, 0, 0, 0, 0, 41, 54, 59, 0, 0, 61, 0, 0, 29, 70, 64, 20, 30, 73, 55, 8, 0, 0, 16, 0, 0, 9, 0, 14, 49, 32, 0, 0, 0, 75, 25
|20, 51, 0, 0, 3, 0, 24, 21, 0, 0, 18, 63, 0, 0, 10, 81, 73, 0, 35, 40, 0, 44, 0, 29, 0, 0, 0, 53, 0, 49, 52, 0, 46, 0, 43, 0, 33, 0, 0, 23, 62, 0, 61, 0, 45, 0, 0, 0, 0, 27, 0, 69, 0, 13, 64, 0, 25, 11, 7, 58, 8, 30, 0, 0, 50, 0, 4, 68, 36, 0, 0, 55, 47, 74, 59, 0, 0, 0, 78, 34, 22
|66, 0, 0, 0, 0, 0, 0, 56, 0, 0, 20, 0, 0, 0, 0, 15, 39, 53, 0, 0, 0, 0, 0, 0, 0, 0, 0, 64, 67, 45, 0, 73, 47, 10, 0, 35, 0, 0, 70, 0, 0, 0, 0, 0, 13, 42, 40, 18, 11, 0, 0, 68, 24, 0, 57, 22, 26, 0, 2, 77, 0, 0, 69, 44, 46, 1, 0, 0, 0, 0, 9, 33, 49, 0, 0, 0, 0, 38, 0, 55, 0
|0, 0, 41, 6, 0, 0, 22, 47, 35, 74, 71, 34, 0, 52, 58, 0, 0, 0, 0, 0, 48, 0, 0, 0, 51, 0, 0, 30, 26, 16, 55, 0, 0, 0, 0, 18, 0, 0, 5, 24, 44, 3, 4, 0, 0, 38, 0, 31, 79, 50, 0, 67, 0, 14, 23, 0, 0, 0, 68, 10, 0, 73, 0, 0, 15, 0, 0, 0, 2, 43, 54, 64, 13, 63, 25, 0, 11, 0, 0, 80, 0
|77, 0, 75, 0, 0, 0, 8, 0, 0, 54, 0, 64, 26, 65, 0, 0, 0, 0, 0, 0, 0, 0, 0, 0, 0, 0, 42, 61, 13, 0, 0, 0, 66, 0, 11, 78, 0, 74, 0, 27, 0, 0, 34, 0, 0, 60, 28, 71, 21, 48, 22, 0, 0, 0, 0, 0, 29, 31, 0, 0, 0, 0, 0, 47, 51, 0, 32, 0, 35, 62, 18, 0, 0, 46, 0, 33, 70, 3, 73, 0, 45
|54, 23, 0, 14, 42, 0, 0, 34, 39, 28, 0, 0, 0, 0, 1, 0, 24, 0, 0, 74, 0, 57, 0, 0, 36, 0, 47, 8, 58, 0, 27, 0, 22, 48, 51, 69, 0, 50, 66, 73, 68, 0, 46, 64, 0, 0, 0, 35, 0, 62, 4, 72, 0, 49, 0, 0, 0, 78, 0, 52, 0, 76, 0, 0, 45, 3, 0, 0, 79, 10, 0, 61, 0, 0, 0, 12, 0, 26, 0, 21, 0
|31, 9, 28, 15, 46, 0, 25, 65, 0, 59, 0, 0, 0, 0, 0, 0, 0, 3, 0, 0, 56, 0, 26, 0, 12, 0, 23, 76, 74, 0, 0, 57, 0, 0, 42, 0, 0, 0, 0, 69, 0, 0, 37, 0, 10, 0, 54, 0, 47, 39, 0, 5, 43, 0, 45, 51, 38, 0, 0, 20, 0, 0, 4, 0, 49, 30, 0, 63, 78, 71, 0, 0, 2, 0, 48, 44, 18, 32, 40, 0, 0
|0, 0, 0, 0, 49, 19, 0, 11, 0, 37, 9, 4, 0, 61, 31, 0, 0, 0, 0, 24, 0, 45, 73, 0, 0, 66, 0, 0, 0, 34, 79, 0, 54, 2, 1, 36, 78, 51, 0, 0, 21, 8, 30, 0, 20, 10, 46, 0, 0, 0, 0, 0, 53, 0, 80, 0, 28, 0, 0, 17, 70, 43, 0, 77, 76, 72, 0, 81, 22, 13, 60, 0, 42, 69, 29, 57, 67, 16, 68, 71, 50
|70, 0, 38, 43, 72, 27, 0, 0, 0, 0, 78, 0, 0, 0, 48, 55, 11, 75, 0, 49, 62, 77, 0, 22, 3, 0, 0, 0, 63, 0, 0, 68, 0, 31, 60, 0, 56, 0, 0, 57, 0, 0, 0, 54, 42, 0, 0, 0, 45, 58, 0, 33, 8, 66, 59, 74, 19, 0, 0, 67, 46, 71, 44, 0, 0, 16, 39, 0, 23, 0, 0, 0, 0, 0, 0, 0, 81, 79, 14, 24, 51
|29, 55, 4, 53, 0, 1, 36, 78, 18, 0, 0, 0, 0, 45, 0, 51, 0, 0, 81, 14, 68, 0, 0, 30, 11, 0, 0, 19, 0, 0, 0, 0, 59, 0, 71, 0, 17, 76, 0, 79, 0, 60, 0, 22, 0, 0, 23, 0, 32, 74, 12, 61, 0, 0, 0, 37, 0, 41, 27, 42, 0, 0, 21, 0, 0, 69, 73, 0, 0, 57, 0, 52, 0, 10, 9, 43, 0, 0, 15, 0, 0
|0, 0, 0, 0, 47, 0, 35, 27, 1, 0, 51, 0, 0, 0, 15, 0, 0, 63, 33, 0, 0, 53, 22, 75, 49, 0, 52, 26, 0, 0, 0, 0, 0, 14, 6, 24, 46, 5, 80, 72, 0, 0, 2, 0, 7, 0, 25, 44, 0, 66, 0, 0, 0, 67, 0, 0, 68, 0, 0, 64, 0, 0, 0, 55, 0, 0, 10, 0, 21, 0, 71, 36, 61, 16, 0, 38, 0, 0, 13, 0, 57
|60, 64, 0, 0, 0, 57, 31, 70, 21, 13, 0, 0, 0, 0, 0, 0, 53, 0, 29, 0, 0, 14, 0, 0, 0, 62, 0, 1, 0, 0, 81, 74, 0, 0, 0, 54, 66, 0, 0, 42, 0, 35, 0, 0, 33, 28, 73, 69, 0, 11, 0, 79, 48, 0, 39, 0, 0, 52, 8, 80, 0, 0, 50, 68, 0, 0, 56, 67, 65, 0, 0, 58, 59, 19, 22, 5, 0, 18, 0, 36, 71
|79, 18, 0, 0, 0, 51, 76, 0, 0, 0, 2, 38, 0, 30, 0, 3, 0, 0, 0, 61, 9, 48, 4, 0, 0, 0, 1, 58, 0, 69, 39, 0, 0, 0, 0, 22, 73, 63, 43, 52, 0, 0, 77, 45, 19, 0, 0, 0, 0, 10, 0, 37, 34, 5, 0, 13, 0, 0, 33, 27, 31, 26, 71, 75, 14, 60, 0, 47, 0, 0, 28, 29, 0, 0, 0, 0, 0, 66, 12, 53, 0
|28, 80, 40, 23, 0, 30, 0, 0, 7, 26, 62, 0, 0, 18, 33, 0, 0, 76, 64, 81, 5, 0, 35, 0, 71, 0, 0, 0, 0, 0, 29, 0, 0, 77, 3, 38, 0, 0, 34, 0, 59, 27, 0, 0, 24, 0, 0, 0, 41, 0, 60, 0, 17, 53, 0, 14, 0, 69, 54, 0, 0, 37, 0, 32, 0, 0, 0, 61, 57, 0, 22, 0, 51, 0, 73, 10, 20, 0, 55, 0, 78
|12, 67, 13, 0, 20, 0, 81, 15, 0, 68, 0, 73, 0, 74, 0, 75, 0, 22, 56, 66, 0, 0, 65, 0, 0, 57, 0, 72, 0, 17, 40, 0, 0, 0, 18, 0, 0, 0, 0, 37, 0, 0, 50, 32, 0, 31, 21, 14, 6, 0, 0, 0, 35, 0, 19, 0, 41, 61, 0, 0, 55, 58, 47, 30, 33, 0, 0, 0, 0, 77, 0, 23, 28, 26, 0, 0, 46, 0, 2, 1, 3
|0, 78, 5, 0, 0, 0, 72, 0, 0, 0, 0, 71, 14, 0, 56, 39, 28, 36, 0, 0, 0, 7, 0, 47, 0, 0, 54, 20, 37, 0, 0, 0, 0, 0, 0, 57, 0, 0, 0, 6, 0, 44, 10, 0, 0, 0, 27, 2, 0, 0, 0, 0, 0, 45, 0, 16, 1, 48, 0, 3, 0, 74, 70, 41, 0, 0, 0, 8, 0, 0, 0, 13, 33, 52, 31, 17, 0, 80, 21, 0, 0
|44, 50, 0, 0, 0, 0, 52, 0, 0, 77, 57, 0, 65, 0, 0, 29, 19, 69, 0, 12, 0, 2, 39, 0, 32, 59, 0, 27, 46, 67, 62, 0, 45, 0, 0, 0, 0, 0, 0, 31, 0, 0, 18, 0, 0, 0, 0, 0, 0, 0, 0, 15, 47, 4, 38, 0, 9, 36, 34, 0, 22, 23, 78, 0, 66, 0, 0, 0, 11, 54, 6, 0, 0, 64, 0, 63, 0, 0, 0, 79, 0
|49, 48, 59, 68, 0, 24, 0, 14, 65, 32, 0, 0, 52, 17, 0, 12, 0, 1, 60, 0, 0, 0, 0, 27, 0, 0, 0, 0, 4, 10, 0, 0, 64, 7, 0, 0, 36, 3, 56, 0, 55, 0, 0, 0, 22, 0, 71, 0, 33, 0, 0, 40, 78, 42, 0, 67, 0, 29, 0, 0, 53, 0, 15, 0, 0, 20, 35, 76, 38, 0, 0, 0, 0, 0, 75, 0, 0, 0, 41, 69, 8
|0, 43, 53, 0, 0, 10, 19, 38, 56, 47, 0, 0, 21, 27, 0, 4, 0, 0, 24, 63, 37, 0, 0, 0, 0, 55, 0, 9, 36, 0, 2, 80, 0, 0, 0, 71, 1, 81, 0, 41, 15, 0, 23, 67, 64, 0, 52, 0, 75, 0, 0, 0, 65, 0, 18, 42, 0, 5, 60, 0, 0, 0, 0, 69, 26, 0, 0, 39, 0, 12, 48, 0, 77, 30, 76, 34, 0, 58, 0, 25, 0
|0, 0, 0, 0, 0, 0, 34, 0, 13, 73, 0, 0, 0, 0, 60, 0, 0, 64, 15, 0, 0, 37, 0, 0, 70, 0, 0, 6, 22, 0, 50, 0, 12, 80, 0, 0, 0, 0, 0, 59, 0, 72, 7, 38, 18, 0, 77, 0, 69, 67, 0, 0, 2, 21, 49, 5, 16, 0, 0, 0, 45, 31, 41, 52, 75, 19, 8, 0, 0, 0, 58, 0, 78, 47, 24, 0, 0, 0, 79, 0, 68
|0, 40, 0, 0, 0, 60, 14, 23, 0, 0, 0, 0, 0, 0, 0, 0, 34, 0, 0, 42, 0, 1, 28, 0, 0, 0, 36, 0, 0, 31, 0, 51, 0, 9, 57, 79, 15, 45, 0, 13, 0, 62, 0, 0, 0, 39, 0, 73, 0, 17, 6, 43, 44, 41, 0, 0, 0, 8, 0, 0, 12, 0, 26, 50, 20, 0, 21, 49, 0, 0, 61, 0, 0, 56, 2, 0, 25, 0, 32, 0, 0
|45, 31, 0, 0, 0, 0, 51, 0, 15, 52, 13, 0, 37, 26, 0, 0, 41, 23, 0, 0, 54, 73, 59, 0, 0, 0, 10, 47, 0, 2, 0, 34, 0, 0, 0, 0, 0, 55, 0, 77, 0, 0, 0, 0, 78, 53, 0, 0, 65, 14, 42, 27, 0, 28, 62, 0, 0, 56, 74, 0, 57, 0, 63, 22, 38, 0, 1, 7, 29, 0, 40, 0, 0, 0, 0, 0, 16, 36, 80, 61, 33
|8, 0, 66, 64, 0, 0, 21, 5, 0, 0, 0, 0, 0, 0, 0, 0, 3, 0, 0, 0, 29, 20, 7, 0, 0, 0, 0, 0, 0, 26, 53, 0, 0, 56, 78, 0, 58, 33, 44, 0, 14, 0, 42, 63, 0, 55, 0, 9, 0, 23, 0, 0, 0, 0, 0, 72, 61, 24, 19, 37, 0, 0, 43, 57, 0, 70, 17, 0, 0, 69, 51, 0, 40, 0, 0, 45, 0, 0, 71, 0, 0
|57, 38, 0, 52, 0, 55, 0, 79, 12, 0, 0, 0, 0, 22, 0, 77, 14, 15, 0, 0, 11, 0, 48, 0, 5, 75, 49, 0, 24, 0, 0, 0, 70, 0, 0, 0, 0, 26, 0, 0, 0, 0, 0, 34, 0, 50, 80, 1, 66, 63, 0, 19, 33, 0, 0, 0, 0, 58, 6, 0, 13, 78, 29, 0, 0, 0, 0, 4, 0, 0, 0, 0, 0, 0, 39, 0, 0, 0, 0, 0, 0
|59, 73, 0, 0, 0, 65, 0, 6, 0, 4, 0, 57, 0, 0, 0, 0, 68, 0, 17, 0, 0, 0, 0, 79, 0, 76, 80, 48, 0, 0, 0, 0, 0, 0, 0, 66, 0, 52, 2, 0, 0, 37, 0, 47, 70, 8, 0, 0, 0, 0, 7, 0, 0, 0, 0, 0, 0, 0, 0, 71, 14, 0, 60, 0, 32, 0, 43, 78, 0, 0, 0, 45, 0, 55, 27, 75, 10, 0, 20, 26, 0
|33, 0, 11, 47, 0, 0, 0, 36, 29, 27, 0, 69, 0, 0, 2, 0, 0, 40, 53, 21, 57, 67, 74, 0, 0, 0, 0, 63, 0, 25, 8, 18, 0, 0, 55, 81, 0, 0, 31, 0, 0, 0, 17, 0, 9, 61, 16, 45, 0, 68, 75, 0, 0, 0, 65, 0, 35, 0, 32, 0, 48, 0, 0, 0, 0, 71, 0, 15, 0, 64, 79, 76, 0, 43, 5, 0, 0, 13, 0, 46, 0
|46, 25, 81, 0, 68, 0, 0, 1, 0, 0, 0, 0, 70, 0, 62, 10, 71, 0, 0, 26, 0, 3, 31, 66, 55, 0, 0, 77, 0, 0, 0, 0, 0, 0, 0, 0, 0, 23, 0, 0, 0, 0, 32, 73, 54, 48, 12, 0, 57, 38, 0, 0, 13, 0, 0, 27, 69, 0, 0, 22, 2, 67, 0, 14, 74, 47, 0, 0, 28, 0, 0, 0, 53, 0, 0, 19, 63, 6, 4, 51, 76
|0, 0, 16, 56, 0, 0, 0, 4, 58, 0, 67, 9, 0, 59, 78, 0, 42, 49, 0, 0, 0, 0, 38, 0, 47, 40, 0, 68, 23, 0, 0, 0, 0, 0, 0, 10, 0, 0, 11, 0, 51, 0, 75, 66, 0, 0, 20, 52, 71, 5, 0, 70, 0, 0, 0, 0, 0, 25, 55, 33, 15, 0, 1, 0, 35, 13, 34, 27, 0, 3, 0, 6, 0, 37, 30, 0, 0, 0, 28, 0, 0
|64, 0, 60, 0, 0, 0, 0, 53, 36, 0, 22, 0, 0, 0, 17, 0, 0, 0, 61, 0, 0, 76, 30, 0, 23, 0, 0, 0, 14, 80, 66, 63, 25, 5, 8, 0, 52, 0, 0, 0, 0, 0, 31, 44, 0, 21, 0, 33, 34, 54, 16, 24, 74, 0, 0, 0, 77, 73, 43, 0, 0, 56, 39, 0, 59, 55, 0, 40, 0, 48, 35, 0, 0, 0, 0, 18, 0, 0, 0, 29, 0
|0, 33, 0, 67, 29, 48, 27, 0, 4, 0, 76, 19, 0, 0, 0, 0, 0, 11, 0, 0, 80, 21, 24, 0, 0, 0, 0, 65, 42, 18, 0, 0, 35, 37, 0, 77, 0, 0, 0, 0, 0, 0, 62, 46, 0, 52, 1, 38, 59, 0, 0, 44, 0, 0, 70, 34, 0, 0, 12, 0, 0, 0, 66, 15, 0, 56, 79, 0, 8, 0, 23, 0, 0, 0, 45, 47, 0, 61, 36, 0, 0
|0, 13, 73, 0, 8, 0, 62, 66, 0, 7, 68, 21, 0, 57, 12, 0, 0, 0, 0, 44, 0, 41, 0, 71, 64, 0, 0, 0, 33, 0, 0, 0, 0, 45, 0, 9, 0, 32, 0, 29, 2, 0, 49, 0, 0, 11, 35, 47, 0, 0, 0, 0, 79, 51, 0, 40, 5, 0, 0, 36, 27, 24, 80, 37, 63, 78, 16, 0, 39, 0, 0, 1, 54, 67, 50, 25, 0, 20, 0, 28, 48
|37, 0, 70, 50, 54, 0, 0, 0, 0, 24, 0, 0, 79, 0, 13, 52, 0, 0, 62, 0, 0, 0, 0, 0, 0, 35, 31, 0, 71, 36, 16, 0, 0, 26, 0, 40, 0, 0, 30, 65, 0, 18, 0, 20, 0, 0, 72, 0, 0, 0, 66, 17, 39, 0, 0, 0, 7, 0, 0, 45, 69, 0, 0, 0, 0, 0, 0, 57, 77, 0, 21, 0, 0, 0, 0, 0, 0, 23, 42, 60, 0
|1, 10, 47, 41, 45, 22, 65, 0, 0, 2, 0, 0, 27, 0, 39, 0, 31, 0, 0, 8, 78, 74, 0, 16, 54, 63, 0, 51, 0, 0, 34, 0, 0, 29, 59, 0, 35, 7, 0, 50, 0, 0, 0, 0, 0, 25, 36, 5, 14, 0, 0, 76, 37, 64, 21, 32, 0, 0, 0, 53, 72, 0, 55, 0, 0, 61, 0, 19, 69, 0, 62, 60, 17, 75, 0, 0, 30, 0, 46, 3, 0
|0, 11, 0, 0, 38, 0, 0, 77, 14, 0, 28, 0, 0, 1, 0, 36, 78, 0, 65, 0, 0, 10, 0, 0, 0, 58, 0, 55, 54, 0, 0, 47, 13, 0, 0, 0, 39, 12, 0, 0, 74, 45, 0, 5, 69, 75, 42, 22, 0, 0, 0, 18, 0, 63, 0, 48, 0, 59, 0, 0, 76, 0, 62, 0, 0, 0, 25, 0, 72, 20, 0, 0, 16, 7, 0, 41, 52, 0, 44, 0, 21
|0, 0, 0, 19, 0, 6, 75, 0, 57, 45, 41, 25, 66, 0, 5, 23, 69, 29, 3, 46, 0, 0, 40, 48, 0, 70, 0, 67, 1, 12, 7, 39, 10, 62, 72, 0, 61, 0, 0, 0, 76, 0, 59, 42, 0, 0, 2, 78, 0, 0, 0, 20, 26, 0, 0, 68, 52, 16, 35, 0, 0, 0, 0, 0, 0, 36, 47, 0, 0, 0, 44, 0, 37, 0, 0, 0, 74, 56, 8, 0, 0
|0, 26, 3, 0, 0, 40, 0, 74, 81, 35, 49, 0, 48, 16, 55, 8, 77, 47, 0, 0, 6, 36, 0, 59, 37, 0, 7, 79, 0, 15, 76, 0, 2, 78, 21, 61, 60, 0, 0, 38, 17, 34, 0, 53, 27, 0, 43, 57, 0, 31, 0, 13, 0, 0, 71, 0, 4, 22, 63, 19, 0, 65, 0, 0, 24, 0, 0, 51, 0, 0, 73, 0, 64, 0, 14, 72, 0, 0, 0, 0, 0
|58, 0, 21, 44, 0, 23, 42, 9, 2, 33, 0, 60, 0, 0, 72, 0, 0, 14, 66, 0, 0, 17, 0, 0, 39, 0, 69, 11, 27, 19, 0, 0, 0, 0, 0, 0, 0, 28, 0, 0, 47, 0, 0, 55, 75, 0, 0, 12, 81, 61, 56, 0, 45, 0, 0, 0, 0, 0, 51, 31, 0, 0, 0, 0, 0, 22, 5, 74, 52, 76, 0, 0, 0, 73, 0, 35, 24, 34, 63, 0, 13|];