order = 9;
grid = [|60, 40, 0, 0, 0, 27, 0, 0, 7, 0, 68, 37, 0, 36, 11, 45, 0, 35, 0, 76, 47, 66, 16, 3, 0, 0, 0, 57, 71, 0, 74, 14, 0, 0, 0, 0, 52, 0, 61, 0, 32, 0, 9, 48, 0, 18, 0, 39, 24, 0, 0, 0, 58, 0, 0, 0, 0, 0, 51, 0, 17, 26, 0, 0, 80, 0, 0, 0, 25, 0, 0, 0, 78, 53, 75, 63, 0, 42, 0, 0, 65
|76, 59, 34, 0, 53, 0, 17, 0, 0, 0, 0, 30, 0, 0, 0, 0, 51, 0, 26, 0, 0, 0, 24, 2, 0, 0, 0, 42, 50, 63, 65, 58, 0, 72, 0, 0, 0, 79, 55, 0, 0, 64, 13, 0, 41, 0, 0, 0, 0, 0, 0, 69, 0, 0, 61, 20, 49, 0, 48, 21, 52, 37, 66, 29, 67, 0, 0, 11, 0, 44, 39, 0, 56, 43, 0, 0, 0, 36, 73, 22, 0
|0, 29, 66, 48, 0, 0, 0, 0, 0, 0, 0, 23, 0, 0, 0, 0, 0, 0, 0, 0, 77, 0, 73, 11, 58, 0, 7, 0, 17, 70, 75, 0, 0, 0, 81, 0, 25, 0, 80, 60, 0, 36, 35, 54, 2, 63, 78, 0, 9, 42, 0, 20, 0, 0, 0, 40, 0, 0, 0, 0, 39, 22, 0, 0, 0, 0, 62, 50, 0, 14, 34, 43, 72, 0, 0, 32, 0, 0, 49, 0, 0
|0, 36, 0, 0, 0, 0, 15, 39, 0, 75, 38, 0, 0, 0, 0, 0, 66, 0, 31, 0, 0, 17, 0, 13, 0, 60, 42, 33, 5, 0, 8, 0, 0, 0, 35, 26, 0, 0, 11, 72, 23, 73, 0, 0, 47, 49, 0, 46, 0, 0, 0, 62, 59, 64, 0, 0, 27, 0, 19, 0, 0, 0, 56, 54, 71, 0, 41, 53, 0, 30, 3, 32, 0, 20, 81, 0, 0, 18, 0, 24, 29
|33, 35, 62, 0, 52, 41, 75, 26, 0, 0, 0, 21, 0, 0, 0, 0, 31, 0, 61, 5, 68, 0, 72, 27, 0, 0, 0, 53, 0, 0, 0, 7, 80, 0, 0, 0, 74, 0, 0, 0, 78, 0, 0, 0, 0, 10, 0, 0, 66, 0, 0, 34, 50, 0, 3, 32, 0, 8, 36, 2, 73, 0, 69, 17, 0, 0, 0, 0, 59, 24, 48, 55, 58, 0, 76, 0, 0, 0, 47, 45, 40
|45, 74, 0, 0, 0, 0, 0, 0, 0, 8, 0, 0, 4, 0, 34, 58, 0, 0, 69, 0, 0, 0, 0, 0, 0, 50, 0, 0, 0, 0, 38, 79, 0, 0, 2, 30, 27, 0, 0, 20, 0, 3, 29, 0, 0, 0, 0, 0, 0, 0, 60, 43, 0, 17, 0, 0, 24, 28, 78, 0, 0, 77, 63, 37, 47, 0, 73, 1, 10, 0, 81, 72, 31, 54, 15, 39, 0, 0, 64, 68, 0
|0, 44, 10, 0, 13, 64, 0, 0, 0, 0, 56, 0, 54, 53, 0, 0, 0, 0, 35, 0, 0, 37, 0, 33, 4, 0, 0, 0, 0, 0, 36, 0, 39, 45, 24, 43, 0, 30, 0, 68, 0, 17, 31, 0, 42, 0, 0, 81, 72, 0, 0, 0, 0, 14, 0, 0, 0, 0, 6, 0, 11, 0, 58, 0, 0, 38, 51, 0, 40, 27, 0, 0, 69, 0, 0, 34, 46, 3, 28, 1, 0
|72, 61, 0, 8, 37, 77, 0, 0, 0, 78, 0, 71, 55, 0, 0, 29, 0, 13, 62, 0, 0, 65, 0, 40, 45, 39, 59, 76, 20, 0, 3, 48, 0, 0, 73, 0, 0, 0, 6, 56, 0, 5, 21, 0, 24, 79, 32, 0, 16, 28, 11, 0, 0, 0, 41, 0, 0, 0, 0, 0, 34, 0, 68, 36, 0, 23, 18, 0, 22, 0, 0, 0, 0, 0, 0, 0, 0, 0, 52, 74, 27
|24, 20, 0, 78, 47, 51, 54, 0, 0, 27, 0, 1, 33, 0, 73, 42, 0, 39, 21, 38, 30, 0, 22, 70, 74, 0, 0, 66, 37, 29, 49, 67, 0, 0, 11, 59, 0, 53, 0, 10, 0, 0, 26, 45, 0, 13, 3, 0, 0, 0, 0, 0, 80, 0, 0, 0, 55, 0, 72, 23, 0, 81, 0, 0, 0, 0, 0, 0, 63, 77, 0, 0, 2, 16, 0, 0, 48, 0, 25, 44, 57
|0, 0, 0, 0, 0, 0, 0, 33, 67, 69, 32, 0, 0, 0, 26, 28, 55, 0, 40, 0, 0, 73, 0, 0, 0, 0, 0, 0, 0, 0, 0, 3, 72, 0, 0, 63, 61, 0, 46, 0, 0, 71, 23, 20, 13, 44, 0, 79, 31, 0, 77, 0, 0, 47, 16, 0, 0, 0, 14, 45, 0, 19, 8, 0, 0, 0, 34, 0, 75, 58, 60, 0, 0, 4, 48, 0, 30, 7, 68, 0, 39
|50, 17, 42, 77, 79, 0, 0, 76, 0, 23, 0, 0, 0, 0, 60, 31, 14, 0, 0, 0, 0, 56, 35, 0, 37, 0, 3, 34, 0, 41, 0, 0, 70, 0, 0, 15, 64, 59, 40, 0, 0, 55, 0, 1, 28, 0, 53, 0, 69, 0, 20, 0, 0, 0, 0, 36, 66, 72, 29, 73, 0, 7, 0, 68, 0, 0, 0, 0, 24, 63, 0, 0, 0, 78, 0, 19, 0, 74, 18, 0, 8
|19, 0, 0, 0, 44, 0, 25, 72, 59, 81, 1, 0, 38, 0, 0, 0, 80, 0, 0, 0, 45, 0, 0, 55, 36, 34, 0, 75, 47, 0, 62, 0, 67, 68, 0, 0, 0, 0, 42, 0, 9, 0, 0, 22, 0, 30, 0, 74, 0, 0, 0, 0, 40, 0, 0, 63, 60, 0, 0, 10, 0, 79, 52, 0, 53, 57, 0, 0, 0, 0, 70, 0, 76, 2, 0, 73, 31, 0, 3, 0, 66
|0, 0, 0, 0, 55, 75, 0, 32, 62, 68, 0, 33, 59, 0, 21, 24, 76, 9, 12, 0, 61, 0, 60, 44, 78, 28, 0, 45, 0, 17, 48, 0, 0, 0, 13, 22, 0, 72, 54, 0, 67, 66, 0, 0, 0, 1, 34, 0, 0, 10, 0, 64, 0, 7, 0, 0, 41, 69, 74, 0, 18, 65, 0, 0, 0, 0, 36, 0, 0, 51, 30, 0, 25, 81, 0, 71, 0, 0, 0, 0, 0
|0, 30, 39, 0, 0, 14, 0, 0, 68, 0, 8, 43, 64, 71, 0, 0, 4, 0, 0, 0, 0, 74, 0, 0, 0, 0, 0, 0, 27, 0, 29, 54, 0, 46, 32, 50, 10, 2, 75, 65, 34, 0, 0, 3, 0, 0, 35, 61, 13, 0, 0, 0, 0, 73, 0, 0, 21, 5, 0, 48, 0, 0, 25, 31, 0, 0, 0, 59, 0, 0, 0, 0, 62, 40, 0, 55, 0, 0, 56, 53, 0
|0, 56, 40, 80, 0, 69, 58, 74, 8, 30, 0, 50, 0, 34, 0, 73, 0, 0, 68, 0, 24, 0, 53, 54, 0, 7, 0, 0, 26, 12, 20, 6, 51, 36, 78, 9, 0, 38, 48, 21, 0, 0, 0, 81, 0, 0, 15, 0, 0, 39, 0, 0, 5, 0, 59, 0, 77, 0, 0, 13, 0, 0, 70, 66, 11, 71, 25, 0, 0, 42, 0, 2, 0, 0, 10, 0, 33, 0, 61, 0, 0
|0, 23, 0, 0, 16, 0, 0, 45, 6, 0, 75, 15, 10, 2, 74, 11, 67, 65, 0, 0, 0, 0, 0, 76, 18, 4, 70, 0, 53, 69, 59, 39, 25, 66, 0, 0, 0, 36, 0, 0, 79, 0, 8, 68, 63, 21, 0, 0, 71, 0, 27, 0, 42, 0, 0, 28, 0, 49, 34, 0, 0, 40, 0, 52, 77, 7, 0, 0, 44, 35, 0, 0, 0, 0, 0, 64, 0, 43, 0, 0, 0
|0, 34, 60, 0, 18, 0, 71, 41, 28, 0, 72, 0, 5, 52, 0, 79, 0, 0, 0, 0, 63, 48, 0, 17, 0, 21, 10, 0, 65, 0, 0, 44, 24, 0, 0, 61, 0, 0, 74, 7, 25, 76, 77, 51, 37, 0, 81, 2, 23, 0, 8, 0, 0, 68, 0, 0, 0, 0, 55, 0, 20, 31, 0, 46, 0, 40, 0, 0, 0, 0, 0, 0, 50, 0, 59, 0, 14, 75, 0, 0, 35
|0, 0, 0, 35, 10, 38, 0, 0, 0, 0, 17, 0, 45, 0, 42, 0, 39, 0, 8, 71, 66, 59, 0, 49, 57, 0, 0, 18, 40, 5, 81, 0, 76, 14, 0, 0, 69, 60, 31, 53, 0, 78, 0, 52, 0, 0, 0, 0, 51, 54, 0, 0, 0, 0, 0, 0, 62, 0, 2, 3, 43, 4, 1, 33, 0, 72, 0, 0, 74, 48, 0, 67, 6, 0, 9, 79, 0, 80, 34, 0, 22
|0, 68, 0, 31, 0, 66, 64, 0, 74, 0, 20, 0, 0, 0, 0, 0, 0, 0, 70, 0, 23, 9, 0, 26, 0, 0, 0, 0, 19, 34, 0, 0, 62, 15, 0, 3, 0, 48, 0, 0, 0, 39, 7, 0, 0, 42, 0, 17, 0, 0, 0, 0, 0, 78, 0, 0, 81, 59, 0, 16, 0, 0, 0, 27, 0, 0, 38, 71, 0, 0, 0, 0, 18, 0, 49, 0, 13, 0, 0, 57, 76
|52, 63, 12, 0, 0, 0, 36, 16, 0, 18, 0, 74, 0, 0, 0, 4, 40, 0, 48, 0, 0, 0, 0, 64, 39, 75, 69, 0, 0, 0, 7, 56, 0, 26, 0, 0, 70, 0, 0, 0, 0, 28, 0, 0, 46, 37, 71, 73, 10, 15, 0, 0, 0, 22, 0, 0, 0, 61, 0, 32, 0, 0, 0, 0, 14, 6, 11, 0, 0, 1, 44, 76, 51, 0, 66, 0, 0, 0, 0, 17, 3
|0, 0, 0, 19, 0, 0, 0, 0, 0, 54, 0, 0, 0, 14, 0, 0, 3, 16, 59, 31, 35, 51, 0, 28, 61, 79, 0, 77, 0, 11, 18, 46, 0, 53, 21, 38, 0, 0, 26, 0, 0, 0, 57, 4, 0, 29, 0, 56, 0, 0, 75, 0, 70, 0, 12, 0, 0, 55, 0, 0, 0, 0, 0, 0, 0, 0, 0, 40, 78, 69, 45, 0, 0, 47, 0, 62, 0, 0, 32, 0, 72
|0, 0, 29, 10, 0, 0, 8, 0, 81, 0, 0, 44, 0, 70, 0, 5, 25, 0, 0, 18, 0, 49, 0, 0, 65, 0, 13, 0, 0, 16, 0, 1, 0, 32, 0, 0, 0, 75, 33, 71, 0, 61, 40, 35, 27, 0, 0, 0, 38, 20, 0, 0, 0, 67, 69, 0, 0, 0, 66, 0, 0, 68, 0, 21, 30, 0, 56, 47, 62, 3, 55, 9, 0, 15, 0, 42, 0, 54, 37, 0, 34
|17, 70, 0, 0, 0, 0, 0, 0, 0, 38, 60, 80, 0, 0, 33, 75, 0, 63, 0, 62, 0, 0, 0, 0, 10, 0, 72, 44, 39, 78, 0, 61, 73, 0, 20, 0, 0, 0, 51, 0, 0, 0, 0, 0, 0, 6, 8, 14, 28, 0, 13, 0, 45, 0, 0, 0, 48, 0, 0, 34, 0, 0, 37, 0, 79, 66, 31, 41, 0, 0, 0, 0, 0, 12, 40, 36, 52, 46, 27, 0, 0
|55, 69, 51, 0, 49, 0, 65, 0, 0, 22, 0, 78, 0, 26, 79, 0, 0, 50, 71, 0, 5, 0, 36, 0, 0, 45, 0, 0, 28, 81, 0, 41, 0, 0, 29, 0, 21, 0, 10, 0, 0, 0, 0, 77, 32, 66, 1, 0, 0, 57, 0, 0, 27, 0, 62, 0, 44, 0, 0, 0, 14, 8, 0, 0, 0, 16, 75, 0, 0, 0, 25, 64, 0, 67, 0, 0, 80, 0, 0, 0, 0
|18, 79, 0, 62, 7, 0, 41, 0, 11, 0, 0, 0, 56, 0, 0, 6, 73, 0, 0, 0, 0, 80, 33, 68, 0, 0, 53, 48, 51, 30, 76, 31, 0, 49, 47, 0, 0, 0, 0, 9, 59, 0, 0, 66, 34, 25, 0, 32, 26, 0, 58, 0, 0, 52, 5, 74, 57, 77, 0, 54, 15, 0, 0, 0, 0, 50, 0, 22, 0, 67, 37, 0, 0, 0, 70, 65, 45, 0, 0, 81, 0
|0, 73, 22, 43, 33, 0, 26, 53, 4, 0, 0, 0, 0, 35, 0, 0, 0, 0, 0, 37, 58, 34, 0, 0, 2, 44, 0, 40, 0, 24, 0, 72, 66, 0, 50, 10, 63, 0, 62, 67, 64, 0, 54, 0, 65, 0, 0, 0, 80, 11, 0, 41, 9, 0, 0, 0, 0, 0, 0, 27, 0, 78, 0, 0, 12, 74, 0, 81, 0, 15, 0, 39, 0, 0, 0, 0, 61, 77, 5, 79, 6
|44, 0, 0, 0, 38, 9, 0, 75, 0, 46, 81, 32, 0, 66, 27, 41, 0, 15, 6, 0, 17, 54, 3, 0, 0, 0, 0, 55, 60, 67, 71, 65, 0, 0, 37, 33, 0, 56, 24, 52, 0, 0, 18, 30, 0, 72, 0, 35, 34, 0, 43, 61, 0, 0, 40, 51, 13, 0, 80, 0, 0, 64, 0, 10, 0, 5, 0, 68, 0, 29, 28, 0, 0, 73, 0, 2, 0, 0, 39, 0, 21
|0, 32, 0, 0, 34, 46, 9, 0, 48, 0, 0, 0, 0, 5, 43, 0, 0, 71, 2, 0, 0, 61, 20, 24, 0, 6, 0, 15, 0, 0, 0, 37, 0, 78, 28, 80, 44, 0, 60, 0, 10, 0, 65, 0, 35, 62, 66, 0, 0, 0, 0, 0, 0, 79, 0, 0, 4, 16, 59, 47, 0, 3, 0, 0, 0, 0, 0, 26, 27, 0, 0, 29, 0, 8, 0, 0, 0, 21, 0, 25, 0
|12, 0, 0, 30, 31, 4, 0, 0, 75, 0, 26, 0, 68, 0, 72, 0, 0, 0, 0, 35, 0, 15, 0, 0, 23, 5, 21, 63, 0, 0, 11, 0, 1, 0, 14, 0, 0, 0, 56, 0, 0, 0, 38, 0, 36, 0, 0, 0, 48, 55, 10, 40, 61, 0, 0, 66, 0, 20, 0, 65, 0, 0, 71, 0, 0, 54, 0, 0, 0, 0, 42, 73, 28, 0, 0, 0, 79, 29, 0, 0, 0
|0, 0, 0, 41, 0, 79, 0, 0, 0, 0, 51, 58, 0, 0, 8, 25, 0, 0, 0, 68, 0, 0, 0, 0, 0, 0, 76, 0, 81, 0, 5, 4, 0, 3, 38, 2, 49, 0, 0, 0, 0, 0, 0, 0, 0, 0, 0, 36, 35, 65, 0, 42, 14, 0, 0, 0, 63, 0, 0, 0, 37, 0, 0, 0, 24, 56, 0, 61, 64, 21, 72, 0, 10, 0, 0, 0, 66, 15, 0, 0, 0
|8, 0, 0, 0, 14, 0, 23, 0, 40, 0, 0, 59, 0, 0, 75, 0, 0, 56, 0, 0, 37, 0, 0, 60, 62, 53, 73, 50, 35, 0, 26, 55, 0, 9, 0, 0, 0, 5, 76, 0, 0, 30, 20, 0, 0, 16, 33, 24, 74, 71, 3, 0, 0, 0, 0, 0, 43, 0, 54, 61, 0, 46, 15, 32, 31, 79, 0, 0, 39, 0, 17, 63, 0, 13, 0, 0, 6, 64, 0, 0, 78
|0, 37, 0, 0, 0, 73, 0, 0, 65, 55, 15, 77, 0, 45, 50, 0, 0, 0, 43, 0, 33, 8, 0, 51, 12, 66, 74, 29, 0, 48, 0, 0, 31, 0, 42, 0, 0, 41, 9, 0, 63, 0, 59, 0, 52, 53, 0, 0, 4, 0, 0, 32, 0, 0, 0, 0, 40, 58, 0, 0, 0, 57, 17, 67, 68, 62, 0, 5, 11, 10, 71, 81, 0, 19, 24, 0, 0, 60, 0, 23, 0
|0, 58, 0, 0, 57, 19, 0, 17, 0, 4, 0, 62, 0, 0, 81, 0, 0, 0, 7, 0, 59, 26, 0, 42, 77, 3, 65, 10, 0, 25, 66, 0, 64, 56, 6, 0, 0, 0, 0, 40, 73, 70, 0, 0, 78, 51, 11, 0, 0, 60, 5, 0, 0, 0, 33, 0, 80, 31, 8, 0, 36, 0, 24, 0, 0, 0, 0, 9, 14, 13, 74, 23, 0, 63, 27, 0, 47, 41, 46, 0, 0
|54, 0, 50, 76, 0, 10, 0, 0, 24, 74, 37, 63, 0, 0, 0, 39, 0, 0, 0, 0, 18, 16, 0, 0, 69, 81, 0, 0, 49, 0, 60, 0, 0, 0, 75, 0, 0, 58, 68, 66, 0, 0, 55, 0, 51, 0, 0, 0, 0, 22, 0, 19, 0, 13, 64, 0, 32, 79, 30, 35, 42, 72, 0, 0, 0, 25, 12, 0, 15, 0, 0, 59, 1, 0, 0, 48, 40, 9, 62, 61, 0
|0, 18, 5, 0, 0, 0, 0, 0, 56, 11, 0, 46, 7, 0, 9, 36, 0, 0, 0, 13, 79, 0, 0, 0, 72, 54, 38, 0, 74, 43, 0, 0, 16, 65, 12, 39, 14, 50, 0, 61, 31, 0, 62, 0, 45, 2, 0, 27, 0, 80, 73, 0, 0, 28, 0, 68, 0, 1, 53, 0, 6, 75, 10, 8, 70, 0, 35, 60, 3, 37, 76, 47, 0, 0, 0, 0, 0, 44, 0, 20, 0
|21, 3, 25, 36, 0, 0, 33, 0, 42, 34, 0, 10, 0, 73, 35, 60, 0, 0, 56, 0, 71, 0, 29, 0, 14, 47, 9, 0, 61, 0, 72, 13, 27, 0, 0, 0, 16, 0, 79, 23, 0, 0, 37, 15, 4, 8, 58, 0, 0, 0, 41, 54, 0, 0, 38, 45, 0, 0, 0, 0, 0, 0, 0, 0, 48, 55, 65, 77, 0, 66, 0, 30, 32, 0, 51, 43, 76, 0, 75, 5, 68
|62, 0, 6, 0, 64, 24, 21, 12, 0, 0, 0, 41, 77, 51, 78, 27, 11, 0, 0, 54, 15, 0, 0, 0, 0, 36, 17, 0, 57, 0, 0, 19, 0, 0, 76, 56, 0, 0, 30, 70, 74, 0, 0, 0, 0, 0, 0, 0, 0, 4, 0, 0, 32, 0, 0, 2, 25, 14, 0, 0, 31, 71, 0, 13, 0, 0, 22, 0, 29, 72, 0, 18, 0, 48, 0, 44, 39, 45, 0, 0, 0
|0, 76, 28, 0, 0, 23, 31, 20, 0, 0, 0, 81, 0, 0, 0, 49, 74, 1, 0, 66, 29, 0, 40, 62, 0, 48, 51, 25, 0, 0, 2, 0, 37, 54, 44, 0, 50, 0, 32, 6, 71, 0, 52, 0, 9, 26, 0, 70, 53, 8, 0, 27, 41, 0, 0, 34, 0, 0, 12, 0, 0, 33, 18, 0, 19, 0, 46, 0, 0, 56, 0, 79, 0, 69, 0, 17, 77, 0, 21, 0, 0
|0, 0, 78, 0, 40, 26, 0, 27, 5, 0, 0, 12, 0, 9, 0, 54, 0, 70, 0, 0, 0, 19, 76, 0, 0, 18, 0, 71, 0, 42, 15, 0, 74, 39, 3, 0, 0, 0, 0, 0, 33, 0, 46, 0, 0, 0, 0, 0, 0, 0, 31, 0, 0, 0, 0, 0, 0, 45, 0, 0, 8, 29, 41, 0, 0, 0, 24, 17, 0, 75, 43, 0, 0, 35, 0, 0, 0, 0, 20, 0, 16
|77, 55, 14, 0, 0, 0, 0, 0, 0, 0, 67, 0, 37, 16, 0, 0, 71, 0, 38, 41, 0, 27, 0, 0, 0, 74, 0, 43, 79, 75, 0, 70, 0, 0, 58, 24, 42, 0, 0, 51, 80, 34, 0, 21, 3, 61, 0, 0, 54, 72, 0, 0, 56, 5, 39, 64, 23, 62, 13, 63, 7, 0, 0, 0, 0, 0, 0, 0, 49, 0, 12, 0, 36, 60, 0, 47, 0, 0, 0, 0, 0
|0, 41, 0, 0, 0, 58, 0, 0, 44, 33, 0, 0, 0, 69, 15, 72, 43, 21, 0, 0, 64, 60, 0, 20, 0, 0, 0, 61, 0, 49, 31, 36, 0, 0, 0, 66, 0, 76, 0, 0, 62, 75, 0, 0, 73, 55, 0, 13, 0, 0, 0, 0, 65, 3, 48, 17, 10, 46, 0, 0, 26, 28, 0, 0, 32, 14, 0, 0, 0, 6, 16, 7, 79, 37, 0, 0, 67, 0, 53, 0, 5
|0, 0, 0, 69, 0, 0, 4, 0, 71, 13, 0, 18, 0, 42, 65, 34, 26, 48, 0, 12, 21, 0, 0, 0, 0, 70, 45, 0, 0, 0, 0, 64, 77, 60, 46, 0, 15, 78, 16, 2, 24, 0, 0, 28, 14, 0, 52, 57, 0, 25, 1, 36, 44, 66, 0, 0, 73, 0, 47, 0, 61, 0, 0, 0, 8, 0, 0, 63, 55, 0, 31, 51, 0, 0, 72, 29, 0, 62, 30, 0, 75
|0, 0, 48, 0, 42, 0, 0, 38, 0, 0, 61, 0, 75, 0, 0, 32, 0, 0, 80, 72, 3, 0, 44, 56, 73, 0, 16, 5, 0, 0, 0, 0, 47, 0, 26, 0, 0, 0, 0, 22, 43, 25, 79, 67, 0, 0, 0, 78, 39, 0, 62, 0, 0, 45, 0, 0, 30, 0, 0, 19, 81, 1, 0, 34, 58, 76, 0, 0, 68, 50, 0, 11, 54, 0, 0, 14, 65, 52, 70, 0, 71
|0, 65, 0, 0, 8, 47, 0, 0, 0, 0, 0, 73, 50, 55, 53, 0, 38, 0, 0, 0, 0, 0, 61, 0, 49, 0, 0, 28, 41, 40, 13, 0, 0, 0, 62, 0, 57, 17, 0, 0, 0, 0, 0, 72, 0, 0, 0, 43, 0, 46, 0, 71, 0, 0, 0, 37, 0, 80, 70, 0, 0, 0, 0, 0, 0, 0, 52, 0, 0, 0, 27, 0, 66, 74, 0, 51, 0, 76, 81, 78, 33
|75, 0, 0, 0, 67, 63, 73, 0, 50, 39, 58, 45, 0, 0, 0, 62, 0, 3, 57, 0, 46, 0, 31, 32, 53, 0, 0, 80, 0, 65, 12, 0, 0, 4, 0, 0, 19, 0, 81, 0, 48, 77, 61, 0, 49, 0, 0, 76, 0, 0, 7, 0, 0, 40, 0, 0, 0, 0, 0, 0, 0, 20, 72, 71, 21, 0, 74, 0, 0, 0, 41, 0, 0, 0, 2, 10, 34, 11, 43, 28, 26
|32, 10, 68, 0, 0, 25, 57, 0, 0, 0, 13, 0, 0, 0, 28, 0, 50, 44, 78, 15, 16, 5, 42, 0, 0, 27, 58, 0, 0, 76, 0, 0, 17, 0, 30, 0, 0, 1, 0, 0, 20, 0, 0, 0, 0, 0, 0, 80, 0, 0, 0, 0, 67, 0, 70, 0, 34, 74, 81, 0, 0, 23, 65, 0, 38, 0, 0, 8, 4, 62, 0, 56, 0, 64, 0, 18, 0, 51, 9, 49, 69
|3, 28, 8, 0, 0, 0, 0, 0, 0, 17, 74, 38, 0, 43, 56, 0, 0, 79, 0, 0, 11, 0, 0, 75, 0, 0, 0, 31, 14, 15, 61, 50, 22, 2, 0, 0, 67, 64, 0, 0, 0, 37, 0, 41, 25, 7, 0, 0, 0, 78, 72, 73, 76, 0, 54, 0, 68, 66, 4, 0, 53, 30, 60, 0, 0, 32, 0, 0, 0, 0, 24, 77, 0, 36, 13, 0, 42, 59, 12, 0, 23
|27, 22, 0, 6, 2, 11, 79, 0, 34, 58, 0, 39, 25, 0, 0, 0, 0, 0, 0, 65, 50, 68, 0, 31, 19, 61, 62, 72, 0, 21, 0, 53, 0, 75, 67, 48, 46, 0, 0, 0, 0, 0, 0, 0, 0, 0, 54, 64, 37, 56, 0, 26, 43, 0, 0, 7, 0, 57, 0, 51, 0, 0, 0, 0, 0, 0, 60, 20, 73, 55, 66, 0, 0, 80, 8, 41, 0, 0, 16, 47, 0
|49, 0, 0, 0, 61, 65, 0, 9, 0, 20, 31, 67, 0, 0, 1, 46, 5, 78, 37, 36, 25, 0, 54, 0, 59, 17, 12, 0, 18, 0, 0, 0, 45, 42, 63, 0, 0, 28, 0, 55, 8, 0, 0, 0, 0, 27, 0, 0, 0, 0, 0, 66, 0, 0, 0, 0, 0, 44, 0, 64, 0, 0, 0, 51, 29, 0, 47, 0, 0, 53, 80, 0, 0, 0, 30, 70, 0, 72, 0, 0, 0
|0, 42, 75, 64, 0, 0, 76, 63, 0, 14, 0, 16, 0, 72, 51, 0, 0, 45, 18, 49, 0, 28, 7, 0, 40, 41, 23, 46, 80, 0, 0, 0, 0, 81, 4, 0, 0, 22, 0, 62, 36, 0, 43, 19, 0, 0, 0, 55, 44, 0, 9, 0, 0, 53, 32, 10, 58, 0, 1, 11, 25, 52, 0, 50, 78, 0, 0, 0, 0, 0, 67, 69, 65, 0, 68, 27, 15, 0, 60, 21, 0
|58, 31, 59, 0, 0, 20, 55, 47, 0, 0, 0, 0, 65, 0, 0, 0, 60, 0, 0, 0, 0, 0, 81, 43, 0, 22, 0, 8, 23, 37, 0, 0, 36, 0, 69, 0, 39, 0, 0, 0, 0, 48, 0, 49, 0, 41, 74, 0, 46, 0, 0, 0, 3, 32, 0, 0, 5, 13, 0, 0, 19, 0, 45, 14, 0, 0, 0, 10, 7, 11, 0, 21, 53, 61, 79, 0, 0, 40, 0, 0, 0
|0, 50, 0, 21, 0, 67, 0, 7, 77, 62, 10, 0, 0, 3, 0, 53, 69, 34, 0, 9, 56, 0, 0, 73, 0, 0, 0, 78, 0, 27, 32, 0, 5, 25, 0, 16, 65, 44, 59, 24, 30, 57, 42, 0, 61, 0, 19, 0, 17, 0, 0, 2, 68, 58, 0, 8, 36, 0, 71, 31, 0, 0, 14, 64, 0, 43, 40, 0, 0, 28, 33, 0, 55, 39, 6, 0, 0, 0, 63, 0, 20
|0, 0, 30, 60, 0, 0, 48, 1, 0, 0, 0, 8, 0, 29, 0, 68, 7, 33, 52, 51, 34, 3, 0, 67, 24, 69, 77, 0, 0, 0, 0, 57, 59, 20, 0, 0, 0, 0, 0, 12, 40, 0, 81, 0, 0, 4, 42, 0, 6, 0, 45, 0, 0, 0, 0, 47, 17, 0, 0, 0, 75, 0, 50, 0, 22, 0, 0, 0, 2, 23, 36, 15, 19, 0, 0, 0, 0, 25, 0, 0, 0
|0, 4, 23, 46, 62, 0, 24, 0, 41, 21, 0, 0, 71, 47, 0, 0, 0, 0, 64, 70, 0, 10, 79, 39, 0, 35, 0, 38, 0, 9, 43, 74, 0, 58, 0, 0, 0, 11, 52, 17, 75, 53, 0, 50, 0, 0, 13, 8, 1, 48, 0, 0, 30, 63, 0, 0, 72, 0, 27, 0, 0, 59, 29, 0, 0, 0, 37, 0, 0, 0, 0, 3, 0, 0, 22, 77, 56, 0, 0, 66, 0
|6, 12, 69, 0, 11, 0, 0, 0, 46, 0, 14, 0, 0, 0, 70, 0, 44, 58, 53, 0, 0, 77, 71, 10, 0, 0, 81, 36, 29, 0, 63, 0, 0, 0, 55, 0, 0, 0, 22, 0, 27, 0, 3, 0, 0, 0, 16, 0, 45, 79, 76, 59, 0, 0, 49, 30, 67, 25, 33, 5, 2, 61, 0, 0, 17, 0, 0, 0, 54, 47, 0, 66, 0, 0, 0, 75, 41, 0, 0, 0, 48
|39, 0, 58, 28, 0, 76, 0, 48, 0, 0, 33, 0, 0, 0, 32, 0, 0, 0, 0, 59, 0, 35, 0, 29, 0, 80, 0, 0, 0, 6, 0, 0, 57, 24, 70, 0, 1, 0, 64, 31, 0, 10, 69, 0, 0, 71, 68, 0, 2, 7, 0, 0, 17, 41, 78, 81, 8, 0, 0, 9, 4, 42, 0, 65, 25, 46, 0, 0, 36, 61, 18, 0, 0, 5, 0, 0, 62, 0, 79, 3, 0
|0, 0, 36, 74, 0, 35, 37, 30, 0, 28, 0, 5, 42, 0, 0, 0, 0, 25, 0, 0, 9, 0, 32, 4, 63, 11, 0, 0, 12, 0, 0, 0, 0, 0, 39, 75, 0, 70, 0, 29, 0, 13, 17, 14, 0, 54, 0, 0, 21, 24, 57, 0, 0, 44, 0, 23, 20, 3, 46, 6, 77, 0, 73, 22, 51, 69, 0, 0, 0, 0, 50, 8, 0, 0, 0, 60, 27, 16, 0, 0, 45
|0, 78, 0, 55, 41, 22, 60, 73, 10, 0, 54, 0, 63, 0, 46, 23, 0, 81, 39, 0, 74, 18, 2, 0, 48, 0, 37, 0, 0, 0, 77, 34, 0, 0, 31, 0, 0, 0, 0, 0, 52, 6, 0, 0, 66, 0, 62, 0, 0, 50, 32, 0, 15, 0, 45, 59, 28, 0, 68, 24, 56, 70, 43, 20, 27, 0, 0, 0, 0, 0, 0, 0, 0, 58, 0, 0, 0, 0, 69, 0, 9
|0, 8, 0, 0, 0, 0, 56, 19, 0, 0, 0, 13, 53, 0, 37, 0, 0, 75, 28, 20, 0, 43, 1, 0, 17, 0, 0, 51, 7, 50, 27, 66, 0, 62, 0, 0, 24, 0, 73, 0, 0, 0, 0, 0, 0, 36, 23, 58, 70, 40, 42, 0, 0, 6, 0, 0, 76, 0, 0, 0, 0, 0, 0, 9, 0, 11, 3, 0, 16, 81, 0, 0, 0, 0, 52, 46, 0, 35, 0, 0, 0
|0, 0, 49, 0, 68, 16, 0, 0, 0, 59, 11, 24, 0, 0, 0, 0, 0, 0, 0, 0, 36, 72, 64, 30, 0, 0, 0, 0, 69, 61, 0, 0, 0, 0, 5, 73, 0, 9, 0, 0, 56, 42, 0, 0, 0, 0, 0, 3, 14, 18, 0, 0, 0, 20, 0, 26, 0, 37, 0, 0, 27, 17, 32, 0, 15, 0, 2, 74, 0, 0, 0, 0, 0, 33, 43, 0, 0, 0, 0, 0, 0
|0, 33, 44, 0, 0, 0, 0, 0, 32, 0, 50, 0, 15, 31, 0, 0, 34, 0, 47, 0, 51, 67, 0, 0, 0, 76, 6, 9, 58, 0, 0, 38, 10, 21, 0, 49, 0, 46, 0, 48, 0, 74, 0, 0, 43, 69, 37, 65, 61, 0, 0, 0, 29, 72, 14, 80, 0, 19, 0, 0, 0, 11, 0, 63, 0, 0, 0, 70, 0, 0, 56, 78, 0, 0, 42, 0, 12, 0, 8, 0, 13
|43, 21, 31, 0, 0, 0, 77, 0, 9, 71, 0, 17, 0, 0, 0, 19, 0, 27, 0, 3, 52, 42, 0, 69, 70, 26, 0, 1, 0, 32, 37, 59, 35, 0, 0, 13, 20, 0, 0, 50, 68, 0, 0, 0, 30, 0, 73, 0, 25, 0, 56, 0, 49, 75, 0, 0, 0, 48, 0, 53, 40, 12, 47, 0, 0, 0, 55, 0, 0, 0, 58, 0, 0, 0, 0, 0, 36, 0, 0, 15, 0
|38, 0, 0, 18, 17, 0, 0, 0, 29, 0, 0, 9, 3, 0, 0, 0, 0, 0, 0, 50, 0, 78, 62, 61, 56, 8, 79, 0, 0, 0, 52, 0, 53, 16, 0, 0, 0, 45, 0, 0, 54, 0, 0, 75, 71, 0, 0, 47, 0, 0, 0, 33, 39, 0, 34, 13, 0, 0, 0, 1, 58, 74, 57, 0, 5, 60, 0, 0, 37, 0, 7, 42, 0, 14, 80, 22, 49, 73, 11, 40, 0
|0, 51, 0, 32, 0, 8, 63, 55, 0, 3, 0, 0, 74, 12, 4, 1, 41, 0, 25, 0, 0, 0, 43, 81, 0, 0, 67, 70, 0, 0, 0, 0, 44, 0, 65, 0, 0, 77, 0, 75, 28, 0, 78, 62, 0, 39, 0, 0, 11, 58, 26, 0, 33, 0, 0, 22, 52, 30, 79, 0, 0, 24, 59, 0, 69, 64, 57, 0, 6, 9, 61, 0, 0, 18, 0, 21, 0, 5, 0, 0, 19
|2, 0, 0, 5, 48, 18, 0, 0, 35, 9, 49, 0, 0, 0, 0, 15, 0, 38, 66, 29, 7, 0, 0, 0, 0, 0, 47, 0, 72, 0, 55, 68, 11, 0, 0, 0, 0, 71, 69, 36, 0, 0, 0, 65, 12, 0, 43, 16, 0, 0, 0, 6, 79, 62, 0, 0, 74, 0, 39, 25, 0, 0, 26, 3, 42, 58, 0, 0, 53, 0, 0, 0, 61, 0, 17, 80, 63, 78, 22, 0, 0
|67, 0, 0, 0, 56, 0, 0, 62, 69, 42, 0, 31, 0, 0, 80, 0, 0, 54, 0, 4, 0, 0, 0, 21, 27, 12, 0, 0, 73, 38, 6, 16, 50, 47, 22, 0, 33, 0, 0, 81, 0, 0, 5, 70, 0, 0, 0, 0, 0, 76, 17, 0, 0, 55, 53, 75, 14, 0, 0, 8, 0, 0, 0, 41, 0, 0, 0, 25, 0, 19, 59, 0, 46, 0, 0, 0, 7, 79, 0, 34, 0
|0, 0, 76, 65, 0, 0, 29, 68, 16, 0, 36, 0, 51, 78, 0, 55, 0, 0, 0, 61, 41, 13, 11, 63, 0, 0, 0, 0, 59, 26, 67, 12, 0, 5, 77, 0, 0, 40, 27, 25, 0, 49, 0, 0, 8, 0, 0, 19, 20, 0, 28, 21, 0, 0, 0, 0, 37, 71, 15, 0, 0, 35, 3, 73, 0, 47, 0, 0, 45, 0, 0, 0, 0, 0, 0, 72, 2, 69, 57, 39, 70
|0, 57, 0, 33, 0, 7, 0, 10, 0, 40, 0, 25, 19, 8, 45, 65, 0, 0, 55, 0, 2, 31, 9, 1, 0, 37, 0, 39, 0, 28, 41, 78, 0, 74, 48, 0, 22, 0, 0, 0, 38, 0, 0, 6, 0, 50, 4, 63, 0, 0, 0, 68, 0, 27, 0, 43, 0, 0, 0, 72, 0, 0, 0, 0, 0, 0, 0, 0, 0, 0, 0, 0, 11, 76, 0, 0, 54, 24, 42, 0, 53
|37, 0, 46, 0, 0, 0, 19, 0, 20, 0, 0, 0, 21, 68, 61, 64, 0, 32, 0, 0, 0, 36, 0, 0, 75, 0, 8, 0, 0, 56, 25, 10, 14, 29, 0, 0, 31, 0, 43, 80, 51, 72, 4, 0, 0, 65, 0, 0, 7, 2, 69, 0, 0, 42, 0, 0, 0, 0, 0, 66, 0, 0, 67, 0, 62, 0, 0, 76, 0, 71, 0, 0, 3, 0, 0, 6, 0, 27, 0, 0, 38
|53, 6, 71, 47, 0, 0, 0, 58, 1, 0, 27, 72, 0, 20, 0, 0, 63, 77, 42, 39, 0, 0, 59, 65, 54, 0, 0, 19, 0, 0, 0, 0, 2, 0, 0, 79, 0, 34, 0, 0, 0, 0, 0, 0, 0, 70, 67, 0, 3, 41, 22, 0, 0, 0, 81, 0, 0, 17, 11, 40, 0, 0, 46, 0, 43, 0, 0, 0, 0, 0, 49, 0, 0, 45, 33, 0, 64, 4, 0, 0, 25
|4, 0, 52, 0, 0, 50, 0, 0, 36, 67, 43, 0, 58, 57, 0, 0, 0, 0, 0, 0, 0, 32, 45, 0, 28, 0, 22, 0, 76, 0, 69, 18, 20, 80, 53, 0, 79, 0, 0, 39, 26, 0, 64, 63, 0, 15, 25, 51, 73, 0, 30, 0, 0, 71, 0, 1, 9, 0, 0, 7, 48, 0, 0, 23, 46, 0, 77, 72, 0, 38, 0, 65, 0, 0, 31, 0, 0, 0, 66, 56, 41
|78, 38, 72, 42, 0, 0, 30, 25, 39, 0, 0, 11, 46, 50, 0, 35, 81, 7, 51, 26, 0, 6, 0, 0, 64, 0, 57, 0, 0, 13, 24, 0, 49, 0, 9, 0, 0, 21, 45, 3, 0, 0, 1, 61, 0, 74, 0, 0, 0, 0, 66, 23, 0, 0, 0, 19, 0, 47, 0, 12, 68, 34, 0, 0, 0, 0, 0, 0, 0, 0, 0, 0, 20, 0, 0, 52, 73, 0, 0, 37, 43
|0, 0, 74, 0, 36, 39, 35, 0, 0, 72, 42, 0, 0, 0, 0, 70, 0, 0, 1, 48, 0, 14, 0, 23, 0, 0, 11, 69, 3, 0, 0, 40, 0, 55, 0, 12, 60, 0, 0, 58, 18, 0, 0, 0, 64, 17, 27, 0, 41, 0, 33, 16, 0, 0, 0, 0, 26, 32, 0, 0, 0, 0, 0, 43, 0, 24, 79, 0, 0, 0, 0, 52, 38, 21, 0, 0, 59, 31, 15, 6, 0
|56, 0, 0, 0, 76, 29, 0, 4, 47, 32, 2, 0, 0, 0, 0, 14, 0, 69, 60, 0, 0, 0, 6, 34, 0, 31, 39, 0, 0, 0, 0, 0, 41, 67, 16, 0, 9, 0, 66, 57, 72, 23, 75, 53, 0, 5, 46, 0, 0, 43, 68, 55, 0, 65, 11, 0, 0, 0, 0, 30, 28, 58, 0, 0, 0, 0, 0, 0, 0, 0, 19, 0, 0, 0, 45, 0, 18, 0, 54, 63, 0
|0, 15, 0, 0, 69, 0, 66, 78, 37, 50, 46, 0, 0, 22, 59, 67, 0, 0, 0, 0, 0, 0, 0, 0, 0, 0, 27, 0, 0, 36, 0, 80, 60, 0, 0, 0, 8, 0, 0, 0, 0, 47, 14, 0, 20, 3, 0, 0, 79, 0, 61, 0, 75, 23, 19, 12, 0, 0, 0, 71, 0, 5, 55, 0, 0, 77, 76, 0, 0, 45, 11, 0, 16, 44, 0, 40, 25, 0, 0, 33, 51
|10, 43, 0, 34, 60, 0, 0, 0, 0, 63, 0, 0, 80, 11, 31, 51, 0, 68, 30, 0, 44, 46, 0, 79, 16, 0, 0, 47, 0, 0, 33, 0, 0, 8, 54, 0, 76, 19, 0, 0, 12, 59, 0, 36, 70, 0, 0, 0, 0, 0, 0, 0, 28, 26, 1, 77, 2, 0, 40, 50, 21, 0, 35, 0, 0, 27, 0, 0, 38, 0, 0, 48, 0, 0, 0, 0, 0, 20, 0, 0, 0
|68, 0, 0, 0, 75, 21, 50, 18, 51, 1, 24, 0, 13, 60, 0, 8, 0, 30, 76, 32, 0, 0, 0, 0, 3, 0, 0, 65, 0, 0, 14, 15, 9, 0, 0, 0, 0, 55, 0, 0, 61, 40, 0, 0, 0, 80, 0, 42, 0, 69, 0, 0, 0, 2, 52, 31, 0, 0, 0, 62, 0, 0, 79, 78, 72, 10, 0, 0, 46, 0, 0, 0, 71, 0, 57, 35, 22, 19, 0, 0, 28
|11, 2, 33, 27, 0, 6, 80, 22, 63, 0, 0, 0, 0, 0, 0, 81, 79, 0, 15, 0, 0, 0, 67, 59, 66, 68, 64, 24, 0, 1, 39, 0, 0, 18, 17, 70, 56, 51, 65, 0, 0, 52, 0, 73, 0, 35, 40, 77, 32, 0, 0, 0, 0, 30, 74, 0, 7, 29, 0, 0, 72, 0, 0, 0, 75, 0, 0, 31, 0, 0, 0, 16, 43, 0, 36, 0, 0, 0, 0, 76, 12
|0, 0, 0, 0, 0, 13, 0, 0, 31, 0, 23, 0, 26, 0, 0, 0, 0, 47, 19, 0, 75, 58, 0, 36, 0, 40, 49, 56, 64, 45, 42, 0, 0, 27, 43, 11, 77, 0, 4, 0, 81, 2, 50, 74, 0, 24, 0, 72, 76, 62, 0, 1, 51, 12, 63, 0, 53, 0, 0, 44, 0, 39, 0, 59, 6, 0, 0, 0, 0, 0, 20, 0, 0, 0, 32, 0, 0, 0, 0, 0, 0
|0, 77, 0, 0, 59, 0, 12, 61, 0, 49, 0, 0, 39, 25, 66, 7, 0, 0, 0, 0, 28, 0, 0, 0, 13, 71, 50, 79, 0, 35, 0, 51, 38, 0, 57, 0, 68, 33, 0, 0, 42, 1, 6, 0, 0, 47, 31, 54, 22, 67, 0, 14, 36, 0, 0, 0, 0, 43, 0, 0, 0, 0, 16, 0, 63, 21, 29, 3, 56, 0, 32, 0, 27, 0, 64, 0, 10, 0, 74, 11, 30
|71, 0, 0, 0, 0, 0, 46, 57, 64, 0, 0, 0, 43, 75, 0, 17, 0, 74, 0, 0, 0, 0, 0, 12, 33, 0, 56, 21, 0, 2, 0, 0, 26, 0, 61, 0, 38, 32, 0, 30, 0, 27, 63, 24, 0, 52, 50, 59, 0, 37, 0, 0, 73, 0, 0, 0, 47, 0, 20, 14, 66, 0, 0, 55, 9, 39, 0, 35, 13, 0, 0, 0, 41, 0, 0, 0, 53, 81, 0, 80, 60|];