order = 9;
grid = [|21, 0, 22, 0, 35, 43, 74, 0, 75, 0, 66, 0, 0, 81, 0, 64, 0, 19, 46, 41, 31, 58, 57, 20, 24, 34, 32, 17, 79, 11, 0, 0, 0, 70, 63, 56, 48, 8, 0, 30, 0, 0, 0, 0, 0, 0, 0, 77, 0, 0, 0, 0, 0, 0, 44, 0, 0, 60, 50, 0, 10, 0, 76, 0, 0, 0, 6, 0, 53, 0, 13, 39, 71, 68, 0, 0, 0, 29, 0, 0, 0
|47, 44, 0, 0, 0, 0, 1, 0, 0, 18, 0, 0, 0, 14, 79, 0, 32, 45, 0, 0, 77, 0, 33, 35, 0, 8, 50, 46, 49, 0, 0, 0, 58, 60, 0, 0, 0, 21, 27, 0, 19, 0, 67, 61, 12, 22, 0, 51, 73, 36, 39, 0, 0, 62, 0, 23, 0, 0, 0, 0, 34, 7, 0, 64, 0, 25, 0, 0, 17, 38, 42, 74, 0, 72, 0, 0, 40, 0, 5, 0, 55
|11, 14, 76, 3, 73, 0, 0, 50, 59, 0, 0, 12, 49, 0, 0, 60, 0, 0, 37, 0, 0, 0, 18, 0, 62, 81, 21, 0, 10, 47, 0, 27, 0, 74, 0, 0, 0, 68, 0, 25, 77, 42, 9, 6, 17, 20, 70, 0, 0, 0, 35, 34, 7, 0, 51, 4, 0, 26, 39, 0, 80, 48, 0, 0, 23, 32, 71, 41, 0, 22, 1, 75, 24, 33, 0, 15, 56, 0, 45, 43, 66
|71, 36, 0, 13, 31, 58, 0, 0, 0, 76, 73, 0, 0, 0, 0, 80, 33, 0, 72, 0, 0, 0, 0, 7, 67, 22, 15, 37, 0, 57, 12, 35, 0, 68, 0, 0, 47, 0, 0, 81, 0, 0, 0, 0, 0, 5, 53, 0, 61, 0, 79, 45, 0, 40, 52, 0, 0, 1, 0, 32, 0, 29, 20, 19, 0, 18, 3, 48, 4, 0, 70, 28, 26, 0, 0, 0, 0, 0, 0, 2, 0
|0, 68, 10, 5, 51, 0, 0, 0, 0, 0, 27, 17, 0, 0, 63, 0, 6, 0, 74, 0, 0, 55, 0, 76, 0, 0, 9, 0, 0, 28, 14, 0, 0, 0, 0, 0, 0, 70, 53, 7, 72, 0, 3, 65, 0, 0, 0, 32, 37, 1, 47, 0, 38, 81, 0, 69, 0, 0, 0, 0, 78, 35, 64, 24, 0, 0, 40, 43, 54, 15, 0, 73, 25, 0, 41, 61, 19, 0, 57, 0, 16
|0, 12, 46, 0, 0, 70, 60, 0, 55, 0, 65, 15, 0, 0, 0, 0, 0, 13, 0, 52, 0, 0, 0, 5, 56, 23, 0, 34, 0, 0, 0, 22, 6, 1, 31, 0, 45, 0, 58, 40, 75, 0, 20, 50, 0, 24, 59, 28, 19, 0, 0, 0, 0, 9, 0, 0, 0, 14, 0, 0, 63, 2, 0, 72, 0, 37, 44, 0, 0, 0, 0, 0, 30, 21, 38, 0, 78, 73, 39, 35, 32
|0, 0, 0, 27, 15, 29, 0, 39, 17, 78, 30, 0, 0, 0, 68, 0, 0, 0, 0, 1, 0, 0, 64, 0, 0, 0, 0, 0, 0, 0, 0, 0, 53, 33, 0, 0, 0, 37, 0, 0, 23, 32, 0, 26, 0, 0, 44, 60, 48, 0, 10, 0, 0, 18, 24, 73, 79, 19, 3, 0, 0, 0, 36, 0, 0, 0, 67, 0, 0, 31, 0, 0, 80, 70, 0, 20, 0, 0, 22, 0, 47
|0, 0, 34, 0, 0, 0, 0, 0, 0, 29, 59, 23, 35, 47, 53, 0, 0, 72, 25, 69, 27, 12, 3, 0, 0, 0, 39, 0, 0, 0, 0, 0, 0, 0, 44, 0, 71, 0, 16, 0, 22, 0, 41, 31, 36, 76, 26, 55, 56, 0, 21, 0, 0, 0, 11, 0, 45, 70, 0, 5, 67, 0, 0, 0, 80, 49, 20, 65, 0, 0, 14, 0, 0, 6, 28, 0, 0, 0, 0, 4, 54
|0, 0, 20, 0, 0, 4, 0, 62, 32, 50, 11, 0, 0, 2, 0, 71, 9, 74, 47, 60, 38, 80, 70, 0, 0, 48, 14, 69, 0, 0, 73, 0, 3, 40, 23, 26, 54, 0, 29, 0, 0, 0, 1, 39, 0, 0, 0, 6, 67, 52, 43, 16, 27, 0, 37, 0, 0, 12, 0, 81, 0, 46, 0, 0, 21, 0, 0, 0, 0, 61, 63, 79, 0, 59, 0, 0, 0, 0, 0, 0, 0
|0, 29, 0, 0, 25, 0, 2, 55, 0, 14, 0, 0, 19, 0, 0, 0, 50, 59, 0, 75, 71, 0, 0, 74, 0, 45, 64, 23, 0, 53, 0, 0, 51, 0, 22, 68, 16, 77, 67, 0, 43, 30, 0, 24, 0, 54, 3, 0, 31, 0, 0, 0, 0, 0, 0, 18, 39, 76, 61, 9, 11, 0, 0, 0, 0, 0, 0, 38, 15, 4, 81, 34, 48, 0, 0, 0, 0, 5, 0, 0, 0
|18, 8, 80, 9, 50, 59, 73, 7, 43, 0, 0, 65, 0, 78, 29, 53, 0, 58, 39, 0, 4, 0, 0, 0, 81, 0, 33, 52, 0, 0, 0, 36, 49, 20, 48, 74, 42, 34, 0, 0, 5, 0, 71, 0, 0, 14, 0, 0, 17, 41, 13, 75, 0, 47, 0, 0, 0, 35, 0, 0, 0, 0, 0, 0, 0, 63, 0, 60, 45, 46, 0, 0, 22, 54, 79, 0, 55, 0, 76, 38, 15
|0, 0, 0, 0, 10, 31, 0, 41, 0, 72, 8, 0, 0, 0, 32, 0, 0, 0, 0, 0, 55, 28, 0, 38, 59, 0, 0, 2, 45, 0, 61, 0, 29, 0, 0, 0, 0, 40, 19, 0, 79, 22, 74, 0, 0, 33, 0, 68, 0, 0, 0, 35, 0, 0, 0, 1, 21, 0, 0, 13, 0, 0, 0, 48, 17, 0, 64, 0, 0, 47, 76, 0, 63, 24, 0, 4, 0, 43, 0, 58, 0
|35, 81, 0, 0, 0, 0, 0, 0, 11, 0, 48, 0, 0, 76, 34, 0, 15, 67, 0, 73, 0, 16, 0, 0, 0, 14, 58, 0, 0, 0, 77, 0, 0, 19, 0, 0, 0, 60, 75, 0, 36, 38, 0, 0, 72, 0, 9, 0, 42, 0, 78, 59, 0, 0, 43, 0, 0, 71, 0, 68, 0, 0, 57, 0, 0, 0, 0, 66, 37, 0, 55, 50, 8, 0, 0, 0, 0, 0, 70, 0, 28
|51, 74, 67, 0, 6, 38, 0, 58, 5, 0, 54, 41, 0, 60, 0, 28, 0, 24, 30, 0, 70, 63, 0, 50, 0, 61, 0, 0, 75, 13, 17, 25, 0, 0, 26, 0, 81, 0, 55, 0, 1, 0, 0, 35, 0, 2, 0, 0, 0, 0, 65, 0, 76, 0, 0, 47, 0, 0, 0, 34, 20, 0, 52, 0, 69, 53, 0, 73, 0, 79, 0, 49, 0, 27, 33, 16, 0, 0, 3, 78, 0
|61, 0, 0, 0, 27, 0, 0, 32, 54, 0, 55, 36, 0, 63, 47, 0, 0, 71, 0, 0, 35, 0, 17, 0, 0, 0, 40, 0, 0, 81, 46, 24, 73, 0, 16, 14, 0, 0, 57, 0, 33, 20, 80, 0, 0, 70, 0, 25, 74, 0, 0, 0, 29, 48, 0, 59, 58, 23, 0, 0, 75, 0, 45, 0, 0, 21, 0, 3, 0, 0, 52, 0, 62, 2, 0, 60, 13, 0, 50, 65, 53
|3, 0, 42, 0, 0, 66, 0, 0, 0, 0, 81, 62, 0, 0, 20, 0, 2, 21, 43, 68, 47, 22, 0, 69, 0, 0, 19, 80, 0, 35, 58, 0, 57, 0, 27, 63, 0, 0, 0, 0, 61, 0, 45, 0, 48, 0, 0, 0, 5, 0, 0, 38, 0, 16, 36, 64, 0, 4, 0, 54, 0, 12, 0, 0, 25, 74, 0, 1, 0, 59, 0, 11, 41, 0, 37, 0, 26, 0, 75, 52, 18
|0, 0, 63, 70, 0, 69, 0, 0, 79, 25, 44, 16, 0, 43, 0, 73, 0, 0, 0, 0, 20, 0, 21, 0, 53, 37, 0, 0, 8, 55, 0, 1, 18, 0, 5, 0, 59, 0, 0, 9, 0, 0, 0, 0, 0, 67, 0, 58, 0, 0, 23, 0, 0, 0, 29, 0, 74, 0, 65, 0, 0, 62, 0, 42, 54, 77, 14, 6, 0, 0, 0, 0, 0, 81, 56, 0, 71, 46, 0, 0, 0
|36, 53, 0, 60, 75, 62, 26, 45, 0, 0, 79, 0, 0, 49, 0, 0, 40, 52, 77, 18, 0, 0, 67, 54, 57, 3, 5, 78, 15, 0, 28, 59, 9, 38, 69, 0, 0, 0, 0, 76, 0, 0, 39, 2, 41, 1, 0, 0, 0, 21, 0, 0, 61, 0, 73, 70, 14, 0, 22, 7, 33, 66, 0, 29, 0, 0, 0, 0, 68, 0, 0, 0, 74, 0, 64, 31, 0, 72, 47, 23, 19
|0, 0, 62, 0, 13, 45, 0, 0, 3, 66, 0, 0, 0, 75, 65, 0, 0, 0, 0, 23, 0, 0, 0, 37, 0, 17, 81, 0, 0, 0, 0, 0, 76, 0, 35, 27, 0, 16, 4, 53, 32, 0, 60, 7, 0, 78, 0, 0, 24, 44, 0, 0, 69, 0, 0, 0, 10, 0, 0, 15, 42, 0, 38, 0, 43, 0, 0, 29, 0, 0, 33, 20, 0, 31, 63, 67, 0, 0, 0, 0, 77
|0, 0, 72, 76, 56, 0, 0, 71, 0, 0, 21, 1, 0, 0, 0, 0, 0, 0, 4, 6, 0, 34, 0, 26, 48, 44, 0, 0, 0, 0, 42, 0, 80, 73, 0, 12, 70, 2, 69, 0, 24, 11, 22, 27, 43, 0, 0, 0, 77, 79, 54, 58, 18, 0, 25, 63, 0, 0, 23, 0, 61, 57, 59, 49, 0, 50, 36, 0, 0, 17, 0, 0, 0, 0, 16, 0, 62, 0, 0, 0, 0
|0, 0, 0, 0, 0, 16, 0, 0, 69, 63, 36, 0, 76, 32, 0, 54, 0, 27, 59, 62, 0, 0, 0, 0, 0, 0, 25, 0, 19, 0, 0, 8, 52, 0, 0, 37, 0, 1, 26, 0, 45, 14, 33, 0, 80, 0, 5, 0, 49, 20, 0, 9, 42, 68, 0, 46, 0, 13, 0, 12, 0, 21, 34, 67, 0, 0, 58, 11, 40, 0, 4, 71, 38, 61, 17, 55, 47, 0, 65, 66, 0
|67, 58, 0, 0, 4, 0, 78, 80, 25, 0, 37, 0, 0, 20, 61, 48, 0, 0, 32, 16, 8, 69, 46, 0, 0, 0, 0, 59, 0, 14, 72, 5, 21, 0, 0, 28, 0, 42, 0, 34, 41, 0, 0, 0, 39, 0, 81, 0, 62, 64, 0, 0, 0, 0, 0, 31, 0, 51, 30, 1, 19, 45, 11, 0, 13, 0, 77, 0, 0, 60, 3, 65, 9, 0, 71, 73, 0, 24, 0, 18, 6
|6, 37, 0, 57, 0, 0, 0, 0, 0, 0, 45, 0, 28, 0, 0, 72, 0, 38, 0, 55, 49, 31, 1, 2, 60, 67, 35, 29, 78, 48, 26, 69, 15, 65, 0, 0, 0, 30, 0, 5, 0, 0, 66, 0, 0, 59, 0, 39, 3, 0, 25, 0, 14, 0, 58, 0, 0, 53, 0, 0, 0, 16, 7, 0, 73, 0, 0, 0, 0, 74, 47, 70, 0, 0, 43, 46, 8, 54, 19, 13, 10
|34, 24, 0, 0, 81, 26, 0, 29, 27, 56, 0, 7, 47, 40, 43, 0, 0, 18, 58, 0, 19, 0, 0, 0, 0, 0, 61, 0, 60, 30, 1, 0, 77, 4, 36, 0, 37, 0, 0, 0, 0, 0, 0, 0, 23, 0, 0, 0, 63, 0, 0, 71, 0, 46, 48, 65, 73, 54, 62, 44, 0, 5, 0, 0, 0, 0, 69, 59, 55, 0, 0, 16, 0, 22, 32, 0, 2, 0, 0, 76, 0
|75, 0, 50, 1, 0, 0, 46, 0, 19, 60, 70, 39, 77, 0, 69, 0, 5, 0, 36, 0, 7, 42, 0, 0, 20, 80, 78, 32, 0, 62, 0, 0, 0, 0, 0, 0, 38, 71, 59, 0, 0, 6, 13, 72, 47, 65, 4, 23, 0, 76, 37, 48, 28, 0, 0, 8, 0, 0, 0, 79, 0, 55, 2, 0, 56, 0, 22, 18, 0, 0, 57, 54, 0, 0, 0, 0, 53, 0, 0, 0, 0
|73, 22, 0, 0, 40, 14, 79, 0, 0, 0, 0, 0, 81, 62, 0, 6, 0, 26, 21, 38, 15, 33, 0, 68, 0, 0, 30, 49, 20, 54, 9, 0, 11, 0, 0, 58, 65, 25, 0, 0, 0, 0, 19, 18, 0, 27, 13, 0, 7, 16, 0, 0, 31, 0, 77, 60, 80, 72, 52, 0, 0, 75, 67, 0, 1, 12, 0, 24, 5, 0, 0, 53, 57, 0, 36, 0, 69, 0, 0, 0, 0
|65, 0, 0, 0, 23, 36, 15, 0, 42, 0, 16, 0, 53, 73, 0, 2, 80, 0, 0, 0, 13, 0, 0, 11, 0, 0, 0, 0, 0, 0, 63, 46, 0, 75, 7, 50, 20, 62, 0, 55, 0, 0, 0, 0, 0, 51, 32, 34, 43, 57, 1, 47, 0, 0, 0, 0, 64, 3, 17, 6, 29, 4, 37, 0, 0, 28, 0, 0, 0, 19, 0, 38, 0, 0, 68, 59, 14, 45, 0, 70, 0
|53, 0, 0, 0, 37, 75, 4, 0, 0, 43, 0, 56, 0, 0, 0, 0, 16, 46, 22, 47, 14, 0, 78, 0, 74, 0, 0, 71, 9, 0, 0, 0, 41, 18, 29, 0, 0, 67, 24, 21, 81, 77, 38, 0, 30, 45, 0, 0, 0, 42, 0, 0, 0, 0, 2, 0, 0, 65, 0, 0, 0, 0, 35, 76, 0, 64, 0, 5, 6, 27, 20, 0, 73, 25, 55, 0, 0, 70, 33, 19, 80
|78, 27, 0, 36, 69, 15, 30, 0, 31, 71, 0, 53, 0, 0, 0, 0, 0, 2, 75, 70, 58, 0, 62, 0, 25, 0, 48, 16, 61, 0, 49, 14, 0, 0, 37, 65, 79, 0, 0, 0, 0, 46, 0, 57, 0, 0, 34, 0, 0, 8, 52, 0, 0, 0, 0, 0, 0, 0, 0, 0, 0, 0, 0, 18, 0, 0, 81, 0, 66, 0, 0, 35, 0, 12, 72, 29, 0, 47, 74, 39, 56
|38, 77, 0, 33, 0, 41, 0, 0, 46, 8, 42, 0, 0, 79, 18, 0, 1, 0, 0, 0, 0, 0, 80, 0, 35, 0, 55, 74, 0, 0, 0, 19, 63, 0, 54, 0, 0, 0, 73, 64, 0, 75, 0, 0, 66, 0, 22, 30, 0, 0, 15, 7, 0, 0, 0, 0, 53, 27, 0, 57, 0, 0, 23, 0, 28, 51, 0, 9, 71, 34, 0, 0, 68, 58, 3, 0, 0, 0, 81, 16, 31
|10, 71, 0, 0, 0, 21, 56, 0, 16, 30, 0, 54, 12, 0, 74, 0, 0, 37, 0, 0, 79, 0, 27, 39, 9, 0, 34, 45, 0, 59, 0, 4, 40, 64, 80, 1, 0, 44, 28, 33, 7, 53, 0, 0, 0, 69, 76, 49, 0, 0, 0, 51, 0, 0, 0, 0, 75, 0, 78, 63, 0, 0, 32, 23, 72, 15, 52, 42, 67, 0, 0, 0, 0, 0, 13, 24, 0, 0, 17, 57, 65
|48, 0, 0, 0, 80, 11, 0, 0, 45, 70, 0, 0, 3, 0, 0, 33, 62, 17, 0, 0, 0, 65, 50, 0, 29, 0, 57, 0, 5, 6, 25, 66, 8, 23, 39, 44, 76, 22, 1, 0, 0, 0, 12, 15, 0, 71, 79, 0, 0, 0, 81, 0, 0, 0, 30, 55, 34, 9, 0, 46, 0, 14, 0, 0, 53, 0, 0, 13, 0, 0, 0, 77, 0, 78, 0, 0, 60, 0, 0, 41, 0
|42, 0, 0, 0, 0, 0, 59, 0, 66, 0, 0, 0, 15, 80, 7, 0, 0, 0, 23, 33, 0, 0, 16, 0, 77, 0, 0, 0, 0, 0, 0, 0, 56, 0, 0, 0, 0, 0, 25, 0, 0, 0, 11, 14, 0, 0, 0, 70, 0, 0, 0, 57, 20, 0, 0, 0, 49, 64, 0, 0, 0, 0, 58, 0, 0, 0, 55, 21, 73, 0, 24, 37, 0, 0, 10, 22, 28, 0, 0, 27, 40
|62, 65, 0, 0, 0, 74, 12, 0, 0, 64, 0, 0, 9, 13, 57, 78, 0, 0, 0, 76, 30, 0, 0, 0, 0, 21, 56, 0, 2, 77, 10, 0, 24, 0, 52, 0, 0, 80, 0, 0, 34, 16, 5, 0, 0, 0, 0, 3, 18, 0, 72, 73, 75, 50, 0, 0, 70, 17, 45, 29, 51, 47, 0, 36, 0, 7, 59, 0, 49, 0, 69, 0, 0, 0, 0, 0, 61, 53, 0, 67, 0
|23, 0, 0, 40, 0, 0, 6, 0, 0, 0, 0, 0, 63, 48, 0, 24, 36, 10, 0, 17, 0, 0, 0, 60, 0, 68, 66, 50, 0, 0, 33, 0, 38, 0, 0, 0, 0, 27, 0, 71, 0, 13, 0, 3, 0, 56, 0, 0, 0, 19, 0, 53, 0, 58, 31, 0, 0, 37, 0, 21, 0, 0, 79, 0, 0, 75, 0, 0, 61, 1, 0, 0, 0, 0, 0, 54, 0, 49, 0, 0, 4
|68, 0, 57, 24, 0, 73, 17, 51, 61, 22, 0, 0, 75, 0, 0, 67, 29, 0, 18, 0, 0, 71, 42, 40, 0, 6, 0, 21, 0, 0, 0, 0, 81, 0, 20, 0, 49, 59, 32, 58, 56, 70, 0, 23, 0, 37, 0, 80, 35, 0, 0, 41, 9, 0, 13, 0, 43, 38, 0, 16, 0, 0, 72, 0, 10, 79, 30, 2, 19, 0, 12, 0, 14, 0, 66, 0, 44, 0, 0, 0, 0
|22, 19, 0, 58, 0, 18, 16, 0, 70, 0, 0, 0, 44, 77, 21, 0, 0, 73, 0, 0, 75, 4, 25, 0, 38, 24, 43, 0, 0, 0, 74, 30, 0, 8, 13, 52, 0, 0, 45, 0, 26, 0, 0, 0, 34, 0, 37, 0, 46, 71, 5, 0, 64, 55, 63, 0, 0, 57, 0, 23, 32, 0, 6, 61, 0, 67, 68, 12, 0, 0, 49, 69, 76, 36, 0, 28, 0, 39, 59, 0, 1
|43, 56, 0, 80, 0, 77, 0, 31, 0, 0, 0, 0, 0, 0, 70, 0, 12, 0, 49, 0, 0, 0, 8, 0, 22, 39, 65, 0, 55, 5, 0, 78, 0, 63, 24, 2, 0, 41, 37, 61, 0, 68, 54, 58, 0, 0, 0, 62, 40, 75, 0, 11, 0, 0, 0, 81, 47, 0, 0, 0, 59, 1, 0, 0, 71, 76, 72, 0, 60, 21, 0, 0, 44, 50, 0, 0, 0, 0, 0, 0, 0
|0, 0, 0, 0, 59, 0, 55, 46, 6, 17, 31, 0, 2, 23, 0, 35, 0, 0, 40, 0, 64, 0, 0, 67, 0, 0, 0, 62, 0, 0, 0, 58, 26, 0, 77, 80, 0, 0, 0, 0, 16, 0, 70, 60, 0, 74, 61, 0, 0, 0, 45, 0, 25, 56, 3, 0, 0, 0, 0, 39, 52, 0, 51, 0, 5, 57, 0, 0, 50, 36, 0, 0, 19, 4, 8, 0, 0, 37, 0, 63, 0
|0, 0, 0, 0, 0, 0, 0, 8, 67, 0, 0, 72, 20, 0, 19, 0, 81, 0, 0, 0, 74, 0, 54, 0, 0, 0, 59, 35, 0, 23, 0, 44, 0, 0, 70, 0, 28, 0, 49, 0, 4, 0, 0, 0, 1, 0, 60, 0, 0, 32, 0, 66, 0, 0, 0, 38, 0, 79, 41, 14, 36, 69, 31, 25, 0, 62, 0, 0, 0, 0, 0, 47, 0, 77, 0, 0, 0, 0, 0, 73, 0
|74, 0, 68, 0, 57, 25, 13, 12, 0, 0, 52, 0, 71, 0, 0, 79, 63, 0, 26, 0, 60, 15, 23, 42, 16, 9, 0, 0, 0, 4, 0, 0, 0, 0, 81, 0, 22, 48, 50, 19, 0, 0, 0, 62, 55, 0, 29, 21, 10, 0, 14, 2, 77, 0, 35, 80, 0, 0, 40, 0, 44, 0, 5, 0, 0, 59, 0, 17, 1, 0, 45, 27, 72, 51, 70, 7, 64, 0, 0, 0, 24
|0, 0, 23, 45, 0, 32, 63, 42, 0, 0, 0, 37, 0, 67, 0, 57, 0, 0, 0, 29, 33, 35, 55, 12, 0, 0, 0, 56, 64, 1, 47, 0, 0, 0, 25, 76, 9, 39, 0, 0, 0, 79, 27, 0, 6, 0, 0, 0, 0, 81, 0, 0, 73, 0, 0, 0, 62, 0, 0, 48, 0, 11, 10, 13, 0, 40, 0, 0, 14, 75, 78, 7, 66, 60, 20, 58, 54, 74, 0, 15, 38
|9, 0, 65, 61, 0, 72, 40, 81, 0, 0, 0, 0, 0, 24, 22, 0, 7, 43, 45, 0, 73, 0, 0, 80, 63, 41, 0, 14, 0, 21, 20, 31, 48, 0, 10, 0, 0, 0, 74, 0, 8, 0, 56, 33, 0, 0, 0, 0, 0, 0, 19, 0, 0, 0, 60, 26, 0, 0, 76, 4, 58, 42, 77, 2, 79, 0, 46, 0, 70, 0, 34, 66, 0, 13, 67, 78, 57, 55, 0, 0, 0
|0, 0, 0, 0, 0, 5, 29, 0, 49, 0, 0, 0, 0, 15, 0, 0, 25, 0, 0, 58, 0, 0, 0, 34, 13, 46, 72, 60, 43, 0, 59, 41, 27, 0, 32, 53, 64, 0, 0, 0, 18, 0, 0, 21, 0, 79, 0, 0, 0, 70, 0, 0, 6, 57, 0, 56, 50, 0, 0, 74, 0, 0, 22, 0, 0, 0, 63, 0, 33, 0, 0, 0, 10, 0, 0, 0, 3, 62, 0, 45, 2
|27, 0, 36, 34, 60, 0, 44, 0, 76, 0, 0, 58, 0, 69, 0, 40, 66, 56, 0, 77, 0, 62, 0, 0, 17, 7, 0, 57, 0, 0, 0, 42, 65, 12, 15, 0, 0, 13, 23, 0, 11, 0, 0, 0, 5, 4, 33, 0, 0, 35, 41, 54, 0, 31, 78, 61, 0, 0, 0, 0, 0, 20, 0, 0, 55, 0, 74, 0, 0, 0, 80, 0, 43, 14, 0, 0, 21, 22, 53, 75, 25
|20, 51, 0, 0, 0, 0, 0, 21, 26, 42, 0, 63, 0, 0, 10, 81, 0, 70, 35, 40, 0, 44, 0, 0, 0, 0, 67, 0, 0, 49, 52, 0, 0, 6, 43, 15, 0, 31, 0, 23, 62, 71, 61, 0, 0, 0, 41, 0, 0, 0, 76, 69, 57, 0, 64, 0, 25, 11, 0, 0, 8, 30, 0, 0, 0, 14, 4, 68, 36, 5, 75, 55, 0, 0, 0, 0, 39, 0, 78, 34, 0
|0, 0, 0, 71, 0, 81, 0, 0, 0, 19, 20, 43, 29, 5, 27, 15, 39, 53, 0, 0, 0, 0, 0, 21, 0, 4, 6, 64, 67, 45, 0, 73, 0, 10, 62, 0, 75, 0, 0, 0, 65, 0, 0, 36, 0, 0, 0, 18, 11, 0, 0, 0, 0, 30, 0, 22, 26, 63, 2, 0, 0, 0, 0, 0, 0, 0, 80, 28, 0, 25, 0, 33, 0, 8, 0, 0, 23, 0, 0, 0, 0
|0, 45, 41, 0, 7, 61, 22, 47, 35, 0, 0, 0, 0, 52, 0, 0, 76, 0, 0, 20, 48, 75, 19, 0, 0, 0, 17, 0, 0, 16, 55, 77, 0, 0, 0, 18, 0, 29, 5, 24, 44, 3, 0, 0, 81, 38, 78, 31, 79, 50, 0, 67, 56, 0, 23, 49, 0, 40, 0, 10, 0, 0, 9, 0, 15, 42, 0, 70, 2, 0, 54, 64, 0, 0, 0, 0, 0, 0, 27, 0, 60
|0, 57, 0, 16, 0, 0, 8, 0, 80, 54, 69, 0, 0, 0, 14, 0, 67, 79, 0, 0, 39, 0, 52, 0, 10, 1, 0, 0, 13, 44, 23, 0, 0, 0, 11, 0, 19, 74, 40, 27, 49, 0, 34, 43, 2, 60, 0, 71, 0, 0, 0, 0, 15, 0, 55, 0, 0, 0, 53, 0, 6, 50, 24, 0, 51, 38, 0, 37, 35, 62, 18, 17, 0, 46, 58, 0, 70, 3, 0, 0, 0
|54, 23, 37, 0, 42, 0, 0, 34, 39, 28, 25, 2, 33, 0, 1, 0, 24, 0, 0, 74, 0, 57, 0, 18, 36, 71, 0, 8, 0, 0, 27, 0, 0, 48, 0, 69, 0, 50, 66, 0, 0, 9, 46, 64, 11, 0, 55, 35, 44, 0, 0, 72, 70, 0, 5, 75, 13, 78, 0, 0, 0, 76, 0, 59, 45, 0, 0, 20, 79, 10, 0, 61, 0, 0, 6, 0, 17, 0, 0, 21, 0
|31, 9, 0, 15, 0, 0, 25, 0, 0, 59, 80, 68, 62, 0, 0, 0, 22, 0, 0, 0, 56, 0, 26, 58, 12, 0, 23, 0, 0, 0, 21, 57, 0, 0, 42, 70, 55, 0, 0, 69, 0, 7, 0, 0, 0, 77, 54, 17, 0, 0, 0, 5, 0, 19, 45, 0, 0, 81, 0, 20, 0, 0, 4, 27, 49, 0, 0, 63, 0, 0, 0, 0, 0, 1, 48, 0, 18, 0, 0, 0, 0
|0, 5, 33, 0, 0, 19, 58, 11, 0, 0, 0, 4, 32, 61, 0, 44, 23, 0, 38, 0, 63, 0, 0, 55, 15, 66, 27, 41, 0, 34, 0, 12, 54, 2, 1, 36, 78, 51, 47, 0, 0, 8, 30, 0, 0, 0, 46, 0, 0, 0, 0, 0, 53, 25, 80, 0, 28, 0, 0, 0, 0, 43, 3, 0, 0, 72, 0, 0, 22, 0, 0, 56, 42, 69, 29, 0, 0, 16, 0, 71, 0
|70, 32, 0, 43, 72, 27, 0, 0, 52, 12, 78, 0, 0, 50, 48, 0, 0, 75, 0, 0, 62, 77, 0, 22, 3, 0, 0, 5, 63, 7, 0, 0, 17, 31, 60, 25, 0, 18, 0, 57, 0, 80, 0, 54, 42, 73, 0, 0, 45, 58, 9, 0, 0, 66, 0, 0, 0, 47, 0, 0, 46, 71, 44, 6, 29, 16, 39, 34, 0, 40, 41, 21, 20, 0, 0, 0, 0, 0, 0, 0, 51
|0, 55, 0, 0, 0, 1, 36, 78, 0, 46, 47, 0, 0, 0, 6, 0, 0, 77, 81, 0, 68, 54, 13, 0, 11, 0, 0, 0, 80, 38, 0, 0, 0, 0, 0, 39, 0, 76, 35, 79, 25, 60, 63, 22, 0, 0, 0, 20, 0, 74, 12, 61, 16, 2, 0, 37, 0, 41, 27, 42, 0, 34, 0, 58, 0, 0, 73, 31, 0, 57, 0, 52, 0, 10, 9, 43, 66, 0, 0, 5, 0
|0, 41, 0, 69, 47, 3, 0, 27, 0, 0, 51, 31, 0, 9, 0, 42, 70, 0, 0, 0, 0, 0, 22, 0, 0, 0, 0, 0, 56, 8, 11, 0, 34, 14, 0, 24, 0, 0, 80, 0, 0, 65, 0, 17, 0, 30, 0, 0, 39, 66, 0, 0, 19, 0, 76, 12, 68, 28, 0, 64, 77, 59, 73, 55, 0, 43, 10, 0, 0, 0, 0, 36, 0, 16, 0, 38, 48, 40, 13, 74, 57
|0, 64, 0, 46, 77, 0, 0, 70, 0, 0, 24, 10, 78, 7, 40, 34, 53, 0, 29, 0, 51, 14, 76, 6, 72, 62, 0, 1, 0, 0, 0, 74, 0, 15, 47, 0, 66, 0, 0, 42, 0, 0, 16, 75, 33, 0, 73, 69, 9, 11, 0, 0, 0, 23, 39, 0, 0, 0, 8, 80, 0, 63, 50, 68, 2, 17, 56, 67, 65, 0, 27, 0, 0, 0, 0, 0, 4, 0, 0, 36, 71
|79, 18, 0, 0, 36, 51, 0, 0, 0, 0, 2, 38, 0, 30, 0, 3, 20, 0, 67, 61, 9, 48, 0, 0, 0, 0, 0, 0, 35, 69, 0, 0, 78, 49, 0, 22, 0, 0, 0, 52, 0, 57, 0, 0, 19, 64, 0, 0, 55, 10, 24, 37, 34, 5, 0, 13, 0, 0, 33, 0, 0, 26, 0, 75, 0, 0, 15, 0, 80, 72, 28, 29, 32, 0, 0, 0, 7, 0, 12, 0, 0
|0, 0, 40, 0, 0, 30, 0, 75, 7, 26, 62, 67, 0, 18, 0, 45, 49, 0, 64, 0, 0, 0, 0, 15, 71, 0, 8, 0, 0, 63, 0, 0, 79, 0, 3, 0, 0, 0, 34, 48, 59, 27, 0, 0, 0, 0, 0, 16, 0, 46, 0, 1, 0, 53, 6, 0, 0, 0, 0, 0, 0, 0, 56, 0, 0, 0, 50, 61, 57, 0, 0, 19, 0, 65, 0, 10, 20, 0, 55, 0, 0
|0, 0, 0, 29, 20, 0, 0, 0, 62, 68, 43, 73, 60, 0, 0, 0, 44, 22, 0, 0, 0, 0, 0, 0, 0, 0, 0, 72, 0, 17, 40, 53, 0, 52, 18, 0, 69, 0, 39, 0, 71, 0, 0, 32, 0, 31, 0, 0, 6, 0, 0, 0, 35, 70, 19, 79, 41, 0, 11, 0, 0, 0, 47, 0, 0, 0, 7, 0, 0, 0, 5, 0, 28, 0, 0, 0, 0, 0, 0, 1, 3
|0, 0, 0, 0, 0, 0, 72, 0, 9, 0, 23, 71, 14, 0, 56, 0, 28, 36, 69, 0, 0, 0, 0, 0, 0, 77, 0, 0, 0, 43, 19, 76, 75, 42, 66, 0, 0, 79, 61, 6, 0, 44, 10, 4, 53, 0, 27, 2, 38, 22, 50, 0, 49, 0, 32, 16, 1, 0, 0, 3, 65, 0, 0, 41, 0, 0, 51, 8, 0, 24, 0, 0, 0, 0, 0, 17, 15, 0, 21, 68, 67
|44, 0, 61, 55, 74, 33, 0, 0, 0, 0, 57, 48, 65, 41, 0, 29, 19, 69, 0, 12, 0, 2, 0, 17, 32, 0, 16, 27, 46, 67, 62, 60, 45, 51, 0, 5, 30, 14, 13, 31, 70, 58, 18, 40, 8, 72, 7, 76, 26, 3, 0, 0, 0, 4, 0, 0, 0, 36, 0, 0, 22, 0, 78, 1, 66, 73, 0, 53, 11, 54, 6, 25, 56, 0, 0, 0, 0, 81, 0, 79, 0
|49, 0, 0, 68, 2, 24, 54, 14, 0, 0, 61, 0, 52, 0, 0, 12, 79, 0, 60, 13, 44, 19, 0, 0, 0, 25, 73, 0, 0, 0, 0, 0, 64, 7, 0, 30, 0, 0, 56, 26, 0, 0, 0, 28, 0, 18, 71, 0, 33, 77, 0, 40, 0, 0, 66, 67, 0, 29, 57, 62, 0, 0, 0, 74, 9, 0, 35, 76, 0, 0, 0, 63, 0, 0, 0, 39, 0, 0, 0, 0, 0
|16, 43, 53, 0, 11, 0, 19, 0, 0, 47, 6, 0, 21, 27, 0, 0, 0, 66, 0, 63, 0, 70, 0, 31, 0, 0, 0, 0, 36, 0, 0, 80, 68, 61, 0, 71, 0, 81, 0, 0, 15, 74, 23, 67, 64, 13, 52, 0, 0, 0, 57, 0, 0, 0, 0, 42, 51, 0, 60, 35, 7, 0, 49, 69, 0, 44, 62, 0, 3, 0, 48, 0, 77, 0, 76, 34, 72, 58, 29, 25, 14
|26, 0, 43, 0, 53, 44, 0, 0, 0, 0, 17, 0, 61, 28, 0, 0, 0, 64, 0, 0, 46, 37, 0, 0, 70, 32, 51, 0, 22, 0, 0, 11, 12, 0, 76, 0, 27, 0, 0, 59, 0, 0, 0, 38, 0, 40, 0, 0, 69, 67, 74, 0, 0, 21, 0, 0, 16, 0, 0, 66, 0, 31, 0, 52, 75, 0, 8, 23, 0, 0, 58, 0, 78, 0, 0, 14, 0, 1, 0, 54, 68
|76, 0, 0, 0, 22, 0, 14, 0, 10, 0, 0, 80, 38, 0, 54, 5, 0, 0, 0, 42, 0, 1, 0, 0, 0, 0, 0, 0, 29, 0, 75, 0, 0, 0, 57, 0, 15, 45, 65, 13, 0, 62, 48, 69, 68, 0, 64, 73, 58, 0, 6, 0, 0, 0, 4, 30, 0, 8, 47, 0, 0, 70, 26, 50, 20, 24, 0, 49, 0, 37, 0, 0, 0, 56, 2, 0, 0, 0, 0, 0, 0
|45, 31, 71, 0, 0, 0, 51, 0, 0, 0, 0, 66, 37, 0, 46, 0, 0, 0, 12, 35, 0, 73, 0, 0, 0, 64, 10, 0, 0, 0, 32, 0, 39, 0, 0, 72, 24, 0, 20, 77, 0, 0, 81, 0, 78, 53, 18, 79, 0, 14, 42, 0, 60, 28, 0, 9, 3, 0, 74, 76, 0, 68, 0, 22, 38, 5, 1, 0, 29, 11, 0, 0, 0, 49, 69, 70, 0, 36, 80, 61, 33
|0, 49, 0, 64, 28, 0, 0, 5, 0, 0, 1, 6, 0, 12, 75, 0, 0, 0, 0, 0, 0, 20, 0, 0, 34, 0, 13, 4, 73, 26, 53, 0, 60, 0, 78, 0, 58, 0, 44, 0, 0, 39, 0, 63, 0, 55, 0, 9, 76, 0, 30, 0, 0, 0, 0, 0, 0, 0, 0, 0, 0, 0, 43, 57, 0, 70, 0, 0, 0, 0, 0, 59, 40, 0, 18, 0, 0, 52, 0, 50, 0
|57, 0, 69, 0, 61, 0, 9, 0, 0, 0, 0, 0, 0, 22, 30, 0, 14, 0, 71, 2, 11, 0, 48, 0, 0, 75, 0, 0, 24, 0, 65, 37, 0, 0, 0, 0, 0, 0, 0, 8, 46, 0, 0, 34, 0, 0, 0, 0, 66, 63, 0, 0, 0, 0, 10, 0, 0, 0, 0, 0, 0, 78, 0, 0, 0, 54, 53, 4, 18, 73, 0, 41, 0, 17, 0, 3, 0, 0, 72, 0, 0
|0, 0, 0, 54, 0, 65, 3, 0, 63, 0, 33, 57, 0, 0, 36, 0, 68, 50, 0, 72, 22, 0, 58, 79, 61, 76, 0, 0, 38, 46, 0, 0, 0, 67, 49, 0, 0, 52, 2, 0, 0, 37, 64, 47, 0, 8, 0, 11, 0, 56, 0, 0, 51, 0, 34, 0, 40, 0, 0, 71, 14, 18, 60, 81, 0, 39, 43, 78, 62, 0, 30, 45, 0, 55, 0, 0, 10, 41, 0, 26, 0
|33, 0, 11, 0, 70, 39, 0, 0, 29, 27, 72, 0, 24, 51, 2, 20, 0, 40, 0, 21, 57, 67, 0, 0, 0, 78, 0, 63, 0, 25, 0, 0, 0, 54, 0, 0, 0, 56, 0, 10, 0, 19, 17, 0, 0, 61, 16, 45, 0, 68, 75, 0, 3, 59, 65, 0, 35, 50, 0, 0, 48, 0, 0, 0, 0, 71, 66, 0, 0, 0, 79, 76, 34, 43, 0, 0, 38, 13, 0, 0, 44
|0, 0, 81, 42, 0, 0, 0, 1, 0, 0, 7, 44, 70, 39, 0, 10, 71, 8, 0, 26, 43, 0, 31, 66, 0, 0, 0, 0, 16, 0, 0, 52, 5, 0, 0, 59, 0, 23, 60, 0, 0, 0, 32, 73, 0, 48, 12, 24, 0, 38, 0, 0, 13, 37, 0, 0, 0, 0, 64, 22, 2, 0, 0, 14, 0, 47, 33, 0, 28, 9, 0, 80, 53, 29, 15, 0, 0, 0, 0, 0, 0
|0, 0, 0, 0, 0, 50, 80, 4, 58, 0, 67, 9, 18, 59, 0, 76, 42, 49, 0, 0, 69, 0, 0, 0, 47, 40, 24, 0, 0, 74, 0, 7, 0, 44, 0, 10, 0, 61, 11, 0, 0, 43, 75, 0, 79, 26, 20, 0, 71, 0, 0, 0, 0, 54, 46, 0, 0, 25, 0, 33, 0, 81, 0, 0, 0, 0, 0, 27, 0, 3, 2, 6, 21, 37, 30, 0, 12, 57, 28, 0, 0
|0, 79, 0, 51, 0, 7, 0, 0, 0, 9, 22, 46, 0, 58, 0, 0, 75, 0, 61, 45, 0, 0, 30, 0, 0, 0, 11, 28, 0, 0, 66, 0, 25, 0, 0, 0, 0, 10, 68, 0, 37, 0, 0, 0, 0, 21, 19, 33, 0, 0, 16, 24, 74, 65, 50, 0, 0, 73, 43, 0, 47, 0, 39, 3, 59, 0, 0, 40, 0, 48, 0, 0, 0, 38, 0, 0, 27, 15, 0, 29, 0
|0, 0, 0, 0, 0, 0, 0, 20, 0, 51, 76, 0, 0, 64, 73, 63, 0, 11, 0, 0, 0, 0, 0, 57, 0, 60, 22, 0, 42, 18, 69, 17, 35, 37, 0, 0, 0, 78, 0, 16, 0, 26, 62, 46, 71, 52, 1, 38, 59, 7, 0, 0, 55, 32, 0, 0, 2, 6, 12, 0, 0, 0, 0, 15, 0, 56, 79, 14, 8, 28, 0, 68, 39, 53, 45, 47, 0, 61, 0, 31, 0
|52, 0, 0, 59, 0, 76, 62, 0, 0, 0, 68, 21, 6, 0, 0, 0, 0, 61, 0, 0, 42, 0, 0, 71, 64, 56, 0, 81, 0, 58, 0, 0, 0, 0, 74, 9, 72, 0, 22, 0, 2, 23, 0, 0, 15, 0, 0, 0, 0, 0, 0, 10, 0, 0, 0, 0, 0, 0, 0, 0, 0, 0, 80, 0, 63, 0, 16, 30, 39, 53, 0, 0, 0, 0, 50, 0, 77, 0, 26, 28, 0
|0, 28, 70, 50, 54, 80, 5, 0, 0, 24, 0, 0, 0, 0, 0, 0, 0, 32, 0, 0, 67, 47, 68, 0, 33, 0, 31, 22, 71, 36, 0, 0, 44, 26, 46, 40, 0, 9, 0, 0, 0, 18, 43, 0, 14, 49, 72, 0, 8, 0, 0, 17, 0, 0, 1, 29, 0, 74, 58, 0, 69, 0, 0, 10, 0, 34, 75, 0, 77, 81, 21, 4, 55, 11, 0, 2, 76, 23, 42, 0, 0
|0, 10, 0, 41, 45, 0, 0, 68, 0, 0, 0, 81, 27, 0, 39, 0, 0, 0, 0, 8, 0, 74, 77, 16, 0, 63, 0, 51, 57, 0, 0, 0, 0, 0, 59, 73, 35, 7, 0, 0, 0, 4, 6, 0, 0, 25, 36, 0, 14, 9, 0, 76, 37, 0, 21, 32, 11, 42, 26, 53, 72, 0, 55, 71, 70, 61, 0, 0, 69, 67, 62, 0, 17, 75, 80, 40, 0, 0, 0, 3, 43
|15, 0, 35, 0, 38, 49, 0, 0, 0, 80, 28, 40, 67, 0, 0, 36, 78, 34, 65, 0, 2, 0, 0, 0, 73, 0, 0, 55, 54, 0, 64, 0, 0, 24, 0, 32, 0, 12, 8, 70, 0, 0, 51, 0, 69, 75, 42, 0, 23, 30, 3, 18, 4, 63, 61, 48, 0, 0, 9, 60, 76, 33, 0, 17, 0, 27, 0, 50, 0, 20, 66, 46, 0, 0, 0, 41, 0, 0, 0, 0, 21
|17, 30, 55, 0, 0, 6, 0, 63, 57, 0, 41, 0, 66, 0, 0, 23, 69, 29, 0, 46, 34, 38, 40, 48, 0, 70, 0, 0, 0, 0, 0, 39, 0, 0, 0, 60, 0, 24, 0, 0, 76, 0, 59, 42, 0, 15, 0, 0, 50, 0, 73, 0, 0, 80, 0, 0, 52, 0, 35, 28, 49, 0, 81, 0, 0, 36, 47, 54, 13, 0, 44, 0, 0, 9, 51, 0, 0, 0, 0, 0, 0
|0, 26, 0, 39, 12, 40, 69, 0, 0, 0, 0, 0, 0, 0, 55, 0, 0, 47, 52, 5, 6, 0, 0, 0, 0, 0, 7, 0, 50, 0, 76, 70, 0, 0, 21, 0, 60, 0, 33, 0, 17, 34, 25, 0, 0, 62, 43, 0, 0, 0, 0, 0, 0, 0, 71, 44, 4, 22, 0, 0, 23, 0, 0, 0, 0, 80, 0, 0, 0, 41, 0, 0, 64, 66, 14, 72, 1, 0, 10, 32, 0
|58, 0, 21, 0, 16, 23, 0, 0, 0, 33, 38, 0, 50, 0, 72, 0, 0, 14, 66, 0, 0, 0, 0, 0, 0, 0, 69, 0, 27, 19, 30, 43, 0, 53, 0, 6, 80, 0, 0, 3, 47, 0, 0, 55, 0, 0, 0, 12, 0, 0, 0, 0, 45, 71, 67, 57, 78, 10, 0, 31, 0, 0, 8, 7, 0, 22, 0, 74, 0, 76, 0, 0, 0, 73, 0, 35, 24, 0, 0, 59, 13|];