order = 9;
grid = [|45, 20, 0, 0, 0, 52, 0, 7, 31, 0, 0, 0, 0, 0, 0, 41, 14, 0, 77, 0, 56, 55, 75, 19, 0, 63, 28, 0, 0, 0, 3, 53, 33, 0, 0, 0, 0, 12, 0, 5, 0, 0, 9, 0, 79, 0, 16, 42, 32, 54, 0, 37, 0, 72, 0, 71, 0, 0, 58, 0, 0, 69, 0, 0, 0, 0, 13, 0, 0, 0, 0, 0, 0, 35, 0, 0, 0, 0, 0, 39, 0
|0, 57, 0, 0, 80, 67, 0, 0, 5, 16, 0, 32, 42, 81, 0, 0, 0, 47, 0, 4, 68, 69, 0, 14, 0, 0, 76, 62, 34, 2, 0, 0, 0, 0, 0, 0, 0, 0, 0, 0, 61, 50, 0, 77, 10, 55, 38, 24, 0, 0, 0, 0, 19, 51, 17, 0, 0, 41, 0, 31, 0, 0, 0, 0, 6, 59, 65, 22, 43, 0, 0, 0, 52, 0, 0, 25, 0, 37, 45, 0, 0
|0, 15, 0, 0, 0, 34, 0, 0, 62, 0, 0, 0, 3, 79, 77, 0, 58, 67, 0, 0, 71, 0, 0, 0, 39, 0, 60, 74, 43, 0, 0, 0, 75, 59, 0, 0, 0, 35, 0, 1, 0, 66, 0, 54, 0, 21, 0, 78, 18, 0, 5, 22, 48, 0, 0, 0, 0, 70, 42, 0, 0, 0, 0, 33, 41, 0, 0, 0, 0, 0, 0, 0, 0, 28, 17, 57, 14, 9, 0, 0, 0
|0, 0, 24, 0, 0, 6, 0, 0, 0, 0, 0, 0, 36, 0, 0, 0, 28, 57, 0, 0, 0, 47, 0, 52, 0, 0, 5, 0, 0, 0, 22, 7, 0, 0, 0, 44, 0, 0, 0, 59, 68, 0, 73, 46, 72, 0, 27, 75, 0, 0, 1, 50, 58, 0, 8, 0, 0, 0, 56, 0, 0, 37, 62, 0, 20, 48, 0, 0, 0, 0, 67, 0, 81, 0, 0, 51, 60, 0, 38, 53, 0
|55, 48, 0, 0, 0, 25, 0, 18, 72, 69, 33, 0, 66, 7, 0, 56, 59, 20, 2, 0, 0, 0, 0, 9, 34, 0, 0, 38, 28, 0, 0, 14, 47, 0, 78, 0, 0, 0, 13, 19, 0, 30, 49, 75, 0, 0, 79, 0, 6, 23, 0, 0, 0, 81, 52, 51, 0, 0, 0, 0, 0, 0, 80, 0, 53, 35, 0, 0, 0, 0, 21, 68, 63, 36, 0, 1, 67, 0, 16, 0, 0
|0, 65, 0, 14, 44, 0, 21, 0, 16, 0, 0, 0, 0, 72, 0, 2, 0, 0, 0, 0, 0, 31, 0, 36, 0, 41, 51, 73, 1, 0, 12, 0, 0, 71, 24, 0, 0, 0, 0, 0, 0, 74, 69, 0, 78, 62, 52, 13, 0, 0, 0, 0, 53, 11, 35, 0, 75, 0, 66, 7, 26, 0, 9, 0, 19, 3, 0, 63, 30, 60, 23, 0, 0, 0, 0, 0, 0, 0, 0, 6, 5
|0, 0, 0, 0, 0, 27, 60, 28, 46, 0, 62, 0, 0, 9, 51, 54, 0, 76, 50, 0, 61, 43, 15, 0, 0, 73, 48, 4, 57, 80, 13, 0, 0, 0, 56, 0, 23, 18, 31, 47, 26, 14, 8, 0, 64, 0, 0, 0, 0, 0, 0, 59, 0, 20, 0, 33, 32, 68, 0, 53, 22, 0, 0, 42, 0, 81, 0, 0, 0, 0, 0, 70, 3, 55, 75, 77, 0, 0, 72, 74, 79
|0, 0, 11, 0, 47, 50, 0, 76, 0, 0, 0, 0, 0, 0, 4, 0, 0, 0, 17, 79, 0, 0, 38, 0, 0, 0, 70, 20, 0, 0, 0, 0, 32, 5, 69, 72, 0, 0, 0, 0, 0, 63, 33, 7, 22, 28, 10, 0, 67, 0, 80, 0, 29, 66, 54, 0, 13, 30, 3, 74, 0, 0, 0, 0, 51, 0, 77, 0, 0, 0, 0, 39, 0, 0, 0, 42, 34, 0, 0, 24, 41
|0, 0, 19, 75, 0, 63, 22, 0, 70, 80, 0, 0, 0, 68, 0, 0, 0, 34, 13, 20, 0, 0, 49, 67, 59, 45, 30, 0, 0, 55, 39, 51, 0, 6, 37, 64, 0, 17, 60, 0, 0, 0, 71, 0, 36, 0, 41, 0, 0, 0, 0, 0, 25, 0, 10, 81, 0, 38, 77, 21, 0, 50, 0, 62, 0, 0, 0, 66, 44, 0, 0, 0, 0, 0, 48, 0, 33, 23, 0, 12, 0
|22, 0, 55, 65, 0, 26, 0, 62, 2, 58, 0, 0, 48, 50, 9, 6, 0, 0, 0, 0, 79, 0, 4, 0, 0, 43, 38, 0, 0, 12, 0, 0, 0, 0, 0, 0, 0, 47, 0, 24, 30, 81, 0, 72, 74, 29, 76, 0, 0, 3, 46, 0, 0, 54, 53, 49, 0, 33, 14, 73, 57, 0, 0, 44, 0, 0, 0, 41, 0, 0, 7, 21, 69, 11, 0, 27, 59, 0, 40, 0, 19
|67, 58, 0, 0, 0, 19, 38, 0, 29, 66, 26, 21, 0, 27, 0, 0, 62, 0, 52, 0, 53, 15, 0, 0, 0, 68, 11, 0, 40, 0, 0, 69, 0, 0, 39, 50, 0, 6, 0, 0, 71, 0, 64, 37, 44, 73, 72, 20, 61, 0, 12, 14, 5, 16, 74, 0, 76, 0, 0, 65, 36, 0, 10, 57, 25, 31, 3, 0, 0, 0, 0, 48, 0, 0, 22, 0, 0, 43, 81, 77, 63
|6, 0, 36, 11, 0, 0, 5, 0, 0, 2, 55, 0, 53, 0, 25, 67, 0, 0, 44, 29, 76, 0, 33, 0, 13, 0, 0, 0, 0, 0, 0, 57, 0, 0, 52, 0, 0, 79, 80, 51, 0, 0, 27, 0, 61, 59, 1, 0, 0, 0, 24, 0, 65, 41, 0, 45, 0, 0, 0, 0, 56, 0, 0, 0, 28, 0, 73, 69, 66, 71, 46, 0, 0, 0, 62, 70, 0, 0, 0, 34, 4
|0, 14, 73, 64, 69, 59, 57, 0, 79, 0, 0, 1, 0, 0, 45, 30, 0, 0, 0, 0, 0, 25, 5, 0, 0, 0, 17, 29, 0, 4, 11, 15, 66, 2, 0, 0, 0, 0, 0, 26, 0, 0, 18, 32, 16, 0, 0, 0, 42, 49, 34, 62, 0, 0, 0, 38, 0, 0, 27, 0, 0, 0, 0, 76, 24, 0, 0, 10, 19, 0, 80, 60, 46, 7, 6, 68, 53, 0, 0, 78, 0
|0, 54, 20, 33, 0, 0, 9, 0, 0, 57, 0, 0, 0, 0, 0, 0, 77, 0, 0, 0, 0, 0, 0, 63, 14, 0, 0, 0, 0, 35, 0, 26, 28, 0, 0, 0, 0, 0, 0, 52, 0, 8, 0, 0, 0, 80, 30, 0, 55, 6, 56, 0, 78, 17, 0, 47, 61, 0, 46, 0, 0, 0, 42, 0, 0, 0, 39, 12, 0, 0, 68, 13, 0, 67, 0, 74, 24, 72, 65, 38, 18
|0, 31, 71, 0, 61, 0, 0, 0, 0, 0, 80, 13, 23, 46, 0, 0, 79, 0, 59, 72, 24, 0, 0, 66, 0, 0, 16, 0, 74, 0, 53, 0, 77, 32, 34, 62, 0, 40, 0, 75, 55, 38, 41, 76, 42, 0, 0, 0, 43, 69, 0, 18, 0, 19, 68, 12, 48, 0, 21, 0, 25, 0, 0, 8, 4, 0, 0, 0, 11, 54, 0, 58, 57, 17, 29, 0, 0, 0, 36, 44, 0
|0, 0, 53, 0, 0, 0, 0, 47, 0, 0, 0, 0, 18, 35, 0, 0, 0, 24, 0, 0, 81, 0, 3, 57, 0, 0, 27, 67, 25, 5, 43, 0, 0, 0, 41, 0, 0, 0, 68, 36, 0, 0, 31, 0, 13, 0, 75, 0, 2, 0, 0, 0, 28, 0, 0, 62, 51, 0, 0, 29, 16, 0, 72, 0, 14, 63, 0, 49, 74, 0, 0, 0, 0, 45, 76, 0, 52, 48, 0, 66, 73
|68, 0, 10, 13, 48, 7, 0, 51, 0, 0, 64, 74, 0, 60, 0, 0, 0, 0, 73, 46, 62, 49, 0, 0, 54, 0, 0, 0, 27, 0, 0, 0, 0, 0, 0, 0, 53, 22, 0, 0, 15, 0, 21, 0, 0, 0, 0, 11, 0, 25, 0, 57, 0, 0, 0, 4, 41, 69, 0, 23, 17, 19, 0, 0, 79, 0, 34, 2, 0, 0, 29, 0, 0, 31, 12, 35, 20, 55, 0, 0, 0
|30, 80, 0, 0, 0, 0, 0, 16, 45, 37, 19, 0, 44, 0, 0, 0, 41, 0, 21, 0, 0, 6, 0, 0, 23, 40, 20, 36, 0, 73, 76, 33, 0, 0, 0, 0, 0, 0, 0, 25, 0, 57, 0, 0, 0, 0, 48, 0, 0, 0, 0, 63, 0, 26, 24, 0, 78, 54, 32, 0, 81, 3, 59, 77, 17, 0, 0, 0, 47, 0, 0, 43, 0, 0, 0, 0, 0, 64, 42, 2, 0
|0, 0, 0, 47, 58, 36, 41, 27, 0, 13, 16, 0, 60, 0, 0, 0, 0, 29, 75, 2, 0, 38, 0, 0, 9, 51, 40, 32, 0, 0, 52, 0, 0, 0, 0, 0, 33, 78, 0, 0, 45, 71, 20, 44, 0, 72, 37, 8, 24, 12, 6, 76, 0, 0, 0, 0, 77, 0, 0, 0, 0, 0, 0, 5, 0, 39, 0, 0, 63, 0, 79, 26, 56, 0, 0, 50, 21, 0, 64, 0, 0
|7, 34, 56, 9, 0, 0, 0, 0, 0, 0, 21, 27, 2, 10, 0, 64, 0, 77, 35, 0, 50, 0, 0, 0, 79, 0, 53, 0, 78, 0, 24, 0, 37, 0, 30, 0, 70, 14, 0, 0, 0, 0, 0, 0, 0, 0, 0, 0, 0, 0, 20, 48, 36, 0, 11, 57, 0, 0, 0, 0, 0, 33, 54, 0, 0, 52, 76, 0, 0, 0, 0, 38, 12, 0, 49, 43, 45, 0, 0, 29, 0
|0, 76, 46, 63, 59, 29, 0, 19, 10, 0, 0, 0, 65, 53, 47, 17, 57, 79, 0, 52, 0, 39, 73, 21, 0, 64, 0, 68, 0, 0, 34, 0, 23, 69, 0, 5, 0, 0, 0, 11, 18, 42, 0, 0, 12, 0, 0, 0, 28, 0, 0, 0, 0, 67, 51, 0, 81, 0, 0, 37, 8, 0, 0, 48, 0, 0, 0, 0, 7, 66, 0, 0, 35, 22, 32, 58, 0, 33, 0, 0, 0
|0, 0, 0, 0, 0, 45, 70, 48, 1, 0, 23, 0, 0, 0, 0, 76, 30, 41, 0, 5, 0, 0, 0, 0, 0, 0, 0, 0, 0, 0, 0, 18, 0, 0, 80, 0, 0, 66, 0, 79, 49, 0, 0, 8, 0, 34, 51, 0, 40, 35, 19, 27, 2, 0, 0, 56, 60, 39, 7, 3, 0, 0, 0, 0, 0, 0, 33, 0, 21, 0, 0, 46, 72, 44, 42, 0, 57, 0, 0, 11, 52
|0, 21, 72, 31, 0, 32, 0, 20, 0, 0, 38, 33, 62, 0, 58, 34, 78, 0, 81, 0, 59, 45, 11, 15, 0, 25, 42, 0, 0, 0, 0, 0, 0, 0, 0, 0, 61, 0, 0, 0, 4, 16, 0, 0, 2, 0, 0, 3, 70, 64, 0, 52, 57, 23, 48, 36, 0, 0, 0, 0, 66, 0, 46, 0, 74, 19, 35, 43, 0, 13, 0, 65, 53, 69, 0, 14, 40, 0, 0, 60, 0
|0, 0, 79, 52, 18, 14, 51, 0, 0, 0, 0, 61, 50, 74, 0, 9, 69, 0, 0, 0, 57, 0, 26, 0, 43, 7, 0, 77, 0, 13, 0, 19, 0, 0, 0, 3, 0, 55, 0, 0, 0, 48, 0, 0, 28, 42, 0, 0, 0, 31, 10, 0, 0, 80, 0, 22, 0, 0, 29, 0, 24, 0, 0, 0, 23, 32, 0, 17, 27, 34, 0, 53, 8, 0, 0, 0, 0, 0, 39, 0, 0
|0, 0, 0, 0, 0, 0, 0, 0, 0, 56, 0, 0, 0, 0, 52, 20, 0, 45, 41, 0, 0, 0, 78, 0, 66, 0, 4, 0, 29, 0, 0, 0, 48, 79, 0, 28, 0, 23, 37, 0, 53, 21, 76, 0, 0, 81, 0, 5, 0, 43, 59, 68, 0, 33, 0, 0, 0, 35, 0, 27, 0, 65, 0, 0, 57, 0, 36, 51, 0, 3, 0, 0, 18, 38, 0, 0, 0, 0, 34, 0, 0
|8, 25, 0, 0, 0, 39, 77, 0, 33, 32, 28, 14, 0, 22, 37, 0, 0, 31, 61, 0, 18, 27, 0, 56, 0, 0, 0, 10, 0, 0, 51, 0, 0, 0, 63, 0, 0, 62, 17, 15, 0, 0, 54, 6, 59, 0, 0, 29, 0, 11, 65, 13, 79, 0, 23, 52, 38, 0, 9, 26, 64, 30, 69, 0, 0, 4, 50, 0, 0, 0, 0, 71, 36, 16, 67, 55, 0, 0, 0, 20, 1
|0, 50, 12, 53, 0, 38, 16, 13, 0, 0, 0, 0, 0, 75, 0, 0, 0, 39, 0, 77, 80, 54, 0, 37, 0, 46, 0, 27, 0, 43, 0, 0, 0, 0, 0, 35, 0, 0, 0, 22, 36, 47, 0, 65, 24, 63, 26, 7, 21, 44, 25, 0, 0, 4, 0, 6, 59, 0, 0, 0, 0, 70, 61, 72, 0, 0, 0, 45, 0, 67, 58, 56, 66, 0, 79, 3, 48, 10, 28, 0, 78
|0, 38, 15, 0, 0, 33, 0, 77, 26, 23, 31, 0, 0, 80, 0, 22, 0, 0, 0, 0, 0, 53, 0, 0, 0, 29, 0, 0, 54, 47, 41, 32, 49, 20, 0, 9, 0, 25, 2, 69, 0, 76, 36, 16, 0, 57, 59, 37, 0, 42, 7, 0, 72, 0, 0, 79, 0, 12, 74, 43, 48, 58, 27, 0, 0, 0, 40, 65, 64, 0, 0, 0, 61, 0, 71, 0, 73, 0, 66, 0, 0
|29, 60, 0, 0, 0, 30, 0, 0, 59, 0, 72, 12, 38, 0, 0, 5, 0, 61, 57, 0, 0, 0, 0, 0, 0, 49, 0, 19, 0, 52, 0, 76, 0, 0, 0, 74, 0, 70, 65, 0, 62, 39, 13, 34, 18, 71, 77, 25, 73, 51, 0, 20, 0, 1, 75, 2, 21, 0, 33, 0, 0, 0, 0, 7, 48, 50, 26, 8, 0, 81, 0, 0, 58, 63, 0, 0, 0, 0, 0, 0, 0
|64, 0, 18, 8, 5, 0, 65, 0, 0, 33, 0, 55, 41, 0, 0, 78, 0, 0, 40, 0, 0, 0, 13, 0, 0, 0, 23, 0, 36, 0, 75, 0, 0, 26, 10, 61, 0, 43, 57, 81, 0, 0, 0, 0, 54, 31, 0, 0, 3, 0, 0, 0, 0, 0, 0, 7, 49, 0, 0, 0, 0, 0, 0, 25, 30, 38, 0, 6, 53, 0, 0, 0, 9, 80, 19, 2, 0, 17, 0, 0, 48
|0, 69, 0, 46, 0, 3, 0, 31, 0, 0, 0, 0, 0, 0, 0, 0, 0, 0, 0, 32, 19, 0, 71, 25, 0, 75, 0, 15, 65, 68, 0, 0, 18, 0, 0, 40, 0, 64, 55, 0, 9, 27, 38, 0, 4, 0, 0, 0, 0, 81, 0, 0, 61, 0, 0, 0, 0, 59, 0, 0, 28, 0, 0, 0, 73, 0, 0, 16, 0, 79, 0, 76, 0, 0, 0, 0, 0, 29, 67, 8, 0
|0, 0, 0, 76, 6, 57, 32, 0, 20, 0, 40, 0, 11, 0, 13, 0, 68, 51, 0, 0, 0, 0, 77, 0, 64, 0, 59, 0, 0, 79, 60, 8, 0, 0, 12, 17, 49, 75, 0, 72, 48, 0, 0, 31, 30, 0, 14, 0, 0, 0, 50, 0, 0, 0, 29, 0, 63, 19, 0, 0, 0, 0, 4, 35, 0, 47, 10, 0, 62, 36, 0, 18, 0, 0, 0, 0, 0, 0, 0, 15, 0
|0, 0, 45, 81, 12, 0, 43, 36, 0, 64, 0, 59, 0, 48, 0, 3, 73, 0, 11, 8, 0, 0, 2, 44, 30, 0, 0, 0, 62, 0, 25, 0, 0, 39, 35, 0, 66, 0, 0, 0, 33, 7, 0, 63, 32, 0, 28, 0, 68, 0, 0, 0, 60, 0, 26, 13, 0, 0, 78, 0, 0, 20, 0, 69, 71, 0, 0, 46, 49, 0, 0, 0, 76, 0, 24, 0, 37, 4, 0, 52, 0
|0, 17, 50, 0, 56, 0, 75, 0, 0, 0, 39, 0, 0, 67, 0, 4, 0, 2, 0, 0, 0, 20, 0, 26, 48, 76, 15, 0, 24, 0, 0, 0, 0, 0, 0, 0, 80, 0, 21, 0, 0, 79, 45, 0, 46, 53, 66, 49, 0, 0, 0, 0, 13, 9, 0, 55, 0, 65, 0, 0, 0, 44, 0, 68, 52, 33, 0, 32, 0, 0, 12, 0, 0, 72, 70, 34, 77, 0, 1, 0, 30
|0, 0, 47, 51, 24, 49, 0, 53, 48, 52, 46, 0, 0, 36, 0, 0, 42, 25, 0, 0, 60, 28, 0, 0, 5, 0, 0, 0, 0, 0, 33, 21, 57, 22, 0, 14, 0, 3, 0, 35, 44, 0, 0, 61, 11, 0, 64, 0, 0, 0, 0, 38, 0, 43, 0, 69, 0, 10, 0, 0, 0, 8, 18, 0, 70, 0, 66, 27, 0, 0, 9, 31, 0, 0, 78, 0, 39, 79, 0, 26, 0
|1, 0, 9, 0, 25, 68, 0, 0, 7, 53, 15, 76, 0, 0, 60, 75, 0, 26, 79, 0, 0, 42, 81, 58, 62, 0, 6, 13, 69, 38, 0, 0, 3, 64, 71, 63, 0, 0, 0, 0, 0, 0, 78, 0, 0, 0, 40, 0, 0, 48, 44, 55, 34, 52, 66, 54, 35, 0, 0, 36, 0, 80, 0, 0, 0, 0, 74, 20, 0, 0, 0, 0, 0, 32, 0, 0, 43, 49, 18, 51, 0
|42, 11, 67, 0, 0, 0, 0, 80, 32, 0, 74, 0, 0, 0, 50, 12, 0, 23, 0, 13, 2, 68, 56, 79, 33, 0, 44, 21, 0, 0, 62, 52, 72, 78, 0, 0, 0, 57, 61, 0, 59, 46, 47, 0, 75, 43, 0, 0, 14, 0, 70, 81, 0, 0, 0, 0, 58, 0, 5, 77, 0, 4, 29, 51, 38, 8, 48, 0, 0, 64, 24, 27, 73, 0, 54, 0, 0, 0, 0, 16, 66
|25, 0, 59, 0, 54, 0, 0, 0, 0, 0, 57, 70, 1, 0, 69, 37, 2, 3, 0, 38, 0, 8, 17, 39, 47, 0, 77, 0, 23, 76, 14, 64, 0, 34, 0, 0, 0, 0, 0, 0, 0, 55, 0, 0, 0, 22, 0, 0, 60, 0, 0, 5, 0, 56, 46, 0, 33, 81, 0, 0, 30, 0, 0, 50, 65, 0, 0, 71, 80, 20, 0, 0, 28, 0, 31, 7, 0, 67, 0, 42, 72
|18, 43, 0, 0, 0, 17, 0, 0, 14, 0, 9, 42, 0, 77, 0, 16, 0, 0, 29, 36, 0, 4, 0, 60, 80, 0, 57, 0, 26, 0, 0, 0, 2, 55, 51, 0, 0, 0, 67, 58, 0, 40, 0, 19, 0, 0, 7, 0, 0, 13, 0, 34, 11, 75, 0, 0, 0, 32, 37, 47, 0, 45, 0, 0, 0, 69, 72, 78, 0, 0, 70, 81, 33, 0, 3, 0, 0, 0, 6, 79, 0
|0, 0, 81, 69, 29, 48, 30, 0, 44, 68, 79, 39, 0, 0, 0, 33, 52, 0, 0, 0, 1, 0, 67, 0, 28, 0, 0, 0, 3, 0, 15, 47, 0, 0, 4, 0, 0, 42, 73, 21, 0, 18, 0, 22, 38, 54, 2, 45, 12, 24, 41, 0, 0, 35, 0, 0, 0, 49, 50, 0, 80, 0, 0, 0, 0, 10, 60, 57, 31, 16, 36, 0, 0, 0, 56, 0, 0, 78, 14, 0, 53
|33, 0, 22, 0, 0, 0, 0, 0, 47, 10, 67, 0, 81, 0, 43, 27, 0, 54, 5, 31, 0, 62, 52, 24, 50, 21, 45, 0, 18, 69, 0, 0, 0, 0, 36, 0, 0, 0, 7, 78, 11, 15, 65, 4, 0, 68, 23, 0, 0, 1, 0, 80, 39, 77, 0, 42, 25, 0, 0, 0, 0, 16, 74, 0, 63, 0, 44, 0, 55, 30, 0, 49, 0, 0, 58, 0, 32, 71, 9, 0, 12
|26, 9, 0, 0, 0, 0, 0, 0, 0, 4, 14, 30, 0, 0, 32, 63, 0, 0, 53, 0, 42, 66, 0, 61, 0, 0, 7, 0, 81, 0, 80, 0, 24, 0, 0, 0, 0, 0, 0, 10, 0, 64, 12, 2, 0, 0, 36, 0, 57, 20, 21, 0, 31, 0, 0, 0, 0, 0, 0, 0, 0, 52, 35, 0, 0, 40, 23, 47, 58, 77, 0, 17, 49, 51, 0, 5, 0, 0, 0, 0, 0
|27, 56, 0, 71, 38, 0, 0, 0, 60, 75, 0, 51, 0, 13, 72, 0, 47, 64, 23, 0, 73, 18, 0, 49, 0, 0, 0, 58, 0, 0, 35, 0, 22, 0, 0, 43, 0, 5, 0, 37, 0, 0, 0, 24, 3, 0, 0, 55, 0, 0, 0, 0, 33, 0, 0, 44, 0, 0, 0, 0, 21, 0, 17, 1, 0, 7, 15, 11, 14, 61, 0, 0, 0, 0, 0, 0, 80, 36, 0, 69, 20
|0, 0, 3, 41, 0, 79, 0, 46, 0, 0, 5, 20, 35, 0, 21, 8, 0, 80, 14, 0, 0, 0, 27, 0, 22, 0, 0, 31, 0, 33, 0, 74, 0, 0, 0, 49, 0, 51, 0, 0, 70, 0, 0, 69, 60, 0, 18, 0, 0, 66, 0, 72, 6, 0, 2, 75, 54, 23, 0, 0, 15, 0, 63, 0, 0, 0, 53, 13, 32, 0, 0, 12, 0, 24, 0, 0, 0, 76, 0, 0, 64
|49, 77, 0, 0, 0, 66, 13, 58, 0, 0, 0, 0, 0, 0, 61, 0, 0, 0, 74, 0, 75, 81, 55, 0, 76, 16, 3, 70, 0, 0, 57, 0, 0, 0, 0, 0, 20, 52, 0, 68, 80, 9, 0, 23, 33, 15, 0, 0, 0, 0, 26, 0, 59, 0, 64, 24, 40, 0, 65, 14, 7, 0, 51, 0, 46, 0, 79, 35, 0, 0, 2, 4, 30, 27, 34, 8, 63, 0, 0, 0, 0
|0, 0, 0, 34, 30, 0, 0, 0, 0, 38, 0, 6, 5, 0, 17, 0, 74, 0, 0, 0, 27, 0, 0, 50, 0, 0, 0, 76, 4, 0, 0, 44, 0, 25, 55, 0, 42, 36, 3, 0, 75, 68, 0, 12, 0, 0, 0, 0, 0, 33, 0, 0, 66, 39, 59, 19, 9, 0, 13, 0, 0, 62, 0, 0, 0, 0, 71, 40, 28, 0, 57, 0, 0, 0, 1, 72, 0, 0, 0, 0, 77
|31, 51, 0, 0, 0, 0, 0, 39, 8, 0, 0, 0, 0, 0, 46, 72, 81, 0, 63, 0, 0, 14, 79, 2, 1, 19, 0, 0, 0, 23, 18, 0, 0, 0, 77, 32, 0, 0, 0, 80, 0, 45, 58, 62, 0, 0, 5, 61, 13, 0, 0, 65, 0, 0, 42, 0, 0, 44, 0, 0, 0, 0, 36, 0, 54, 0, 0, 0, 41, 37, 3, 0, 24, 15, 0, 0, 16, 30, 33, 56, 0
|0, 44, 0, 0, 0, 0, 67, 0, 13, 0, 0, 0, 31, 11, 63, 0, 0, 0, 78, 3, 29, 0, 42, 81, 0, 26, 32, 66, 47, 0, 0, 0, 20, 0, 0, 0, 43, 56, 0, 60, 41, 73, 19, 15, 25, 17, 0, 27, 0, 0, 0, 0, 0, 10, 61, 0, 2, 0, 0, 0, 37, 0, 5, 23, 72, 0, 8, 30, 0, 0, 0, 0, 0, 0, 46, 28, 65, 0, 0, 80, 0
|0, 0, 0, 56, 19, 2, 52, 0, 0, 0, 59, 8, 37, 55, 41, 66, 23, 0, 0, 0, 0, 0, 10, 33, 0, 0, 18, 5, 13, 3, 48, 50, 31, 0, 17, 80, 63, 0, 0, 0, 65, 0, 70, 38, 0, 44, 81, 6, 69, 72, 0, 0, 0, 73, 0, 21, 0, 14, 25, 71, 47, 0, 30, 4, 42, 36, 61, 39, 0, 78, 15, 22, 0, 9, 51, 0, 0, 0, 0, 0, 0
|0, 63, 66, 0, 45, 64, 20, 0, 0, 30, 0, 79, 78, 0, 0, 0, 56, 70, 25, 39, 17, 5, 0, 34, 0, 0, 0, 81, 10, 0, 0, 0, 69, 0, 0, 36, 72, 11, 0, 71, 46, 2, 74, 0, 21, 18, 0, 41, 59, 47, 51, 75, 67, 12, 0, 0, 0, 0, 0, 52, 4, 54, 0, 13, 44, 0, 19, 0, 29, 76, 0, 0, 0, 0, 60, 0, 0, 14, 8, 27, 58
|0, 29, 17, 0, 0, 0, 0, 0, 0, 0, 0, 19, 21, 0, 62, 0, 0, 0, 37, 44, 64, 0, 54, 76, 0, 67, 0, 42, 35, 0, 30, 75, 59, 14, 0, 0, 24, 7, 1, 32, 0, 0, 0, 79, 0, 25, 0, 0, 0, 0, 0, 0, 0, 48, 0, 16, 56, 0, 0, 0, 77, 0, 0, 60, 31, 9, 0, 18, 34, 46, 74, 69, 20, 5, 53, 0, 6, 0, 41, 13, 0
|0, 62, 0, 0, 0, 0, 0, 54, 68, 26, 20, 0, 0, 33, 0, 0, 39, 0, 43, 6, 8, 57, 0, 30, 0, 77, 0, 0, 51, 0, 19, 0, 0, 0, 21, 2, 0, 50, 18, 0, 0, 5, 16, 13, 0, 0, 46, 0, 0, 0, 0, 0, 74, 14, 58, 0, 67, 0, 69, 0, 0, 0, 49, 73, 0, 0, 0, 48, 81, 0, 0, 0, 11, 40, 0, 0, 0, 70, 76, 0, 0
|76, 12, 0, 16, 81, 15, 0, 10, 0, 67, 0, 71, 0, 0, 0, 0, 49, 75, 0, 69, 70, 72, 0, 53, 11, 28, 62, 41, 0, 0, 46, 0, 0, 0, 38, 33, 44, 0, 8, 0, 57, 0, 0, 66, 0, 0, 0, 0, 0, 30, 22, 0, 0, 0, 0, 0, 0, 0, 48, 64, 0, 0, 20, 0, 0, 27, 0, 0, 0, 0, 63, 55, 0, 19, 0, 0, 42, 0, 23, 0, 2
|4, 0, 0, 36, 49, 78, 0, 37, 0, 15, 1, 0, 68, 34, 64, 80, 76, 0, 9, 51, 41, 56, 0, 46, 0, 13, 73, 0, 0, 65, 0, 67, 0, 52, 0, 39, 0, 0, 0, 55, 17, 0, 0, 59, 0, 0, 8, 35, 16, 26, 40, 70, 38, 0, 0, 72, 0, 0, 0, 18, 27, 0, 6, 32, 0, 11, 0, 0, 25, 58, 66, 33, 71, 0, 10, 44, 69, 0, 12, 0, 0
|0, 0, 68, 0, 0, 43, 0, 26, 78, 0, 0, 0, 13, 0, 0, 0, 48, 0, 0, 0, 49, 0, 0, 12, 0, 56, 31, 0, 37, 0, 7, 70, 0, 18, 0, 19, 0, 77, 44, 0, 20, 0, 0, 17, 0, 0, 0, 15, 0, 75, 81, 0, 0, 5, 0, 0, 74, 6, 2, 46, 0, 0, 0, 67, 0, 0, 64, 29, 0, 0, 0, 0, 0, 34, 0, 0, 36, 52, 0, 0, 16
|0, 0, 37, 23, 52, 0, 74, 55, 6, 49, 0, 0, 46, 31, 0, 0, 0, 0, 20, 0, 0, 0, 0, 0, 0, 81, 0, 75, 0, 0, 0, 40, 0, 0, 0, 13, 0, 4, 14, 0, 28, 43, 7, 0, 65, 0, 0, 12, 77, 32, 0, 0, 10, 34, 0, 15, 45, 57, 0, 44, 0, 5, 22, 0, 26, 76, 0, 58, 69, 0, 0, 0, 19, 66, 0, 64, 0, 54, 0, 0, 27
|69, 0, 41, 0, 33, 20, 72, 45, 51, 34, 75, 23, 0, 0, 11, 74, 0, 0, 0, 70, 0, 16, 28, 0, 0, 44, 78, 0, 0, 60, 6, 48, 0, 8, 0, 0, 0, 0, 0, 0, 0, 0, 66, 39, 0, 67, 0, 38, 0, 46, 42, 47, 63, 76, 0, 77, 0, 0, 10, 32, 0, 49, 0, 0, 27, 22, 0, 0, 0, 0, 30, 50, 0, 0, 0, 4, 0, 7, 0, 21, 13
|0, 0, 0, 42, 75, 0, 0, 32, 0, 35, 70, 0, 0, 0, 0, 0, 36, 0, 0, 45, 65, 10, 0, 18, 0, 6, 41, 0, 0, 0, 0, 17, 43, 29, 61, 52, 0, 0, 27, 63, 79, 0, 0, 0, 0, 0, 31, 64, 71, 39, 0, 26, 4, 68, 0, 0, 24, 0, 19, 0, 53, 12, 78, 49, 33, 44, 1, 0, 56, 0, 51, 14, 25, 76, 0, 11, 0, 50, 73, 0, 8
|0, 16, 8, 17, 0, 1, 44, 5, 0, 78, 43, 18, 45, 14, 0, 71, 0, 4, 3, 15, 52, 34, 0, 7, 27, 0, 0, 0, 2, 0, 0, 0, 51, 0, 31, 0, 0, 24, 19, 12, 29, 67, 0, 70, 0, 49, 80, 62, 0, 0, 0, 74, 35, 22, 21, 61, 66, 0, 0, 0, 68, 56, 0, 0, 75, 6, 0, 77, 48, 0, 32, 0, 0, 39, 0, 69, 55, 28, 0, 0, 0
|62, 0, 0, 0, 0, 47, 10, 0, 0, 0, 0, 0, 72, 21, 7, 77, 0, 5, 0, 19, 0, 75, 0, 0, 55, 79, 64, 34, 0, 15, 50, 66, 0, 9, 32, 0, 35, 46, 71, 0, 0, 0, 0, 0, 0, 0, 43, 0, 20, 14, 2, 0, 3, 27, 18, 11, 52, 0, 0, 0, 0, 0, 26, 0, 0, 74, 42, 24, 13, 31, 0, 25, 0, 0, 0, 0, 29, 45, 44, 0, 23
|0, 30, 65, 0, 0, 0, 0, 24, 27, 0, 0, 16, 0, 0, 0, 39, 0, 0, 62, 0, 0, 80, 0, 77, 71, 23, 0, 1, 11, 20, 67, 0, 74, 3, 58, 10, 0, 32, 72, 33, 0, 56, 75, 0, 0, 0, 0, 19, 0, 0, 0, 21, 44, 0, 69, 25, 0, 0, 0, 0, 34, 0, 0, 15, 2, 0, 4, 37, 0, 0, 55, 0, 60, 57, 0, 0, 0, 0, 46, 0, 49
|0, 0, 76, 39, 0, 0, 0, 0, 15, 0, 0, 25, 24, 0, 81, 10, 8, 69, 0, 0, 74, 67, 0, 1, 2, 0, 58, 0, 0, 0, 0, 0, 0, 49, 27, 45, 0, 0, 0, 13, 0, 6, 5, 0, 0, 0, 50, 54, 0, 0, 0, 7, 73, 0, 0, 41, 14, 0, 0, 0, 0, 47, 0, 63, 11, 0, 0, 23, 0, 28, 0, 40, 0, 12, 0, 9, 0, 0, 31, 71, 0
|21, 18, 0, 0, 0, 0, 31, 0, 19, 0, 0, 22, 32, 0, 0, 0, 0, 6, 66, 0, 0, 50, 53, 0, 73, 0, 36, 0, 0, 0, 44, 16, 0, 4, 0, 0, 0, 9, 0, 0, 0, 0, 2, 30, 0, 0, 55, 48, 0, 8, 0, 0, 0, 0, 7, 0, 71, 0, 43, 62, 63, 0, 39, 12, 0, 68, 0, 79, 0, 52, 0, 0, 38, 0, 0, 67, 0, 0, 24, 0, 56
|0, 81, 0, 0, 0, 35, 0, 9, 43, 6, 60, 63, 16, 69, 0, 49, 31, 58, 15, 25, 0, 0, 80, 0, 57, 61, 0, 37, 39, 18, 26, 11, 0, 0, 0, 8, 0, 0, 74, 64, 0, 4, 46, 36, 5, 2, 71, 72, 50, 53, 78, 0, 0, 0, 0, 0, 68, 24, 75, 48, 41, 66, 0, 0, 0, 0, 0, 42, 38, 0, 27, 28, 0, 0, 77, 30, 0, 20, 0, 0, 0
|13, 0, 5, 0, 78, 16, 0, 68, 40, 42, 10, 38, 0, 0, 0, 23, 50, 32, 31, 0, 0, 11, 0, 45, 0, 0, 0, 0, 0, 0, 0, 0, 0, 0, 48, 0, 0, 60, 0, 0, 25, 0, 0, 0, 0, 0, 0, 0, 0, 27, 67, 64, 0, 28, 0, 20, 0, 22, 0, 0, 0, 73, 71, 0, 0, 41, 21, 61, 0, 74, 17, 0, 37, 0, 0, 0, 81, 0, 80, 58, 0
|0, 0, 31, 0, 70, 60, 0, 2, 52, 0, 61, 0, 0, 26, 33, 55, 0, 0, 0, 0, 0, 0, 0, 42, 51, 0, 0, 71, 0, 24, 0, 43, 0, 28, 0, 0, 69, 15, 0, 39, 76, 0, 0, 10, 80, 0, 17, 79, 0, 18, 14, 66, 0, 62, 3, 35, 11, 47, 6, 8, 58, 27, 25, 40, 34, 23, 0, 64, 0, 0, 0, 36, 0, 50, 57, 0, 4, 53, 0, 0, 9
|0, 0, 4, 0, 14, 10, 12, 21, 0, 70, 81, 0, 0, 0, 15, 18, 0, 28, 69, 9, 72, 0, 63, 6, 41, 0, 0, 2, 0, 25, 0, 0, 0, 0, 19, 58, 16, 31, 0, 0, 0, 0, 0, 57, 0, 0, 0, 39, 0, 0, 0, 0, 0, 0, 0, 0, 0, 17, 0, 5, 74, 46, 34, 53, 13, 60, 37, 0, 0, 0, 0, 0, 0, 56, 0, 0, 0, 62, 0, 0, 0
|0, 64, 63, 48, 22, 0, 0, 57, 66, 72, 0, 0, 17, 0, 0, 0, 0, 0, 0, 0, 37, 0, 0, 59, 0, 0, 81, 12, 0, 27, 0, 0, 0, 70, 40, 0, 0, 0, 0, 0, 19, 23, 34, 71, 0, 0, 0, 0, 15, 5, 75, 0, 7, 0, 0, 0, 10, 0, 0, 0, 43, 0, 0, 0, 0, 0, 0, 73, 2, 47, 0, 54, 0, 25, 0, 76, 41, 0, 0, 33, 0
|3, 0, 6, 0, 0, 0, 0, 73, 0, 0, 29, 47, 9, 40, 0, 0, 0, 0, 71, 0, 0, 0, 62, 0, 49, 0, 0, 0, 16, 57, 0, 20, 0, 0, 0, 54, 58, 0, 77, 30, 12, 0, 14, 0, 0, 0, 34, 43, 0, 22, 48, 0, 0, 37, 0, 31, 0, 2, 67, 0, 19, 0, 0, 78, 8, 0, 0, 0, 26, 0, 0, 0, 64, 0, 0, 75, 38, 18, 69, 0, 11
|17, 0, 80, 0, 76, 65, 58, 0, 38, 25, 8, 0, 0, 43, 0, 35, 0, 1, 0, 0, 0, 77, 24, 47, 0, 2, 0, 0, 68, 0, 79, 0, 10, 56, 64, 0, 0, 0, 51, 0, 13, 0, 11, 49, 0, 30, 0, 0, 0, 70, 4, 0, 20, 60, 0, 37, 57, 78, 0, 0, 0, 36, 0, 0, 0, 0, 0, 3, 75, 0, 0, 0, 5, 73, 0, 15, 0, 31, 0, 32, 39
|0, 0, 49, 0, 0, 69, 0, 0, 71, 0, 0, 48, 0, 4, 0, 0, 11, 0, 0, 0, 0, 33, 20, 75, 0, 14, 0, 0, 0, 9, 0, 0, 1, 47, 53, 0, 0, 37, 81, 0, 50, 0, 61, 0, 55, 46, 42, 31, 38, 41, 0, 25, 56, 0, 15, 0, 30, 80, 79, 0, 76, 63, 0, 6, 0, 0, 0, 52, 72, 5, 0, 10, 0, 2, 13, 24, 35, 40, 22, 43, 0
|37, 33, 0, 0, 23, 75, 0, 30, 0, 0, 0, 41, 51, 5, 56, 0, 0, 14, 76, 0, 0, 13, 0, 0, 21, 4, 50, 0, 44, 6, 72, 80, 17, 0, 3, 31, 78, 2, 0, 0, 0, 54, 0, 0, 8, 11, 0, 40, 1, 0, 68, 29, 77, 69, 49, 59, 0, 0, 0, 38, 0, 0, 32, 0, 0, 0, 58, 0, 20, 0, 0, 0, 0, 42, 0, 16, 26, 12, 0, 0, 36
|0, 52, 25, 0, 0, 11, 0, 40, 50, 0, 0, 0, 19, 0, 0, 21, 0, 37, 0, 0, 0, 0, 0, 54, 77, 0, 1, 0, 5, 0, 17, 59, 36, 44, 0, 0, 6, 39, 0, 74, 0, 0, 55, 0, 0, 0, 70, 30, 0, 28, 0, 0, 0, 7, 47, 0, 53, 75, 72, 0, 0, 0, 0, 16, 0, 0, 0, 15, 35, 48, 13, 0, 80, 78, 0, 0, 0, 0, 0, 0, 0
|0, 0, 0, 0, 0, 37, 63, 0, 49, 0, 0, 0, 15, 0, 0, 65, 51, 0, 32, 0, 0, 0, 0, 5, 53, 18, 68, 39, 0, 0, 45, 55, 0, 0, 50, 34, 0, 13, 0, 17, 0, 0, 60, 78, 69, 0, 20, 0, 0, 58, 66, 0, 71, 0, 0, 0, 0, 0, 0, 56, 0, 25, 41, 70, 0, 0, 31, 38, 0, 0, 0, 0, 62, 0, 0, 0, 28, 42, 7, 67, 24
|15, 0, 0, 18, 0, 62, 0, 79, 53, 0, 0, 36, 56, 0, 57, 38, 0, 0, 0, 0, 6, 0, 8, 0, 0, 0, 0, 0, 12, 28, 47, 31, 0, 0, 1, 4, 19, 65, 34, 0, 54, 0, 0, 0, 0, 0, 0, 44, 5, 52, 0, 0, 0, 61, 0, 58, 0, 3, 0, 13, 9, 0, 2, 66, 7, 0, 24, 0, 0, 0, 0, 0, 0, 0, 39, 33, 0, 0, 74, 0, 60
|77, 68, 33, 43, 0, 9, 59, 14, 0, 62, 78, 4, 80, 0, 0, 47, 0, 8, 0, 37, 67, 22, 0, 0, 42, 0, 2, 35, 79, 29, 16, 6, 65, 74, 0, 69, 18, 0, 5, 0, 66, 12, 57, 52, 81, 56, 11, 0, 27, 0, 55, 39, 0, 0, 0, 63, 0, 45, 24, 0, 0, 38, 0, 64, 1, 0, 54, 34, 0, 10, 76, 0, 0, 26, 0, 0, 50, 0, 32, 0, 71
|41, 0, 0, 58, 0, 0, 0, 0, 64, 14, 0, 0, 69, 0, 0, 0, 0, 71, 38, 49, 63, 0, 0, 0, 15, 62, 9, 0, 72, 0, 0, 0, 27, 0, 0, 0, 32, 33, 47, 0, 16, 36, 53, 0, 0, 0, 74, 0, 0, 21, 0, 43, 8, 59, 0, 66, 4, 0, 55, 80, 0, 0, 57, 0, 0, 0, 0, 81, 0, 73, 0, 5, 40, 3, 2, 0, 12, 0, 0, 31, 0
|0, 7, 44, 0, 66, 22, 0, 29, 80, 3, 0, 64, 6, 0, 0, 0, 60, 43, 0, 0, 0, 0, 0, 51, 17, 0, 35, 48, 49, 0, 56, 2, 0, 33, 0, 11, 0, 0, 42, 0, 24, 28, 0, 21, 0, 0, 15, 0, 0, 34, 0, 0, 0, 0, 0, 74, 16, 26, 0, 0, 0, 0, 0, 0, 55, 12, 67, 0, 79, 27, 40, 23, 54, 13, 0, 0, 5, 8, 0, 10, 69
|34, 0, 60, 0, 0, 61, 81, 0, 3, 0, 0, 68, 67, 0, 55, 59, 0, 0, 65, 0, 0, 0, 44, 16, 74, 0, 0, 64, 71, 0, 0, 0, 0, 0, 23, 42, 0, 8, 25, 76, 0, 0, 79, 80, 0, 24, 35, 33, 54, 0, 17, 31, 49, 32, 73, 5, 28, 0, 0, 15, 0, 48, 14, 47, 0, 62, 6, 36, 0, 75, 0, 11, 0, 0, 63, 0, 30, 0, 0, 9, 57
|0, 0, 75, 32, 0, 0, 17, 0, 0, 0, 24, 5, 0, 0, 31, 11, 0, 81, 0, 14, 0, 0, 0, 13, 0, 47, 0, 0, 67, 0, 0, 3, 53, 80, 73, 18, 48, 0, 0, 50, 72, 0, 0, 64, 0, 0, 0, 0, 76, 65, 0, 36, 26, 2, 77, 78, 0, 0, 0, 0, 0, 21, 0, 0, 0, 30, 0, 60, 0, 0, 0, 0, 43, 0, 0, 0, 0, 0, 0, 0, 45
|0, 0, 48, 0, 16, 24, 6, 0, 56, 40, 17, 29, 74, 2, 0, 44, 0, 0, 0, 0, 0, 0, 0, 43, 0, 0, 0, 78, 0, 66, 32, 41, 81, 0, 46, 0, 0, 0, 0, 0, 0, 0, 0, 0, 0, 23, 25, 0, 72, 0, 0, 10, 0, 0, 62, 8, 0, 0, 35, 0, 54, 0, 0, 14, 39, 0, 28, 4, 33, 0, 53, 37, 0, 0, 0, 0, 76, 0, 0, 0, 51|];