order = 9;
grid = [|0, 80, 29, 0, 3, 0, 70, 73, 0, 74, 44, 0, 24, 72, 0, 0, 30, 0, 14, 0, 7, 36, 28, 0, 0, 66, 0, 76, 15, 0, 43, 0, 0, 48, 0, 0, 26, 0, 42, 0, 0, 6, 32, 0, 13, 0, 20, 46, 75, 0, 35, 19, 0, 31, 0, 47, 2, 0, 0, 16, 0, 4, 0, 68, 0, 1, 0, 0, 0, 0, 56, 11, 0, 0, 37, 0, 0, 63, 41, 0, 55
|66, 4, 0, 27, 22, 53, 33, 0, 0, 0, 47, 31, 6, 54, 0, 0, 17, 28, 0, 0, 62, 0, 0, 0, 78, 0, 42, 12, 0, 35, 63, 0, 1, 37, 64, 0, 76, 0, 0, 0, 0, 65, 0, 49, 0, 68, 0, 0, 71, 79, 0, 0, 55, 5, 59, 52, 0, 0, 74, 0, 0, 0, 67, 0, 0, 36, 0, 0, 0, 23, 0, 0, 24, 69, 0, 0, 19, 0, 0, 44, 26
|47, 0, 63, 0, 43, 54, 17, 0, 0, 0, 65, 0, 67, 73, 0, 53, 0, 0, 59, 0, 44, 0, 49, 74, 38, 0, 0, 0, 66, 0, 0, 0, 14, 0, 25, 57, 28, 0, 2, 19, 50, 0, 0, 79, 0, 8, 0, 4, 0, 0, 12, 0, 52, 72, 5, 55, 15, 0, 78, 0, 36, 0, 3, 0, 69, 41, 40, 31, 0, 16, 60, 0, 0, 35, 76, 0, 64, 20, 22, 80, 0
|79, 15, 0, 49, 13, 59, 0, 0, 0, 26, 0, 70, 2, 0, 0, 35, 23, 0, 0, 0, 47, 0, 0, 22, 0, 20, 0, 0, 29, 0, 81, 36, 0, 3, 8, 69, 0, 0, 0, 0, 0, 0, 24, 0, 54, 0, 39, 28, 0, 0, 1, 0, 38, 67, 40, 75, 0, 0, 0, 7, 0, 50, 0, 76, 0, 17, 80, 0, 0, 33, 0, 0, 0, 0, 0, 0, 18, 42, 0, 0, 51
|0, 68, 20, 31, 0, 74, 0, 62, 42, 27, 0, 29, 0, 63, 50, 0, 0, 0, 58, 0, 0, 0, 48, 34, 71, 0, 0, 0, 0, 33, 0, 21, 0, 18, 0, 47, 81, 38, 72, 35, 11, 36, 66, 0, 12, 17, 60, 56, 59, 40, 0, 0, 80, 41, 0, 0, 0, 14, 64, 9, 26, 0, 0, 0, 22, 51, 0, 0, 0, 0, 39, 0, 0, 57, 78, 13, 0, 0, 49, 0, 5
|8, 81, 16, 24, 0, 0, 0, 0, 0, 60, 1, 0, 0, 0, 0, 22, 66, 51, 0, 79, 0, 31, 0, 0, 11, 35, 37, 0, 9, 10, 0, 68, 73, 0, 70, 55, 0, 0, 18, 3, 41, 0, 74, 62, 56, 0, 6, 0, 76, 0, 0, 0, 0, 0, 0, 29, 17, 0, 39, 0, 20, 65, 0, 0, 0, 0, 0, 47, 0, 0, 0, 0, 0, 0, 52, 0, 0, 33, 0, 0, 0
|0, 18, 0, 65, 0, 32, 26, 0, 0, 0, 0, 10, 33, 0, 79, 25, 14, 71, 72, 0, 12, 81, 70, 0, 27, 61, 13, 56, 58, 0, 17, 0, 59, 0, 0, 80, 52, 4, 0, 20, 29, 0, 0, 44, 43, 0, 0, 51, 47, 0, 78, 45, 11, 22, 0, 62, 0, 77, 31, 0, 0, 8, 19, 67, 49, 35, 42, 15, 48, 0, 55, 64, 0, 28, 0, 0, 2, 23, 68, 54, 3
|64, 0, 0, 56, 0, 41, 0, 0, 0, 3, 0, 0, 55, 0, 69, 32, 0, 15, 0, 67, 0, 0, 65, 0, 45, 0, 0, 27, 0, 42, 2, 74, 0, 5, 38, 62, 21, 37, 0, 0, 51, 9, 0, 0, 0, 0, 0, 10, 0, 30, 14, 23, 0, 77, 66, 0, 12, 0, 57, 0, 54, 58, 0, 26, 52, 72, 18, 0, 25, 63, 20, 0, 47, 29, 17, 0, 0, 16, 0, 48, 8
|55, 0, 76, 14, 0, 48, 50, 78, 11, 36, 0, 0, 42, 0, 0, 20, 0, 0, 5, 0, 2, 0, 0, 43, 0, 0, 23, 0, 0, 0, 34, 0, 4, 0, 0, 0, 0, 60, 0, 0, 80, 0, 68, 1, 17, 3, 65, 0, 0, 0, 0, 0, 58, 0, 44, 0, 30, 0, 0, 0, 0, 0, 49, 0, 74, 0, 0, 0, 0, 37, 66, 59, 0, 0, 27, 0, 0, 0, 0, 39, 32
|68, 0, 46, 0, 24, 0, 0, 0, 0, 0, 10, 45, 0, 21, 3, 78, 0, 63, 70, 0, 4, 11, 54, 19, 0, 37, 0, 35, 0, 0, 53, 0, 0, 77, 0, 0, 0, 0, 0, 38, 5, 80, 0, 0, 0, 0, 74, 60, 52, 12, 58, 75, 43, 71, 8, 0, 32, 67, 0, 65, 0, 0, 0, 33, 0, 30, 62, 0, 0, 0, 2, 0, 27, 0, 0, 64, 0, 0, 0, 0, 0
|0, 0, 65, 21, 51, 0, 0, 0, 23, 0, 0, 0, 52, 43, 0, 0, 9, 62, 46, 0, 33, 80, 58, 0, 0, 0, 16, 6, 25, 0, 0, 18, 20, 0, 49, 54, 4, 0, 14, 0, 31, 0, 27, 48, 36, 0, 0, 53, 42, 47, 17, 40, 70, 15, 0, 0, 81, 0, 0, 24, 12, 0, 0, 0, 64, 0, 56, 0, 78, 13, 37, 45, 0, 0, 59, 0, 11, 32, 0, 68, 72
|0, 48, 59, 6, 0, 80, 3, 0, 0, 0, 49, 0, 79, 0, 0, 0, 0, 0, 0, 0, 0, 0, 23, 71, 40, 41, 38, 73, 24, 75, 15, 0, 0, 0, 0, 0, 0, 72, 57, 77, 0, 22, 0, 0, 7, 0, 11, 0, 31, 0, 5, 0, 0, 0, 0, 0, 19, 70, 0, 0, 0, 46, 0, 43, 0, 10, 0, 60, 9, 36, 0, 66, 0, 42, 0, 0, 0, 0, 0, 74, 0
|0, 0, 54, 0, 0, 0, 0, 0, 0, 0, 12, 0, 7, 0, 73, 37, 0, 29, 0, 0, 0, 21, 18, 0, 35, 0, 0, 0, 33, 0, 0, 67, 0, 0, 0, 52, 62, 69, 0, 0, 0, 0, 81, 0, 60, 19, 0, 0, 0, 10, 3, 38, 0, 20, 30, 0, 0, 4, 0, 40, 0, 15, 77, 31, 0, 0, 6, 0, 59, 0, 0, 0, 0, 0, 2, 0, 66, 0, 0, 75, 70
|0, 60, 0, 0, 0, 0, 0, 0, 9, 0, 26, 50, 22, 0, 0, 0, 0, 0, 0, 73, 15, 39, 0, 0, 0, 0, 28, 62, 0, 13, 64, 0, 10, 17, 0, 0, 35, 0, 0, 51, 47, 0, 0, 43, 59, 46, 36, 0, 0, 0, 0, 0, 66, 0, 0, 0, 31, 0, 33, 76, 0, 45, 0, 19, 0, 58, 0, 0, 0, 40, 67, 25, 57, 0, 0, 81, 0, 0, 7, 0, 79
|10, 25, 62, 0, 0, 0, 0, 0, 0, 0, 76, 27, 36, 16, 0, 44, 0, 0, 79, 48, 0, 72, 12, 60, 0, 0, 31, 43, 0, 0, 56, 61, 0, 0, 74, 0, 0, 0, 28, 30, 78, 0, 49, 21, 0, 1, 0, 0, 0, 0, 0, 80, 0, 0, 0, 42, 3, 0, 23, 0, 73, 0, 66, 34, 68, 81, 0, 0, 0, 70, 75, 69, 0, 22, 24, 71, 0, 37, 0, 38, 0
|0, 0, 42, 15, 0, 0, 4, 55, 0, 0, 19, 0, 0, 0, 0, 0, 0, 0, 0, 0, 0, 0, 0, 0, 34, 0, 66, 29, 0, 0, 0, 45, 0, 0, 37, 0, 0, 33, 58, 68, 2, 50, 0, 0, 0, 0, 0, 76, 64, 0, 25, 0, 41, 0, 0, 49, 43, 1, 10, 62, 13, 0, 36, 0, 0, 0, 39, 0, 24, 35, 57, 16, 0, 47, 0, 0, 0, 0, 0, 18, 0
|0, 70, 0, 67, 0, 0, 0, 45, 0, 0, 0, 64, 0, 0, 0, 24, 0, 0, 43, 62, 0, 75, 0, 13, 42, 7, 0, 3, 78, 0, 55, 0, 58, 80, 76, 0, 0, 0, 0, 0, 66, 0, 8, 0, 29, 0, 73, 0, 0, 61, 18, 0, 16, 0, 56, 0, 41, 74, 0, 54, 57, 69, 5, 48, 47, 15, 12, 21, 0, 0, 65, 0, 60, 33, 19, 20, 1, 14, 31, 0, 0
|35, 43, 31, 13, 0, 0, 27, 0, 0, 0, 80, 0, 0, 38, 58, 0, 4, 42, 49, 0, 8, 0, 0, 0, 0, 3, 0, 19, 60, 72, 0, 0, 0, 0, 0, 50, 0, 0, 76, 0, 45, 70, 0, 0, 0, 0, 0, 0, 0, 0, 0, 24, 44, 0, 0, 0, 0, 63, 55, 25, 0, 0, 0, 29, 0, 11, 52, 17, 26, 74, 0, 0, 0, 0, 51, 5, 36, 0, 77, 28, 0
|0, 21, 0, 10, 0, 0, 45, 0, 0, 81, 68, 0, 0, 51, 40, 0, 0, 34, 0, 0, 43, 22, 56, 0, 0, 0, 58, 0, 0, 20, 37, 26, 31, 0, 0, 0, 0, 0, 0, 0, 0, 0, 7, 12, 75, 0, 47, 0, 0, 0, 8, 50, 60, 0, 0, 0, 72, 0, 17, 0, 0, 0, 55, 0, 0, 0, 0, 2, 0, 0, 0, 46, 0, 0, 0, 0, 25, 0, 5, 64, 73
|0, 57, 34, 29, 0, 0, 0, 0, 51, 0, 73, 0, 0, 35, 0, 0, 0, 0, 45, 0, 0, 0, 77, 37, 13, 0, 0, 0, 0, 0, 0, 0, 0, 15, 0, 0, 66, 0, 0, 49, 9, 0, 0, 50, 0, 54, 0, 0, 68, 81, 76, 0, 0, 61, 6, 0, 0, 0, 59, 0, 18, 43, 0, 64, 23, 67, 0, 48, 40, 56, 80, 78, 20, 0, 12, 8, 21, 0, 0, 65, 0
|22, 19, 0, 0, 80, 2, 0, 0, 0, 0, 0, 0, 27, 0, 21, 0, 0, 6, 51, 50, 24, 0, 35, 47, 0, 67, 7, 32, 0, 11, 36, 44, 29, 0, 0, 76, 68, 61, 0, 0, 26, 0, 0, 28, 0, 0, 0, 3, 0, 71, 0, 41, 0, 0, 73, 64, 13, 46, 0, 0, 0, 42, 0, 0, 16, 0, 72, 49, 15, 0, 54, 37, 39, 0, 63, 0, 34, 79, 0, 60, 0
|0, 78, 14, 4, 0, 0, 44, 0, 0, 49, 0, 0, 0, 79, 39, 59, 45, 66, 80, 0, 55, 0, 19, 0, 0, 0, 0, 25, 0, 0, 0, 77, 0, 64, 53, 5, 0, 0, 33, 63, 0, 0, 51, 46, 73, 22, 0, 37, 0, 52, 13, 0, 0, 69, 0, 0, 0, 81, 0, 8, 0, 61, 16, 0, 62, 65, 36, 0, 0, 29, 71, 34, 9, 38, 0, 10, 0, 58, 42, 30, 47
|0, 0, 0, 17, 55, 3, 18, 0, 72, 19, 0, 1, 12, 0, 28, 0, 0, 60, 0, 29, 40, 0, 0, 0, 64, 65, 14, 0, 56, 0, 0, 0, 63, 0, 57, 0, 0, 31, 21, 15, 0, 0, 48, 0, 42, 0, 27, 73, 0, 0, 0, 4, 0, 0, 0, 38, 0, 25, 0, 68, 0, 80, 0, 53, 0, 0, 0, 0, 5, 0, 0, 0, 0, 76, 69, 0, 0, 0, 0, 7, 24
|0, 0, 37, 0, 0, 49, 74, 0, 0, 0, 55, 0, 57, 71, 0, 0, 0, 5, 0, 0, 21, 0, 76, 72, 0, 31, 0, 65, 28, 50, 0, 0, 0, 34, 51, 73, 77, 0, 0, 0, 0, 52, 0, 2, 78, 64, 0, 0, 0, 0, 56, 0, 25, 0, 67, 0, 0, 0, 0, 0, 3, 22, 39, 12, 0, 32, 7, 68, 0, 0, 10, 13, 0, 44, 61, 0, 0, 4, 0, 81, 0
|40, 0, 25, 0, 71, 0, 66, 54, 0, 0, 38, 0, 46, 0, 0, 64, 29, 0, 0, 0, 0, 68, 53, 17, 0, 0, 0, 67, 4, 0, 21, 24, 0, 35, 0, 0, 44, 3, 0, 0, 30, 32, 0, 0, 0, 78, 14, 0, 0, 23, 75, 0, 15, 0, 0, 0, 5, 69, 28, 0, 7, 9, 0, 0, 0, 0, 0, 0, 0, 42, 0, 41, 43, 72, 16, 22, 55, 0, 0, 56, 0
|73, 0, 0, 81, 67, 39, 0, 56, 65, 54, 23, 0, 53, 0, 0, 0, 42, 0, 10, 0, 38, 0, 34, 66, 48, 18, 0, 0, 0, 0, 22, 0, 12, 0, 61, 0, 1, 62, 0, 0, 43, 17, 79, 0, 0, 21, 7, 6, 0, 0, 9, 0, 57, 0, 49, 0, 50, 78, 35, 0, 32, 31, 0, 58, 0, 0, 0, 20, 0, 0, 0, 8, 0, 15, 0, 77, 45, 71, 0, 0, 0
|0, 0, 0, 0, 0, 11, 0, 64, 76, 44, 7, 15, 0, 0, 0, 0, 70, 61, 30, 0, 36, 42, 0, 0, 0, 0, 0, 0, 0, 0, 19, 80, 55, 0, 0, 0, 74, 13, 0, 41, 0, 0, 0, 56, 40, 0, 0, 0, 0, 49, 0, 28, 51, 33, 0, 77, 65, 66, 48, 21, 0, 79, 0, 0, 27, 47, 0, 69, 0, 25, 0, 22, 0, 0, 35, 3, 0, 46, 0, 57, 78
|26, 0, 0, 0, 8, 0, 13, 0, 0, 0, 0, 0, 47, 0, 0, 0, 49, 0, 67, 69, 0, 0, 62, 23, 65, 9, 21, 58, 0, 0, 68, 31, 34, 0, 56, 0, 33, 0, 81, 0, 0, 0, 0, 0, 6, 70, 54, 0, 0, 19, 0, 0, 42, 0, 11, 57, 55, 80, 0, 45, 0, 0, 0, 60, 0, 5, 0, 0, 35, 0, 0, 0, 0, 39, 0, 78, 17, 51, 0, 0, 15
|1, 0, 6, 19, 0, 31, 51, 0, 0, 29, 0, 0, 26, 0, 81, 12, 36, 27, 0, 41, 0, 30, 0, 70, 61, 0, 22, 0, 18, 0, 0, 78, 0, 52, 0, 39, 0, 0, 7, 0, 0, 38, 47, 0, 0, 56, 17, 0, 0, 0, 0, 77, 13, 76, 20, 0, 0, 0, 0, 34, 15, 0, 33, 40, 0, 0, 23, 0, 68, 69, 0, 72, 44, 25, 4, 0, 0, 28, 0, 59, 80
|30, 0, 36, 0, 0, 21, 73, 0, 0, 1, 62, 0, 10, 45, 46, 17, 8, 0, 0, 0, 0, 0, 0, 0, 0, 0, 68, 50, 74, 48, 80, 0, 43, 29, 35, 0, 27, 0, 0, 0, 0, 0, 15, 63, 0, 0, 22, 0, 53, 51, 23, 11, 0, 6, 0, 0, 0, 3, 0, 2, 0, 0, 0, 0, 0, 0, 0, 0, 0, 57, 58, 0, 0, 0, 0, 12, 41, 0, 13, 0, 0
|29, 0, 0, 0, 0, 24, 48, 0, 0, 35, 0, 37, 0, 32, 34, 9, 0, 0, 73, 18, 74, 0, 0, 0, 75, 4, 81, 59, 22, 0, 60, 0, 0, 36, 6, 61, 0, 26, 0, 72, 0, 40, 0, 17, 65, 0, 0, 2, 66, 0, 16, 0, 3, 0, 54, 0, 44, 0, 52, 58, 28, 5, 7, 0, 0, 78, 0, 0, 0, 0, 46, 0, 0, 0, 11, 0, 38, 0, 50, 0, 19
|81, 56, 0, 35, 0, 0, 0, 69, 0, 78, 24, 0, 63, 6, 33, 41, 0, 79, 0, 47, 5, 0, 0, 0, 0, 0, 80, 51, 0, 0, 0, 0, 0, 25, 0, 77, 0, 0, 16, 13, 18, 43, 29, 3, 34, 10, 12, 0, 46, 31, 30, 58, 0, 0, 0, 60, 0, 0, 9, 38, 0, 0, 59, 52, 4, 0, 19, 28, 0, 14, 0, 0, 0, 0, 0, 0, 0, 68, 0, 0, 66
|0, 0, 0, 54, 0, 0, 63, 0, 68, 59, 0, 61, 11, 0, 31, 19, 40, 20, 0, 0, 0, 8, 0, 26, 16, 0, 0, 69, 41, 37, 13, 0, 15, 0, 75, 0, 0, 0, 66, 0, 46, 58, 0, 53, 0, 0, 0, 34, 0, 36, 0, 73, 21, 0, 51, 0, 1, 0, 0, 71, 35, 39, 76, 9, 38, 22, 25, 0, 47, 6, 49, 74, 70, 60, 77, 7, 0, 0, 27, 0, 0
|0, 0, 49, 47, 60, 78, 0, 43, 0, 0, 58, 0, 0, 0, 0, 0, 0, 0, 0, 0, 0, 0, 0, 0, 15, 44, 48, 0, 0, 0, 0, 28, 0, 62, 0, 0, 37, 80, 0, 0, 14, 51, 4, 0, 0, 5, 0, 38, 0, 1, 24, 72, 7, 40, 0, 27, 23, 18, 46, 0, 0, 0, 29, 75, 0, 0, 54, 30, 0, 0, 31, 0, 0, 0, 0, 0, 22, 76, 0, 0, 0
|0, 61, 0, 0, 0, 0, 37, 20, 0, 0, 0, 0, 0, 0, 0, 60, 0, 0, 77, 0, 34, 13, 1, 0, 66, 0, 40, 0, 0, 0, 10, 0, 0, 0, 0, 0, 0, 0, 0, 0, 23, 48, 69, 71, 68, 0, 49, 0, 78, 0, 62, 74, 0, 0, 50, 0, 0, 0, 41, 6, 0, 47, 0, 17, 12, 73, 0, 0, 0, 80, 15, 56, 0, 0, 75, 0, 46, 0, 0, 0, 0
|0, 0, 0, 0, 5, 42, 38, 18, 0, 22, 0, 0, 0, 66, 0, 0, 0, 16, 19, 10, 0, 57, 0, 55, 6, 51, 49, 0, 0, 79, 0, 0, 76, 53, 46, 2, 0, 9, 0, 60, 75, 0, 0, 30, 0, 29, 0, 80, 0, 0, 69, 43, 14, 45, 26, 0, 0, 0, 12, 0, 0, 0, 0, 0, 1, 34, 0, 39, 61, 0, 24, 48, 71, 20, 0, 0, 0, 0, 0, 67, 0
|15, 0, 0, 0, 40, 77, 53, 0, 0, 0, 28, 0, 75, 36, 0, 2, 0, 0, 8, 66, 3, 0, 74, 58, 47, 0, 0, 5, 0, 76, 0, 12, 0, 0, 0, 0, 59, 0, 0, 0, 33, 39, 63, 0, 0, 37, 0, 20, 0, 0, 41, 0, 17, 0, 9, 54, 0, 0, 68, 55, 1, 0, 57, 0, 13, 0, 0, 10, 0, 65, 0, 60, 11, 0, 0, 19, 0, 30, 0, 16, 0
|0, 17, 39, 0, 16, 46, 24, 35, 0, 33, 78, 0, 32, 0, 0, 14, 0, 76, 0, 0, 0, 0, 60, 0, 41, 19, 64, 34, 0, 0, 51, 0, 0, 28, 31, 38, 0, 30, 74, 0, 20, 29, 21, 0, 9, 0, 1, 0, 0, 0, 0, 0, 0, 0, 70, 48, 45, 72, 13, 73, 0, 2, 0, 0, 0, 12, 0, 43, 3, 55, 0, 0, 18, 0, 44, 58, 0, 53, 54, 0, 67
|11, 13, 0, 51, 37, 0, 49, 80, 20, 12, 17, 0, 34, 0, 59, 0, 0, 0, 1, 0, 67, 0, 79, 39, 62, 0, 0, 0, 0, 19, 0, 0, 56, 10, 0, 53, 73, 18, 25, 76, 54, 5, 0, 77, 50, 45, 48, 0, 0, 14, 0, 0, 4, 0, 15, 23, 78, 0, 0, 69, 0, 74, 26, 0, 0, 0, 0, 0, 0, 0, 63, 31, 40, 0, 64, 0, 42, 9, 0, 0, 0
|60, 0, 50, 28, 0, 0, 8, 3, 18, 53, 0, 24, 70, 4, 0, 39, 0, 0, 76, 0, 0, 29, 0, 0, 44, 0, 0, 78, 0, 73, 0, 66, 0, 68, 0, 17, 0, 45, 19, 0, 69, 1, 42, 0, 49, 0, 0, 16, 80, 0, 0, 5, 0, 0, 65, 0, 46, 7, 25, 31, 14, 62, 52, 51, 30, 0, 0, 54, 22, 64, 0, 0, 0, 0, 10, 15, 0, 0, 0, 2, 0
|0, 9, 0, 64, 0, 70, 54, 0, 0, 0, 29, 40, 71, 0, 0, 45, 26, 0, 28, 42, 0, 0, 21, 80, 0, 0, 12, 60, 67, 69, 41, 0, 75, 0, 81, 0, 0, 8, 0, 32, 0, 24, 0, 47, 72, 49, 30, 74, 0, 0, 0, 44, 0, 0, 58, 36, 59, 17, 0, 4, 56, 0, 35, 46, 73, 0, 11, 0, 39, 1, 48, 14, 63, 0, 62, 57, 0, 5, 0, 27, 0
|0, 0, 0, 0, 0, 69, 0, 0, 0, 50, 52, 0, 0, 0, 0, 0, 0, 0, 40, 9, 0, 0, 0, 48, 23, 0, 54, 61, 45, 0, 0, 3, 0, 0, 0, 0, 2, 70, 80, 65, 58, 0, 0, 4, 71, 0, 46, 0, 0, 38, 36, 64, 0, 24, 0, 0, 79, 0, 21, 37, 22, 0, 10, 81, 0, 0, 0, 0, 44, 0, 0, 0, 6, 0, 0, 28, 0, 0, 0, 12, 0
|0, 0, 0, 23, 45, 12, 6, 44, 27, 0, 0, 65, 0, 0, 0, 0, 63, 38, 0, 51, 37, 0, 75, 46, 14, 0, 0, 21, 54, 0, 0, 11, 64, 2, 24, 0, 79, 0, 0, 0, 0, 55, 0, 0, 0, 0, 67, 7, 70, 62, 39, 52, 0, 0, 0, 40, 53, 5, 0, 0, 0, 0, 0, 0, 0, 0, 47, 19, 34, 0, 0, 0, 26, 0, 71, 33, 74, 50, 69, 72, 0
|0, 0, 2, 52, 31, 0, 59, 0, 0, 0, 64, 5, 0, 20, 47, 0, 72, 11, 0, 38, 0, 45, 4, 10, 0, 43, 0, 74, 0, 0, 0, 0, 9, 0, 0, 16, 0, 0, 26, 28, 44, 0, 0, 15, 0, 0, 0, 0, 0, 42, 0, 12, 0, 60, 0, 24, 34, 0, 3, 0, 50, 0, 0, 0, 75, 0, 0, 0, 0, 0, 29, 0, 1, 0, 0, 51, 79, 41, 73, 46, 48
|48, 0, 57, 33, 30, 55, 0, 0, 0, 0, 21, 0, 54, 0, 10, 0, 0, 0, 18, 24, 0, 0, 0, 73, 53, 0, 0, 0, 0, 0, 14, 0, 47, 4, 59, 29, 0, 0, 51, 16, 60, 37, 0, 7, 31, 0, 0, 0, 56, 0, 77, 76, 0, 0, 32, 67, 0, 64, 0, 0, 0, 0, 80, 0, 41, 52, 58, 0, 0, 50, 0, 0, 35, 0, 0, 0, 39, 0, 36, 3, 0
|0, 12, 71, 59, 0, 38, 0, 0, 0, 28, 6, 0, 0, 11, 0, 81, 13, 25, 0, 0, 72, 0, 0, 0, 0, 54, 0, 17, 0, 0, 0, 69, 68, 56, 0, 0, 7, 63, 43, 52, 0, 42, 0, 10, 37, 80, 58, 0, 0, 73, 21, 0, 0, 65, 41, 26, 0, 0, 0, 53, 0, 77, 40, 0, 46, 0, 24, 0, 20, 39, 0, 0, 0, 49, 34, 62, 15, 0, 0, 0, 0
|54, 37, 0, 46, 66, 0, 0, 42, 0, 51, 0, 0, 0, 60, 18, 79, 34, 0, 0, 0, 48, 58, 80, 20, 0, 23, 0, 13, 70, 4, 49, 15, 0, 0, 0, 32, 0, 59, 53, 0, 64, 8, 0, 0, 27, 50, 0, 0, 0, 7, 63, 6, 0, 36, 0, 0, 0, 31, 0, 0, 0, 68, 1, 0, 0, 0, 0, 35, 0, 77, 69, 52, 81, 0, 0, 0, 0, 0, 39, 0, 14
|0, 0, 47, 53, 20, 0, 0, 0, 0, 0, 69, 0, 0, 0, 0, 0, 0, 0, 0, 12, 0, 0, 26, 0, 0, 0, 18, 14, 79, 0, 66, 0, 0, 0, 0, 0, 6, 0, 50, 0, 55, 0, 78, 0, 0, 44, 52, 64, 0, 0, 32, 0, 27, 0, 74, 0, 0, 57, 49, 0, 46, 75, 0, 0, 0, 37, 30, 0, 0, 0, 0, 1, 41, 23, 0, 0, 80, 72, 0, 0, 0
|13, 7, 0, 0, 35, 18, 25, 0, 64, 62, 0, 0, 0, 0, 67, 55, 2, 12, 0, 0, 0, 0, 0, 0, 0, 79, 0, 45, 21, 39, 0, 73, 0, 0, 0, 0, 80, 56, 0, 44, 19, 34, 0, 72, 1, 33, 0, 57, 40, 0, 0, 0, 71, 0, 3, 0, 28, 37, 32, 78, 8, 30, 61, 0, 0, 76, 0, 0, 17, 9, 4, 81, 0, 77, 0, 0, 65, 27, 0, 51, 43
|6, 0, 1, 0, 77, 34, 0, 63, 8, 0, 45, 0, 31, 14, 54, 40, 0, 3, 38, 0, 78, 0, 67, 9, 46, 0, 10, 0, 50, 60, 65, 0, 27, 0, 0, 72, 18, 29, 17, 47, 12, 21, 76, 35, 0, 2, 81, 30, 43, 0, 37, 0, 48, 79, 0, 20, 52, 73, 0, 0, 25, 51, 62, 15, 0, 0, 49, 0, 71, 68, 0, 7, 0, 0, 33, 69, 0, 61, 55, 66, 0
|14, 0, 0, 0, 0, 29, 0, 65, 0, 64, 0, 0, 0, 0, 30, 58, 44, 0, 39, 59, 68, 0, 63, 52, 0, 1, 0, 26, 0, 6, 0, 40, 0, 0, 0, 0, 0, 0, 0, 81, 0, 25, 0, 0, 3, 0, 0, 70, 8, 22, 0, 0, 0, 0, 0, 33, 71, 0, 36, 60, 0, 0, 2, 50, 48, 31, 0, 5, 0, 45, 11, 0, 0, 54, 21, 47, 0, 0, 20, 35, 0
|17, 0, 81, 0, 49, 0, 76, 0, 0, 63, 0, 0, 21, 0, 0, 0, 65, 0, 2, 0, 71, 55, 0, 11, 37, 0, 0, 53, 52, 12, 0, 43, 0, 78, 0, 22, 0, 0, 70, 5, 0, 0, 0, 60, 26, 35, 0, 0, 20, 0, 0, 0, 74, 0, 0, 50, 39, 0, 72, 0, 0, 6, 0, 0, 40, 0, 0, 0, 13, 0, 36, 61, 0, 0, 25, 0, 0, 64, 0, 58, 1
|24, 0, 0, 0, 27, 5, 80, 67, 41, 0, 0, 77, 61, 0, 0, 0, 10, 0, 66, 16, 0, 51, 0, 7, 0, 64, 29, 0, 0, 81, 0, 25, 0, 0, 0, 0, 0, 0, 30, 22, 32, 0, 2, 0, 79, 39, 13, 15, 0, 0, 19, 49, 0, 0, 43, 0, 0, 34, 65, 0, 48, 0, 47, 0, 0, 0, 0, 6, 0, 0, 12, 53, 50, 31, 0, 46, 4, 74, 0, 78, 0
|0, 11, 78, 0, 0, 0, 0, 2, 52, 38, 39, 49, 19, 17, 0, 7, 46, 0, 62, 0, 0, 15, 0, 0, 0, 36, 47, 0, 0, 64, 0, 0, 0, 0, 10, 0, 0, 0, 0, 0, 40, 31, 28, 0, 20, 0, 0, 68, 5, 25, 0, 1, 59, 0, 45, 63, 67, 22, 56, 80, 0, 0, 0, 0, 29, 43, 41, 65, 0, 0, 79, 0, 0, 32, 18, 0, 0, 0, 24, 6, 60
|0, 23, 0, 0, 78, 0, 0, 0, 0, 0, 0, 55, 37, 68, 0, 0, 0, 21, 15, 0, 80, 35, 22, 40, 70, 0, 39, 36, 0, 0, 61, 0, 0, 0, 28, 0, 72, 0, 59, 12, 0, 0, 0, 14, 0, 0, 0, 0, 0, 0, 0, 10, 67, 0, 31, 81, 0, 0, 0, 0, 33, 0, 32, 0, 25, 0, 50, 0, 0, 0, 52, 47, 0, 0, 9, 26, 63, 0, 16, 0, 0
|77, 0, 0, 43, 0, 28, 2, 0, 0, 0, 0, 46, 5, 29, 0, 0, 0, 0, 24, 61, 0, 34, 0, 53, 74, 0, 9, 0, 57, 0, 18, 0, 0, 0, 0, 0, 0, 10, 48, 7, 0, 0, 0, 0, 0, 0, 44, 27, 60, 80, 0, 0, 39, 0, 62, 41, 70, 55, 63, 30, 68, 12, 0, 0, 78, 0, 22, 0, 0, 73, 35, 0, 19, 40, 0, 0, 0, 0, 65, 0, 76
|46, 0, 0, 50, 0, 25, 0, 81, 49, 0, 40, 0, 0, 24, 0, 15, 61, 59, 0, 0, 0, 0, 45, 0, 32, 14, 73, 0, 69, 56, 0, 62, 0, 63, 0, 34, 13, 78, 68, 71, 0, 28, 0, 0, 58, 31, 0, 52, 0, 0, 0, 0, 37, 35, 22, 8, 75, 0, 0, 0, 0, 0, 0, 74, 0, 29, 53, 41, 64, 0, 43, 80, 0, 30, 0, 1, 0, 60, 0, 23, 0
|0, 42, 22, 0, 15, 13, 0, 0, 0, 0, 0, 56, 60, 0, 51, 0, 67, 9, 64, 0, 0, 5, 0, 0, 0, 0, 63, 55, 65, 0, 0, 0, 0, 0, 14, 0, 40, 27, 0, 0, 0, 26, 30, 0, 0, 41, 75, 0, 0, 0, 79, 33, 0, 0, 29, 46, 66, 71, 0, 50, 80, 54, 0, 0, 81, 68, 0, 16, 70, 0, 0, 0, 0, 78, 45, 4, 28, 0, 11, 0, 7
|51, 0, 0, 0, 0, 0, 0, 31, 69, 0, 63, 0, 73, 19, 0, 62, 0, 0, 44, 58, 0, 0, 0, 0, 30, 26, 67, 0, 38, 0, 0, 70, 3, 76, 22, 42, 46, 0, 79, 0, 16, 66, 57, 0, 11, 74, 0, 18, 0, 6, 28, 0, 0, 1, 0, 0, 20, 0, 7, 49, 5, 0, 23, 0, 10, 0, 0, 0, 77, 0, 8, 0, 21, 61, 81, 39, 14, 54, 2, 34, 41
|34, 0, 0, 0, 0, 73, 0, 24, 0, 30, 79, 38, 72, 80, 0, 50, 0, 78, 0, 0, 13, 7, 0, 0, 0, 0, 69, 0, 0, 31, 0, 0, 74, 6, 0, 8, 0, 0, 0, 0, 0, 0, 70, 0, 0, 62, 68, 0, 54, 0, 22, 0, 61, 0, 28, 0, 36, 19, 16, 3, 59, 0, 0, 44, 14, 0, 0, 4, 11, 76, 23, 0, 0, 0, 0, 25, 0, 29, 58, 0, 12
|58, 0, 30, 62, 0, 0, 0, 0, 5, 0, 54, 0, 0, 26, 0, 75, 0, 47, 4, 0, 65, 49, 66, 78, 76, 0, 0, 0, 0, 0, 52, 0, 0, 33, 0, 48, 9, 39, 77, 0, 74, 41, 18, 0, 45, 15, 0, 12, 24, 0, 0, 16, 0, 0, 2, 51, 64, 21, 44, 79, 0, 34, 0, 0, 0, 0, 0, 1, 57, 19, 0, 0, 8, 0, 72, 32, 0, 0, 3, 0, 0
|0, 8, 0, 0, 0, 65, 0, 0, 7, 0, 42, 28, 0, 0, 36, 0, 0, 0, 0, 0, 16, 54, 72, 0, 43, 0, 62, 9, 0, 71, 1, 0, 23, 0, 13, 0, 0, 0, 67, 0, 0, 0, 50, 0, 76, 25, 0, 11, 30, 0, 40, 32, 0, 64, 10, 0, 26, 0, 69, 61, 0, 35, 0, 0, 0, 48, 0, 0, 0, 0, 0, 0, 22, 0, 20, 0, 0, 0, 0, 0, 37
|0, 0, 0, 0, 0, 0, 61, 0, 0, 66, 70, 0, 16, 2, 76, 18, 11, 0, 0, 17, 23, 50, 6, 0, 79, 28, 0, 0, 75, 78, 45, 0, 0, 51, 29, 0, 0, 1, 62, 34, 0, 64, 0, 0, 69, 0, 0, 21, 0, 77, 0, 0, 0, 0, 0, 0, 57, 52, 0, 0, 4, 0, 0, 36, 0, 0, 0, 12, 54, 0, 33, 0, 15, 0, 5, 74, 31, 0, 0, 43, 27
|53, 0, 0, 32, 0, 1, 16, 0, 29, 0, 34, 58, 9, 0, 0, 28, 0, 0, 55, 26, 57, 0, 20, 0, 0, 49, 0, 0, 0, 0, 0, 0, 0, 65, 0, 36, 0, 0, 0, 0, 0, 0, 0, 0, 0, 0, 0, 43, 79, 0, 0, 42, 0, 52, 0, 0, 61, 0, 80, 47, 21, 59, 8, 0, 24, 0, 0, 0, 0, 22, 7, 73, 4, 27, 0, 0, 40, 0, 38, 0, 0
|0, 63, 0, 0, 0, 27, 0, 8, 0, 24, 33, 0, 40, 47, 0, 0, 0, 7, 37, 71, 0, 0, 0, 0, 0, 0, 77, 10, 0, 0, 20, 49, 5, 0, 0, 75, 36, 0, 0, 0, 0, 0, 13, 0, 22, 0, 0, 0, 0, 17, 0, 0, 0, 0, 19, 0, 35, 60, 0, 0, 2, 0, 0, 0, 0, 0, 16, 76, 67, 0, 72, 0, 3, 58, 0, 55, 0, 0, 0, 0, 64
|0, 30, 0, 0, 61, 62, 65, 50, 19, 0, 0, 0, 8, 0, 0, 0, 0, 43, 11, 21, 0, 74, 0, 0, 0, 0, 0, 0, 0, 18, 0, 22, 0, 42, 79, 0, 0, 0, 0, 0, 72, 2, 0, 0, 0, 0, 80, 33, 0, 28, 0, 0, 47, 56, 0, 34, 40, 39, 0, 75, 0, 67, 9, 59, 0, 6, 0, 57, 41, 12, 3, 29, 0, 0, 7, 16, 0, 81, 0, 0, 0
|78, 2, 75, 0, 0, 15, 0, 26, 0, 0, 0, 53, 0, 0, 0, 61, 0, 35, 56, 0, 22, 27, 59, 0, 24, 0, 0, 0, 32, 0, 47, 0, 70, 0, 45, 43, 29, 0, 12, 21, 0, 0, 64, 68, 0, 0, 0, 36, 0, 44, 0, 0, 0, 10, 0, 13, 0, 23, 0, 74, 30, 52, 18, 1, 0, 0, 31, 81, 0, 71, 9, 63, 0, 73, 0, 37, 51, 19, 25, 0, 0
|45, 0, 58, 0, 64, 7, 0, 34, 6, 10, 0, 79, 56, 0, 0, 0, 0, 0, 0, 0, 0, 0, 0, 2, 0, 0, 30, 0, 3, 0, 23, 8, 66, 59, 0, 25, 50, 15, 0, 54, 4, 77, 0, 32, 0, 60, 0, 75, 27, 0, 74, 0, 0, 0, 0, 65, 37, 0, 0, 11, 0, 0, 0, 0, 21, 0, 0, 33, 69, 0, 0, 51, 46, 12, 0, 0, 0, 26, 57, 0, 0
|12, 44, 18, 0, 10, 0, 0, 0, 3, 80, 25, 66, 38, 0, 6, 0, 0, 0, 0, 0, 39, 40, 42, 63, 0, 33, 0, 0, 51, 28, 0, 2, 37, 58, 0, 0, 0, 0, 75, 1, 7, 0, 26, 16, 0, 76, 0, 72, 0, 0, 0, 0, 0, 21, 57, 53, 62, 0, 71, 0, 55, 0, 46, 0, 0, 0, 64, 0, 0, 27, 0, 54, 56, 24, 22, 59, 0, 69, 0, 9, 0
|0, 22, 0, 66, 59, 0, 0, 52, 0, 45, 18, 0, 15, 0, 19, 54, 76, 74, 16, 25, 0, 0, 64, 0, 73, 0, 0, 77, 81, 17, 9, 56, 35, 0, 39, 0, 0, 0, 0, 0, 0, 20, 43, 34, 0, 58, 0, 0, 3, 70, 0, 71, 0, 0, 12, 7, 0, 0, 0, 0, 0, 0, 51, 0, 0, 0, 79, 0, 0, 0, 0, 40, 0, 80, 60, 0, 0, 10, 67, 0, 61
|42, 54, 56, 80, 23, 0, 0, 0, 39, 0, 41, 63, 0, 30, 0, 0, 51, 1, 3, 28, 70, 9, 0, 61, 0, 13, 0, 0, 0, 0, 62, 0, 52, 0, 0, 0, 19, 44, 38, 0, 0, 0, 0, 59, 0, 0, 69, 0, 0, 5, 66, 37, 0, 46, 81, 73, 16, 20, 58, 0, 79, 48, 22, 0, 0, 53, 77, 0, 2, 18, 26, 0, 0, 8, 32, 50, 0, 0, 0, 0, 0
|37, 0, 21, 9, 81, 0, 0, 13, 0, 0, 0, 0, 0, 59, 52, 0, 0, 0, 50, 0, 79, 23, 0, 31, 0, 0, 53, 0, 63, 80, 78, 0, 69, 0, 71, 6, 25, 0, 0, 0, 0, 56, 0, 0, 0, 51, 8, 24, 0, 0, 0, 2, 0, 11, 64, 0, 0, 0, 0, 44, 0, 10, 54, 0, 0, 19, 0, 14, 0, 66, 74, 4, 36, 0, 0, 48, 0, 18, 72, 0, 33
|0, 0, 0, 8, 0, 22, 0, 0, 0, 2, 72, 0, 41, 0, 0, 10, 64, 0, 60, 1, 0, 0, 0, 56, 0, 0, 61, 0, 0, 0, 0, 0, 62, 73, 0, 79, 51, 0, 65, 26, 0, 0, 80, 0, 55, 0, 0, 50, 39, 0, 0, 0, 76, 0, 0, 0, 38, 0, 0, 28, 0, 0, 0, 0, 0, 45, 0, 0, 0, 47, 68, 19, 13, 11, 15, 0, 0, 0, 0, 29, 0
|0, 0, 45, 11, 0, 0, 0, 0, 17, 0, 66, 0, 0, 0, 15, 0, 19, 50, 0, 23, 31, 0, 3, 0, 0, 0, 72, 0, 0, 43, 5, 48, 0, 12, 0, 35, 0, 0, 0, 0, 0, 0, 0, 13, 46, 0, 0, 22, 7, 0, 0, 53, 32, 14, 0, 79, 21, 33, 0, 0, 0, 0, 65, 0, 76, 0, 0, 0, 74, 44, 0, 0, 0, 36, 0, 0, 0, 0, 0, 0, 30
|0, 50, 43, 12, 41, 0, 78, 0, 80, 58, 0, 39, 35, 0, 68, 0, 79, 33, 0, 36, 0, 73, 24, 0, 2, 0, 51, 0, 0, 8, 0, 0, 17, 0, 0, 10, 22, 0, 5, 0, 0, 61, 44, 0, 0, 40, 16, 0, 0, 13, 26, 29, 0, 19, 0, 1, 0, 0, 0, 0, 62, 3, 0, 27, 65, 0, 34, 72, 66, 0, 21, 57, 0, 4, 0, 60, 0, 7, 0, 63, 0
|0, 3, 35, 0, 0, 0, 34, 0, 62, 8, 0, 0, 0, 0, 0, 67, 47, 37, 0, 27, 20, 0, 0, 0, 10, 75, 71, 16, 0, 0, 59, 1, 0, 0, 40, 0, 56, 0, 29, 0, 21, 0, 17, 19, 33, 0, 0, 31, 0, 54, 0, 0, 36, 0, 80, 9, 0, 0, 0, 5, 52, 0, 0, 28, 43, 0, 0, 79, 23, 0, 53, 0, 0, 64, 46, 0, 0, 0, 44, 77, 58
|0, 66, 0, 0, 46, 26, 79, 74, 0, 40, 36, 0, 69, 1, 38, 0, 0, 53, 22, 0, 14, 0, 7, 8, 0, 76, 0, 0, 11, 0, 0, 33, 19, 0, 60, 56, 0, 0, 27, 0, 0, 62, 72, 25, 48, 52, 0, 41, 0, 0, 0, 0, 0, 0, 0, 16, 0, 2, 0, 43, 71, 57, 68, 13, 0, 77, 9, 0, 0, 17, 81, 0, 0, 0, 0, 80, 0, 0, 6, 61, 10
|31, 0, 0, 69, 0, 47, 0, 0, 0, 55, 0, 7, 51, 0, 24, 0, 78, 0, 0, 0, 28, 67, 43, 15, 4, 29, 0, 0, 0, 0, 0, 38, 0, 0, 26, 41, 0, 42, 0, 79, 36, 0, 0, 6, 57, 0, 0, 0, 0, 65, 2, 0, 0, 37, 0, 0, 0, 0, 76, 0, 63, 17, 0, 0, 0, 0, 75, 11, 0, 0, 0, 0, 48, 1, 0, 0, 81, 59, 66, 0, 54
|9, 0, 0, 0, 65, 0, 64, 0, 0, 76, 0, 81, 0, 0, 0, 0, 0, 77, 34, 78, 0, 26, 0, 30, 0, 40, 74, 15, 53, 54, 0, 57, 13, 0, 66, 0, 60, 43, 37, 18, 0, 0, 35, 24, 23, 0, 0, 5, 62, 46, 70, 0, 56, 0, 48, 31, 0, 36, 29, 0, 10, 0, 75, 0, 6, 0, 1, 0, 0, 0, 32, 58, 0, 0, 0, 27, 16, 0, 12, 0, 0
|44, 0, 0, 75, 0, 0, 0, 0, 0, 0, 0, 0, 18, 25, 0, 48, 56, 13, 9, 77, 0, 0, 0, 68, 69, 0, 0, 0, 64, 34, 31, 39, 0, 81, 36, 65, 0, 58, 0, 0, 0, 15, 73, 45, 0, 27, 0, 0, 6, 55, 0, 61, 0, 49, 60, 0, 7, 26, 0, 51, 74, 72, 0, 0, 63, 40, 0, 22, 46, 0, 0, 0, 0, 43, 0, 42, 62, 0, 0, 0, 0
|18, 0, 0, 0, 76, 0, 0, 36, 54, 43, 9, 60, 0, 12, 32, 0, 0, 23, 0, 81, 42, 38, 5, 0, 49, 0, 0, 30, 27, 77, 24, 0, 61, 0, 21, 68, 71, 0, 69, 31, 0, 0, 10, 0, 0, 0, 79, 0, 0, 48, 0, 57, 73, 59, 0, 0, 0, 40, 0, 0, 0, 0, 0, 0, 51, 0, 29, 7, 33, 20, 16, 3, 28, 0, 0, 0, 0, 39, 75, 0, 35|];