order = 9;
grid = [|56, 38, 33, 13, 0, 45, 0, 0, 71, 17, 0, 0, 0, 0, 0, 0, 5, 31, 73, 0, 0, 0, 67, 0, 64, 0, 78, 0, 0, 0, 41, 7, 0, 0, 0, 0, 0, 50, 0, 0, 0, 0, 18, 2, 1, 66, 8, 43, 0, 58, 0, 55, 81, 0, 0, 25, 51, 26, 0, 0, 80, 6, 0, 9, 0, 11, 47, 53, 0, 54, 12, 0, 0, 0, 0, 20, 0, 0, 62, 72, 0
|36, 0, 54, 0, 0, 40, 0, 0, 0, 20, 0, 0, 0, 0, 0, 73, 53, 77, 10, 71, 0, 0, 0, 69, 66, 81, 0, 37, 8, 39, 0, 19, 0, 0, 0, 14, 33, 0, 76, 29, 0, 0, 0, 0, 0, 0, 61, 24, 0, 15, 0, 75, 0, 52, 70, 31, 0, 60, 0, 0, 74, 0, 27, 6, 0, 0, 0, 0, 16, 55, 0, 17, 78, 0, 1, 0, 7, 25, 41, 0, 43
|0, 0, 61, 58, 0, 30, 0, 74, 0, 26, 23, 0, 60, 0, 6, 0, 0, 42, 54, 52, 0, 0, 0, 80, 0, 20, 9, 0, 55, 0, 0, 0, 0, 0, 0, 0, 0, 65, 37, 0, 0, 0, 0, 0, 7, 0, 0, 0, 63, 16, 35, 0, 0, 0, 4, 75, 0, 0, 0, 0, 36, 45, 8, 78, 13, 72, 40, 15, 0, 0, 0, 76, 27, 5, 22, 24, 53, 0, 28, 19, 0
|78, 75, 79, 0, 76, 20, 77, 0, 0, 0, 0, 43, 74, 63, 0, 0, 64, 0, 0, 15, 28, 50, 0, 0, 0, 27, 0, 0, 52, 26, 6, 31, 5, 0, 0, 0, 0, 0, 54, 69, 0, 11, 0, 0, 58, 47, 67, 0, 0, 45, 0, 17, 1, 7, 0, 53, 35, 0, 0, 66, 56, 0, 0, 4, 8, 42, 0, 0, 14, 25, 48, 0, 60, 0, 0, 61, 0, 0, 0, 0, 0
|59, 0, 6, 0, 46, 2, 0, 0, 0, 0, 0, 40, 29, 65, 0, 9, 0, 11, 0, 0, 58, 41, 0, 32, 0, 0, 0, 72, 0, 0, 67, 73, 0, 20, 17, 74, 49, 0, 66, 0, 0, 0, 12, 0, 0, 0, 31, 60, 0, 0, 77, 48, 0, 0, 71, 0, 0, 54, 0, 0, 0, 42, 10, 27, 75, 0, 0, 44, 0, 52, 39, 19, 47, 68, 63, 0, 0, 57, 33, 37, 34
|32, 0, 0, 66, 0, 55, 0, 0, 39, 38, 81, 61, 0, 0, 0, 69, 13, 80, 0, 25, 5, 17, 0, 12, 14, 0, 0, 0, 0, 30, 0, 18, 0, 54, 0, 48, 0, 0, 26, 16, 0, 59, 20, 68, 0, 44, 0, 0, 41, 0, 40, 29, 0, 0, 0, 0, 0, 37, 34, 9, 3, 43, 72, 0, 0, 0, 0, 56, 0, 71, 49, 51, 52, 0, 0, 0, 0, 15, 0, 0, 0
|57, 53, 0, 44, 0, 73, 25, 0, 0, 41, 76, 0, 4, 0, 0, 27, 0, 56, 0, 0, 30, 0, 0, 0, 0, 0, 35, 81, 64, 15, 0, 0, 42, 3, 0, 0, 17, 6, 0, 21, 0, 0, 0, 0, 0, 0, 0, 65, 0, 0, 0, 0, 11, 0, 49, 39, 58, 12, 0, 0, 68, 0, 13, 0, 29, 0, 37, 0, 79, 34, 20, 1, 0, 26, 55, 46, 0, 67, 14, 0, 0
|67, 64, 0, 70, 0, 0, 5, 34, 0, 71, 49, 0, 68, 0, 12, 14, 35, 75, 61, 79, 0, 42, 0, 0, 0, 43, 0, 0, 65, 0, 9, 0, 47, 0, 0, 0, 0, 0, 0, 41, 0, 31, 0, 0, 40, 53, 0, 39, 20, 0, 74, 0, 6, 3, 19, 0, 2, 76, 81, 30, 32, 22, 16, 58, 57, 0, 62, 0, 50, 77, 45, 28, 8, 0, 0, 38, 66, 0, 59, 69, 0
|0, 0, 0, 0, 0, 0, 37, 0, 0, 0, 0, 0, 0, 67, 0, 39, 66, 0, 0, 18, 0, 0, 53, 72, 31, 34, 74, 1, 0, 13, 0, 38, 0, 61, 32, 0, 0, 22, 19, 45, 0, 14, 78, 71, 36, 76, 0, 54, 0, 59, 25, 21, 0, 12, 46, 0, 0, 63, 0, 17, 77, 64, 0, 0, 0, 0, 65, 0, 10, 0, 23, 0, 0, 9, 79, 0, 40, 4, 0, 35, 0
|0, 66, 50, 0, 44, 0, 81, 0, 0, 53, 0, 17, 61, 0, 0, 57, 0, 70, 9, 0, 45, 0, 21, 24, 40, 0, 0, 0, 69, 79, 0, 41, 0, 0, 27, 38, 0, 54, 0, 77, 0, 76, 2, 0, 80, 0, 0, 51, 0, 0, 0, 0, 0, 0, 6, 0, 0, 46, 20, 0, 0, 0, 22, 0, 0, 36, 0, 0, 0, 65, 0, 42, 0, 23, 78, 0, 0, 5, 0, 0, 0
|70, 0, 0, 5, 0, 49, 0, 40, 0, 0, 0, 60, 0, 68, 13, 0, 0, 0, 15, 0, 55, 0, 47, 0, 41, 0, 0, 43, 0, 53, 66, 45, 0, 0, 30, 0, 42, 0, 0, 0, 34, 62, 0, 0, 0, 0, 0, 6, 75, 29, 0, 0, 0, 37, 2, 0, 7, 0, 0, 0, 0, 0, 0, 0, 0, 0, 46, 0, 1, 0, 57, 0, 54, 52, 0, 0, 0, 38, 0, 63, 61
|0, 0, 74, 21, 0, 0, 0, 0, 0, 58, 15, 0, 0, 0, 44, 0, 78, 0, 0, 0, 19, 33, 0, 25, 0, 36, 0, 0, 37, 0, 59, 0, 0, 67, 0, 0, 81, 17, 65, 0, 0, 28, 0, 0, 46, 0, 0, 57, 0, 73, 0, 0, 0, 0, 0, 76, 0, 0, 61, 0, 0, 53, 30, 79, 20, 70, 0, 0, 0, 0, 60, 0, 45, 12, 48, 0, 1, 0, 0, 0, 56
|0, 79, 0, 53, 78, 0, 0, 0, 31, 0, 0, 8, 81, 0, 0, 5, 0, 55, 0, 26, 54, 0, 0, 64, 0, 7, 14, 0, 0, 0, 0, 0, 17, 29, 0, 2, 12, 0, 45, 52, 6, 0, 21, 3, 47, 0, 0, 0, 60, 0, 0, 50, 66, 0, 1, 0, 0, 74, 0, 0, 27, 24, 34, 80, 0, 0, 18, 0, 37, 69, 0, 0, 0, 0, 43, 36, 0, 9, 0, 0, 0
|0, 0, 0, 0, 3, 0, 0, 7, 19, 46, 12, 31, 18, 54, 2, 0, 0, 0, 6, 0, 53, 73, 0, 65, 17, 0, 0, 62, 78, 0, 22, 0, 23, 0, 0, 26, 39, 0, 0, 0, 0, 41, 0, 0, 72, 0, 0, 0, 0, 44, 0, 0, 74, 0, 0, 8, 43, 0, 0, 0, 33, 0, 63, 0, 5, 0, 0, 0, 4, 28, 77, 66, 40, 24, 32, 0, 0, 0, 0, 81, 0
|60, 0, 0, 0, 0, 57, 0, 42, 0, 49, 36, 0, 51, 0, 74, 0, 30, 39, 0, 0, 43, 37, 11, 52, 5, 0, 0, 0, 15, 0, 77, 10, 0, 34, 54, 63, 53, 0, 22, 35, 0, 0, 0, 0, 32, 0, 40, 0, 0, 31, 7, 0, 45, 0, 0, 41, 65, 0, 0, 75, 12, 3, 0, 44, 48, 0, 64, 6, 78, 0, 19, 0, 21, 0, 20, 0, 0, 0, 50, 18, 0
|25, 0, 0, 0, 0, 0, 22, 61, 0, 65, 27, 0, 69, 0, 75, 0, 0, 19, 0, 32, 0, 66, 0, 0, 0, 51, 81, 20, 44, 5, 0, 0, 24, 0, 0, 0, 40, 11, 0, 0, 0, 0, 0, 0, 4, 0, 39, 76, 18, 0, 0, 0, 42, 70, 73, 0, 37, 0, 60, 0, 0, 0, 48, 0, 52, 0, 9, 0, 72, 0, 0, 0, 0, 0, 35, 8, 47, 2, 0, 33, 0
|76, 13, 0, 0, 0, 0, 0, 43, 69, 6, 14, 29, 0, 0, 26, 40, 9, 45, 42, 0, 0, 0, 70, 74, 49, 18, 79, 11, 31, 0, 8, 72, 71, 0, 0, 4, 78, 0, 1, 0, 33, 37, 0, 0, 19, 0, 27, 21, 0, 0, 0, 0, 0, 0, 0, 0, 0, 59, 0, 0, 39, 50, 0, 0, 0, 0, 0, 0, 56, 0, 51, 75, 62, 0, 0, 44, 0, 28, 77, 0, 60
|0, 33, 0, 0, 30, 46, 26, 0, 47, 0, 72, 64, 0, 0, 0, 38, 59, 0, 71, 0, 0, 0, 44, 0, 0, 58, 0, 60, 0, 76, 0, 70, 0, 0, 0, 0, 0, 66, 5, 50, 0, 29, 69, 55, 0, 0, 10, 0, 61, 0, 0, 19, 23, 0, 0, 0, 80, 0, 45, 18, 0, 0, 0, 13, 15, 0, 0, 49, 0, 32, 22, 43, 0, 4, 37, 74, 0, 0, 11, 7, 17
|0, 20, 0, 0, 60, 9, 43, 0, 59, 0, 65, 33, 0, 1, 0, 64, 15, 0, 0, 0, 0, 0, 78, 0, 45, 5, 3, 0, 73, 81, 0, 79, 21, 0, 0, 54, 0, 2, 0, 80, 76, 46, 0, 41, 0, 0, 25, 0, 56, 55, 66, 22, 0, 61, 0, 0, 0, 40, 38, 23, 28, 67, 11, 0, 0, 0, 57, 0, 0, 48, 4, 0, 17, 0, 58, 0, 0, 0, 42, 0, 0
|0, 58, 28, 0, 0, 23, 69, 0, 55, 75, 0, 0, 73, 0, 0, 72, 0, 7, 30, 0, 20, 35, 0, 0, 25, 0, 66, 0, 0, 77, 47, 14, 0, 0, 0, 0, 0, 38, 8, 3, 0, 39, 0, 0, 0, 10, 12, 62, 0, 70, 0, 13, 9, 0, 74, 54, 0, 43, 21, 0, 59, 0, 0, 60, 46, 0, 24, 33, 76, 31, 15, 16, 0, 37, 65, 19, 0, 61, 0, 67, 41
|19, 0, 0, 0, 0, 0, 38, 0, 0, 44, 57, 76, 0, 0, 0, 0, 0, 16, 0, 23, 0, 0, 0, 0, 39, 0, 21, 0, 5, 0, 70, 0, 2, 0, 65, 0, 0, 0, 0, 61, 0, 32, 0, 0, 0, 75, 71, 0, 0, 0, 67, 42, 0, 78, 0, 10, 0, 0, 9, 26, 29, 0, 0, 0, 37, 7, 72, 0, 0, 41, 0, 0, 64, 0, 47, 0, 0, 56, 49, 15, 46
|0, 63, 18, 40, 12, 0, 33, 15, 42, 3, 0, 0, 39, 5, 0, 37, 80, 0, 0, 22, 0, 0, 43, 31, 0, 0, 0, 6, 25, 0, 76, 71, 0, 0, 0, 0, 56, 23, 0, 53, 55, 10, 0, 64, 70, 0, 46, 35, 77, 0, 1, 0, 17, 0, 0, 65, 14, 48, 58, 45, 0, 13, 0, 30, 0, 0, 59, 0, 69, 0, 79, 0, 0, 0, 0, 0, 75, 0, 0, 9, 0
|48, 0, 0, 0, 0, 0, 44, 0, 37, 66, 19, 55, 49, 0, 78, 0, 0, 54, 0, 10, 42, 62, 13, 16, 0, 70, 58, 4, 29, 0, 0, 51, 0, 0, 0, 46, 0, 0, 0, 0, 47, 0, 45, 81, 57, 0, 15, 23, 0, 5, 0, 59, 39, 0, 24, 22, 63, 0, 33, 25, 7, 72, 18, 26, 0, 80, 52, 0, 17, 0, 32, 14, 0, 0, 0, 60, 71, 0, 6, 43, 0
|0, 7, 0, 0, 67, 0, 0, 0, 81, 0, 50, 51, 0, 11, 17, 0, 0, 40, 0, 0, 0, 75, 59, 0, 0, 48, 0, 0, 0, 56, 16, 55, 0, 22, 61, 0, 0, 0, 0, 0, 26, 0, 0, 0, 24, 54, 0, 0, 0, 19, 79, 47, 0, 18, 0, 42, 0, 70, 0, 46, 0, 0, 0, 0, 0, 29, 20, 0, 73, 0, 9, 23, 0, 13, 0, 0, 35, 0, 0, 0, 0
|0, 50, 14, 46, 0, 47, 0, 0, 36, 27, 21, 0, 48, 9, 0, 0, 0, 38, 80, 0, 0, 77, 12, 0, 0, 0, 8, 0, 59, 0, 49, 68, 0, 75, 37, 43, 0, 0, 16, 0, 0, 17, 72, 29, 51, 31, 11, 0, 76, 65, 6, 0, 60, 0, 0, 62, 39, 69, 64, 0, 15, 0, 0, 0, 0, 0, 44, 81, 0, 1, 0, 22, 0, 55, 0, 54, 18, 0, 57, 10, 0
|53, 70, 0, 0, 57, 0, 16, 0, 30, 0, 43, 0, 0, 12, 0, 20, 60, 0, 1, 0, 0, 0, 0, 0, 52, 0, 0, 0, 0, 41, 19, 0, 0, 48, 0, 39, 71, 0, 15, 59, 54, 75, 33, 0, 49, 0, 4, 7, 26, 24, 81, 51, 0, 0, 0, 0, 36, 0, 80, 0, 76, 0, 0, 50, 0, 34, 0, 0, 0, 0, 67, 64, 0, 0, 8, 0, 0, 45, 79, 0, 0
|52, 22, 8, 0, 0, 5, 13, 45, 0, 0, 0, 46, 0, 0, 0, 0, 0, 0, 0, 73, 0, 0, 0, 50, 0, 0, 0, 28, 0, 0, 0, 15, 0, 66, 10, 20, 35, 68, 34, 0, 9, 0, 0, 0, 0, 74, 57, 63, 64, 37, 41, 53, 21, 43, 0, 55, 0, 30, 12, 0, 16, 44, 0, 65, 51, 0, 54, 40, 0, 0, 0, 0, 69, 59, 80, 0, 0, 0, 0, 70, 0
|5, 0, 0, 7, 37, 0, 66, 0, 0, 0, 0, 0, 33, 39, 15, 25, 0, 81, 35, 48, 0, 0, 45, 0, 16, 31, 17, 0, 0, 0, 0, 0, 0, 19, 0, 27, 0, 0, 55, 0, 28, 0, 0, 0, 69, 0, 0, 0, 0, 0, 52, 1, 3, 11, 30, 0, 76, 0, 79, 62, 0, 0, 0, 14, 23, 73, 0, 0, 68, 0, 0, 10, 0, 71, 21, 0, 0, 0, 0, 77, 2
|0, 0, 0, 0, 0, 52, 0, 0, 0, 70, 17, 9, 0, 0, 77, 28, 20, 71, 32, 41, 0, 0, 0, 75, 12, 66, 55, 0, 0, 0, 37, 67, 61, 0, 18, 49, 0, 34, 0, 54, 0, 42, 39, 0, 78, 0, 48, 79, 0, 0, 27, 0, 0, 35, 0, 45, 81, 0, 0, 50, 0, 0, 38, 0, 58, 16, 0, 0, 15, 63, 0, 72, 13, 29, 0, 59, 0, 44, 0, 0, 80
|0, 67, 64, 0, 0, 4, 14, 0, 60, 0, 22, 13, 40, 53, 45, 0, 0, 0, 0, 38, 0, 36, 0, 0, 0, 0, 80, 52, 0, 0, 0, 35, 62, 55, 63, 0, 59, 0, 0, 0, 0, 0, 10, 51, 0, 0, 0, 0, 44, 0, 0, 20, 0, 0, 0, 74, 0, 16, 0, 42, 0, 73, 0, 0, 24, 0, 0, 0, 18, 46, 0, 33, 11, 19, 70, 34, 0, 0, 0, 54, 15
|26, 28, 0, 31, 0, 48, 0, 57, 0, 34, 62, 0, 0, 42, 21, 58, 0, 59, 19, 49, 24, 0, 79, 0, 0, 50, 29, 70, 0, 0, 0, 9, 0, 0, 0, 0, 0, 0, 0, 37, 0, 4, 56, 74, 71, 0, 45, 72, 15, 0, 76, 0, 80, 5, 0, 0, 0, 0, 3, 0, 66, 0, 0, 0, 64, 0, 2, 22, 40, 0, 13, 25, 7, 39, 81, 43, 17, 0, 35, 55, 0
|0, 73, 0, 3, 0, 63, 0, 1, 0, 0, 69, 38, 0, 30, 0, 0, 0, 0, 0, 11, 0, 0, 0, 0, 15, 13, 0, 57, 0, 0, 0, 80, 43, 39, 21, 0, 0, 0, 0, 8, 46, 60, 68, 61, 27, 0, 0, 9, 23, 6, 78, 66, 31, 0, 56, 77, 0, 0, 52, 0, 0, 0, 0, 0, 44, 0, 81, 17, 32, 0, 7, 67, 0, 75, 0, 28, 76, 10, 20, 0, 0
|0, 49, 0, 35, 0, 78, 17, 0, 0, 0, 0, 80, 79, 0, 0, 0, 0, 0, 0, 61, 0, 59, 52, 30, 70, 0, 0, 33, 0, 8, 5, 26, 0, 0, 0, 0, 0, 20, 29, 18, 0, 77, 0, 15, 0, 12, 0, 34, 0, 0, 0, 0, 4, 0, 0, 24, 55, 0, 0, 54, 19, 0, 36, 57, 39, 69, 0, 51, 21, 0, 66, 53, 0, 0, 64, 9, 45, 3, 0, 0, 6
|30, 61, 29, 0, 0, 0, 79, 44, 75, 0, 73, 0, 0, 64, 4, 52, 72, 0, 5, 0, 0, 57, 0, 0, 0, 21, 0, 0, 46, 66, 0, 0, 58, 0, 0, 0, 0, 0, 81, 0, 45, 23, 0, 19, 0, 71, 70, 0, 51, 10, 0, 63, 0, 33, 0, 59, 8, 80, 0, 0, 37, 0, 28, 0, 12, 0, 74, 0, 26, 0, 43, 0, 68, 0, 50, 0, 0, 18, 0, 62, 0
|58, 8, 55, 62, 70, 0, 59, 32, 0, 0, 0, 0, 0, 0, 19, 0, 44, 0, 0, 9, 65, 0, 46, 0, 0, 77, 40, 0, 0, 0, 30, 53, 0, 76, 23, 0, 0, 0, 0, 66, 21, 0, 38, 11, 64, 73, 0, 67, 81, 26, 0, 0, 0, 16, 0, 34, 18, 20, 2, 0, 0, 1, 0, 3, 0, 28, 0, 0, 0, 0, 0, 0, 0, 69, 61, 0, 52, 0, 12, 49, 0
|0, 18, 0, 0, 0, 22, 0, 0, 72, 0, 1, 11, 0, 0, 0, 0, 74, 12, 68, 78, 39, 76, 0, 2, 43, 0, 0, 0, 0, 0, 0, 0, 48, 0, 56, 64, 0, 35, 0, 0, 0, 26, 0, 52, 0, 0, 32, 0, 0, 0, 0, 0, 0, 0, 65, 23, 31, 0, 0, 21, 0, 0, 0, 0, 38, 0, 0, 42, 59, 80, 0, 0, 0, 0, 33, 58, 5, 73, 0, 0, 0
|0, 0, 0, 0, 2, 0, 0, 0, 57, 73, 66, 30, 0, 47, 54, 0, 0, 78, 0, 53, 31, 63, 0, 0, 0, 0, 13, 0, 34, 0, 0, 12, 0, 59, 0, 0, 28, 0, 75, 0, 0, 0, 0, 32, 0, 0, 0, 77, 35, 80, 55, 39, 0, 0, 27, 50, 79, 45, 43, 0, 0, 0, 21, 36, 0, 76, 16, 0, 0, 64, 46, 15, 5, 44, 0, 0, 4, 0, 0, 6, 74
|50, 0, 0, 0, 0, 25, 45, 0, 28, 52, 0, 0, 17, 4, 31, 16, 77, 0, 57, 5, 29, 79, 66, 0, 68, 0, 0, 0, 0, 0, 0, 0, 30, 11, 0, 0, 67, 0, 0, 0, 12, 0, 22, 0, 0, 3, 0, 0, 0, 7, 0, 2, 10, 46, 0, 0, 0, 38, 75, 41, 0, 0, 0, 0, 21, 27, 0, 20, 62, 0, 0, 32, 65, 0, 0, 0, 0, 8, 64, 0, 53
|35, 0, 0, 56, 4, 43, 0, 17, 5, 59, 0, 0, 0, 0, 48, 80, 46, 0, 49, 0, 0, 47, 0, 71, 0, 1, 2, 14, 0, 0, 0, 0, 0, 44, 0, 0, 16, 0, 0, 72, 37, 0, 0, 54, 55, 13, 53, 81, 0, 23, 31, 24, 27, 0, 0, 7, 52, 0, 11, 0, 18, 65, 0, 0, 0, 19, 0, 0, 0, 0, 42, 50, 20, 0, 51, 0, 0, 0, 0, 0, 0
|0, 55, 44, 0, 32, 8, 6, 26, 27, 0, 0, 0, 0, 0, 10, 0, 18, 58, 21, 0, 0, 81, 16, 0, 0, 54, 19, 45, 7, 42, 0, 4, 31, 64, 0, 0, 52, 0, 0, 2, 1, 3, 0, 0, 15, 0, 0, 0, 0, 0, 38, 0, 61, 36, 14, 13, 0, 72, 77, 0, 0, 28, 0, 0, 41, 48, 53, 67, 0, 0, 0, 40, 0, 76, 11, 23, 59, 0, 0, 0, 0
|54, 39, 31, 0, 33, 7, 1, 0, 0, 61, 0, 37, 0, 26, 81, 51, 36, 0, 43, 46, 40, 45, 34, 27, 0, 0, 28, 41, 0, 0, 73, 0, 9, 24, 3, 0, 0, 53, 0, 57, 17, 0, 80, 8, 29, 0, 0, 75, 25, 71, 0, 6, 56, 0, 44, 0, 78, 0, 66, 16, 0, 76, 68, 0, 0, 59, 12, 55, 0, 0, 2, 30, 72, 0, 67, 0, 0, 77, 0, 32, 10
|75, 11, 80, 0, 0, 13, 0, 64, 66, 33, 0, 0, 0, 29, 24, 0, 0, 3, 0, 50, 0, 0, 0, 70, 0, 73, 37, 0, 0, 10, 0, 39, 40, 0, 77, 0, 0, 0, 62, 26, 38, 0, 0, 0, 0, 0, 44, 0, 72, 79, 0, 76, 0, 41, 63, 0, 74, 6, 57, 71, 61, 0, 67, 0, 0, 52, 0, 23, 0, 0, 56, 54, 31, 0, 12, 16, 0, 0, 0, 22, 0
|41, 74, 0, 0, 0, 61, 12, 0, 38, 23, 67, 53, 0, 13, 0, 0, 0, 0, 0, 75, 59, 0, 10, 35, 80, 52, 22, 0, 0, 33, 0, 16, 28, 0, 0, 0, 0, 0, 0, 0, 79, 0, 0, 0, 0, 26, 50, 0, 54, 4, 0, 15, 48, 0, 36, 46, 3, 49, 70, 0, 62, 0, 56, 0, 65, 0, 0, 0, 44, 72, 0, 29, 39, 17, 0, 0, 0, 78, 66, 0, 0
|0, 0, 69, 0, 68, 0, 0, 29, 0, 0, 0, 0, 27, 6, 0, 0, 75, 22, 14, 60, 0, 55, 3, 77, 0, 64, 0, 76, 23, 47, 51, 57, 13, 35, 0, 17, 46, 70, 0, 0, 11, 21, 48, 0, 0, 8, 66, 16, 12, 34, 0, 52, 67, 0, 25, 33, 0, 15, 37, 20, 1, 80, 19, 74, 0, 0, 0, 0, 0, 4, 0, 5, 38, 0, 0, 0, 0, 0, 54, 71, 36
|0, 16, 0, 0, 0, 76, 21, 0, 46, 25, 0, 72, 70, 15, 11, 0, 38, 0, 39, 42, 0, 23, 0, 0, 30, 67, 0, 49, 0, 18, 27, 0, 50, 62, 22, 36, 41, 74, 0, 5, 0, 0, 0, 6, 0, 43, 0, 0, 0, 0, 0, 0, 0, 1, 12, 26, 64, 47, 0, 48, 0, 40, 0, 77, 80, 0, 3, 37, 0, 60, 33, 0, 0, 0, 0, 79, 9, 0, 0, 0, 0
|47, 0, 53, 17, 0, 0, 0, 0, 4, 0, 0, 0, 21, 0, 0, 0, 51, 0, 0, 8, 22, 24, 0, 0, 56, 0, 0, 59, 39, 63, 0, 58, 0, 15, 0, 0, 0, 0, 57, 81, 78, 0, 28, 13, 68, 0, 0, 0, 0, 42, 72, 0, 0, 0, 7, 29, 0, 0, 0, 67, 25, 0, 0, 61, 0, 32, 0, 0, 0, 0, 76, 0, 50, 60, 0, 0, 0, 0, 0, 36, 33
|0, 0, 0, 0, 69, 0, 24, 0, 0, 0, 18, 26, 35, 73, 33, 0, 0, 0, 70, 0, 0, 0, 0, 0, 0, 0, 0, 77, 11, 61, 44, 23, 55, 0, 42, 0, 0, 75, 0, 22, 50, 0, 0, 0, 0, 0, 28, 0, 29, 76, 9, 14, 0, 0, 58, 12, 0, 53, 0, 40, 71, 60, 0, 46, 0, 62, 45, 31, 52, 0, 0, 0, 56, 64, 4, 21, 0, 32, 0, 74, 48
|0, 12, 0, 0, 0, 65, 71, 33, 0, 72, 32, 0, 52, 0, 39, 30, 4, 0, 0, 81, 14, 68, 64, 46, 76, 37, 0, 47, 0, 0, 0, 48, 0, 69, 0, 57, 0, 0, 0, 49, 0, 70, 0, 0, 0, 0, 0, 0, 11, 53, 60, 31, 26, 17, 34, 79, 45, 50, 0, 0, 0, 0, 80, 0, 0, 0, 0, 29, 43, 58, 21, 0, 0, 0, 0, 0, 22, 35, 0, 0, 7
|0, 0, 19, 0, 0, 31, 42, 0, 77, 45, 16, 0, 28, 0, 14, 0, 34, 0, 29, 0, 0, 0, 9, 0, 18, 39, 0, 0, 80, 72, 0, 0, 0, 0, 0, 0, 43, 0, 0, 36, 65, 7, 0, 21, 0, 32, 0, 4, 0, 0, 0, 0, 0, 57, 81, 17, 30, 44, 8, 0, 46, 62, 15, 11, 70, 0, 0, 64, 0, 0, 5, 0, 0, 0, 0, 52, 20, 79, 58, 0, 59
|18, 41, 0, 14, 20, 0, 0, 54, 56, 68, 0, 0, 77, 57, 53, 11, 0, 0, 0, 44, 0, 71, 0, 0, 58, 10, 0, 2, 9, 29, 0, 32, 34, 50, 0, 0, 0, 76, 46, 0, 39, 0, 0, 0, 12, 0, 0, 40, 67, 48, 0, 36, 0, 79, 0, 52, 23, 0, 19, 59, 0, 21, 0, 24, 4, 49, 73, 0, 0, 37, 1, 0, 75, 61, 28, 69, 0, 0, 0, 0, 42
|1, 0, 58, 8, 0, 62, 0, 68, 0, 0, 6, 0, 0, 0, 0, 0, 0, 0, 0, 0, 0, 0, 26, 0, 0, 35, 49, 25, 79, 38, 0, 0, 51, 0, 0, 10, 0, 24, 30, 11, 48, 0, 0, 0, 3, 0, 0, 0, 69, 46, 0, 0, 0, 0, 0, 0, 0, 31, 0, 78, 47, 14, 0, 0, 60, 9, 0, 0, 0, 0, 50, 65, 44, 0, 0, 12, 16, 13, 39, 2, 0
|6, 52, 0, 0, 0, 32, 30, 0, 0, 43, 0, 50, 0, 0, 7, 0, 0, 0, 0, 0, 0, 0, 75, 0, 0, 0, 42, 21, 0, 49, 0, 0, 19, 60, 0, 53, 29, 0, 0, 44, 58, 66, 62, 0, 0, 61, 0, 0, 39, 78, 0, 0, 22, 0, 18, 36, 77, 56, 26, 0, 5, 9, 0, 0, 72, 57, 0, 0, 51, 14, 28, 3, 23, 0, 76, 40, 0, 0, 0, 0, 31
|66, 15, 2, 60, 0, 26, 0, 0, 0, 0, 8, 0, 67, 0, 61, 0, 79, 64, 0, 28, 0, 27, 0, 5, 21, 0, 0, 0, 30, 24, 14, 0, 0, 4, 31, 12, 0, 10, 0, 63, 0, 0, 0, 0, 0, 0, 81, 0, 38, 25, 75, 3, 51, 0, 0, 6, 49, 32, 42, 0, 0, 48, 0, 55, 0, 0, 13, 77, 0, 16, 41, 80, 0, 18, 0, 72, 0, 70, 71, 46, 65
|44, 0, 59, 0, 0, 0, 9, 28, 0, 0, 0, 0, 36, 0, 0, 0, 41, 62, 0, 72, 0, 0, 0, 0, 0, 33, 0, 17, 40, 0, 52, 0, 6, 0, 46, 0, 15, 32, 71, 31, 56, 0, 0, 73, 0, 24, 23, 66, 0, 0, 47, 43, 0, 58, 0, 61, 68, 39, 13, 65, 0, 75, 0, 0, 0, 79, 0, 0, 63, 42, 0, 0, 34, 30, 0, 0, 0, 0, 0, 5, 0
|8, 42, 26, 0, 51, 14, 0, 6, 18, 31, 4, 28, 0, 50, 0, 0, 0, 30, 69, 65, 0, 0, 63, 67, 71, 17, 0, 7, 0, 0, 0, 0, 0, 0, 0, 41, 0, 0, 36, 12, 0, 52, 77, 34, 37, 25, 80, 53, 22, 68, 49, 5, 0, 19, 32, 40, 38, 0, 24, 33, 44, 0, 0, 48, 0, 0, 39, 59, 0, 15, 72, 57, 10, 0, 0, 55, 58, 62, 0, 0, 0
|0, 0, 0, 0, 0, 0, 63, 0, 0, 51, 37, 0, 0, 27, 80, 48, 1, 0, 78, 0, 0, 31, 0, 61, 0, 23, 25, 26, 0, 4, 0, 0, 0, 5, 0, 0, 0, 0, 21, 0, 0, 45, 75, 0, 9, 79, 0, 0, 30, 0, 8, 0, 12, 72, 0, 28, 46, 65, 47, 15, 70, 69, 0, 0, 55, 0, 67, 58, 53, 33, 0, 0, 18, 49, 2, 7, 0, 68, 19, 0, 20
|45, 17, 0, 22, 0, 0, 0, 0, 80, 56, 0, 5, 0, 72, 67, 15, 0, 47, 58, 0, 10, 40, 0, 0, 57, 53, 0, 0, 77, 0, 0, 21, 63, 9, 55, 0, 61, 3, 0, 0, 69, 54, 0, 27, 0, 37, 7, 46, 71, 0, 0, 4, 0, 0, 68, 16, 29, 0, 0, 79, 0, 0, 59, 0, 26, 0, 43, 13, 0, 0, 0, 62, 42, 0, 0, 0, 0, 36, 73, 0, 12
|12, 44, 0, 0, 9, 0, 0, 0, 16, 0, 26, 0, 55, 0, 0, 0, 19, 0, 51, 66, 0, 0, 30, 45, 0, 0, 0, 0, 38, 68, 0, 0, 37, 56, 0, 40, 0, 15, 0, 1, 29, 57, 25, 0, 0, 0, 0, 50, 0, 52, 0, 73, 0, 54, 62, 0, 0, 0, 0, 0, 0, 0, 0, 0, 0, 0, 75, 47, 0, 0, 0, 0, 14, 0, 0, 32, 24, 64, 0, 0, 63
|0, 0, 0, 0, 0, 0, 0, 21, 0, 0, 38, 0, 34, 76, 71, 0, 22, 0, 0, 64, 77, 7, 54, 0, 0, 46, 52, 0, 2, 0, 15, 0, 0, 0, 0, 81, 58, 55, 0, 0, 0, 0, 0, 0, 0, 0, 24, 0, 0, 0, 0, 0, 62, 0, 0, 0, 0, 8, 0, 0, 30, 0, 0, 0, 45, 56, 36, 0, 80, 0, 0, 0, 26, 53, 72, 0, 0, 0, 0, 25, 0
|37, 0, 0, 74, 58, 28, 11, 0, 0, 0, 61, 75, 13, 49, 0, 29, 45, 0, 0, 0, 72, 80, 1, 19, 0, 0, 0, 71, 0, 36, 0, 0, 53, 25, 67, 31, 18, 30, 64, 68, 0, 22, 0, 4, 43, 0, 78, 70, 9, 0, 0, 0, 63, 0, 0, 0, 60, 52, 0, 0, 14, 0, 0, 42, 16, 0, 27, 2, 0, 0, 0, 69, 0, 34, 5, 0, 0, 0, 0, 21, 0
|43, 0, 0, 0, 71, 19, 31, 47, 35, 0, 0, 0, 0, 0, 0, 74, 23, 32, 0, 0, 0, 5, 68, 81, 2, 0, 76, 64, 62, 34, 61, 33, 0, 0, 0, 0, 10, 0, 0, 73, 42, 0, 49, 0, 26, 29, 0, 0, 57, 27, 15, 44, 0, 77, 41, 0, 0, 66, 39, 0, 50, 0, 0, 28, 0, 17, 0, 0, 0, 18, 38, 4, 0, 16, 9, 11, 67, 0, 0, 0, 52
|73, 0, 0, 10, 0, 3, 0, 53, 0, 0, 54, 62, 43, 35, 0, 12, 0, 0, 13, 24, 0, 29, 0, 56, 33, 26, 41, 44, 0, 20, 0, 0, 0, 72, 51, 76, 0, 0, 0, 0, 19, 0, 66, 38, 65, 0, 0, 0, 0, 1, 0, 61, 36, 0, 45, 0, 0, 0, 0, 0, 55, 4, 0, 0, 34, 46, 21, 0, 74, 0, 0, 0, 22, 0, 15, 71, 0, 0, 0, 48, 0
|0, 0, 46, 52, 62, 36, 55, 5, 0, 0, 77, 6, 24, 0, 41, 0, 0, 9, 79, 37, 0, 0, 4, 47, 0, 0, 73, 65, 0, 19, 58, 1, 0, 30, 0, 0, 0, 0, 0, 33, 8, 0, 13, 50, 0, 0, 0, 45, 0, 0, 0, 74, 35, 0, 0, 0, 0, 0, 63, 56, 0, 18, 71, 49, 0, 0, 76, 32, 0, 0, 0, 0, 0, 0, 39, 29, 60, 0, 17, 61, 0
|17, 0, 0, 0, 53, 0, 4, 0, 0, 0, 55, 56, 72, 0, 27, 0, 0, 6, 16, 0, 0, 0, 5, 62, 0, 0, 0, 68, 63, 0, 7, 34, 0, 0, 0, 0, 0, 1, 41, 25, 0, 0, 0, 0, 33, 0, 51, 74, 0, 0, 0, 46, 75, 76, 0, 14, 0, 78, 0, 0, 48, 0, 0, 0, 28, 0, 80, 0, 0, 0, 59, 39, 71, 0, 36, 49, 12, 65, 60, 0, 0
|61, 0, 1, 0, 0, 60, 0, 0, 8, 0, 0, 0, 38, 44, 28, 0, 0, 51, 0, 29, 66, 30, 35, 79, 13, 40, 7, 3, 0, 27, 46, 0, 0, 70, 0, 9, 0, 52, 43, 0, 0, 0, 65, 0, 54, 0, 0, 0, 45, 69, 0, 0, 77, 0, 0, 80, 24, 0, 0, 0, 6, 0, 31, 0, 0, 0, 25, 0, 57, 12, 26, 0, 0, 11, 0, 0, 0, 47, 81, 14, 0
|0, 0, 51, 0, 64, 50, 0, 23, 0, 35, 60, 0, 41, 0, 30, 13, 47, 0, 0, 39, 0, 46, 0, 18, 0, 0, 0, 15, 0, 62, 0, 0, 0, 43, 38, 72, 0, 0, 78, 0, 0, 36, 37, 63, 66, 57, 0, 12, 79, 81, 29, 0, 44, 8, 59, 2, 0, 11, 0, 68, 53, 56, 45, 0, 0, 0, 0, 0, 0, 0, 10, 49, 70, 58, 40, 67, 0, 0, 16, 0, 0
|55, 0, 0, 63, 0, 0, 56, 70, 0, 54, 40, 67, 31, 0, 0, 8, 57, 24, 48, 59, 0, 72, 76, 10, 73, 11, 0, 13, 19, 0, 0, 0, 65, 0, 0, 47, 79, 0, 0, 38, 0, 74, 17, 35, 0, 4, 58, 15, 21, 2, 36, 78, 0, 0, 69, 1, 0, 0, 25, 0, 52, 66, 46, 0, 0, 51, 0, 75, 0, 0, 18, 0, 0, 43, 0, 30, 37, 0, 44, 27, 0
|0, 0, 0, 38, 19, 0, 49, 59, 48, 0, 78, 32, 9, 61, 0, 17, 0, 0, 74, 31, 0, 0, 0, 57, 1, 28, 63, 0, 45, 0, 0, 60, 81, 40, 76, 0, 2, 80, 0, 10, 22, 56, 0, 44, 23, 62, 16, 0, 37, 0, 73, 71, 25, 0, 43, 30, 4, 77, 41, 0, 0, 0, 0, 0, 69, 0, 35, 70, 3, 79, 27, 46, 55, 0, 54, 13, 0, 0, 0, 20, 72
|0, 71, 32, 0, 25, 0, 0, 66, 0, 62, 0, 21, 0, 0, 46, 0, 0, 18, 0, 0, 0, 0, 0, 6, 81, 0, 36, 50, 0, 44, 0, 0, 59, 0, 35, 22, 4, 0, 40, 0, 0, 30, 47, 5, 0, 7, 0, 0, 0, 11, 28, 41, 38, 67, 0, 0, 12, 0, 0, 0, 0, 61, 60, 0, 9, 0, 0, 48, 64, 0, 55, 58, 19, 74, 73, 0, 0, 0, 2, 39, 57
|0, 0, 0, 0, 28, 35, 0, 0, 13, 64, 59, 1, 0, 0, 3, 26, 0, 0, 22, 0, 0, 38, 0, 41, 54, 60, 0, 58, 61, 0, 0, 0, 0, 37, 33, 77, 0, 29, 0, 0, 0, 16, 0, 46, 0, 40, 6, 0, 0, 43, 48, 0, 52, 80, 0, 0, 0, 0, 62, 0, 0, 0, 0, 2, 50, 4, 42, 0, 47, 44, 65, 0, 0, 51, 0, 0, 23, 0, 15, 0, 24
|65, 0, 73, 0, 80, 15, 41, 0, 11, 48, 29, 45, 0, 77, 16, 0, 0, 34, 0, 67, 70, 78, 58, 49, 0, 12, 27, 53, 51, 57, 42, 0, 0, 0, 6, 0, 0, 0, 0, 19, 0, 71, 0, 69, 21, 0, 0, 0, 0, 63, 54, 23, 47, 20, 9, 0, 0, 0, 0, 0, 0, 5, 50, 76, 0, 13, 0, 60, 24, 0, 0, 38, 66, 1, 0, 0, 0, 33, 4, 0, 0
|46, 0, 0, 12, 0, 0, 0, 22, 29, 0, 0, 0, 0, 0, 5, 49, 0, 33, 55, 51, 21, 0, 17, 0, 0, 68, 0, 23, 14, 25, 0, 36, 0, 52, 0, 0, 0, 28, 0, 76, 0, 8, 58, 0, 50, 60, 0, 0, 0, 0, 0, 0, 19, 13, 0, 71, 73, 10, 18, 72, 0, 0, 57, 1, 67, 0, 0, 0, 54, 0, 0, 0, 0, 31, 56, 35, 0, 0, 0, 34, 0
|39, 0, 0, 64, 56, 81, 40, 0, 0, 15, 13, 74, 71, 80, 9, 0, 29, 8, 0, 0, 76, 0, 41, 33, 0, 78, 0, 22, 0, 0, 63, 0, 0, 79, 68, 18, 19, 59, 0, 0, 0, 0, 6, 0, 14, 0, 0, 31, 0, 0, 0, 0, 0, 0, 0, 0, 25, 24, 69, 0, 0, 58, 0, 20, 42, 0, 50, 61, 49, 0, 37, 0, 4, 28, 46, 75, 54, 60, 5, 17, 0
|0, 0, 0, 0, 0, 41, 0, 0, 44, 0, 20, 3, 23, 60, 0, 42, 54, 0, 0, 0, 0, 21, 65, 0, 0, 80, 4, 0, 0, 0, 62, 0, 75, 46, 26, 0, 76, 37, 52, 78, 0, 0, 55, 36, 25, 0, 0, 13, 0, 0, 51, 69, 29, 40, 47, 0, 0, 17, 0, 77, 0, 0, 70, 0, 56, 14, 0, 18, 0, 57, 31, 48, 0, 72, 38, 68, 27, 0, 0, 0, 0
|80, 0, 0, 37, 0, 59, 57, 0, 61, 0, 45, 73, 0, 17, 0, 0, 0, 0, 40, 47, 0, 28, 0, 42, 72, 15, 39, 54, 0, 0, 0, 0, 33, 23, 4, 0, 68, 31, 0, 24, 0, 38, 29, 49, 34, 19, 0, 26, 0, 3, 63, 0, 64, 0, 0, 48, 0, 18, 7, 0, 0, 0, 14, 51, 0, 0, 0, 16, 0, 0, 0, 77, 0, 0, 0, 0, 74, 0, 22, 0, 0
|7, 26, 0, 27, 0, 66, 0, 75, 14, 0, 0, 41, 0, 0, 57, 32, 0, 63, 38, 35, 37, 74, 2, 0, 0, 49, 6, 19, 81, 0, 0, 0, 0, 47, 0, 0, 65, 0, 0, 0, 5, 0, 0, 43, 0, 0, 55, 71, 17, 54, 0, 8, 30, 62, 72, 60, 0, 68, 59, 0, 0, 0, 0, 0, 3, 12, 15, 80, 0, 73, 0, 24, 0, 0, 45, 10, 50, 51, 70, 79, 0
|28, 30, 0, 0, 0, 0, 18, 58, 0, 19, 25, 0, 0, 0, 0, 0, 0, 35, 0, 43, 0, 0, 0, 36, 0, 61, 31, 55, 49, 0, 0, 3, 0, 51, 39, 59, 0, 72, 0, 0, 0, 0, 0, 75, 63, 23, 22, 14, 50, 0, 44, 0, 0, 0, 67, 64, 0, 34, 0, 0, 0, 0, 74, 0, 33, 38, 5, 0, 0, 0, 0, 60, 37, 20, 0, 0, 81, 0, 0, 66, 47
|49, 6, 0, 33, 0, 79, 0, 38, 0, 0, 0, 0, 0, 0, 0, 44, 0, 0, 0, 68, 56, 13, 0, 34, 11, 69, 51, 0, 0, 58, 60, 37, 0, 0, 71, 35, 64, 67, 0, 0, 0, 50, 23, 1, 48, 80, 65, 0, 0, 0, 16, 0, 0, 0, 0, 21, 0, 2, 0, 61, 0, 0, 29, 32, 0, 74, 0, 0, 25, 19, 0, 0, 0, 0, 0, 0, 0, 0, 30, 0, 0
|74, 19, 5, 0, 36, 10, 54, 0, 3, 47, 11, 12, 0, 0, 0, 0, 65, 4, 66, 0, 0, 0, 77, 0, 0, 0, 0, 0, 0, 0, 34, 6, 41, 0, 0, 42, 26, 0, 0, 70, 60, 61, 0, 0, 0, 48, 0, 59, 0, 0, 46, 37, 0, 81, 0, 56, 44, 0, 51, 0, 45, 0, 0, 75, 0, 63, 0, 0, 7, 29, 0, 9, 0, 32, 49, 39, 43, 0, 18, 0, 0
|0, 62, 0, 0, 24, 0, 0, 0, 25, 0, 0, 78, 53, 38, 36, 0, 0, 0, 26, 54, 0, 0, 0, 7, 0, 0, 5, 48, 0, 2, 0, 65, 20, 0, 66, 30, 32, 71, 0, 0, 0, 0, 0, 12, 0, 0, 56, 58, 0, 60, 61, 0, 0, 0, 37, 0, 28, 0, 0, 3, 0, 0, 0, 0, 47, 0, 17, 46, 0, 0, 0, 0, 33, 77, 6, 14, 73, 76, 40, 0, 64
|77, 78, 11, 68, 0, 21, 0, 71, 70, 37, 51, 0, 0, 48, 0, 0, 69, 0, 0, 58, 0, 32, 0, 55, 0, 19, 62, 0, 0, 64, 0, 17, 0, 0, 13, 73, 0, 39, 0, 0, 0, 0, 44, 0, 0, 0, 41, 0, 0, 0, 0, 0, 0, 24, 0, 38, 0, 0, 0, 0, 0, 0, 65, 22, 54, 0, 4, 0, 0, 0, 0, 0, 15, 57, 59, 63, 61, 80, 0, 23, 25|];