order = 9;
grid = [|20, 0, 0, 68, 0, 0, 11, 0, 0, 0, 0, 0, 0, 19, 8, 0, 79, 70, 3, 9, 23, 0, 17, 0, 48, 71, 0, 0, 0, 15, 67, 0, 46, 58, 61, 0, 0, 36, 42, 69, 59, 72, 76, 0, 0, 22, 28, 0, 0, 4, 37, 40, 0, 0, 77, 27, 5, 35, 0, 7, 51, 33, 0, 0, 10, 0, 0, 30, 12, 73, 0, 43, 38, 0, 0, 0, 78, 0, 0, 0, 0
|72, 0, 0, 51, 47, 0, 79, 48, 0, 0, 9, 0, 67, 0, 50, 14, 0, 65, 40, 0, 49, 76, 0, 0, 13, 75, 0, 0, 0, 0, 0, 78, 0, 0, 0, 0, 21, 80, 0, 0, 0, 0, 0, 0, 0, 38, 27, 69, 7, 66, 0, 68, 34, 0, 0, 0, 63, 0, 15, 0, 8, 42, 81, 0, 0, 0, 23, 0, 0, 0, 0, 45, 0, 0, 0, 24, 0, 0, 26, 0, 0
|22, 63, 0, 0, 0, 56, 0, 0, 0, 0, 28, 0, 59, 0, 6, 0, 66, 15, 14, 0, 4, 0, 42, 0, 32, 19, 64, 38, 70, 71, 0, 0, 49, 0, 20, 11, 0, 0, 0, 74, 37, 0, 62, 0, 0, 3, 0, 0, 31, 0, 0, 24, 0, 0, 41, 0, 26, 16, 0, 0, 18, 0, 43, 0, 57, 27, 0, 0, 35, 54, 39, 75, 67, 30, 17, 0, 79, 0, 0, 0, 0
|0, 0, 0, 0, 0, 73, 0, 59, 25, 34, 43, 0, 69, 0, 0, 76, 61, 68, 57, 0, 0, 39, 0, 18, 56, 0, 0, 9, 17, 37, 0, 0, 26, 81, 66, 0, 0, 0, 0, 0, 29, 41, 0, 0, 75, 21, 72, 70, 35, 6, 49, 0, 0, 11, 3, 40, 0, 0, 0, 0, 36, 0, 0, 0, 0, 0, 0, 0, 0, 0, 0, 0, 0, 80, 0, 0, 15, 0, 0, 0, 0
|45, 18, 76, 0, 0, 2, 41, 52, 80, 73, 58, 0, 60, 29, 57, 71, 0, 36, 77, 55, 0, 0, 0, 8, 0, 47, 10, 43, 21, 0, 40, 7, 72, 0, 12, 0, 48, 15, 0, 22, 17, 49, 0, 0, 35, 23, 0, 0, 0, 0, 19, 0, 0, 0, 0, 24, 69, 0, 0, 0, 0, 0, 34, 0, 5, 61, 0, 78, 0, 0, 0, 0, 0, 0, 33, 0, 31, 50, 28, 0, 0
|0, 0, 0, 58, 0, 0, 0, 9, 32, 30, 22, 0, 77, 3, 63, 0, 0, 0, 0, 41, 43, 0, 0, 0, 37, 34, 0, 53, 0, 23, 68, 8, 57, 0, 6, 0, 31, 0, 0, 24, 50, 40, 25, 0, 26, 74, 0, 0, 48, 0, 0, 51, 0, 0, 12, 0, 0, 0, 80, 61, 21, 0, 38, 11, 15, 0, 0, 0, 0, 0, 0, 0, 0, 10, 0, 69, 0, 54, 0, 0, 72
|0, 7, 0, 30, 27, 31, 0, 17, 0, 54, 21, 0, 11, 0, 33, 24, 48, 0, 15, 59, 25, 70, 46, 0, 0, 78, 53, 0, 0, 0, 0, 22, 10, 79, 65, 3, 0, 63, 0, 52, 6, 0, 58, 0, 5, 57, 0, 0, 0, 0, 0, 42, 0, 0, 0, 0, 0, 0, 47, 75, 0, 0, 0, 62, 80, 76, 60, 0, 28, 0, 0, 0, 0, 0, 66, 51, 0, 1, 0, 0, 12
|5, 0, 65, 24, 0, 0, 0, 0, 0, 80, 0, 0, 0, 41, 0, 16, 0, 0, 0, 0, 74, 6, 7, 0, 58, 28, 0, 0, 0, 62, 0, 48, 77, 0, 33, 0, 46, 0, 0, 9, 0, 0, 0, 0, 0, 0, 0, 18, 8, 17, 26, 25, 50, 15, 70, 0, 0, 0, 72, 23, 76, 0, 0, 47, 3, 63, 0, 0, 0, 0, 0, 0, 22, 0, 0, 13, 40, 53, 0, 35, 20
|34, 0, 0, 0, 0, 36, 69, 0, 29, 0, 0, 0, 0, 4, 75, 0, 20, 0, 0, 21, 0, 22, 54, 50, 0, 0, 1, 0, 0, 39, 32, 24, 0, 0, 80, 14, 57, 11, 0, 13, 16, 0, 23, 0, 78, 76, 12, 30, 0, 0, 0, 81, 0, 0, 79, 2, 58, 73, 10, 25, 0, 65, 66, 0, 72, 6, 17, 0, 0, 8, 18, 0, 0, 71, 0, 0, 48, 0, 70, 0, 68
|0, 69, 0, 0, 0, 61, 0, 14, 2, 0, 0, 0, 0, 25, 65, 12, 42, 0, 0, 19, 0, 0, 32, 0, 23, 54, 0, 0, 62, 0, 50, 0, 0, 0, 43, 8, 3, 34, 59, 0, 70, 0, 0, 55, 66, 0, 80, 36, 0, 0, 0, 7, 30, 0, 63, 51, 0, 79, 20, 0, 0, 73, 0, 0, 39, 9, 0, 29, 0, 0, 72, 15, 16, 67, 71, 35, 6, 26, 0, 0, 47
|27, 0, 72, 0, 17, 0, 6, 75, 0, 0, 0, 0, 80, 48, 0, 33, 0, 43, 47, 65, 76, 55, 0, 35, 28, 16, 73, 0, 0, 0, 59, 0, 0, 0, 63, 0, 40, 45, 5, 0, 81, 0, 0, 13, 0, 69, 0, 0, 0, 71, 77, 0, 41, 0, 0, 0, 0, 74, 42, 21, 31, 36, 0, 0, 0, 8, 0, 0, 30, 0, 0, 37, 79, 22, 0, 12, 39, 15, 0, 0, 0
|0, 80, 77, 9, 0, 0, 43, 13, 0, 39, 4, 0, 0, 0, 0, 0, 74, 45, 12, 0, 63, 71, 0, 36, 34, 0, 0, 21, 6, 73, 0, 81, 0, 0, 0, 0, 16, 0, 0, 0, 0, 0, 0, 0, 17, 0, 42, 35, 10, 79, 23, 0, 0, 0, 0, 0, 19, 61, 0, 0, 0, 0, 0, 56, 0, 3, 0, 0, 0, 78, 0, 0, 0, 72, 52, 30, 37, 25, 27, 0, 0
|33, 0, 38, 0, 0, 32, 0, 0, 20, 0, 0, 0, 81, 0, 24, 0, 0, 71, 0, 22, 0, 0, 0, 0, 0, 0, 0, 11, 0, 0, 0, 0, 0, 0, 10, 0, 0, 78, 2, 0, 0, 0, 35, 1, 0, 0, 0, 66, 0, 19, 0, 0, 0, 0, 0, 0, 77, 0, 0, 34, 0, 43, 0, 0, 0, 23, 74, 0, 0, 50, 70, 0, 0, 0, 0, 61, 55, 0, 63, 0, 0
|71, 0, 21, 0, 39, 23, 48, 51, 0, 59, 0, 0, 70, 72, 0, 0, 50, 0, 61, 25, 0, 0, 77, 0, 0, 43, 42, 0, 0, 0, 36, 0, 13, 0, 75, 0, 0, 0, 0, 0, 0, 38, 0, 0, 0, 15, 44, 0, 0, 37, 24, 14, 18, 46, 0, 67, 0, 0, 30, 8, 0, 0, 0, 16, 45, 34, 0, 2, 0, 40, 0, 5, 80, 20, 0, 73, 81, 0, 0, 66, 65
|24, 29, 66, 5, 73, 41, 59, 37, 0, 10, 0, 14, 55, 0, 0, 0, 46, 0, 0, 70, 0, 0, 4, 0, 0, 74, 75, 2, 22, 0, 0, 56, 35, 0, 0, 0, 71, 0, 0, 0, 19, 52, 0, 39, 0, 31, 20, 0, 61, 0, 0, 0, 16, 57, 65, 0, 15, 44, 1, 0, 48, 0, 0, 12, 18, 47, 0, 43, 36, 6, 0, 54, 3, 0, 0, 50, 0, 0, 33, 9, 40
|0, 12, 79, 0, 0, 0, 1, 0, 0, 0, 47, 0, 18, 52, 0, 0, 0, 0, 0, 2, 46, 0, 0, 0, 15, 0, 0, 0, 58, 74, 0, 0, 71, 37, 0, 0, 0, 0, 0, 0, 61, 73, 53, 23, 0, 0, 34, 72, 0, 0, 0, 60, 3, 5, 0, 0, 0, 0, 0, 27, 0, 38, 0, 14, 68, 57, 0, 80, 0, 81, 0, 0, 0, 70, 78, 48, 0, 51, 0, 0, 41
|54, 0, 15, 19, 0, 47, 8, 7, 45, 63, 77, 0, 0, 0, 34, 0, 23, 38, 0, 0, 0, 56, 3, 0, 0, 0, 0, 0, 67, 0, 0, 0, 70, 20, 40, 0, 49, 12, 37, 0, 0, 21, 4, 65, 0, 11, 43, 48, 50, 0, 0, 6, 51, 68, 35, 25, 0, 10, 16, 24, 0, 60, 0, 0, 61, 59, 42, 13, 0, 58, 0, 27, 0, 0, 76, 46, 0, 0, 44, 62, 0
|25, 70, 56, 50, 78, 0, 0, 76, 0, 0, 0, 0, 29, 64, 0, 0, 0, 0, 0, 0, 1, 0, 44, 20, 0, 0, 38, 30, 65, 33, 61, 34, 79, 72, 0, 0, 0, 48, 0, 6, 77, 24, 42, 41, 14, 0, 40, 0, 0, 0, 55, 26, 45, 0, 68, 66, 81, 4, 69, 0, 59, 18, 0, 0, 0, 51, 22, 52, 0, 0, 71, 0, 23, 43, 57, 19, 0, 0, 0, 0, 21
|76, 0, 0, 0, 2, 0, 42, 0, 0, 0, 0, 31, 0, 22, 68, 0, 0, 0, 70, 30, 3, 14, 41, 12, 74, 49, 5, 58, 79, 0, 0, 71, 0, 10, 0, 0, 0, 0, 24, 0, 0, 1, 57, 45, 0, 59, 0, 53, 62, 61, 72, 0, 48, 0, 21, 64, 44, 67, 0, 73, 28, 13, 78, 43, 25, 0, 0, 9, 0, 0, 23, 29, 18, 56, 36, 63, 27, 40, 4, 60, 0
|0, 31, 26, 74, 30, 0, 56, 0, 4, 43, 0, 19, 72, 0, 0, 73, 7, 63, 0, 27, 8, 0, 15, 65, 0, 0, 47, 0, 75, 34, 0, 0, 0, 0, 29, 0, 0, 38, 60, 32, 0, 0, 0, 0, 80, 77, 0, 67, 69, 0, 28, 0, 0, 0, 0, 0, 0, 52, 59, 0, 0, 0, 0, 0, 0, 0, 13, 61, 0, 12, 10, 0, 0, 0, 0, 57, 0, 0, 17, 0, 0
|0, 67, 0, 28, 22, 0, 25, 0, 52, 0, 6, 0, 45, 49, 0, 0, 59, 0, 0, 0, 0, 11, 0, 0, 0, 0, 0, 0, 13, 0, 0, 0, 0, 12, 0, 0, 8, 61, 0, 14, 0, 23, 9, 17, 76, 42, 0, 0, 0, 0, 65, 29, 0, 56, 27, 79, 0, 0, 75, 0, 37, 0, 15, 68, 69, 60, 0, 4, 46, 63, 0, 1, 54, 47, 50, 70, 0, 0, 53, 0, 3
|73, 0, 0, 75, 45, 0, 0, 0, 0, 24, 34, 0, 0, 54, 0, 0, 0, 12, 0, 64, 0, 77, 0, 4, 39, 0, 0, 66, 0, 0, 9, 57, 0, 35, 2, 0, 55, 70, 0, 0, 0, 0, 20, 0, 0, 40, 0, 31, 76, 0, 0, 0, 0, 0, 19, 0, 0, 18, 41, 0, 0, 1, 0, 0, 0, 37, 0, 0, 81, 14, 56, 0, 0, 0, 72, 8, 0, 32, 0, 80, 0
|58, 23, 19, 27, 0, 43, 0, 64, 13, 46, 37, 0, 40, 17, 1, 4, 60, 0, 9, 38, 0, 0, 0, 62, 0, 55, 50, 0, 0, 26, 33, 67, 47, 73, 53, 56, 0, 0, 6, 0, 21, 12, 78, 0, 0, 25, 0, 0, 0, 0, 0, 0, 70, 0, 5, 48, 57, 36, 0, 63, 24, 16, 65, 0, 59, 74, 0, 20, 39, 0, 0, 72, 34, 35, 30, 0, 0, 0, 0, 77, 0
|37, 41, 0, 0, 69, 0, 50, 49, 0, 56, 0, 0, 0, 67, 13, 0, 0, 64, 53, 0, 58, 52, 0, 1, 51, 0, 35, 14, 0, 0, 0, 30, 0, 54, 0, 0, 0, 0, 46, 0, 31, 0, 0, 0, 0, 78, 0, 0, 36, 0, 0, 17, 0, 44, 81, 61, 0, 20, 2, 76, 0, 0, 60, 0, 0, 0, 80, 0, 0, 66, 0, 0, 0, 74, 0, 0, 9, 16, 0, 45, 0
|14, 55, 0, 17, 40, 0, 0, 0, 48, 5, 36, 0, 76, 0, 0, 38, 0, 0, 0, 0, 0, 0, 26, 80, 69, 46, 0, 49, 0, 21, 0, 0, 50, 0, 0, 0, 72, 0, 74, 27, 30, 18, 0, 0, 13, 79, 0, 0, 0, 0, 66, 0, 6, 0, 0, 34, 0, 0, 4, 56, 0, 68, 47, 28, 2, 24, 0, 0, 0, 0, 0, 0, 0, 51, 0, 64, 44, 71, 0, 43, 0
|51, 0, 63, 0, 0, 70, 0, 80, 68, 0, 0, 23, 66, 0, 0, 30, 0, 41, 37, 0, 0, 29, 0, 0, 0, 0, 0, 0, 4, 0, 0, 42, 0, 0, 18, 0, 0, 0, 43, 56, 0, 0, 75, 0, 16, 0, 0, 60, 26, 74, 0, 34, 0, 71, 0, 35, 0, 0, 6, 0, 0, 0, 7, 36, 21, 49, 32, 50, 73, 53, 38, 0, 0, 0, 0, 0, 62, 20, 0, 48, 0
|10, 0, 35, 0, 0, 9, 34, 8, 0, 58, 55, 47, 53, 71, 0, 0, 15, 0, 0, 0, 60, 0, 36, 0, 20, 73, 0, 78, 48, 6, 81, 74, 0, 76, 38, 64, 19, 37, 0, 54, 5, 0, 65, 0, 0, 0, 4, 24, 0, 0, 0, 0, 0, 63, 32, 43, 45, 33, 0, 70, 49, 0, 0, 0, 0, 0, 30, 17, 0, 62, 42, 16, 0, 46, 0, 0, 23, 0, 0, 0, 0
|0, 0, 4, 0, 0, 0, 0, 0, 21, 0, 0, 49, 23, 0, 0, 44, 0, 0, 0, 0, 0, 0, 0, 77, 27, 41, 11, 0, 51, 18, 0, 28, 0, 47, 0, 35, 0, 0, 72, 0, 25, 33, 0, 0, 0, 0, 0, 1, 22, 67, 71, 15, 20, 0, 0, 75, 24, 0, 58, 69, 0, 0, 0, 65, 0, 0, 0, 3, 54, 0, 0, 0, 0, 0, 0, 0, 0, 63, 0, 8, 0
|0, 17, 0, 0, 0, 0, 57, 0, 0, 26, 25, 0, 0, 32, 73, 0, 0, 5, 0, 0, 35, 54, 16, 19, 0, 0, 0, 0, 0, 0, 65, 0, 0, 0, 70, 0, 0, 62, 44, 31, 0, 22, 0, 0, 0, 0, 49, 7, 55, 0, 0, 75, 8, 27, 76, 0, 0, 0, 0, 15, 42, 0, 0, 71, 0, 38, 0, 14, 0, 0, 0, 60, 0, 0, 10, 45, 0, 37, 68, 0, 0
|30, 54, 41, 20, 0, 0, 0, 69, 16, 71, 0, 55, 13, 0, 43, 0, 45, 0, 56, 0, 6, 0, 14, 0, 0, 0, 33, 0, 0, 0, 0, 0, 0, 0, 0, 15, 0, 0, 0, 0, 0, 11, 17, 49, 0, 62, 0, 0, 0, 0, 61, 0, 0, 0, 23, 59, 50, 3, 0, 0, 27, 0, 0, 0, 35, 44, 26, 0, 22, 0, 0, 0, 0, 0, 65, 31, 0, 0, 0, 67, 75
|55, 0, 75, 0, 35, 26, 27, 50, 51, 0, 54, 29, 47, 1, 0, 0, 0, 74, 0, 0, 0, 0, 0, 3, 0, 0, 46, 0, 0, 0, 14, 80, 0, 0, 0, 0, 66, 0, 56, 0, 0, 69, 41, 67, 79, 0, 0, 42, 28, 0, 0, 0, 0, 0, 7, 62, 0, 0, 0, 53, 6, 0, 8, 0, 0, 0, 49, 0, 0, 77, 0, 4, 0, 0, 24, 16, 0, 11, 0, 0, 0
|77, 0, 7, 14, 0, 0, 0, 0, 8, 19, 0, 10, 46, 0, 0, 53, 0, 0, 49, 31, 39, 45, 61, 0, 81, 12, 0, 0, 0, 3, 17, 72, 0, 0, 62, 0, 60, 0, 29, 0, 0, 0, 0, 26, 42, 0, 51, 79, 74, 52, 0, 23, 0, 59, 1, 0, 0, 0, 65, 57, 0, 0, 67, 15, 70, 0, 0, 6, 64, 41, 33, 28, 0, 0, 38, 32, 43, 0, 47, 0, 0
|0, 0, 81, 71, 0, 38, 0, 32, 0, 0, 0, 80, 48, 0, 22, 0, 0, 0, 5, 0, 0, 8, 78, 42, 0, 69, 0, 54, 0, 57, 0, 44, 0, 2, 56, 0, 53, 0, 0, 0, 0, 6, 0, 35, 28, 0, 0, 0, 11, 26, 70, 50, 0, 76, 14, 18, 43, 47, 45, 0, 30, 49, 0, 13, 12, 0, 0, 0, 0, 0, 0, 62, 0, 36, 55, 0, 77, 0, 0, 17, 59
|15, 2, 78, 0, 0, 0, 0, 0, 0, 0, 0, 0, 58, 77, 59, 61, 28, 27, 0, 7, 29, 0, 50, 0, 0, 0, 0, 0, 60, 67, 0, 0, 22, 69, 26, 0, 0, 0, 0, 39, 73, 20, 80, 0, 0, 0, 0, 68, 30, 45, 0, 9, 0, 0, 0, 0, 0, 0, 19, 4, 63, 55, 0, 0, 24, 0, 0, 0, 0, 34, 11, 0, 0, 0, 0, 0, 0, 3, 71, 0, 42
|66, 49, 18, 0, 43, 0, 0, 0, 0, 0, 81, 0, 15, 0, 56, 36, 24, 0, 0, 71, 0, 0, 0, 0, 17, 0, 76, 7, 0, 12, 0, 0, 11, 27, 0, 73, 0, 4, 0, 0, 0, 0, 3, 14, 77, 33, 0, 16, 44, 54, 0, 0, 38, 48, 61, 60, 0, 0, 0, 0, 0, 2, 79, 0, 0, 0, 9, 69, 75, 0, 37, 80, 0, 40, 58, 0, 0, 0, 64, 0, 19
|0, 0, 58, 62, 3, 0, 37, 0, 79, 0, 51, 0, 0, 69, 35, 0, 70, 0, 36, 0, 0, 0, 22, 0, 44, 59, 0, 0, 25, 0, 0, 0, 23, 0, 49, 9, 15, 27, 0, 0, 0, 55, 61, 0, 18, 66, 14, 63, 0, 64, 0, 77, 65, 4, 48, 0, 11, 21, 0, 0, 0, 71, 0, 0, 0, 0, 0, 81, 0, 0, 0, 56, 6, 0, 0, 5, 0, 0, 41, 54, 76
|19, 0, 0, 0, 24, 0, 0, 6, 1, 20, 17, 0, 0, 23, 0, 70, 0, 0, 8, 57, 42, 32, 0, 0, 0, 0, 14, 0, 53, 52, 0, 0, 12, 0, 54, 65, 9, 0, 21, 0, 18, 0, 72, 71, 0, 0, 0, 5, 25, 73, 58, 61, 0, 28, 36, 0, 0, 66, 63, 64, 0, 44, 0, 0, 0, 11, 0, 0, 80, 3, 0, 0, 0, 0, 0, 43, 0, 46, 0, 0, 16
|18, 65, 0, 0, 51, 69, 0, 31, 0, 0, 0, 0, 71, 10, 67, 0, 0, 32, 76, 53, 0, 0, 47, 0, 33, 60, 15, 40, 0, 0, 44, 0, 37, 64, 0, 6, 29, 66, 0, 57, 52, 0, 0, 19, 12, 0, 55, 0, 70, 48, 0, 0, 0, 20, 38, 0, 56, 46, 28, 43, 58, 0, 0, 78, 0, 17, 0, 49, 0, 24, 8, 0, 72, 0, 14, 80, 0, 34, 0, 0, 5
|0, 68, 0, 0, 49, 60, 0, 0, 0, 0, 0, 39, 6, 0, 37, 0, 25, 0, 46, 0, 12, 1, 0, 0, 43, 0, 69, 71, 66, 63, 62, 5, 18, 0, 0, 33, 0, 3, 0, 4, 78, 16, 0, 61, 27, 14, 0, 40, 23, 34, 80, 0, 57, 0, 20, 11, 42, 0, 0, 0, 0, 0, 0, 0, 0, 73, 56, 28, 0, 52, 0, 0, 0, 53, 70, 0, 0, 65, 75, 29, 17
|3, 62, 36, 0, 0, 0, 52, 0, 57, 0, 2, 59, 0, 73, 0, 0, 77, 30, 0, 17, 50, 25, 0, 34, 65, 37, 0, 0, 14, 4, 0, 29, 39, 7, 79, 75, 76, 81, 0, 28, 55, 53, 43, 0, 6, 45, 15, 21, 0, 0, 63, 0, 0, 10, 0, 0, 35, 0, 0, 18, 0, 0, 74, 0, 0, 32, 66, 0, 38, 0, 0, 20, 0, 8, 0, 0, 0, 47, 0, 0, 0
|48, 66, 0, 0, 61, 0, 0, 78, 54, 0, 0, 36, 63, 0, 0, 21, 0, 0, 0, 16, 55, 0, 0, 0, 0, 0, 0, 0, 0, 0, 0, 15, 81, 46, 0, 58, 17, 74, 1, 20, 0, 0, 40, 0, 25, 44, 50, 0, 60, 0, 0, 0, 43, 0, 80, 0, 14, 0, 0, 0, 75, 72, 0, 35, 27, 77, 0, 5, 23, 0, 22, 0, 0, 0, 0, 0, 0, 0, 42, 0, 13
|11, 25, 0, 0, 26, 35, 14, 0, 0, 0, 78, 0, 74, 0, 53, 46, 44, 1, 68, 56, 0, 48, 0, 54, 0, 72, 0, 0, 0, 0, 0, 0, 0, 28, 0, 0, 0, 33, 0, 30, 38, 0, 73, 15, 0, 75, 0, 0, 66, 0, 0, 0, 29, 0, 8, 71, 52, 0, 0, 0, 22, 0, 0, 70, 0, 36, 0, 19, 63, 0, 0, 57, 0, 0, 0, 0, 58, 60, 0, 12, 61
|0, 81, 0, 0, 0, 0, 72, 10, 56, 0, 0, 16, 54, 0, 38, 66, 14, 0, 0, 6, 24, 27, 0, 39, 0, 51, 28, 20, 0, 43, 60, 0, 0, 0, 48, 31, 23, 41, 69, 11, 0, 58, 0, 36, 0, 0, 74, 0, 78, 0, 0, 0, 64, 0, 0, 0, 0, 0, 0, 0, 0, 61, 0, 18, 0, 4, 53, 0, 79, 0, 0, 42, 0, 0, 1, 0, 45, 0, 0, 0, 35
|0, 75, 20, 15, 12, 71, 0, 0, 0, 55, 0, 0, 22, 0, 0, 0, 0, 48, 0, 74, 36, 0, 0, 0, 9, 0, 3, 0, 0, 0, 78, 19, 0, 38, 17, 41, 0, 39, 0, 67, 79, 0, 34, 0, 46, 0, 0, 0, 4, 0, 42, 18, 0, 65, 49, 47, 0, 45, 0, 10, 0, 0, 53, 0, 7, 0, 0, 0, 0, 1, 0, 2, 0, 32, 0, 0, 0, 0, 0, 0, 27
|21, 0, 0, 0, 0, 0, 0, 39, 42, 0, 5, 0, 28, 43, 12, 0, 0, 0, 35, 78, 71, 75, 80, 40, 0, 0, 0, 10, 0, 72, 0, 11, 45, 70, 9, 57, 0, 0, 14, 59, 0, 32, 64, 0, 0, 0, 46, 0, 2, 0, 0, 0, 53, 0, 15, 0, 0, 0, 37, 41, 77, 0, 17, 0, 0, 0, 0, 0, 50, 65, 0, 0, 66, 3, 0, 33, 19, 0, 0, 0, 0
|0, 11, 0, 0, 6, 0, 15, 0, 0, 36, 46, 66, 34, 0, 0, 22, 80, 67, 1, 49, 0, 68, 0, 0, 0, 0, 0, 0, 0, 0, 26, 38, 0, 0, 0, 0, 0, 0, 0, 18, 0, 48, 0, 0, 0, 63, 0, 0, 0, 78, 16, 37, 77, 14, 10, 3, 0, 0, 0, 0, 44, 0, 0, 0, 0, 65, 0, 12, 43, 0, 0, 0, 32, 17, 0, 59, 0, 0, 31, 51, 0
|57, 0, 0, 41, 0, 50, 53, 0, 0, 0, 1, 0, 24, 0, 42, 0, 0, 54, 0, 69, 0, 0, 43, 14, 29, 65, 0, 0, 47, 10, 75, 0, 66, 0, 67, 68, 0, 6, 0, 0, 23, 0, 11, 79, 0, 13, 60, 56, 40, 0, 7, 76, 35, 49, 18, 15, 0, 0, 78, 20, 4, 70, 0, 19, 81, 0, 0, 0, 77, 30, 0, 0, 44, 0, 45, 0, 0, 61, 0, 0, 0
|0, 0, 14, 0, 0, 77, 12, 0, 31, 47, 0, 68, 50, 74, 18, 0, 0, 44, 0, 0, 0, 0, 0, 59, 0, 0, 25, 0, 49, 0, 0, 0, 0, 0, 42, 0, 37, 0, 22, 63, 0, 0, 0, 72, 0, 52, 0, 23, 9, 0, 39, 43, 11, 69, 55, 0, 0, 80, 0, 0, 0, 58, 0, 76, 0, 16, 2, 0, 0, 4, 17, 0, 73, 6, 0, 28, 71, 7, 78, 20, 0
|0, 34, 46, 0, 0, 0, 0, 0, 19, 49, 0, 0, 52, 70, 0, 13, 9, 0, 4, 75, 57, 0, 0, 0, 42, 0, 66, 0, 0, 20, 0, 3, 0, 0, 0, 79, 24, 0, 0, 0, 15, 0, 0, 50, 0, 27, 0, 0, 0, 0, 0, 0, 74, 0, 0, 0, 39, 0, 5, 0, 0, 0, 77, 0, 56, 29, 0, 0, 0, 0, 0, 61, 0, 23, 35, 60, 72, 0, 40, 33, 22
|2, 0, 0, 38, 67, 49, 0, 0, 0, 4, 75, 0, 0, 56, 41, 0, 0, 0, 74, 0, 0, 33, 0, 46, 64, 45, 0, 65, 15, 0, 0, 0, 14, 25, 52, 0, 43, 0, 39, 16, 51, 0, 0, 0, 0, 0, 48, 71, 0, 0, 44, 58, 72, 0, 0, 22, 21, 54, 17, 0, 0, 0, 0, 80, 0, 26, 3, 70, 0, 0, 35, 0, 50, 0, 0, 0, 36, 0, 0, 47, 11
|0, 45, 43, 0, 0, 17, 16, 0, 0, 53, 0, 0, 27, 0, 3, 25, 55, 76, 0, 0, 22, 0, 0, 0, 0, 0, 19, 0, 0, 0, 0, 58, 0, 0, 0, 37, 75, 49, 52, 0, 0, 80, 67, 0, 0, 12, 0, 0, 33, 0, 20, 21, 0, 51, 28, 0, 0, 0, 0, 14, 61, 63, 0, 0, 47, 0, 7, 42, 0, 0, 0, 18, 0, 68, 0, 66, 64, 81, 0, 0, 0
|80, 27, 0, 21, 56, 0, 74, 0, 64, 0, 0, 20, 8, 0, 28, 63, 0, 35, 73, 11, 48, 51, 0, 17, 3, 31, 39, 0, 0, 0, 18, 0, 0, 0, 0, 0, 25, 0, 0, 41, 60, 0, 66, 81, 61, 0, 0, 0, 0, 0, 57, 79, 15, 67, 52, 12, 7, 0, 0, 47, 65, 0, 0, 0, 9, 0, 0, 0, 78, 75, 0, 0, 0, 54, 4, 0, 0, 0, 0, 0, 0
|78, 72, 0, 36, 60, 0, 0, 0, 0, 0, 79, 48, 14, 0, 0, 0, 0, 57, 6, 15, 56, 7, 0, 38, 76, 0, 12, 0, 40, 0, 74, 0, 0, 55, 0, 0, 0, 0, 0, 5, 4, 0, 0, 28, 29, 80, 0, 0, 0, 25, 0, 0, 73, 0, 0, 0, 0, 0, 0, 16, 34, 0, 0, 0, 37, 0, 0, 0, 13, 22, 45, 32, 63, 0, 19, 0, 65, 0, 0, 0, 43
|35, 39, 0, 0, 0, 0, 0, 79, 0, 0, 0, 0, 0, 16, 0, 59, 43, 77, 60, 58, 34, 18, 0, 47, 41, 24, 80, 36, 57, 0, 22, 0, 0, 0, 4, 0, 0, 0, 0, 46, 0, 0, 0, 69, 65, 19, 62, 29, 0, 0, 50, 45, 0, 64, 56, 0, 0, 0, 0, 0, 0, 0, 25, 0, 0, 52, 6, 44, 71, 11, 53, 63, 37, 26, 0, 15, 0, 14, 0, 2, 70
|0, 40, 57, 0, 0, 0, 23, 45, 0, 0, 0, 0, 5, 36, 32, 7, 2, 52, 0, 47, 0, 0, 0, 0, 50, 0, 71, 29, 42, 38, 0, 20, 62, 0, 0, 0, 35, 0, 0, 0, 0, 0, 30, 0, 0, 60, 0, 59, 39, 31, 74, 0, 69, 0, 58, 8, 41, 0, 73, 0, 0, 0, 0, 77, 65, 68, 0, 18, 0, 0, 44, 51, 55, 25, 0, 27, 12, 64, 67, 10, 0
|65, 42, 0, 0, 1, 0, 18, 0, 72, 0, 0, 11, 0, 0, 77, 40, 0, 22, 0, 45, 69, 2, 0, 48, 0, 29, 0, 57, 81, 0, 0, 32, 0, 0, 0, 0, 0, 0, 0, 0, 46, 31, 0, 34, 24, 0, 36, 0, 0, 0, 38, 0, 0, 0, 62, 0, 4, 27, 0, 0, 0, 0, 0, 0, 13, 0, 0, 0, 66, 37, 0, 64, 0, 61, 20, 0, 0, 78, 16, 19, 26
|0, 52, 2, 0, 77, 0, 66, 0, 0, 37, 0, 0, 44, 18, 0, 0, 0, 0, 42, 0, 0, 5, 51, 0, 0, 0, 0, 8, 9, 80, 10, 0, 17, 33, 0, 43, 0, 71, 0, 0, 32, 61, 16, 21, 40, 64, 23, 0, 57, 41, 12, 0, 0, 0, 0, 63, 0, 11, 14, 0, 69, 79, 0, 6, 0, 0, 0, 7, 0, 74, 20, 34, 0, 24, 0, 54, 75, 0, 0, 39, 49
|64, 20, 0, 60, 19, 0, 0, 0, 63, 0, 0, 69, 0, 0, 0, 0, 6, 0, 58, 0, 0, 66, 0, 7, 8, 57, 0, 0, 28, 0, 0, 0, 44, 4, 0, 59, 0, 22, 0, 48, 80, 14, 18, 9, 0, 0, 0, 45, 16, 21, 0, 30, 0, 33, 47, 70, 0, 0, 61, 0, 0, 0, 0, 0, 0, 40, 0, 0, 0, 0, 0, 0, 0, 0, 0, 0, 11, 0, 0, 0, 0
|56, 24, 62, 35, 41, 0, 76, 22, 0, 0, 0, 63, 0, 68, 0, 0, 81, 0, 30, 0, 9, 20, 28, 0, 55, 0, 43, 0, 46, 0, 0, 0, 0, 0, 0, 54, 78, 0, 17, 0, 0, 0, 0, 51, 11, 0, 0, 15, 65, 18, 52, 49, 42, 53, 0, 0, 72, 0, 34, 31, 23, 0, 0, 0, 32, 0, 0, 0, 0, 0, 4, 0, 0, 7, 0, 0, 0, 0, 13, 0, 71
|28, 0, 0, 80, 79, 7, 30, 0, 38, 0, 12, 75, 0, 51, 45, 48, 0, 24, 63, 0, 64, 0, 53, 0, 0, 11, 4, 18, 34, 25, 52, 61, 0, 71, 0, 0, 0, 47, 0, 62, 0, 77, 68, 0, 0, 0, 0, 0, 0, 0, 13, 55, 0, 0, 0, 32, 0, 0, 66, 42, 0, 0, 29, 54, 0, 1, 19, 0, 5, 0, 0, 81, 0, 65, 21, 0, 0, 22, 6, 0, 31
|0, 0, 0, 37, 11, 0, 68, 43, 58, 15, 0, 0, 0, 0, 72, 0, 0, 46, 0, 35, 0, 0, 65, 49, 0, 0, 0, 16, 0, 7, 41, 13, 0, 0, 0, 66, 42, 5, 0, 0, 3, 8, 33, 0, 0, 0, 77, 19, 0, 0, 0, 0, 0, 0, 0, 0, 80, 9, 0, 1, 0, 0, 0, 59, 22, 70, 47, 0, 56, 0, 57, 78, 28, 0, 0, 0, 0, 0, 32, 38, 0
|67, 71, 16, 0, 0, 0, 0, 0, 69, 13, 64, 0, 0, 0, 39, 0, 0, 59, 33, 0, 31, 74, 0, 75, 0, 38, 0, 0, 0, 65, 12, 0, 19, 0, 0, 0, 41, 0, 63, 0, 20, 0, 0, 29, 0, 48, 0, 0, 72, 0, 54, 27, 0, 0, 0, 0, 0, 57, 53, 0, 81, 0, 44, 3, 50, 0, 0, 0, 55, 0, 30, 0, 70, 62, 0, 77, 66, 4, 0, 34, 15
|0, 0, 0, 39, 0, 21, 36, 70, 0, 9, 20, 1, 0, 30, 80, 62, 0, 0, 32, 54, 19, 0, 0, 37, 10, 0, 77, 0, 0, 31, 73, 0, 0, 78, 74, 0, 28, 0, 0, 0, 0, 0, 55, 60, 0, 81, 68, 0, 34, 0, 56, 66, 0, 0, 75, 6, 0, 38, 0, 48, 0, 52, 0, 24, 41, 0, 11, 71, 61, 0, 16, 0, 0, 42, 0, 18, 29, 57, 3, 63, 51
|60, 56, 0, 0, 42, 0, 4, 33, 41, 78, 0, 6, 9, 27, 62, 0, 1, 0, 0, 0, 54, 0, 0, 55, 53, 0, 70, 0, 0, 24, 0, 0, 36, 13, 0, 0, 74, 0, 0, 77, 49, 0, 15, 0, 0, 0, 0, 0, 0, 23, 0, 0, 0, 25, 0, 30, 2, 63, 0, 0, 0, 0, 0, 0, 0, 66, 39, 0, 0, 46, 48, 0, 59, 0, 0, 0, 21, 38, 0, 0, 44
|49, 15, 52, 0, 72, 65, 0, 0, 67, 0, 73, 0, 38, 58, 19, 39, 0, 61, 26, 0, 75, 0, 0, 32, 0, 33, 0, 0, 0, 0, 6, 46, 0, 57, 11, 0, 4, 0, 0, 21, 28, 0, 59, 64, 0, 36, 0, 27, 24, 0, 40, 3, 0, 0, 0, 78, 34, 0, 0, 77, 0, 0, 35, 0, 0, 31, 76, 16, 0, 0, 0, 12, 0, 0, 0, 0, 1, 69, 80, 30, 55
|59, 0, 39, 29, 75, 0, 9, 0, 78, 23, 0, 21, 0, 15, 0, 0, 0, 11, 0, 40, 38, 0, 1, 0, 31, 0, 0, 80, 0, 66, 0, 0, 0, 61, 0, 49, 69, 19, 0, 12, 44, 7, 50, 0, 48, 43, 0, 0, 0, 68, 34, 0, 0, 42, 16, 0, 0, 0, 0, 58, 0, 3, 45, 0, 0, 0, 5, 0, 4, 0, 52, 53, 0, 0, 47, 22, 51, 0, 0, 0, 0
|0, 0, 68, 0, 25, 0, 0, 0, 61, 0, 0, 0, 51, 0, 0, 55, 49, 69, 79, 0, 45, 0, 0, 56, 0, 0, 0, 0, 39, 0, 28, 65, 58, 62, 50, 12, 0, 16, 0, 75, 0, 78, 0, 80, 57, 72, 0, 20, 0, 15, 5, 0, 0, 41, 0, 0, 6, 0, 71, 0, 1, 8, 0, 67, 73, 2, 0, 0, 0, 0, 0, 26, 0, 0, 0, 7, 0, 23, 24, 18, 81
|38, 0, 0, 0, 0, 8, 0, 0, 24, 0, 0, 28, 68, 59, 81, 0, 0, 53, 39, 37, 0, 0, 25, 69, 47, 61, 57, 17, 78, 75, 79, 63, 32, 1, 0, 0, 0, 2, 0, 0, 54, 35, 45, 0, 0, 4, 21, 0, 18, 0, 0, 74, 26, 58, 51, 42, 46, 23, 0, 33, 0, 64, 0, 0, 43, 56, 50, 0, 0, 13, 0, 0, 71, 0, 31, 0, 0, 0, 20, 52, 36
|23, 0, 30, 46, 20, 0, 55, 0, 71, 0, 16, 0, 0, 0, 0, 0, 0, 0, 17, 0, 7, 0, 58, 0, 24, 63, 18, 0, 77, 68, 0, 4, 64, 53, 0, 2, 0, 65, 0, 1, 40, 0, 0, 0, 31, 6, 78, 0, 0, 0, 0, 0, 0, 0, 74, 0, 0, 0, 32, 0, 0, 28, 22, 0, 0, 42, 0, 0, 59, 21, 0, 0, 43, 0, 25, 34, 33, 10, 79, 73, 0
|0, 0, 0, 0, 37, 66, 62, 0, 0, 35, 29, 0, 0, 0, 76, 34, 67, 0, 0, 0, 0, 78, 48, 72, 5, 0, 0, 0, 0, 9, 0, 73, 0, 14, 71, 0, 58, 55, 13, 25, 39, 26, 0, 0, 0, 46, 31, 0, 0, 49, 8, 53, 1, 0, 57, 0, 59, 15, 54, 38, 40, 21, 61, 0, 0, 7, 18, 0, 0, 0, 0, 0, 0, 28, 0, 0, 4, 68, 45, 70, 50
|0, 36, 0, 0, 0, 0, 0, 0, 0, 0, 60, 77, 33, 0, 0, 74, 18, 50, 0, 0, 0, 0, 11, 30, 0, 0, 0, 0, 72, 0, 0, 0, 21, 5, 8, 0, 0, 0, 0, 0, 0, 0, 0, 22, 43, 7, 0, 12, 0, 55, 0, 0, 2, 73, 0, 0, 0, 49, 26, 0, 0, 27, 4, 0, 17, 64, 0, 0, 1, 69, 0, 0, 0, 75, 16, 40, 0, 0, 76, 41, 78
|6, 0, 80, 1, 16, 0, 0, 11, 0, 25, 72, 43, 0, 0, 2, 31, 57, 8, 64, 77, 0, 3, 0, 0, 14, 0, 0, 22, 10, 0, 34, 27, 29, 40, 69, 0, 0, 53, 0, 0, 0, 0, 0, 5, 9, 0, 37, 76, 0, 0, 0, 44, 0, 0, 39, 0, 66, 0, 0, 0, 41, 0, 0, 0, 0, 19, 15, 0, 58, 33, 78, 0, 0, 48, 74, 0, 0, 67, 49, 0, 0
|32, 0, 0, 77, 52, 0, 0, 0, 40, 1, 59, 0, 37, 0, 0, 78, 41, 60, 0, 81, 47, 0, 0, 74, 0, 0, 54, 4, 0, 0, 53, 0, 0, 0, 35, 0, 65, 10, 0, 43, 71, 0, 31, 0, 0, 0, 76, 38, 0, 0, 33, 12, 66, 0, 0, 46, 8, 0, 57, 0, 56, 26, 0, 0, 58, 0, 79, 27, 44, 0, 55, 24, 0, 73, 9, 36, 3, 0, 19, 0, 0
|7, 0, 0, 78, 54, 72, 75, 0, 47, 38, 76, 0, 0, 34, 0, 0, 27, 0, 43, 23, 66, 0, 0, 33, 0, 67, 0, 0, 0, 81, 16, 12, 15, 6, 24, 69, 80, 20, 49, 0, 56, 0, 51, 0, 0, 8, 0, 0, 0, 0, 0, 11, 0, 0, 4, 65, 0, 0, 0, 0, 9, 45, 0, 0, 36, 0, 40, 0, 31, 0, 32, 25, 10, 0, 77, 0, 0, 0, 14, 0, 0
|42, 19, 69, 65, 0, 33, 0, 0, 6, 17, 48, 30, 64, 46, 51, 47, 0, 62, 45, 61, 13, 0, 37, 0, 35, 0, 44, 0, 29, 0, 70, 68, 28, 0, 73, 0, 0, 79, 55, 0, 72, 0, 0, 0, 0, 58, 0, 32, 41, 0, 0, 78, 36, 0, 25, 49, 0, 0, 0, 0, 12, 67, 0, 8, 0, 0, 16, 0, 0, 18, 5, 52, 0, 31, 0, 0, 0, 27, 11, 0, 0
|0, 16, 70, 26, 0, 1, 0, 38, 0, 11, 15, 40, 0, 0, 71, 0, 68, 0, 0, 0, 77, 0, 0, 0, 36, 32, 60, 0, 27, 0, 30, 0, 74, 39, 0, 0, 52, 44, 0, 53, 0, 0, 0, 0, 41, 0, 25, 0, 0, 0, 0, 0, 47, 18, 29, 0, 78, 0, 7, 0, 64, 48, 5, 0, 0, 0, 65, 0, 62, 0, 0, 0, 0, 33, 28, 67, 0, 59, 12, 0, 0
|0, 0, 13, 0, 18, 0, 0, 21, 0, 72, 0, 53, 19, 6, 74, 29, 3, 4, 27, 68, 0, 40, 0, 24, 12, 80, 55, 52, 0, 0, 71, 0, 0, 50, 0, 76, 0, 0, 36, 0, 45, 0, 0, 48, 0, 65, 0, 26, 77, 0, 9, 0, 0, 30, 0, 16, 51, 0, 0, 28, 38, 0, 0, 41, 0, 0, 0, 0, 49, 7, 0, 17, 0, 0, 0, 0, 25, 58, 0, 1, 32
|44, 37, 61, 0, 0, 29, 0, 67, 0, 81, 49, 56, 0, 42, 0, 45, 58, 25, 69, 73, 79, 0, 70, 57, 11, 0, 0, 0, 0, 36, 0, 23, 9, 0, 0, 0, 30, 26, 33, 0, 68, 0, 0, 38, 21, 5, 6, 34, 27, 0, 0, 48, 4, 0, 0, 0, 0, 0, 13, 22, 0, 0, 75, 0, 0, 0, 0, 0, 0, 43, 50, 10, 0, 0, 0, 71, 0, 35, 0, 78, 0
|41, 0, 0, 0, 68, 45, 17, 0, 76, 52, 24, 67, 0, 26, 0, 0, 63, 39, 0, 46, 51, 0, 0, 0, 0, 3, 0, 0, 0, 0, 37, 0, 80, 0, 0, 18, 77, 0, 9, 0, 47, 13, 0, 25, 0, 55, 56, 0, 15, 0, 81, 2, 62, 0, 69, 73, 0, 0, 36, 0, 0, 0, 14, 0, 11, 0, 57, 21, 33, 0, 0, 48, 65, 50, 0, 6, 38, 0, 66, 5, 8
|0, 0, 0, 0, 71, 25, 0, 0, 0, 77, 80, 0, 2, 0, 0, 43, 0, 18, 28, 0, 0, 0, 0, 0, 1, 0, 41, 0, 0, 0, 0, 0, 38, 0, 57, 44, 22, 0, 75, 78, 0, 67, 5, 3, 0, 39, 79, 51, 46, 53, 10, 54, 49, 0, 72, 37, 0, 24, 0, 0, 0, 0, 33, 81, 64, 12, 0, 66, 19, 0, 9, 0, 0, 0, 0, 0, 0, 0, 0, 0, 0
|12, 9, 0, 0, 55, 0, 80, 4, 53, 66, 13, 65, 16, 44, 0, 0, 0, 33, 34, 62, 21, 50, 0, 0, 0, 26, 72, 0, 5, 17, 0, 43, 7, 0, 1, 20, 27, 0, 57, 0, 0, 63, 0, 0, 0, 35, 22, 61, 0, 0, 0, 0, 0, 0, 42, 10, 0, 58, 18, 52, 15, 0, 0, 73, 38, 0, 28, 0, 3, 0, 2, 6, 30, 0, 0, 0, 46, 0, 0, 0, 29|];