order = 9;
grid = [|0, 71, 12, 0, 0, 0, 49, 0, 43, 0, 0, 20, 1, 28, 0, 0, 0, 44, 72, 55, 78, 51, 0, 0, 0, 8, 0, 38, 0, 2, 30, 76, 0, 0, 33, 0, 74, 68, 0, 6, 5, 0, 0, 70, 0, 48, 47, 0, 75, 24, 0, 59, 19, 0, 80, 0, 50, 0, 0, 0, 0, 45, 31, 0, 0, 14, 21, 0, 0, 0, 0, 0, 0, 0, 23, 11, 0, 73, 0, 39, 64
|0, 8, 1, 78, 4, 0, 54, 16, 0, 0, 0, 0, 69, 62, 19, 64, 70, 0, 0, 75, 0, 0, 0, 38, 0, 33, 7, 0, 0, 14, 0, 0, 52, 28, 0, 0, 0, 0, 0, 0, 0, 0, 39, 0, 44, 0, 68, 20, 0, 61, 0, 42, 0, 6, 0, 30, 55, 0, 12, 23, 77, 35, 0, 74, 2, 43, 66, 63, 71, 0, 0, 17, 27, 34, 0, 79, 0, 65, 0, 0, 51
|80, 0, 0, 0, 0, 14, 0, 34, 0, 0, 59, 0, 0, 0, 0, 55, 0, 0, 17, 66, 0, 9, 0, 0, 0, 10, 0, 81, 39, 12, 6, 44, 53, 0, 40, 50, 62, 0, 0, 0, 0, 27, 58, 11, 0, 30, 0, 0, 0, 2, 0, 35, 0, 0, 73, 0, 64, 0, 0, 63, 0, 0, 0, 0, 0, 0, 38, 0, 0, 31, 41, 0, 28, 37, 0, 0, 57, 21, 1, 75, 0
|64, 33, 30, 0, 42, 0, 0, 67, 24, 0, 9, 0, 11, 0, 21, 0, 54, 0, 0, 27, 81, 0, 0, 0, 0, 69, 0, 62, 0, 0, 0, 79, 0, 32, 0, 68, 8, 15, 0, 17, 23, 0, 22, 49, 47, 66, 60, 0, 55, 0, 0, 74, 37, 40, 19, 13, 0, 10, 75, 0, 0, 3, 28, 0, 48, 56, 0, 4, 0, 58, 78, 0, 0, 61, 53, 0, 44, 59, 0, 16, 0
|21, 52, 0, 36, 0, 0, 60, 0, 58, 0, 17, 14, 48, 0, 45, 29, 0, 27, 0, 24, 41, 42, 0, 59, 47, 0, 34, 71, 25, 0, 0, 5, 0, 49, 0, 72, 79, 0, 0, 2, 19, 0, 0, 30, 0, 0, 0, 0, 18, 10, 0, 39, 12, 0, 70, 0, 0, 0, 0, 38, 20, 0, 40, 0, 0, 55, 0, 0, 0, 0, 81, 75, 0, 0, 68, 33, 0, 0, 46, 0, 0
|39, 0, 76, 68, 37, 50, 0, 0, 0, 0, 35, 63, 6, 41, 53, 79, 58, 0, 0, 0, 0, 0, 74, 0, 11, 20, 22, 69, 0, 0, 66, 0, 75, 78, 0, 24, 34, 0, 31, 72, 81, 51, 73, 0, 0, 23, 0, 0, 14, 0, 36, 0, 0, 27, 7, 0, 0, 42, 0, 52, 0, 0, 26, 1, 77, 0, 47, 64, 0, 0, 44, 0, 70, 0, 48, 0, 0, 38, 55, 0, 0
|5, 0, 41, 28, 0, 56, 0, 0, 0, 51, 0, 0, 38, 0, 0, 39, 24, 76, 23, 62, 30, 16, 49, 0, 79, 0, 0, 47, 0, 22, 3, 70, 27, 29, 48, 0, 0, 78, 0, 0, 54, 43, 0, 0, 26, 17, 63, 0, 77, 0, 0, 4, 0, 0, 58, 53, 0, 6, 37, 2, 65, 69, 0, 12, 13, 0, 25, 68, 0, 0, 33, 19, 42, 18, 0, 0, 80, 20, 10, 0, 0
|25, 0, 7, 62, 22, 23, 0, 15, 32, 0, 0, 12, 78, 0, 42, 3, 0, 0, 0, 37, 29, 56, 0, 0, 0, 44, 57, 0, 0, 0, 4, 0, 26, 58, 35, 45, 63, 0, 0, 0, 0, 53, 0, 0, 0, 46, 0, 9, 0, 0, 0, 0, 0, 34, 71, 24, 0, 33, 0, 0, 0, 41, 61, 5, 6, 0, 0, 0, 0, 28, 30, 59, 0, 49, 0, 0, 67, 0, 0, 0, 31
|0, 0, 0, 0, 74, 0, 9, 79, 13, 37, 0, 30, 0, 31, 0, 56, 0, 10, 0, 0, 0, 0, 0, 0, 0, 58, 45, 17, 57, 0, 41, 0, 80, 0, 60, 63, 0, 0, 66, 12, 0, 25, 55, 52, 67, 3, 0, 0, 0, 0, 26, 32, 62, 0, 81, 5, 46, 0, 1, 44, 0, 0, 78, 0, 0, 0, 69, 11, 24, 18, 29, 0, 0, 0, 35, 0, 0, 0, 0, 0, 47
|0, 0, 0, 0, 0, 0, 0, 0, 49, 74, 44, 46, 0, 65, 0, 0, 13, 0, 0, 70, 20, 0, 0, 0, 0, 0, 0, 0, 0, 0, 34, 0, 0, 73, 7, 60, 0, 0, 0, 67, 0, 0, 37, 0, 0, 0, 76, 45, 0, 0, 3, 0, 51, 35, 39, 8, 0, 0, 0, 0, 0, 0, 55, 4, 0, 15, 26, 0, 0, 0, 0, 0, 0, 5, 80, 0, 0, 72, 0, 10, 41
|0, 62, 63, 77, 58, 7, 38, 0, 8, 54, 43, 68, 12, 34, 0, 42, 0, 23, 0, 33, 0, 32, 1, 0, 0, 0, 44, 0, 31, 0, 0, 0, 0, 74, 0, 0, 81, 52, 0, 25, 55, 30, 11, 22, 0, 49, 0, 36, 61, 50, 66, 21, 0, 2, 0, 0, 0, 72, 0, 40, 0, 4, 0, 9, 56, 0, 3, 0, 20, 10, 71, 47, 75, 0, 0, 0, 37, 70, 0, 0, 0
|0, 0, 9, 39, 34, 79, 0, 0, 0, 0, 7, 67, 0, 0, 0, 0, 57, 69, 0, 76, 55, 36, 11, 64, 0, 0, 0, 23, 2, 41, 0, 54, 0, 0, 78, 5, 0, 0, 0, 60, 0, 66, 10, 0, 0, 0, 74, 62, 33, 58, 47, 43, 22, 0, 0, 44, 49, 25, 26, 0, 30, 0, 0, 0, 19, 0, 31, 0, 0, 0, 0, 53, 0, 16, 24, 0, 0, 0, 0, 0, 0
|46, 23, 54, 22, 0, 71, 0, 0, 0, 45, 0, 6, 0, 0, 0, 0, 0, 0, 37, 58, 0, 0, 42, 0, 0, 0, 0, 61, 0, 62, 69, 0, 0, 53, 0, 0, 0, 0, 35, 34, 39, 0, 0, 0, 4, 68, 19, 0, 30, 78, 7, 0, 0, 60, 12, 0, 79, 65, 32, 0, 24, 51, 16, 0, 8, 64, 43, 0, 0, 36, 0, 0, 15, 55, 0, 57, 40, 0, 47, 9, 81
|26, 66, 60, 55, 1, 0, 0, 4, 0, 56, 0, 0, 47, 37, 0, 18, 0, 0, 10, 0, 59, 0, 0, 23, 5, 80, 0, 77, 0, 71, 28, 0, 44, 24, 79, 0, 78, 0, 0, 0, 58, 7, 49, 0, 0, 39, 0, 63, 0, 0, 32, 9, 0, 15, 76, 0, 0, 64, 42, 0, 48, 74, 0, 30, 0, 6, 0, 22, 67, 0, 0, 34, 13, 12, 0, 52, 43, 45, 0, 0, 61
|0, 0, 0, 0, 43, 37, 0, 51, 5, 26, 73, 0, 39, 0, 80, 11, 20, 0, 81, 74, 52, 0, 9, 7, 57, 60, 0, 55, 0, 0, 8, 21, 0, 0, 0, 0, 24, 0, 0, 0, 0, 0, 79, 15, 0, 0, 69, 0, 38, 0, 0, 14, 65, 64, 0, 23, 45, 0, 0, 0, 63, 0, 0, 32, 0, 0, 58, 0, 25, 0, 0, 61, 0, 0, 66, 56, 4, 18, 0, 6, 0
|0, 0, 18, 0, 0, 64, 0, 56, 0, 48, 19, 0, 0, 30, 40, 4, 77, 0, 49, 0, 8, 39, 0, 0, 25, 0, 35, 45, 0, 0, 15, 13, 43, 52, 0, 0, 12, 0, 0, 0, 0, 0, 51, 0, 0, 71, 0, 31, 79, 42, 24, 70, 0, 29, 37, 0, 47, 68, 11, 0, 0, 28, 0, 0, 0, 0, 63, 0, 0, 81, 0, 0, 0, 0, 2, 0, 0, 22, 0, 0, 33
|0, 0, 0, 80, 0, 0, 52, 14, 0, 8, 0, 33, 0, 0, 0, 0, 29, 5, 68, 0, 0, 0, 0, 0, 0, 79, 4, 0, 0, 17, 0, 0, 22, 0, 0, 0, 32, 57, 65, 53, 0, 75, 31, 0, 0, 0, 73, 0, 0, 0, 0, 23, 6, 67, 0, 0, 3, 9, 71, 0, 50, 0, 35, 59, 55, 18, 7, 0, 49, 12, 0, 51, 54, 0, 0, 0, 42, 26, 63, 58, 0
|0, 61, 0, 0, 75, 12, 0, 57, 69, 0, 55, 0, 22, 66, 76, 2, 0, 0, 63, 0, 51, 15, 26, 72, 30, 0, 67, 37, 0, 32, 0, 0, 0, 42, 25, 0, 0, 9, 0, 0, 16, 0, 0, 13, 70, 0, 48, 0, 0, 0, 52, 1, 18, 17, 33, 0, 0, 7, 0, 0, 0, 53, 0, 0, 0, 0, 50, 77, 38, 0, 0, 80, 0, 39, 78, 20, 21, 0, 0, 0, 0
|54, 0, 21, 0, 0, 0, 30, 24, 15, 67, 41, 0, 31, 0, 0, 70, 0, 0, 0, 7, 80, 0, 60, 0, 71, 51, 20, 2, 0, 64, 0, 49, 0, 0, 0, 0, 19, 0, 0, 0, 10, 13, 38, 58, 0, 0, 0, 77, 65, 48, 72, 0, 0, 55, 0, 73, 23, 0, 61, 69, 27, 0, 36, 37, 0, 0, 0, 0, 0, 0, 0, 5, 0, 0, 0, 39, 12, 1, 74, 0, 9
|0, 38, 11, 0, 0, 59, 79, 66, 78, 62, 0, 5, 42, 0, 0, 63, 81, 45, 0, 8, 0, 0, 0, 14, 58, 1, 0, 0, 0, 53, 57, 12, 51, 4, 0, 0, 65, 0, 17, 3, 76, 0, 56, 0, 20, 0, 0, 0, 37, 68, 0, 0, 64, 21, 47, 40, 0, 31, 44, 0, 33, 75, 0, 0, 61, 0, 0, 6, 0, 0, 0, 0, 67, 28, 72, 23, 0, 55, 0, 0, 16
|28, 0, 49, 64, 51, 0, 0, 37, 65, 10, 0, 0, 53, 0, 56, 0, 0, 35, 32, 0, 0, 0, 0, 0, 38, 0, 0, 75, 70, 21, 0, 80, 30, 77, 0, 23, 50, 33, 0, 7, 0, 47, 59, 0, 24, 18, 79, 66, 20, 52, 67, 76, 16, 0, 11, 74, 0, 0, 0, 8, 0, 39, 12, 71, 43, 0, 27, 0, 0, 17, 0, 0, 26, 0, 14, 5, 0, 0, 0, 0, 69
|2, 0, 73, 0, 20, 69, 0, 0, 0, 6, 61, 0, 0, 51, 9, 52, 0, 0, 27, 0, 16, 0, 0, 0, 0, 21, 53, 78, 0, 0, 72, 0, 0, 13, 0, 43, 0, 77, 4, 40, 0, 0, 0, 60, 0, 0, 28, 0, 1, 0, 33, 8, 11, 0, 0, 70, 0, 0, 7, 0, 0, 0, 80, 0, 0, 0, 0, 39, 0, 62, 64, 57, 0, 0, 0, 0, 0, 0, 37, 0, 17
|41, 81, 46, 7, 14, 9, 16, 70, 17, 0, 0, 0, 0, 0, 0, 0, 0, 0, 11, 0, 0, 0, 47, 0, 18, 64, 50, 0, 76, 0, 5, 1, 0, 44, 0, 0, 0, 21, 0, 0, 0, 0, 0, 0, 75, 19, 39, 0, 71, 0, 10, 0, 73, 0, 78, 45, 0, 59, 62, 0, 0, 29, 43, 0, 23, 33, 2, 0, 0, 0, 0, 0, 0, 0, 34, 0, 0, 0, 0, 0, 0
|67, 47, 0, 0, 33, 0, 72, 25, 76, 0, 0, 59, 0, 29, 0, 0, 0, 0, 0, 0, 15, 46, 37, 0, 43, 0, 9, 34, 38, 0, 0, 0, 0, 79, 0, 0, 61, 0, 71, 39, 0, 0, 52, 53, 0, 63, 42, 17, 24, 0, 0, 58, 0, 0, 20, 0, 0, 28, 0, 50, 0, 5, 0, 0, 51, 40, 0, 45, 7, 0, 60, 0, 81, 80, 19, 48, 70, 3, 0, 0, 0
|1, 32, 0, 0, 77, 61, 50, 53, 39, 80, 16, 47, 40, 0, 55, 17, 37, 60, 0, 79, 0, 59, 29, 0, 52, 73, 62, 27, 42, 0, 63, 74, 6, 0, 0, 65, 23, 2, 0, 69, 0, 9, 46, 66, 11, 0, 0, 0, 3, 31, 0, 0, 38, 0, 0, 0, 67, 0, 57, 58, 0, 56, 76, 0, 72, 4, 0, 18, 44, 20, 70, 0, 0, 0, 13, 8, 54, 0, 0, 36, 0
|75, 0, 35, 74, 56, 0, 80, 0, 0, 0, 0, 65, 0, 72, 39, 0, 30, 0, 0, 81, 0, 44, 69, 0, 68, 49, 0, 60, 0, 0, 0, 62, 0, 0, 0, 0, 0, 79, 0, 73, 45, 37, 8, 0, 5, 0, 0, 0, 23, 9, 0, 41, 0, 54, 0, 77, 17, 18, 10, 0, 0, 21, 0, 16, 0, 0, 67, 3, 19, 29, 0, 38, 0, 11, 25, 53, 6, 0, 57, 20, 59
|71, 68, 5, 43, 8, 3, 0, 13, 0, 0, 0, 0, 19, 76, 0, 7, 0, 0, 42, 28, 0, 35, 0, 0, 0, 0, 0, 16, 59, 0, 0, 9, 54, 41, 0, 33, 0, 55, 57, 31, 44, 62, 0, 6, 25, 78, 0, 80, 32, 0, 0, 0, 61, 56, 24, 0, 53, 37, 0, 72, 0, 34, 0, 15, 0, 65, 46, 69, 0, 0, 11, 14, 18, 47, 50, 0, 0, 0, 0, 0, 0
|19, 0, 0, 0, 71, 47, 0, 72, 0, 0, 0, 54, 3, 42, 0, 30, 6, 0, 62, 0, 77, 33, 21, 0, 0, 0, 18, 24, 27, 10, 0, 0, 0, 57, 74, 0, 2, 0, 0, 41, 15, 0, 36, 38, 0, 0, 0, 0, 64, 0, 28, 0, 26, 59, 0, 0, 68, 8, 0, 9, 67, 55, 32, 65, 0, 0, 0, 0, 0, 78, 52, 0, 0, 44, 0, 66, 0, 49, 69, 51, 70
|35, 9, 27, 0, 0, 0, 0, 40, 0, 16, 0, 32, 60, 0, 26, 69, 53, 62, 0, 0, 57, 11, 13, 0, 51, 0, 23, 18, 0, 0, 78, 0, 0, 0, 0, 31, 0, 0, 0, 63, 0, 61, 68, 0, 0, 0, 81, 12, 0, 0, 0, 0, 42, 72, 0, 0, 0, 56, 70, 17, 0, 0, 77, 25, 36, 0, 8, 58, 1, 0, 76, 33, 0, 2, 75, 67, 39, 37, 24, 0, 0
|0, 0, 52, 0, 16, 0, 39, 6, 0, 0, 0, 0, 0, 2, 13, 0, 76, 0, 54, 0, 38, 40, 0, 12, 31, 0, 27, 0, 0, 58, 0, 0, 0, 70, 17, 0, 66, 0, 0, 46, 0, 0, 0, 0, 0, 0, 0, 0, 0, 0, 0, 0, 0, 43, 0, 26, 74, 75, 0, 0, 3, 78, 0, 0, 0, 0, 44, 0, 30, 60, 62, 21, 0, 0, 0, 0, 0, 41, 0, 63, 0
|73, 0, 0, 18, 0, 24, 7, 0, 26, 14, 20, 0, 0, 0, 49, 40, 0, 78, 16, 3, 70, 6, 80, 25, 15, 0, 0, 79, 0, 0, 1, 50, 12, 36, 68, 0, 76, 0, 8, 0, 30, 44, 0, 0, 0, 27, 0, 0, 31, 0, 41, 0, 69, 47, 0, 21, 0, 5, 39, 0, 0, 0, 0, 0, 0, 67, 37, 66, 0, 0, 0, 0, 29, 0, 56, 0, 0, 0, 0, 60, 0
|0, 70, 0, 45, 81, 0, 0, 2, 14, 38, 0, 0, 51, 0, 0, 68, 44, 22, 0, 0, 0, 0, 0, 0, 0, 0, 36, 5, 69, 0, 25, 37, 77, 11, 39, 47, 0, 0, 0, 0, 74, 0, 0, 23, 65, 6, 13, 76, 60, 29, 0, 79, 0, 0, 0, 1, 0, 0, 0, 0, 16, 0, 42, 43, 0, 26, 0, 0, 0, 55, 40, 0, 0, 57, 0, 0, 0, 48, 0, 0, 54
|0, 0, 0, 0, 0, 0, 8, 0, 0, 0, 0, 0, 71, 64, 47, 37, 0, 57, 0, 29, 68, 0, 0, 0, 1, 24, 0, 35, 62, 0, 0, 0, 0, 66, 41, 73, 52, 70, 0, 0, 13, 22, 19, 78, 0, 0, 20, 0, 0, 0, 0, 0, 9, 44, 23, 0, 63, 49, 31, 11, 7, 0, 0, 0, 0, 77, 0, 0, 10, 6, 56, 0, 0, 53, 0, 61, 0, 0, 40, 18, 27
|0, 58, 0, 0, 0, 51, 0, 0, 68, 39, 0, 0, 80, 27, 73, 65, 0, 0, 34, 0, 0, 0, 0, 0, 0, 0, 0, 0, 0, 49, 16, 43, 81, 0, 15, 0, 55, 5, 3, 37, 29, 0, 0, 0, 0, 0, 10, 11, 78, 22, 40, 0, 50, 0, 0, 0, 0, 0, 0, 0, 0, 0, 45, 0, 0, 69, 48, 0, 70, 79, 0, 13, 0, 7, 46, 26, 31, 0, 0, 47, 77
|0, 0, 0, 0, 0, 21, 0, 46, 0, 70, 0, 0, 10, 15, 41, 48, 0, 9, 69, 0, 0, 66, 64, 8, 19, 0, 65, 20, 23, 0, 0, 0, 40, 3, 0, 7, 0, 56, 0, 77, 53, 18, 0, 31, 0, 62, 0, 35, 0, 0, 0, 0, 58, 0, 0, 37, 71, 0, 0, 0, 81, 33, 79, 0, 27, 0, 0, 0, 0, 72, 59, 0, 68, 25, 0, 0, 14, 50, 0, 0, 55
|17, 49, 0, 23, 0, 13, 44, 0, 61, 0, 8, 66, 0, 0, 0, 0, 1, 0, 0, 0, 0, 48, 0, 81, 0, 0, 0, 59, 0, 0, 21, 0, 0, 56, 0, 9, 0, 25, 39, 0, 0, 0, 0, 0, 34, 0, 24, 0, 0, 0, 19, 2, 0, 3, 0, 0, 43, 80, 0, 0, 0, 18, 64, 73, 68, 50, 5, 0, 28, 54, 45, 20, 38, 0, 0, 0, 58, 0, 6, 11, 76
|0, 0, 80, 0, 23, 0, 0, 30, 0, 11, 76, 0, 0, 20, 0, 0, 0, 0, 0, 0, 0, 0, 0, 0, 49, 67, 0, 0, 0, 77, 68, 8, 34, 63, 0, 0, 10, 0, 0, 0, 70, 2, 81, 0, 53, 60, 12, 0, 28, 0, 55, 0, 29, 19, 41, 0, 62, 0, 46, 0, 0, 0, 27, 64, 42, 0, 0, 54, 0, 0, 0, 39, 35, 0, 0, 0, 0, 33, 44, 56, 75
|0, 0, 24, 13, 0, 15, 0, 0, 38, 42, 0, 0, 18, 0, 0, 0, 31, 0, 35, 0, 56, 0, 3, 48, 0, 0, 8, 0, 0, 0, 12, 0, 0, 0, 0, 49, 0, 80, 47, 0, 60, 0, 0, 73, 61, 0, 66, 0, 43, 0, 9, 0, 74, 65, 40, 0, 0, 0, 0, 0, 0, 0, 5, 0, 0, 22, 33, 29, 4, 63, 6, 0, 0, 0, 71, 78, 7, 68, 0, 0, 30
|0, 21, 62, 50, 63, 55, 34, 44, 0, 0, 38, 0, 57, 0, 10, 13, 0, 0, 66, 0, 0, 0, 0, 0, 0, 0, 0, 0, 14, 48, 31, 30, 0, 64, 16, 0, 0, 67, 0, 78, 0, 0, 0, 0, 51, 54, 36, 0, 0, 56, 15, 68, 0, 41, 3, 0, 0, 0, 0, 24, 28, 70, 8, 0, 0, 72, 59, 81, 9, 0, 58, 25, 0, 32, 0, 0, 26, 0, 5, 0, 0
|0, 0, 0, 0, 0, 77, 76, 0, 0, 47, 0, 0, 0, 0, 23, 0, 0, 0, 44, 0, 22, 50, 0, 9, 78, 0, 80, 0, 0, 0, 0, 0, 0, 17, 18, 0, 25, 0, 37, 0, 33, 42, 0, 0, 12, 69, 62, 0, 0, 0, 63, 0, 0, 8, 0, 0, 0, 71, 0, 0, 0, 54, 30, 53, 35, 0, 0, 0, 74, 0, 0, 16, 0, 51, 0, 38, 41, 58, 0, 2, 0
|11, 0, 0, 14, 49, 39, 19, 71, 0, 55, 0, 52, 63, 54, 22, 0, 0, 6, 73, 0, 0, 20, 10, 0, 4, 31, 64, 15, 0, 0, 62, 29, 0, 0, 0, 0, 0, 0, 36, 0, 0, 58, 0, 0, 27, 59, 0, 0, 53, 0, 57, 0, 30, 0, 60, 75, 0, 13, 0, 0, 45, 0, 2, 0, 7, 1, 0, 0, 47, 0, 0, 0, 0, 79, 69, 0, 72, 23, 0, 42, 8
|0, 69, 72, 0, 0, 0, 0, 75, 9, 4, 53, 0, 30, 0, 71, 0, 56, 0, 0, 0, 43, 27, 5, 63, 0, 0, 58, 0, 0, 74, 0, 0, 0, 0, 1, 39, 0, 0, 55, 0, 0, 0, 0, 64, 0, 0, 0, 44, 47, 70, 0, 0, 0, 76, 79, 42, 81, 57, 38, 7, 19, 0, 29, 14, 0, 21, 0, 78, 0, 0, 0, 0, 37, 0, 0, 40, 36, 0, 67, 0, 62
|22, 10, 0, 2, 7, 0, 0, 29, 45, 44, 0, 0, 0, 0, 67, 0, 68, 0, 46, 19, 0, 0, 0, 0, 42, 0, 51, 0, 58, 47, 0, 60, 0, 0, 0, 0, 0, 0, 0, 0, 71, 0, 62, 0, 40, 0, 6, 0, 80, 34, 0, 0, 0, 0, 0, 0, 78, 1, 25, 59, 0, 0, 48, 36, 0, 30, 0, 52, 56, 0, 17, 55, 61, 73, 77, 4, 49, 57, 21, 53, 18
|0, 42, 0, 12, 0, 0, 48, 43, 81, 0, 0, 0, 0, 7, 46, 0, 0, 0, 0, 25, 0, 41, 71, 26, 54, 0, 75, 0, 0, 0, 0, 10, 0, 0, 51, 0, 0, 0, 0, 0, 11, 49, 63, 8, 68, 0, 3, 22, 0, 0, 73, 20, 45, 0, 0, 0, 21, 66, 77, 0, 53, 52, 0, 44, 0, 57, 0, 0, 0, 69, 24, 50, 0, 0, 28, 0, 1, 64, 0, 0, 0
|66, 74, 68, 0, 18, 0, 73, 54, 41, 0, 62, 77, 0, 0, 79, 0, 59, 0, 0, 53, 0, 70, 0, 57, 0, 11, 0, 0, 13, 72, 61, 0, 0, 27, 0, 0, 0, 0, 52, 14, 69, 0, 0, 3, 1, 0, 0, 49, 0, 64, 81, 51, 67, 0, 0, 55, 80, 58, 20, 0, 0, 0, 47, 2, 31, 19, 0, 0, 0, 65, 0, 23, 0, 48, 63, 0, 0, 0, 0, 24, 0
|65, 24, 2, 72, 38, 73, 63, 68, 0, 0, 0, 35, 0, 0, 32, 22, 0, 0, 76, 0, 66, 0, 8, 79, 0, 0, 70, 30, 77, 40, 58, 3, 0, 55, 42, 0, 71, 0, 0, 0, 49, 11, 29, 43, 0, 36, 0, 64, 15, 0, 0, 62, 47, 45, 0, 0, 0, 0, 16, 28, 0, 31, 0, 0, 50, 0, 54, 0, 14, 0, 0, 7, 12, 0, 0, 0, 0, 39, 4, 0, 0
|0, 64, 66, 0, 0, 0, 0, 7, 51, 0, 63, 15, 73, 0, 0, 0, 12, 54, 0, 35, 0, 55, 0, 42, 80, 0, 71, 0, 0, 0, 0, 68, 72, 0, 2, 0, 75, 0, 79, 0, 27, 78, 0, 0, 28, 40, 37, 61, 0, 39, 49, 81, 32, 20, 26, 62, 0, 0, 6, 46, 0, 0, 33, 0, 69, 0, 36, 0, 53, 59, 13, 0, 34, 0, 29, 0, 56, 5, 0, 0, 67
|55, 0, 13, 20, 39, 0, 0, 0, 0, 0, 74, 0, 56, 0, 0, 0, 0, 0, 0, 0, 0, 62, 28, 0, 46, 0, 0, 41, 0, 79, 0, 0, 0, 0, 0, 0, 37, 0, 7, 68, 35, 31, 0, 0, 0, 0, 23, 0, 57, 3, 51, 16, 0, 0, 0, 64, 61, 27, 29, 25, 21, 0, 0, 0, 0, 0, 0, 49, 60, 0, 26, 0, 65, 40, 0, 0, 0, 0, 18, 72, 78
|18, 0, 0, 0, 0, 0, 3, 0, 52, 41, 6, 0, 29, 43, 11, 0, 0, 39, 0, 2, 61, 0, 0, 16, 64, 23, 0, 0, 73, 0, 76, 0, 0, 0, 0, 22, 0, 0, 67, 0, 63, 65, 66, 5, 46, 9, 0, 0, 0, 54, 59, 0, 0, 68, 0, 36, 0, 12, 0, 0, 0, 13, 0, 33, 0, 0, 0, 42, 0, 0, 32, 0, 0, 60, 0, 0, 0, 28, 27, 37, 1
|0, 0, 43, 75, 80, 29, 0, 0, 4, 27, 30, 0, 0, 0, 60, 0, 71, 0, 53, 0, 0, 74, 68, 0, 0, 0, 81, 0, 0, 0, 0, 0, 21, 31, 0, 20, 0, 14, 0, 47, 0, 0, 42, 61, 0, 0, 56, 0, 17, 0, 18, 0, 0, 0, 0, 59, 70, 0, 0, 67, 34, 0, 0, 55, 0, 24, 9, 40, 0, 2, 46, 28, 0, 77, 0, 10, 0, 0, 15, 0, 52
|0, 0, 0, 47, 0, 0, 0, 0, 74, 0, 36, 0, 50, 59, 0, 31, 0, 0, 30, 0, 0, 73, 0, 17, 0, 0, 0, 46, 0, 0, 52, 16, 57, 8, 0, 26, 0, 40, 34, 38, 0, 3, 0, 81, 0, 0, 0, 78, 5, 0, 0, 71, 0, 4, 49, 39, 42, 43, 0, 22, 60, 0, 68, 0, 0, 66, 0, 0, 15, 51, 0, 35, 64, 0, 58, 44, 45, 0, 0, 0, 2
|61, 0, 0, 0, 40, 0, 0, 0, 48, 0, 0, 45, 7, 77, 68, 33, 16, 0, 3, 51, 24, 0, 0, 50, 0, 43, 0, 28, 0, 38, 37, 17, 0, 0, 32, 27, 0, 0, 0, 0, 36, 41, 0, 0, 0, 0, 0, 0, 12, 46, 0, 63, 0, 0, 0, 79, 0, 0, 9, 0, 0, 73, 10, 0, 0, 0, 0, 72, 0, 25, 47, 0, 11, 0, 49, 0, 66, 54, 75, 57, 22
|0, 0, 0, 79, 27, 0, 0, 0, 0, 0, 0, 40, 0, 47, 0, 0, 0, 55, 0, 0, 12, 0, 52, 37, 0, 75, 39, 0, 5, 0, 9, 78, 63, 0, 70, 0, 0, 76, 50, 22, 0, 0, 0, 62, 10, 26, 80, 41, 66, 69, 0, 0, 0, 7, 0, 0, 1, 0, 45, 74, 71, 48, 14, 0, 64, 31, 0, 0, 29, 3, 19, 0, 59, 68, 17, 46, 0, 0, 30, 0, 0
|31, 0, 78, 54, 19, 1, 69, 0, 0, 0, 0, 0, 0, 0, 5, 10, 26, 0, 0, 0, 0, 14, 0, 29, 0, 9, 0, 0, 0, 0, 0, 0, 56, 39, 49, 74, 20, 24, 0, 0, 0, 59, 44, 0, 0, 21, 0, 27, 0, 67, 0, 0, 0, 0, 0, 3, 0, 50, 15, 65, 0, 0, 0, 68, 0, 0, 0, 0, 22, 0, 0, 0, 0, 0, 62, 0, 47, 76, 0, 0, 0
|0, 0, 75, 66, 47, 0, 20, 0, 0, 5, 45, 42, 14, 23, 44, 58, 19, 64, 22, 57, 0, 0, 43, 30, 59, 0, 0, 31, 0, 0, 29, 46, 48, 6, 77, 52, 0, 38, 0, 61, 80, 0, 7, 0, 0, 0, 0, 0, 0, 55, 62, 40, 72, 39, 0, 63, 36, 76, 0, 0, 0, 0, 0, 0, 18, 54, 0, 0, 33, 34, 0, 0, 24, 8, 73, 68, 0, 0, 28, 79, 12
|0, 0, 56, 0, 57, 0, 42, 0, 77, 0, 27, 37, 21, 36, 69, 74, 65, 41, 0, 0, 60, 25, 0, 51, 14, 0, 0, 12, 3, 34, 49, 0, 0, 0, 9, 0, 16, 30, 0, 0, 0, 0, 0, 0, 0, 0, 0, 0, 59, 0, 43, 52, 0, 0, 35, 0, 0, 47, 79, 0, 0, 11, 70, 58, 38, 17, 32, 26, 0, 0, 22, 66, 0, 0, 0, 55, 0, 0, 81, 0, 23
|8, 0, 0, 51, 5, 0, 36, 19, 0, 3, 25, 11, 68, 0, 35, 0, 0, 0, 48, 0, 0, 63, 67, 0, 81, 37, 15, 0, 0, 0, 44, 72, 0, 0, 22, 0, 58, 0, 0, 0, 0, 0, 26, 0, 59, 64, 0, 34, 0, 0, 0, 73, 0, 0, 0, 0, 10, 0, 0, 0, 0, 0, 0, 7, 0, 70, 0, 55, 0, 0, 20, 29, 0, 54, 21, 0, 17, 69, 52, 31, 0
|0, 18, 0, 0, 67, 80, 0, 1, 35, 72, 29, 76, 8, 0, 0, 54, 38, 0, 77, 0, 0, 3, 66, 0, 62, 16, 79, 0, 68, 0, 20, 0, 7, 37, 50, 71, 36, 34, 0, 0, 43, 39, 0, 27, 0, 14, 0, 0, 0, 23, 0, 0, 0, 0, 21, 0, 0, 52, 58, 42, 75, 0, 41, 81, 46, 13, 0, 0, 40, 4, 9, 12, 49, 0, 0, 0, 63, 53, 48, 0, 0
|0, 0, 14, 0, 0, 0, 0, 0, 0, 0, 0, 62, 0, 32, 0, 47, 0, 0, 39, 52, 0, 0, 19, 33, 0, 0, 42, 0, 60, 23, 56, 0, 0, 75, 0, 17, 0, 73, 0, 0, 66, 0, 9, 51, 55, 0, 65, 74, 16, 0, 20, 0, 63, 58, 0, 0, 0, 30, 80, 0, 0, 0, 0, 69, 0, 36, 24, 0, 59, 53, 77, 0, 0, 70, 0, 50, 0, 0, 72, 0, 5
|13, 39, 0, 73, 28, 76, 27, 0, 0, 17, 77, 10, 0, 0, 0, 0, 0, 0, 18, 0, 58, 0, 31, 49, 23, 0, 0, 0, 0, 0, 32, 47, 74, 0, 0, 70, 22, 0, 54, 0, 0, 35, 0, 14, 0, 53, 0, 79, 25, 0, 46, 37, 3, 0, 0, 0, 12, 69, 4, 0, 0, 72, 44, 0, 60, 0, 68, 2, 65, 19, 0, 56, 9, 26, 57, 0, 0, 66, 7, 0, 0
|0, 43, 15, 49, 0, 0, 17, 0, 0, 7, 0, 22, 75, 0, 78, 0, 0, 1, 0, 0, 0, 69, 70, 73, 24, 13, 0, 54, 21, 63, 80, 0, 0, 18, 0, 58, 0, 31, 62, 0, 6, 0, 0, 42, 0, 0, 0, 19, 0, 0, 5, 0, 68, 66, 0, 0, 25, 14, 27, 0, 0, 67, 0, 47, 0, 3, 0, 30, 48, 0, 0, 44, 0, 56, 0, 59, 0, 0, 51, 0, 0
|58, 16, 0, 0, 0, 34, 65, 63, 0, 13, 48, 0, 0, 0, 0, 53, 28, 46, 0, 0, 0, 7, 0, 0, 0, 0, 0, 0, 40, 69, 0, 0, 0, 0, 5, 59, 3, 0, 0, 0, 0, 0, 33, 0, 0, 57, 0, 0, 36, 49, 42, 0, 1, 12, 0, 0, 0, 55, 23, 31, 78, 19, 0, 0, 0, 0, 52, 0, 0, 0, 72, 0, 30, 0, 0, 75, 18, 47, 20, 74, 0
|30, 0, 0, 0, 24, 53, 0, 31, 0, 0, 0, 0, 52, 57, 0, 0, 2, 0, 0, 36, 46, 0, 75, 0, 0, 0, 0, 67, 0, 55, 0, 0, 10, 25, 0, 1, 0, 0, 70, 0, 0, 0, 0, 0, 69, 29, 33, 0, 0, 0, 0, 0, 0, 0, 8, 16, 13, 17, 0, 0, 5, 26, 0, 23, 0, 28, 62, 0, 51, 0, 61, 0, 77, 0, 3, 0, 0, 34, 42, 0, 39
|0, 5, 64, 0, 0, 0, 6, 0, 18, 19, 21, 39, 2, 45, 1, 75, 46, 0, 0, 0, 0, 34, 32, 15, 0, 0, 30, 74, 65, 0, 67, 0, 28, 60, 12, 0, 0, 61, 0, 66, 24, 0, 47, 37, 0, 10, 0, 54, 0, 7, 80, 50, 44, 0, 43, 0, 0, 3, 0, 68, 40, 23, 38, 48, 33, 9, 49, 36, 31, 0, 25, 0, 20, 52, 0, 0, 11, 17, 62, 55, 4
|62, 80, 0, 0, 70, 0, 0, 0, 7, 53, 0, 3, 0, 0, 6, 0, 48, 0, 1, 0, 0, 0, 0, 44, 0, 68, 0, 0, 43, 0, 13, 69, 0, 0, 72, 0, 14, 41, 0, 59, 46, 0, 71, 0, 0, 0, 0, 0, 27, 0, 74, 67, 40, 0, 0, 15, 0, 0, 0, 34, 0, 0, 0, 61, 58, 0, 56, 50, 64, 39, 0, 0, 0, 0, 0, 24, 0, 30, 0, 0, 0
|0, 0, 17, 26, 0, 0, 28, 48, 0, 73, 80, 0, 0, 10, 0, 76, 0, 11, 0, 0, 0, 5, 0, 0, 0, 0, 43, 0, 0, 0, 0, 40, 0, 0, 0, 0, 0, 0, 0, 70, 0, 0, 0, 0, 38, 47, 0, 0, 34, 59, 0, 77, 0, 25, 0, 0, 7, 0, 0, 32, 0, 62, 0, 0, 0, 44, 29, 60, 0, 0, 0, 0, 0, 36, 42, 69, 0, 51, 33, 66, 0
|0, 55, 40, 0, 0, 42, 0, 49, 0, 30, 66, 34, 0, 70, 0, 36, 0, 68, 79, 48, 63, 0, 72, 0, 0, 19, 74, 0, 61, 51, 64, 0, 71, 0, 6, 41, 0, 65, 0, 32, 0, 0, 77, 76, 15, 0, 2, 0, 0, 12, 0, 38, 0, 0, 0, 0, 0, 0, 0, 29, 0, 0, 0, 0, 0, 27, 35, 7, 11, 22, 0, 0, 0, 0, 0, 0, 0, 31, 8, 26, 0
|20, 0, 19, 71, 3, 0, 22, 39, 34, 0, 0, 74, 0, 0, 0, 0, 0, 0, 0, 0, 76, 0, 58, 62, 41, 0, 0, 0, 54, 5, 42, 52, 0, 14, 57, 30, 11, 28, 1, 0, 0, 55, 0, 0, 0, 0, 0, 0, 35, 0, 65, 0, 17, 53, 0, 0, 77, 0, 63, 66, 0, 79, 21, 67, 0, 0, 0, 70, 0, 0, 0, 6, 0, 0, 0, 0, 0, 0, 0, 0, 0
|57, 12, 0, 21, 52, 65, 59, 36, 0, 0, 47, 0, 28, 71, 0, 0, 15, 0, 80, 0, 73, 0, 50, 0, 70, 0, 33, 0, 0, 25, 39, 31, 0, 35, 0, 0, 43, 81, 69, 23, 0, 40, 0, 0, 0, 0, 0, 0, 6, 0, 8, 19, 0, 0, 1, 11, 56, 51, 13, 0, 0, 27, 53, 3, 20, 0, 0, 0, 2, 0, 55, 0, 0, 67, 0, 54, 0, 10, 0, 0, 49
|0, 60, 38, 32, 15, 0, 29, 61, 10, 78, 0, 0, 5, 0, 37, 81, 0, 0, 64, 77, 39, 54, 0, 11, 0, 28, 59, 3, 0, 0, 0, 0, 50, 21, 0, 56, 0, 0, 0, 49, 62, 57, 0, 12, 79, 0, 0, 0, 69, 0, 76, 30, 0, 0, 0, 0, 0, 0, 47, 14, 0, 71, 0, 0, 65, 0, 0, 0, 18, 52, 0, 4, 0, 1, 0, 0, 75, 80, 0, 35, 0
|0, 0, 0, 1, 2, 0, 46, 23, 16, 12, 0, 50, 49, 40, 18, 0, 14, 0, 8, 71, 0, 78, 61, 52, 69, 0, 66, 0, 0, 0, 0, 63, 33, 59, 0, 0, 31, 0, 0, 64, 56, 10, 20, 39, 0, 0, 70, 0, 0, 62, 21, 36, 0, 0, 65, 0, 0, 24, 0, 30, 0, 80, 0, 0, 0, 5, 51, 0, 0, 0, 42, 0, 60, 72, 0, 0, 81, 7, 0, 0, 44
|24, 51, 33, 53, 11, 0, 4, 0, 0, 32, 54, 0, 0, 56, 77, 41, 52, 0, 0, 13, 0, 23, 0, 10, 9, 0, 26, 7, 0, 0, 0, 20, 0, 0, 0, 0, 5, 0, 30, 58, 34, 0, 35, 0, 2, 0, 0, 68, 63, 0, 78, 64, 0, 49, 74, 46, 0, 39, 73, 0, 0, 50, 0, 0, 0, 0, 28, 19, 72, 0, 14, 15, 48, 0, 45, 65, 79, 12, 0, 25, 29
|0, 25, 26, 0, 72, 19, 0, 0, 50, 68, 64, 55, 67, 13, 30, 0, 21, 2, 0, 0, 11, 75, 51, 0, 0, 18, 0, 73, 0, 46, 0, 0, 41, 0, 23, 0, 0, 29, 20, 24, 9, 0, 0, 10, 0, 0, 58, 0, 0, 0, 0, 0, 28, 0, 0, 33, 0, 15, 0, 0, 70, 0, 65, 0, 63, 0, 45, 16, 0, 0, 0, 0, 1, 4, 0, 34, 0, 0, 0, 17, 0
|7, 28, 0, 0, 66, 33, 0, 32, 0, 0, 0, 43, 0, 0, 0, 23, 0, 3, 0, 0, 0, 79, 0, 0, 67, 0, 10, 0, 8, 0, 59, 0, 0, 0, 20, 0, 0, 50, 38, 0, 0, 0, 0, 19, 30, 5, 64, 75, 73, 63, 0, 0, 54, 74, 52, 58, 0, 0, 0, 41, 12, 1, 13, 0, 0, 51, 65, 44, 0, 0, 0, 24, 57, 9, 55, 0, 0, 0, 0, 0, 0
|70, 0, 0, 24, 60, 10, 40, 0, 30, 46, 0, 8, 20, 0, 0, 0, 61, 53, 13, 0, 0, 28, 0, 66, 21, 3, 0, 0, 52, 0, 0, 4, 39, 34, 65, 2, 69, 0, 0, 79, 0, 45, 16, 0, 0, 0, 17, 0, 0, 18, 14, 0, 0, 37, 0, 0, 0, 77, 0, 0, 0, 63, 62, 0, 67, 0, 42, 0, 73, 0, 0, 0, 71, 0, 0, 0, 0, 44, 0, 49, 72
|14, 0, 0, 58, 29, 46, 0, 0, 0, 75, 56, 78, 0, 19, 62, 0, 63, 0, 0, 0, 4, 24, 45, 35, 37, 0, 17, 57, 0, 0, 47, 64, 68, 26, 0, 0, 0, 49, 22, 76, 2, 0, 32, 0, 0, 0, 0, 30, 52, 40, 71, 0, 39, 50, 9, 80, 0, 38, 67, 5, 0, 0, 0, 0, 0, 53, 61, 59, 41, 0, 0, 0, 69, 33, 0, 13, 0, 25, 16, 0, 7
|63, 0, 74, 67, 0, 0, 64, 0, 0, 60, 49, 27, 0, 0, 34, 0, 22, 0, 14, 0, 7, 0, 0, 58, 0, 0, 16, 0, 37, 0, 24, 0, 13, 0, 0, 0, 0, 0, 0, 0, 0, 0, 3, 55, 0, 79, 59, 0, 0, 33, 25, 0, 0, 70, 50, 32, 0, 46, 0, 78, 39, 66, 0, 77, 0, 71, 19, 0, 0, 0, 38, 0, 10, 65, 15, 0, 20, 0, 53, 0, 43
|34, 0, 0, 27, 0, 0, 71, 0, 0, 81, 0, 0, 0, 0, 48, 6, 5, 0, 25, 0, 32, 0, 22, 19, 0, 0, 41, 0, 72, 30, 0, 0, 0, 69, 63, 55, 33, 35, 0, 0, 21, 8, 28, 59, 62, 0, 61, 0, 13, 20, 0, 15, 0, 0, 10, 0, 16, 0, 43, 0, 0, 0, 17, 40, 0, 0, 4, 9, 66, 0, 0, 0, 23, 0, 0, 18, 73, 56, 0, 0, 58
|38, 4, 8, 0, 6, 0, 31, 0, 2, 0, 0, 0, 0, 52, 7, 45, 0, 47, 0, 63, 0, 1, 73, 0, 0, 36, 68, 0, 78, 0, 75, 19, 0, 0, 0, 0, 0, 13, 0, 0, 0, 60, 64, 25, 43, 0, 0, 0, 0, 81, 35, 72, 49, 0, 0, 56, 0, 0, 0, 0, 0, 30, 0, 46, 74, 0, 0, 0, 0, 80, 23, 0, 79, 50, 0, 0, 0, 27, 0, 59, 42
|0, 0, 69, 61, 0, 49, 0, 62, 1, 35, 14, 24, 79, 11, 50, 0, 0, 17, 0, 42, 23, 52, 33, 0, 0, 0, 47, 0, 22, 0, 0, 45, 5, 40, 28, 0, 44, 0, 73, 65, 0, 67, 4, 0, 39, 43, 21, 0, 46, 32, 16, 0, 10, 9, 27, 0, 34, 0, 68, 0, 18, 7, 0, 0, 0, 25, 0, 0, 78, 0, 0, 0, 2, 0, 74, 63, 64, 0, 66, 0, 0
|0, 53, 0, 15, 79, 52, 0, 0, 75, 59, 10, 71, 58, 0, 66, 0, 39, 0, 0, 56, 0, 8, 48, 0, 27, 40, 0, 0, 67, 16, 0, 36, 0, 0, 11, 0, 68, 0, 81, 42, 0, 17, 0, 34, 63, 0, 41, 0, 0, 0, 0, 7, 0, 51, 0, 76, 24, 45, 74, 0, 0, 60, 0, 28, 22, 0, 0, 13, 0, 0, 0, 0, 47, 30, 0, 0, 0, 0, 14, 54, 21|];