order = 9;
grid = [|51, 0, 0, 54, 0, 0, 0, 0, 0, 0, 0, 0, 0, 0, 72, 0, 19, 0, 0, 0, 27, 2, 0, 62, 65, 0, 64, 0, 40, 18, 75, 0, 56, 16, 57, 0, 0, 0, 0, 10, 74, 20, 0, 0, 45, 4, 0, 0, 0, 0, 67, 8, 0, 0, 0, 47, 0, 0, 5, 76, 58, 55, 0, 0, 0, 0, 35, 0, 80, 0, 0, 0, 46, 0, 0, 0, 38, 0, 12, 0, 9
|46, 0, 0, 40, 0, 30, 69, 0, 23, 43, 0, 21, 0, 81, 42, 0, 59, 0, 0, 38, 0, 0, 0, 60, 29, 80, 73, 0, 0, 58, 0, 0, 0, 0, 0, 0, 68, 0, 72, 12, 0, 76, 11, 0, 57, 34, 16, 0, 33, 53, 9, 18, 0, 56, 52, 2, 0, 0, 0, 35, 0, 0, 0, 74, 48, 65, 0, 54, 0, 44, 47, 0, 64, 0, 1, 0, 0, 51, 25, 0, 24
|0, 0, 72, 0, 65, 3, 62, 0, 41, 40, 5, 0, 0, 0, 0, 58, 0, 29, 68, 0, 0, 22, 0, 0, 76, 54, 0, 48, 0, 37, 0, 27, 12, 0, 0, 0, 0, 0, 1, 0, 8, 0, 0, 79, 32, 61, 75, 74, 36, 0, 81, 0, 7, 21, 0, 0, 66, 18, 0, 42, 0, 16, 38, 0, 0, 0, 0, 0, 0, 0, 0, 0, 23, 11, 0, 31, 15, 73, 0, 0, 0
|0, 74, 26, 0, 0, 0, 58, 35, 75, 70, 51, 0, 25, 0, 0, 66, 53, 18, 32, 55, 78, 0, 4, 10, 0, 37, 0, 13, 0, 71, 0, 0, 0, 63, 73, 0, 0, 0, 0, 77, 0, 0, 0, 36, 0, 0, 0, 0, 0, 1, 0, 0, 59, 0, 0, 0, 11, 3, 40, 0, 46, 0, 67, 0, 0, 0, 23, 0, 49, 0, 22, 52, 0, 8, 80, 14, 7, 0, 0, 0, 0
|0, 0, 24, 0, 81, 20, 0, 31, 39, 12, 0, 0, 0, 69, 0, 0, 0, 57, 47, 56, 11, 23, 48, 17, 34, 0, 0, 0, 0, 0, 3, 0, 15, 0, 1, 7, 0, 0, 0, 0, 0, 80, 55, 0, 0, 0, 0, 78, 64, 40, 52, 0, 37, 13, 45, 36, 65, 0, 0, 10, 49, 26, 30, 73, 0, 0, 5, 21, 0, 0, 0, 0, 0, 19, 0, 6, 60, 16, 0, 0, 22
|71, 36, 0, 28, 21, 45, 0, 0, 0, 2, 0, 16, 0, 0, 0, 37, 0, 75, 41, 1, 63, 0, 0, 6, 0, 0, 0, 0, 0, 49, 25, 0, 0, 32, 38, 0, 64, 0, 52, 47, 0, 0, 65, 0, 0, 0, 0, 73, 0, 0, 0, 0, 0, 39, 0, 0, 0, 0, 9, 0, 0, 53, 80, 18, 46, 60, 0, 62, 0, 0, 79, 0, 0, 69, 0, 58, 0, 0, 0, 0, 0
|64, 16, 38, 0, 9, 0, 0, 0, 0, 24, 46, 0, 0, 78, 47, 0, 0, 31, 0, 0, 8, 0, 0, 0, 50, 25, 33, 0, 0, 0, 4, 72, 65, 69, 0, 11, 48, 71, 0, 0, 22, 35, 0, 0, 67, 5, 32, 76, 0, 49, 79, 28, 0, 0, 1, 17, 0, 0, 0, 51, 0, 23, 0, 0, 0, 27, 0, 3, 10, 0, 40, 0, 0, 0, 29, 0, 0, 0, 36, 2, 0
|80, 32, 0, 0, 0, 0, 48, 11, 66, 0, 10, 0, 73, 0, 38, 56, 20, 0, 0, 0, 0, 58, 71, 0, 0, 5, 0, 42, 81, 33, 22, 0, 0, 0, 0, 47, 69, 0, 0, 0, 0, 0, 75, 0, 7, 24, 44, 0, 0, 12, 60, 45, 57, 6, 37, 0, 64, 15, 63, 78, 62, 74, 27, 0, 8, 0, 28, 0, 0, 0, 53, 0, 39, 40, 0, 0, 41, 0, 0, 72, 0
|10, 70, 73, 8, 0, 0, 0, 0, 0, 0, 0, 0, 0, 0, 1, 0, 0, 0, 0, 0, 18, 19, 0, 12, 0, 53, 3, 52, 31, 0, 0, 74, 0, 80, 45, 0, 0, 0, 40, 0, 0, 17, 0, 0, 0, 0, 35, 0, 0, 0, 71, 0, 0, 55, 0, 0, 81, 6, 0, 0, 0, 0, 0, 0, 0, 25, 0, 16, 0, 64, 0, 38, 63, 47, 0, 0, 68, 0, 57, 33, 0
|75, 0, 0, 0, 0, 55, 0, 0, 0, 21, 71, 11, 46, 12, 26, 64, 79, 8, 38, 7, 33, 42, 0, 0, 81, 0, 0, 0, 68, 0, 0, 25, 51, 15, 0, 0, 0, 78, 63, 50, 0, 0, 0, 0, 0, 0, 0, 0, 0, 0, 0, 58, 48, 0, 0, 14, 44, 47, 0, 66, 56, 0, 0, 16, 0, 24, 76, 9, 0, 0, 0, 0, 77, 35, 27, 0, 0, 53, 0, 0, 0
|58, 0, 0, 0, 66, 0, 26, 0, 0, 52, 0, 25, 0, 9, 43, 4, 31, 14, 0, 0, 0, 40, 0, 28, 0, 0, 60, 0, 24, 0, 0, 0, 42, 0, 47, 0, 73, 35, 46, 45, 0, 0, 2, 56, 0, 39, 6, 0, 76, 62, 72, 53, 77, 0, 0, 3, 21, 0, 0, 0, 7, 0, 51, 0, 0, 0, 27, 61, 18, 0, 0, 0, 13, 0, 16, 0, 32, 50, 5, 0, 75
|72, 0, 0, 0, 28, 8, 59, 0, 0, 73, 0, 39, 24, 36, 78, 0, 0, 49, 0, 43, 48, 29, 0, 74, 71, 63, 6, 0, 0, 0, 14, 0, 10, 26, 0, 0, 62, 5, 77, 0, 75, 79, 69, 57, 38, 41, 61, 9, 66, 0, 2, 16, 81, 0, 19, 0, 0, 32, 22, 0, 0, 27, 13, 34, 68, 0, 0, 0, 42, 52, 35, 0, 47, 0, 60, 0, 0, 3, 0, 0, 45
|0, 2, 50, 0, 16, 0, 0, 0, 62, 0, 61, 0, 75, 56, 0, 34, 5, 67, 0, 20, 0, 0, 3, 58, 77, 0, 59, 54, 0, 0, 72, 17, 0, 0, 0, 43, 0, 15, 0, 0, 60, 0, 32, 22, 48, 42, 25, 71, 0, 0, 31, 10, 0, 0, 0, 0, 0, 64, 0, 0, 57, 0, 76, 12, 55, 41, 73, 0, 74, 0, 0, 0, 0, 0, 0, 0, 0, 0, 0, 0, 0
|48, 0, 70, 78, 37, 0, 0, 0, 0, 81, 29, 41, 0, 68, 0, 16, 0, 1, 0, 64, 0, 4, 0, 0, 56, 0, 0, 20, 53, 9, 32, 0, 0, 55, 0, 59, 8, 51, 14, 0, 0, 54, 21, 0, 10, 0, 28, 0, 0, 36, 46, 0, 0, 65, 61, 0, 77, 0, 73, 0, 31, 42, 75, 0, 50, 19, 0, 0, 30, 0, 0, 0, 0, 0, 0, 17, 79, 76, 0, 0, 63
|0, 0, 0, 0, 53, 0, 7, 80, 0, 0, 0, 0, 44, 0, 0, 42, 0, 0, 0, 8, 68, 5, 51, 0, 0, 46, 0, 0, 50, 0, 0, 0, 16, 0, 0, 81, 40, 0, 13, 0, 17, 18, 3, 0, 0, 79, 0, 0, 0, 27, 0, 0, 24, 47, 59, 74, 72, 0, 12, 45, 0, 62, 0, 0, 0, 10, 29, 0, 0, 14, 11, 67, 71, 30, 0, 73, 69, 41, 0, 0, 0
|0, 40, 6, 0, 0, 46, 0, 45, 0, 0, 0, 2, 0, 38, 0, 0, 0, 28, 14, 0, 0, 0, 16, 0, 61, 0, 52, 35, 39, 0, 0, 0, 0, 0, 37, 48, 70, 81, 0, 58, 0, 4, 0, 25, 0, 0, 0, 21, 0, 64, 74, 17, 0, 0, 67, 0, 10, 63, 36, 69, 0, 80, 65, 0, 0, 5, 72, 0, 33, 0, 51, 77, 0, 0, 0, 0, 22, 0, 0, 23, 0
|3, 0, 0, 71, 0, 22, 0, 51, 0, 0, 0, 0, 0, 0, 62, 50, 0, 0, 70, 32, 0, 73, 0, 0, 19, 75, 36, 0, 27, 0, 0, 41, 77, 0, 0, 5, 7, 59, 0, 0, 0, 0, 80, 0, 42, 20, 0, 0, 35, 0, 0, 26, 45, 14, 34, 16, 0, 9, 39, 28, 52, 0, 11, 56, 0, 0, 17, 0, 40, 46, 0, 0, 48, 0, 31, 0, 0, 0, 43, 6, 0
|0, 31, 0, 14, 35, 0, 42, 29, 25, 0, 40, 0, 0, 0, 53, 0, 72, 0, 34, 11, 62, 80, 27, 0, 10, 0, 0, 0, 49, 0, 52, 0, 76, 0, 3, 36, 0, 0, 0, 0, 0, 37, 0, 0, 0, 0, 51, 0, 0, 0, 78, 0, 0, 0, 0, 0, 43, 81, 0, 58, 38, 0, 6, 13, 0, 0, 32, 75, 0, 71, 21, 0, 20, 0, 70, 15, 12, 46, 74, 0, 0
|65, 0, 0, 16, 30, 57, 0, 0, 0, 0, 0, 35, 0, 62, 0, 0, 37, 4, 0, 50, 0, 34, 0, 48, 63, 13, 0, 71, 0, 0, 55, 52, 0, 0, 0, 2, 0, 54, 0, 70, 20, 0, 0, 0, 0, 0, 0, 59, 14, 23, 33, 0, 25, 61, 0, 31, 73, 0, 0, 0, 0, 0, 0, 0, 51, 67, 0, 80, 0, 0, 0, 0, 11, 42, 28, 0, 0, 0, 38, 0, 69
|59, 35, 23, 77, 73, 0, 67, 0, 50, 15, 0, 0, 5, 27, 65, 0, 57, 0, 81, 41, 0, 0, 60, 0, 0, 12, 0, 0, 42, 45, 0, 75, 44, 0, 0, 61, 66, 33, 0, 11, 26, 52, 62, 0, 0, 63, 8, 0, 0, 6, 0, 4, 0, 71, 70, 53, 24, 0, 0, 9, 0, 58, 64, 0, 34, 0, 0, 78, 0, 17, 20, 39, 0, 31, 0, 32, 0, 0, 72, 13, 43
|0, 0, 0, 0, 62, 0, 0, 0, 0, 0, 47, 28, 0, 0, 24, 0, 0, 26, 0, 21, 0, 3, 0, 0, 0, 0, 5, 0, 0, 23, 0, 70, 72, 74, 36, 25, 0, 0, 0, 14, 65, 0, 49, 38, 0, 0, 0, 46, 0, 0, 80, 48, 0, 0, 13, 69, 57, 76, 18, 0, 0, 50, 32, 0, 31, 45, 79, 55, 0, 0, 0, 0, 0, 20, 0, 77, 0, 0, 60, 0, 16
|0, 71, 0, 63, 32, 41, 0, 74, 45, 0, 21, 0, 0, 0, 56, 0, 0, 61, 53, 0, 0, 0, 52, 26, 0, 30, 0, 0, 0, 38, 0, 54, 34, 0, 0, 0, 0, 57, 0, 0, 0, 29, 12, 16, 0, 37, 0, 0, 72, 18, 55, 68, 0, 58, 80, 0, 28, 0, 27, 65, 60, 0, 0, 0, 0, 15, 10, 46, 0, 75, 0, 42, 33, 76, 3, 0, 64, 17, 78, 0, 0
|0, 0, 0, 0, 20, 21, 76, 0, 14, 31, 66, 79, 0, 0, 0, 69, 0, 0, 16, 37, 0, 62, 23, 0, 0, 0, 0, 0, 10, 0, 33, 0, 22, 0, 9, 77, 17, 0, 44, 0, 61, 34, 0, 0, 40, 0, 0, 5, 60, 0, 42, 65, 2, 51, 0, 0, 52, 0, 81, 47, 1, 43, 0, 68, 30, 0, 0, 0, 0, 11, 3, 0, 67, 0, 7, 0, 53, 0, 48, 0, 0
|0, 0, 17, 0, 0, 0, 0, 2, 61, 0, 54, 0, 63, 0, 0, 76, 0, 78, 0, 9, 77, 45, 0, 65, 0, 72, 38, 0, 0, 24, 26, 46, 0, 0, 41, 0, 79, 0, 0, 37, 0, 64, 0, 0, 18, 19, 0, 39, 0, 0, 0, 0, 0, 0, 0, 0, 0, 67, 3, 0, 42, 0, 0, 8, 52, 0, 0, 0, 66, 0, 0, 0, 29, 12, 0, 0, 0, 6, 50, 62, 0
|18, 0, 0, 79, 0, 11, 37, 0, 0, 0, 0, 32, 38, 0, 22, 3, 2, 60, 0, 29, 0, 71, 0, 0, 0, 0, 0, 65, 59, 0, 0, 53, 0, 0, 0, 15, 0, 0, 23, 4, 0, 77, 0, 63, 0, 66, 50, 0, 40, 0, 0, 0, 0, 0, 0, 0, 68, 74, 0, 0, 0, 0, 41, 26, 19, 61, 33, 0, 64, 0, 5, 0, 0, 27, 39, 56, 0, 14, 45, 46, 0
|0, 0, 0, 26, 72, 42, 0, 24, 0, 9, 0, 29, 52, 11, 36, 0, 71, 0, 76, 33, 0, 46, 0, 8, 75, 0, 0, 31, 0, 80, 0, 18, 20, 0, 0, 0, 81, 60, 0, 0, 73, 0, 28, 41, 0, 3, 0, 54, 45, 69, 57, 67, 34, 0, 78, 61, 0, 10, 0, 40, 35, 0, 0, 1, 47, 77, 0, 50, 0, 49, 16, 0, 0, 79, 23, 5, 0, 0, 0, 22, 0
|0, 8, 0, 0, 25, 78, 0, 55, 43, 74, 30, 58, 0, 0, 10, 44, 50, 0, 0, 36, 0, 0, 0, 0, 0, 69, 66, 3, 29, 16, 67, 0, 35, 0, 49, 68, 76, 72, 0, 0, 15, 0, 0, 19, 0, 26, 0, 52, 0, 81, 0, 47, 0, 0, 22, 0, 59, 4, 0, 56, 11, 0, 0, 60, 32, 18, 0, 27, 14, 63, 0, 28, 0, 37, 0, 51, 0, 1, 0, 24, 61
|77, 0, 55, 3, 0, 0, 8, 0, 0, 0, 1, 4, 0, 0, 60, 0, 6, 0, 0, 71, 0, 69, 37, 45, 0, 0, 0, 64, 47, 75, 0, 0, 13, 0, 0, 34, 0, 65, 0, 0, 51, 0, 73, 59, 16, 23, 0, 35, 46, 0, 0, 0, 0, 0, 0, 0, 78, 11, 0, 0, 79, 18, 74, 0, 40, 0, 0, 0, 76, 33, 0, 0, 0, 0, 0, 0, 0, 0, 19, 0, 0
|0, 0, 0, 24, 33, 74, 72, 0, 0, 20, 0, 78, 51, 2, 14, 61, 54, 68, 58, 57, 0, 0, 0, 44, 35, 0, 41, 0, 0, 0, 0, 60, 0, 0, 10, 0, 0, 0, 27, 0, 0, 12, 0, 0, 0, 0, 0, 0, 53, 30, 0, 0, 0, 7, 0, 49, 39, 0, 0, 0, 0, 0, 0, 45, 80, 0, 0, 0, 0, 0, 37, 34, 62, 0, 5, 0, 0, 48, 23, 0, 59
|0, 76, 0, 41, 56, 0, 18, 71, 30, 0, 0, 26, 43, 0, 25, 49, 11, 0, 0, 47, 60, 33, 46, 0, 13, 0, 0, 40, 0, 65, 78, 0, 70, 0, 0, 0, 0, 0, 0, 8, 3, 69, 24, 0, 0, 1, 0, 64, 4, 0, 0, 29, 0, 0, 0, 66, 0, 59, 0, 44, 0, 0, 2, 77, 0, 0, 0, 51, 53, 21, 7, 0, 45, 17, 74, 10, 16, 67, 15, 0, 0
|0, 0, 0, 52, 14, 0, 0, 0, 38, 33, 35, 69, 19, 64, 0, 0, 0, 0, 0, 0, 9, 15, 0, 51, 0, 0, 0, 0, 0, 0, 0, 36, 53, 3, 0, 0, 23, 66, 78, 60, 40, 0, 37, 4, 0, 65, 45, 75, 54, 0, 0, 73, 39, 0, 16, 0, 76, 0, 46, 67, 0, 0, 21, 0, 0, 0, 0, 0, 0, 0, 74, 18, 2, 0, 0, 0, 0, 30, 0, 0, 32
|0, 0, 34, 45, 6, 64, 16, 0, 47, 0, 44, 0, 0, 0, 0, 0, 0, 9, 75, 24, 73, 81, 0, 79, 0, 17, 55, 4, 41, 0, 74, 0, 0, 0, 0, 0, 10, 77, 35, 0, 0, 21, 33, 42, 13, 0, 0, 0, 25, 0, 0, 38, 28, 72, 0, 70, 51, 40, 53, 12, 29, 0, 57, 0, 0, 0, 48, 19, 71, 3, 0, 2, 0, 1, 78, 0, 37, 0, 8, 0, 0
|36, 0, 0, 29, 48, 0, 35, 0, 46, 0, 0, 0, 0, 52, 0, 0, 0, 55, 0, 0, 0, 0, 76, 3, 26, 56, 0, 14, 18, 0, 0, 33, 0, 62, 67, 0, 71, 0, 70, 41, 2, 43, 34, 45, 0, 0, 0, 51, 0, 17, 0, 49, 0, 60, 73, 4, 0, 30, 0, 0, 0, 0, 61, 23, 0, 13, 24, 65, 0, 0, 0, 78, 0, 22, 42, 63, 57, 0, 40, 53, 0
|54, 0, 0, 0, 0, 0, 23, 0, 81, 8, 0, 0, 42, 0, 0, 41, 0, 0, 0, 68, 5, 0, 7, 0, 0, 19, 0, 0, 0, 59, 45, 35, 0, 0, 0, 0, 53, 0, 48, 0, 18, 0, 0, 0, 0, 57, 37, 24, 0, 78, 0, 0, 0, 0, 0, 0, 0, 26, 60, 0, 77, 10, 0, 0, 0, 14, 20, 1, 6, 4, 0, 25, 0, 3, 0, 46, 47, 31, 79, 0, 0
|0, 0, 0, 0, 2, 17, 27, 66, 0, 0, 53, 3, 0, 0, 0, 0, 0, 0, 1, 65, 0, 49, 0, 0, 0, 23, 0, 46, 0, 0, 0, 6, 0, 29, 0, 0, 19, 56, 81, 7, 0, 67, 25, 5, 76, 0, 63, 0, 0, 43, 0, 34, 61, 0, 72, 8, 0, 0, 41, 71, 45, 0, 28, 0, 75, 68, 0, 0, 0, 0, 0, 0, 0, 0, 18, 13, 0, 33, 9, 39, 0
|0, 0, 25, 0, 40, 0, 20, 53, 0, 0, 13, 0, 0, 59, 0, 0, 0, 76, 0, 48, 0, 52, 78, 43, 18, 70, 4, 0, 5, 0, 57, 73, 0, 50, 0, 49, 0, 74, 0, 6, 0, 0, 0, 32, 54, 56, 0, 0, 0, 0, 66, 31, 0, 3, 0, 23, 58, 0, 0, 19, 64, 1, 22, 47, 44, 0, 0, 28, 0, 0, 39, 10, 0, 51, 0, 0, 0, 0, 41, 11, 12
|0, 0, 8, 0, 45, 49, 0, 0, 0, 78, 76, 0, 34, 75, 71, 17, 0, 35, 59, 0, 72, 57, 77, 56, 0, 0, 0, 66, 21, 0, 0, 0, 29, 0, 46, 69, 0, 0, 31, 18, 4, 10, 22, 26, 2, 9, 0, 0, 81, 0, 62, 0, 60, 42, 0, 0, 32, 0, 16, 0, 3, 0, 70, 0, 20, 55, 0, 0, 25, 28, 15, 64, 54, 63, 0, 74, 40, 12, 27, 0, 0
|23, 65, 0, 0, 34, 0, 0, 0, 26, 66, 37, 0, 45, 0, 9, 22, 0, 80, 6, 35, 71, 0, 0, 0, 0, 0, 49, 0, 0, 0, 0, 0, 11, 52, 0, 0, 0, 67, 68, 0, 46, 0, 0, 0, 44, 53, 13, 0, 20, 29, 1, 75, 0, 0, 0, 0, 0, 0, 0, 0, 0, 25, 12, 0, 27, 74, 7, 0, 16, 0, 0, 0, 5, 59, 10, 0, 61, 62, 0, 38, 0
|0, 52, 43, 73, 78, 48, 0, 0, 0, 46, 23, 0, 0, 24, 0, 0, 42, 0, 0, 0, 32, 64, 81, 0, 12, 0, 0, 16, 0, 0, 0, 0, 0, 0, 0, 63, 0, 0, 20, 39, 59, 33, 0, 0, 72, 51, 65, 0, 0, 0, 0, 0, 10, 0, 0, 76, 15, 0, 38, 37, 0, 0, 0, 0, 18, 66, 0, 35, 58, 70, 0, 13, 0, 44, 6, 50, 56, 2, 49, 17, 60
|0, 62, 66, 81, 0, 2, 46, 16, 76, 59, 7, 0, 0, 0, 51, 10, 0, 43, 55, 78, 0, 0, 8, 0, 0, 50, 0, 0, 0, 15, 34, 61, 73, 40, 6, 0, 54, 0, 28, 48, 80, 13, 0, 0, 0, 44, 0, 0, 41, 58, 0, 0, 0, 49, 0, 5, 19, 56, 42, 0, 0, 35, 0, 0, 33, 21, 0, 23, 0, 57, 45, 0, 24, 32, 0, 1, 75, 0, 0, 77, 0
|0, 27, 3, 0, 0, 0, 24, 0, 0, 0, 0, 0, 0, 0, 0, 0, 44, 2, 60, 0, 75, 0, 11, 0, 0, 9, 0, 28, 0, 0, 0, 0, 0, 41, 0, 0, 0, 0, 0, 0, 7, 40, 58, 0, 0, 36, 46, 0, 5, 0, 37, 0, 0, 25, 69, 62, 47, 0, 0, 6, 0, 0, 29, 0, 0, 34, 52, 32, 0, 26, 0, 71, 0, 53, 14, 45, 78, 0, 51, 0, 4
|28, 20, 0, 0, 58, 0, 56, 0, 54, 79, 70, 0, 49, 0, 32, 0, 0, 0, 0, 31, 21, 0, 0, 46, 0, 0, 0, 55, 0, 14, 37, 76, 27, 0, 0, 0, 16, 0, 41, 19, 0, 0, 1, 0, 5, 0, 66, 34, 22, 0, 38, 0, 78, 52, 0, 11, 0, 44, 65, 0, 0, 0, 0, 0, 63, 0, 61, 67, 4, 73, 68, 0, 57, 0, 0, 39, 48, 26, 18, 42, 0
|0, 0, 60, 0, 0, 59, 0, 15, 10, 39, 0, 0, 69, 21, 0, 0, 0, 0, 0, 0, 14, 0, 18, 24, 0, 65, 0, 12, 0, 5, 62, 26, 64, 68, 51, 0, 61, 0, 0, 73, 0, 0, 79, 0, 0, 0, 76, 45, 0, 56, 7, 74, 0, 70, 23, 58, 0, 13, 0, 53, 17, 0, 0, 80, 0, 0, 1, 0, 41, 8, 49, 0, 3, 43, 0, 71, 81, 9, 22, 0, 67
|0, 18, 0, 0, 31, 44, 9, 21, 0, 0, 15, 0, 60, 0, 0, 0, 0, 0, 51, 0, 0, 68, 5, 29, 0, 62, 17, 0, 56, 8, 53, 10, 49, 0, 0, 39, 0, 11, 12, 32, 0, 71, 52, 0, 27, 0, 0, 4, 0, 0, 0, 63, 0, 0, 0, 30, 0, 0, 75, 73, 0, 45, 59, 0, 0, 37, 77, 0, 72, 6, 81, 0, 0, 46, 0, 0, 0, 7, 0, 25, 0
|11, 0, 80, 0, 19, 0, 0, 0, 0, 0, 0, 0, 0, 14, 0, 0, 27, 16, 0, 0, 66, 61, 1, 15, 0, 7, 74, 0, 0, 0, 9, 45, 2, 0, 60, 0, 57, 0, 43, 36, 69, 0, 0, 76, 21, 54, 0, 0, 6, 55, 26, 0, 0, 0, 24, 0, 0, 22, 0, 63, 0, 28, 0, 3, 0, 0, 0, 0, 0, 42, 75, 0, 0, 0, 0, 35, 8, 0, 0, 0, 0
|38, 46, 0, 2, 54, 16, 13, 0, 0, 30, 63, 0, 31, 0, 6, 0, 51, 66, 26, 0, 7, 41, 0, 0, 4, 0, 68, 0, 0, 0, 0, 0, 0, 22, 76, 64, 74, 44, 0, 0, 0, 0, 57, 0, 81, 0, 36, 10, 0, 0, 56, 0, 0, 0, 0, 0, 0, 0, 24, 0, 71, 0, 55, 17, 0, 50, 39, 45, 0, 62, 0, 48, 0, 28, 0, 67, 0, 0, 11, 65, 0
|0, 25, 77, 56, 0, 72, 71, 0, 21, 0, 36, 22, 0, 53, 0, 14, 0, 0, 0, 0, 65, 0, 39, 50, 46, 29, 0, 44, 0, 74, 0, 38, 6, 0, 42, 0, 0, 55, 0, 28, 0, 0, 41, 48, 0, 0, 2, 23, 11, 0, 51, 0, 12, 54, 4, 0, 0, 0, 0, 30, 0, 66, 47, 75, 58, 49, 0, 10, 0, 27, 64, 43, 32, 73, 0, 0, 0, 0, 33, 59, 0
|67, 0, 14, 0, 0, 0, 19, 20, 0, 49, 4, 0, 0, 42, 0, 59, 77, 0, 0, 0, 0, 0, 0, 0, 3, 60, 0, 61, 0, 0, 47, 78, 18, 0, 0, 0, 21, 0, 5, 15, 23, 0, 0, 0, 0, 0, 0, 81, 0, 0, 0, 0, 75, 64, 0, 9, 0, 31, 0, 36, 0, 63, 0, 37, 0, 35, 0, 34, 52, 51, 30, 0, 0, 39, 48, 79, 0, 44, 26, 68, 0
|0, 0, 0, 42, 18, 68, 0, 1, 0, 80, 65, 0, 0, 32, 39, 0, 25, 0, 0, 44, 0, 70, 0, 0, 20, 78, 27, 43, 52, 79, 0, 11, 71, 56, 66, 57, 0, 0, 30, 40, 0, 0, 0, 24, 22, 31, 0, 61, 0, 67, 73, 77, 33, 48, 0, 0, 0, 0, 6, 34, 0, 12, 45, 46, 14, 54, 9, 0, 28, 0, 0, 0, 0, 0, 0, 47, 62, 55, 0, 0, 0
|0, 0, 62, 36, 0, 0, 0, 52, 0, 13, 41, 0, 58, 15, 0, 0, 78, 0, 0, 0, 45, 0, 0, 40, 24, 0, 43, 53, 0, 0, 21, 9, 0, 2, 14, 54, 0, 79, 32, 71, 12, 66, 6, 7, 80, 0, 27, 28, 16, 0, 0, 0, 65, 0, 0, 64, 67, 75, 0, 0, 0, 0, 0, 0, 0, 1, 0, 69, 26, 0, 0, 19, 56, 0, 0, 30, 0, 0, 0, 0, 42
|73, 0, 12, 0, 50, 0, 0, 23, 0, 0, 79, 10, 37, 0, 0, 47, 61, 11, 0, 17, 0, 0, 80, 77, 32, 6, 0, 0, 0, 0, 16, 31, 0, 0, 0, 55, 13, 0, 69, 0, 76, 46, 0, 0, 0, 0, 14, 60, 0, 0, 53, 1, 0, 40, 42, 0, 0, 20, 0, 0, 0, 0, 0, 0, 71, 0, 0, 0, 0, 5, 59, 0, 19, 54, 63, 9, 43, 70, 81, 49, 0
|0, 0, 31, 0, 41, 0, 0, 0, 5, 71, 55, 0, 1, 23, 27, 0, 0, 0, 28, 0, 64, 0, 47, 0, 0, 33, 69, 10, 37, 30, 58, 0, 63, 0, 0, 0, 0, 26, 25, 75, 0, 0, 0, 0, 0, 0, 4, 66, 0, 38, 0, 78, 0, 46, 76, 0, 0, 0, 0, 11, 0, 0, 52, 0, 0, 0, 0, 72, 36, 0, 60, 0, 53, 18, 22, 0, 51, 77, 0, 0, 0
|0, 28, 64, 0, 47, 0, 0, 0, 0, 0, 62, 60, 0, 8, 0, 0, 0, 54, 0, 12, 34, 18, 0, 23, 0, 15, 0, 41, 13, 77, 81, 0, 1, 0, 39, 26, 78, 0, 0, 0, 0, 59, 20, 0, 65, 0, 3, 72, 0, 0, 44, 0, 55, 0, 56, 0, 46, 0, 0, 17, 0, 0, 0, 0, 42, 0, 0, 0, 79, 0, 25, 21, 0, 74, 2, 75, 71, 0, 0, 0, 7
|76, 6, 59, 32, 0, 43, 63, 0, 0, 0, 0, 50, 0, 5, 0, 2, 26, 0, 0, 0, 0, 0, 73, 57, 58, 11, 71, 0, 0, 0, 68, 40, 7, 0, 35, 0, 0, 62, 47, 72, 77, 60, 0, 0, 61, 0, 0, 42, 37, 0, 0, 0, 0, 20, 51, 0, 74, 48, 0, 70, 0, 0, 0, 0, 16, 0, 0, 53, 55, 80, 33, 0, 1, 45, 0, 41, 0, 64, 0, 0, 8
|52, 68, 0, 76, 1, 0, 31, 41, 72, 44, 77, 51, 16, 0, 0, 35, 0, 0, 10, 22, 0, 56, 63, 0, 78, 55, 61, 0, 0, 0, 0, 42, 37, 0, 0, 0, 27, 0, 0, 0, 79, 0, 30, 74, 0, 15, 60, 58, 12, 57, 0, 0, 8, 0, 32, 0, 29, 0, 54, 62, 0, 34, 0, 0, 0, 40, 47, 25, 0, 0, 0, 0, 70, 0, 0, 0, 17, 0, 0, 9, 53
|0, 0, 35, 0, 11, 67, 0, 0, 0, 0, 0, 0, 2, 43, 0, 71, 34, 0, 42, 58, 50, 0, 29, 59, 39, 48, 0, 26, 0, 13, 36, 79, 0, 64, 0, 0, 0, 68, 0, 53, 31, 0, 0, 10, 0, 62, 0, 0, 0, 0, 6, 55, 72, 28, 0, 0, 56, 0, 21, 0, 0, 33, 81, 0, 49, 46, 0, 0, 0, 0, 0, 0, 30, 0, 0, 0, 0, 0, 0, 0, 37
|0, 0, 0, 23, 0, 0, 10, 42, 0, 41, 78, 54, 0, 0, 17, 68, 0, 36, 0, 6, 0, 72, 79, 2, 80, 0, 46, 0, 0, 0, 70, 77, 55, 0, 16, 0, 20, 0, 0, 5, 58, 0, 9, 35, 0, 73, 21, 67, 47, 32, 14, 56, 0, 63, 39, 0, 30, 45, 0, 0, 65, 0, 0, 24, 0, 75, 0, 0, 37, 60, 1, 0, 81, 57, 0, 0, 0, 38, 0, 0, 40
|0, 0, 16, 0, 5, 0, 38, 0, 33, 0, 0, 14, 76, 65, 0, 29, 0, 0, 0, 0, 0, 11, 0, 0, 28, 57, 62, 0, 0, 60, 0, 0, 74, 0, 0, 0, 42, 0, 6, 0, 32, 15, 77, 23, 55, 0, 0, 0, 75, 4, 25, 40, 0, 78, 66, 0, 8, 0, 0, 68, 0, 0, 0, 0, 22, 0, 70, 0, 0, 0, 73, 0, 0, 72, 58, 0, 59, 0, 64, 48, 79
|0, 0, 18, 0, 0, 32, 0, 6, 0, 62, 0, 0, 0, 47, 61, 15, 81, 0, 21, 0, 0, 65, 33, 0, 51, 64, 24, 58, 23, 72, 1, 0, 0, 44, 0, 52, 29, 0, 76, 43, 0, 3, 0, 0, 69, 0, 26, 7, 49, 37, 0, 0, 74, 59, 0, 0, 0, 0, 0, 31, 13, 0, 60, 0, 56, 0, 0, 5, 45, 19, 0, 0, 35, 34, 73, 2, 55, 22, 0, 0, 36
|43, 0, 0, 50, 0, 58, 4, 54, 0, 42, 48, 0, 7, 60, 0, 6, 8, 0, 36, 3, 67, 0, 0, 0, 66, 0, 0, 0, 57, 56, 46, 14, 0, 0, 0, 40, 25, 0, 49, 0, 0, 0, 16, 70, 0, 81, 0, 0, 0, 68, 61, 24, 0, 0, 28, 0, 0, 5, 0, 0, 22, 0, 17, 0, 13, 0, 0, 77, 51, 79, 0, 0, 0, 23, 32, 0, 27, 0, 75, 31, 0
|81, 3, 21, 0, 74, 60, 22, 27, 0, 0, 24, 40, 0, 80, 33, 13, 0, 70, 0, 0, 4, 20, 0, 76, 5, 38, 7, 0, 12, 28, 0, 0, 0, 53, 0, 31, 52, 0, 73, 0, 0, 0, 71, 34, 0, 64, 0, 0, 1, 42, 77, 35, 0, 0, 0, 67, 16, 0, 37, 0, 47, 0, 23, 0, 2, 44, 0, 0, 0, 58, 57, 72, 0, 26, 0, 29, 63, 39, 0, 0, 0
|0, 0, 53, 0, 55, 56, 0, 37, 13, 64, 59, 0, 0, 4, 0, 0, 21, 69, 71, 40, 0, 54, 0, 0, 68, 0, 77, 24, 35, 0, 63, 0, 0, 18, 0, 66, 0, 12, 22, 0, 0, 38, 72, 0, 0, 48, 19, 44, 52, 46, 20, 0, 0, 0, 0, 0, 0, 0, 58, 0, 0, 70, 0, 43, 0, 78, 36, 0, 0, 32, 17, 0, 0, 60, 25, 42, 10, 47, 16, 0, 0
|0, 9, 20, 0, 8, 0, 25, 0, 24, 0, 57, 31, 26, 0, 0, 0, 0, 0, 73, 0, 0, 35, 0, 18, 0, 0, 45, 49, 0, 0, 15, 0, 4, 0, 75, 38, 56, 41, 19, 0, 47, 39, 61, 13, 66, 0, 11, 0, 71, 79, 0, 0, 76, 0, 48, 6, 36, 0, 64, 3, 63, 0, 53, 0, 28, 59, 50, 0, 0, 74, 23, 80, 0, 77, 0, 0, 0, 0, 62, 0, 1
|0, 0, 0, 0, 0, 0, 17, 65, 19, 0, 0, 0, 0, 37, 0, 0, 14, 12, 50, 28, 61, 0, 0, 52, 8, 71, 34, 57, 58, 0, 60, 0, 81, 31, 0, 13, 0, 0, 66, 0, 67, 0, 42, 0, 0, 70, 78, 0, 51, 74, 75, 0, 0, 0, 0, 68, 0, 0, 7, 0, 0, 0, 0, 0, 0, 64, 0, 0, 0, 0, 36, 0, 0, 0, 30, 0, 0, 0, 35, 0, 0
|0, 58, 0, 9, 15, 0, 0, 0, 2, 4, 0, 63, 67, 46, 0, 55, 0, 30, 0, 0, 0, 0, 12, 25, 0, 0, 0, 0, 75, 0, 0, 0, 38, 45, 0, 16, 80, 22, 17, 59, 0, 0, 18, 0, 0, 47, 0, 13, 65, 0, 41, 21, 43, 0, 53, 19, 40, 50, 0, 0, 78, 44, 8, 52, 26, 0, 51, 60, 0, 10, 69, 27, 68, 0, 33, 0, 0, 32, 77, 36, 0
|66, 21, 0, 0, 0, 0, 11, 0, 16, 0, 26, 0, 0, 44, 54, 0, 32, 22, 20, 0, 0, 1, 0, 9, 0, 68, 29, 0, 6, 43, 0, 65, 0, 0, 0, 0, 72, 0, 0, 34, 0, 57, 76, 75, 0, 80, 0, 50, 23, 0, 0, 0, 0, 0, 12, 18, 0, 2, 0, 0, 70, 0, 0, 0, 17, 0, 0, 15, 67, 39, 13, 0, 58, 7, 0, 28, 4, 63, 0, 0, 0
|0, 60, 45, 69, 57, 35, 0, 12, 48, 10, 0, 47, 68, 0, 49, 80, 75, 71, 0, 0, 0, 6, 0, 0, 0, 76, 15, 36, 0, 55, 0, 22, 0, 0, 61, 0, 33, 1, 54, 63, 64, 50, 7, 20, 0, 0, 0, 0, 8, 31, 3, 0, 9, 4, 58, 0, 42, 38, 0, 0, 66, 39, 0, 0, 24, 16, 0, 74, 23, 25, 0, 70, 0, 0, 0, 43, 0, 11, 73, 0, 81
|25, 13, 33, 0, 67, 6, 0, 46, 44, 38, 52, 0, 17, 58, 0, 0, 0, 50, 0, 51, 0, 0, 0, 21, 43, 47, 0, 77, 69, 4, 41, 48, 28, 0, 0, 32, 0, 0, 29, 0, 0, 23, 10, 2, 0, 0, 0, 0, 42, 0, 0, 0, 22, 0, 0, 56, 0, 0, 0, 0, 0, 0, 31, 66, 61, 79, 68, 12, 11, 18, 0, 5, 0, 14, 0, 0, 70, 0, 71, 60, 74
|0, 0, 78, 18, 43, 79, 70, 0, 0, 0, 25, 0, 74, 35, 0, 0, 0, 0, 27, 54, 0, 0, 30, 0, 0, 0, 0, 56, 0, 0, 44, 66, 68, 1, 0, 0, 0, 0, 58, 13, 0, 0, 48, 0, 26, 0, 81, 0, 55, 0, 0, 0, 0, 0, 49, 45, 0, 0, 61, 22, 0, 52, 0, 33, 53, 0, 75, 0, 46, 0, 8, 0, 51, 5, 67, 12, 0, 0, 0, 69, 0
|0, 0, 0, 4, 7, 0, 0, 36, 0, 0, 0, 0, 18, 0, 8, 0, 29, 0, 77, 0, 0, 60, 0, 75, 0, 3, 0, 0, 0, 0, 64, 71, 0, 0, 0, 0, 32, 9, 61, 27, 68, 31, 51, 0, 35, 58, 0, 1, 38, 0, 28, 11, 0, 17, 30, 57, 62, 0, 0, 0, 0, 0, 10, 14, 59, 48, 78, 0, 0, 45, 54, 0, 0, 6, 0, 0, 46, 13, 0, 15, 0
|0, 29, 54, 22, 75, 31, 0, 34, 73, 0, 0, 0, 0, 0, 28, 78, 0, 53, 0, 4, 0, 10, 0, 0, 0, 39, 0, 0, 51, 12, 20, 0, 26, 0, 59, 0, 0, 0, 56, 0, 81, 0, 0, 0, 0, 0, 0, 0, 0, 77, 64, 0, 0, 0, 33, 63, 13, 72, 17, 5, 23, 76, 35, 0, 21, 0, 0, 0, 2, 40, 0, 1, 25, 41, 50, 0, 0, 19, 0, 0, 0
|0, 72, 32, 0, 23, 0, 0, 0, 0, 5, 0, 1, 0, 61, 20, 0, 0, 7, 18, 74, 0, 0, 64, 0, 0, 58, 0, 0, 0, 67, 42, 2, 47, 14, 0, 0, 60, 0, 65, 0, 0, 0, 0, 0, 4, 10, 0, 0, 34, 0, 39, 0, 69, 66, 0, 0, 0, 0, 0, 81, 0, 6, 43, 19, 0, 57, 0, 0, 0, 0, 31, 0, 0, 0, 38, 0, 0, 0, 0, 40, 29
|56, 0, 81, 1, 0, 73, 0, 49, 80, 37, 0, 8, 3, 22, 0, 0, 0, 47, 64, 0, 58, 51, 28, 34, 36, 21, 30, 7, 72, 35, 39, 16, 0, 57, 0, 0, 0, 50, 0, 0, 6, 0, 0, 0, 46, 60, 42, 32, 31, 0, 0, 0, 0, 41, 0, 75, 23, 0, 0, 52, 0, 0, 66, 0, 38, 0, 0, 0, 9, 0, 76, 44, 10, 13, 0, 0, 29, 0, 0, 0, 48
|0, 30, 0, 0, 0, 0, 0, 25, 0, 26, 17, 0, 29, 0, 0, 0, 63, 0, 0, 15, 0, 0, 0, 0, 70, 24, 0, 23, 0, 0, 12, 0, 0, 27, 50, 42, 5, 3, 0, 9, 34, 51, 0, 0, 0, 0, 0, 0, 59, 11, 0, 46, 67, 0, 0, 0, 0, 0, 0, 0, 36, 0, 44, 39, 7, 73, 41, 0, 0, 53, 10, 0, 69, 33, 45, 0, 0, 0, 0, 0, 0
|0, 43, 29, 10, 0, 0, 2, 0, 18, 0, 0, 27, 0, 0, 0, 60, 9, 0, 0, 46, 49, 74, 38, 0, 0, 79, 44, 51, 0, 32, 0, 47, 75, 0, 0, 0, 12, 0, 42, 23, 70, 1, 0, 37, 0, 0, 34, 0, 0, 54, 0, 36, 64, 76, 0, 0, 45, 0, 0, 4, 0, 0, 24, 0, 11, 0, 0, 0, 35, 0, 78, 31, 0, 15, 0, 0, 3, 0, 17, 26, 0
|39, 14, 0, 21, 0, 0, 54, 0, 53, 0, 0, 0, 0, 0, 77, 25, 74, 0, 0, 61, 0, 37, 0, 7, 0, 32, 11, 29, 20, 0, 76, 34, 0, 0, 0, 0, 0, 17, 0, 0, 0, 58, 0, 43, 0, 78, 0, 0, 0, 47, 0, 69, 38, 79, 0, 0, 0, 35, 51, 0, 0, 0, 56, 27, 0, 0, 13, 71, 0, 0, 18, 24, 0, 0, 46, 19, 0, 0, 0, 52, 0
|0, 0, 74, 0, 0, 0, 0, 72, 0, 54, 0, 0, 0, 10, 18, 0, 80, 0, 0, 0, 76, 0, 57, 16, 48, 73, 0, 6, 55, 25, 0, 0, 0, 0, 0, 1, 26, 52, 0, 0, 0, 0, 35, 0, 63, 0, 9, 77, 28, 0, 0, 0, 0, 0, 14, 0, 17, 58, 0, 79, 40, 0, 0, 29, 64, 0, 8, 0, 0, 34, 0, 81, 0, 0, 0, 0, 0, 5, 0, 43, 0
|0, 34, 52, 68, 0, 23, 75, 0, 17, 58, 0, 0, 50, 0, 0, 0, 0, 0, 33, 80, 6, 0, 0, 0, 0, 0, 14, 18, 0, 64, 5, 13, 0, 0, 24, 10, 0, 76, 0, 0, 0, 27, 66, 0, 0, 0, 74, 0, 0, 0, 0, 0, 4, 0, 47, 0, 48, 0, 77, 0, 9, 37, 0, 0, 0, 0, 0, 22, 32, 0, 0, 0, 0, 0, 0, 0, 0, 36, 39, 21, 0
|0, 0, 71, 0, 3, 0, 0, 0, 0, 0, 0, 46, 78, 19, 0, 70, 23, 51, 0, 0, 0, 0, 41, 0, 27, 0, 56, 80, 60, 68, 66, 81, 67, 77, 0, 73, 0, 29, 16, 0, 39, 0, 0, 0, 30, 33, 0, 17, 0, 24, 0, 14, 52, 53, 0, 10, 0, 0, 76, 32, 0, 72, 69, 28, 15, 0, 49, 59, 75, 48, 0, 36, 34, 0, 0, 18, 54, 0, 0, 8, 65
|79, 77, 9, 48, 44, 76, 32, 0, 0, 14, 0, 0, 61, 34, 0, 0, 0, 0, 19, 0, 0, 50, 40, 55, 17, 10, 0, 0, 0, 41, 0, 0, 0, 0, 65, 74, 0, 0, 0, 56, 0, 53, 0, 67, 0, 0, 72, 62, 0, 66, 18, 57, 29, 26, 0, 0, 0, 21, 43, 39, 73, 0, 15, 0, 1, 51, 0, 33, 5, 0, 80, 23, 0, 0, 0, 0, 0, 60, 0, 0, 64
|0, 69, 0, 5, 0, 0, 0, 0, 0, 0, 0, 0, 0, 67, 0, 0, 0, 62, 0, 0, 29, 0, 0, 1, 0, 52, 0, 0, 70, 61, 0, 56, 58, 4, 78, 71, 22, 0, 0, 57, 0, 48, 0, 0, 0, 0, 23, 0, 0, 39, 16, 44, 0, 0, 3, 12, 34, 0, 26, 18, 81, 0, 20, 0, 6, 43, 0, 37, 0, 50, 0, 17, 0, 68, 0, 49, 0, 0, 0, 0, 41|];