order = 9;
grid = [|0, 0, 16, 0, 0, 56, 30, 0, 0, 72, 0, 0, 38, 3, 0, 21, 51, 0, 0, 53, 0, 0, 0, 2, 0, 15, 1, 0, 26, 0, 67, 0, 59, 0, 63, 81, 0, 57, 0, 68, 11, 77, 0, 52, 36, 75, 0, 61, 0, 13, 0, 0, 79, 64, 0, 0, 0, 0, 74, 0, 73, 0, 0, 0, 65, 39, 0, 23, 48, 78, 0, 14, 22, 60, 0, 71, 9, 0, 0, 31, 0
|7, 0, 52, 0, 6, 0, 81, 23, 67, 0, 0, 0, 0, 53, 5, 0, 0, 0, 0, 0, 50, 8, 28, 3, 38, 4, 0, 0, 43, 0, 0, 0, 0, 0, 39, 79, 10, 0, 25, 21, 24, 0, 0, 0, 0, 58, 9, 66, 49, 62, 65, 34, 0, 59, 36, 0, 0, 30, 57, 0, 2, 31, 0, 0, 0, 0, 0, 56, 45, 0, 29, 76, 72, 78, 0, 44, 70, 11, 0, 54, 0
|0, 0, 72, 0, 0, 0, 29, 19, 1, 9, 14, 44, 0, 0, 35, 10, 41, 13, 32, 0, 0, 0, 48, 0, 77, 80, 46, 0, 0, 0, 78, 7, 28, 21, 64, 61, 12, 0, 51, 63, 0, 67, 0, 33, 0, 0, 31, 0, 25, 0, 60, 0, 30, 20, 0, 0, 0, 0, 0, 47, 27, 0, 0, 54, 0, 0, 57, 52, 53, 26, 71, 18, 0, 66, 0, 0, 43, 81, 0, 49, 0
|0, 0, 35, 63, 64, 0, 18, 0, 21, 0, 0, 0, 79, 47, 0, 19, 73, 0, 43, 0, 0, 12, 69, 34, 60, 74, 0, 0, 0, 0, 31, 0, 0, 36, 13, 57, 0, 49, 80, 0, 45, 0, 75, 0, 44, 0, 0, 3, 0, 50, 22, 77, 78, 28, 70, 0, 0, 56, 0, 20, 0, 48, 0, 66, 38, 0, 0, 37, 0, 0, 0, 58, 0, 76, 0, 7, 29, 0, 0, 0, 0
|0, 69, 47, 17, 43, 0, 0, 0, 0, 0, 0, 0, 0, 0, 30, 0, 0, 45, 41, 31, 0, 0, 0, 14, 26, 0, 58, 33, 0, 62, 0, 51, 38, 24, 0, 0, 0, 16, 53, 50, 0, 0, 48, 0, 29, 32, 8, 0, 80, 67, 0, 68, 0, 35, 63, 0, 13, 0, 0, 0, 0, 0, 0, 0, 0, 20, 34, 7, 60, 12, 0, 21, 74, 0, 0, 57, 0, 0, 0, 59, 0
|0, 31, 0, 0, 44, 58, 0, 0, 66, 23, 52, 0, 6, 69, 32, 0, 0, 81, 0, 0, 30, 45, 0, 0, 0, 0, 0, 0, 0, 0, 0, 48, 0, 46, 0, 68, 0, 0, 0, 0, 0, 40, 3, 65, 0, 0, 0, 72, 0, 73, 18, 0, 0, 0, 0, 0, 0, 78, 59, 54, 0, 0, 77, 0, 49, 74, 0, 0, 0, 0, 4, 0, 0, 0, 0, 55, 41, 0, 38, 19, 27
|2, 22, 57, 0, 0, 0, 53, 0, 75, 60, 0, 0, 0, 0, 0, 0, 0, 40, 24, 51, 78, 0, 0, 0, 0, 0, 0, 0, 0, 12, 0, 0, 50, 0, 0, 0, 59, 0, 38, 54, 13, 0, 56, 0, 0, 0, 36, 23, 11, 0, 4, 0, 10, 0, 45, 0, 5, 52, 0, 72, 44, 35, 29, 73, 0, 0, 0, 70, 0, 0, 0, 0, 0, 0, 0, 47, 0, 28, 0, 0, 0
|0, 8, 0, 74, 60, 0, 40, 0, 37, 0, 0, 0, 31, 54, 0, 61, 0, 0, 0, 0, 62, 0, 36, 0, 25, 13, 11, 0, 0, 0, 9, 44, 0, 2, 0, 35, 0, 17, 47, 0, 6, 0, 0, 0, 0, 52, 26, 12, 0, 0, 0, 43, 16, 0, 32, 0, 79, 0, 28, 53, 19, 0, 0, 77, 0, 59, 0, 63, 42, 0, 3, 64, 45, 0, 34, 20, 0, 51, 48, 0, 0
|42, 0, 71, 20, 0, 0, 0, 45, 0, 0, 0, 77, 36, 0, 0, 0, 46, 0, 64, 0, 0, 0, 54, 21, 57, 35, 0, 73, 0, 22, 58, 0, 0, 18, 30, 0, 0, 0, 0, 0, 0, 74, 0, 37, 0, 70, 0, 47, 2, 0, 0, 0, 0, 0, 0, 0, 0, 0, 0, 50, 0, 10, 80, 11, 16, 44, 41, 0, 61, 5, 24, 0, 65, 62, 6, 25, 13, 75, 0, 0, 68
|10, 1, 77, 41, 12, 0, 0, 0, 0, 52, 51, 0, 72, 0, 0, 0, 0, 8, 0, 0, 0, 0, 49, 0, 0, 66, 3, 64, 0, 0, 0, 4, 0, 0, 60, 0, 56, 62, 21, 36, 74, 2, 0, 27, 13, 9, 0, 0, 0, 0, 0, 11, 29, 0, 30, 0, 0, 57, 0, 0, 0, 73, 0, 0, 0, 0, 37, 0, 0, 7, 0, 0, 0, 81, 0, 0, 39, 0, 5, 25, 71
|0, 68, 39, 69, 18, 0, 0, 75, 62, 0, 56, 0, 24, 2, 0, 0, 30, 0, 25, 0, 0, 29, 64, 67, 35, 0, 28, 0, 0, 15, 0, 65, 0, 5, 0, 0, 0, 0, 32, 37, 0, 0, 78, 0, 80, 47, 0, 0, 6, 46, 59, 0, 13, 27, 0, 61, 0, 79, 22, 0, 0, 0, 0, 48, 0, 0, 0, 17, 0, 0, 20, 0, 0, 0, 0, 0, 11, 76, 73, 4, 52
|0, 64, 0, 0, 30, 0, 74, 38, 0, 0, 23, 0, 0, 33, 57, 71, 81, 0, 21, 0, 9, 0, 0, 0, 51, 0, 36, 8, 0, 0, 56, 29, 0, 0, 67, 37, 0, 18, 0, 44, 40, 0, 0, 0, 0, 28, 0, 0, 0, 61, 0, 0, 0, 53, 0, 0, 0, 0, 3, 25, 55, 7, 0, 46, 60, 0, 54, 0, 0, 0, 0, 0, 19, 75, 0, 0, 72, 0, 0, 0, 0
|23, 0, 67, 11, 0, 0, 0, 28, 0, 38, 0, 0, 0, 0, 0, 27, 40, 49, 6, 8, 34, 37, 63, 75, 0, 76, 0, 79, 0, 0, 0, 0, 19, 0, 0, 0, 42, 50, 58, 0, 0, 0, 0, 59, 0, 0, 51, 0, 0, 0, 0, 25, 54, 55, 12, 0, 0, 0, 0, 0, 56, 0, 53, 0, 44, 0, 0, 0, 52, 0, 0, 0, 17, 70, 22, 0, 0, 21, 0, 0, 0
|55, 0, 40, 52, 0, 0, 63, 0, 0, 0, 0, 46, 0, 61, 0, 0, 0, 64, 0, 7, 0, 0, 14, 0, 0, 23, 0, 0, 0, 27, 0, 49, 0, 0, 25, 0, 0, 0, 67, 0, 1, 28, 65, 8, 0, 0, 0, 0, 0, 0, 0, 0, 18, 19, 0, 0, 54, 21, 0, 74, 0, 5, 47, 0, 29, 0, 24, 0, 41, 0, 32, 0, 0, 57, 0, 34, 0, 60, 0, 0, 0
|0, 0, 0, 0, 0, 0, 59, 31, 27, 50, 0, 25, 0, 34, 62, 47, 5, 0, 2, 0, 24, 0, 13, 70, 68, 0, 0, 0, 30, 0, 71, 0, 51, 0, 0, 23, 81, 0, 55, 75, 0, 0, 0, 35, 0, 41, 21, 77, 43, 0, 64, 12, 0, 73, 52, 0, 36, 72, 32, 66, 20, 0, 67, 4, 56, 0, 0, 0, 9, 11, 0, 79, 0, 0, 48, 0, 0, 0, 65, 0, 49
|0, 0, 0, 5, 2, 0, 44, 57, 0, 0, 29, 65, 0, 21, 0, 0, 11, 28, 0, 22, 19, 30, 73, 0, 40, 61, 27, 45, 54, 0, 17, 63, 0, 0, 55, 0, 0, 0, 6, 79, 49, 52, 0, 70, 0, 74, 0, 0, 35, 3, 37, 72, 4, 76, 38, 0, 0, 18, 0, 0, 33, 0, 0, 0, 0, 78, 10, 71, 0, 36, 0, 0, 31, 53, 0, 0, 69, 41, 0, 0, 50
|0, 32, 0, 48, 50, 29, 3, 0, 43, 0, 0, 80, 0, 0, 60, 70, 0, 36, 17, 62, 20, 0, 0, 53, 74, 52, 0, 57, 0, 0, 1, 66, 0, 0, 11, 13, 76, 72, 0, 4, 63, 0, 0, 0, 9, 0, 49, 16, 5, 0, 71, 23, 0, 0, 81, 0, 37, 45, 0, 0, 0, 0, 28, 30, 0, 58, 12, 55, 0, 0, 0, 0, 77, 67, 64, 35, 0, 0, 2, 61, 0
|0, 81, 0, 0, 0, 0, 0, 0, 72, 0, 48, 26, 0, 16, 0, 0, 45, 0, 0, 39, 43, 5, 55, 54, 0, 78, 0, 75, 0, 9, 0, 0, 0, 0, 0, 74, 57, 0, 0, 22, 0, 0, 10, 0, 34, 60, 52, 0, 7, 0, 0, 66, 0, 0, 0, 0, 76, 4, 1, 0, 0, 0, 35, 0, 0, 77, 0, 0, 18, 0, 47, 31, 12, 23, 0, 13, 30, 0, 0, 36, 0
|77, 36, 0, 2, 0, 60, 58, 68, 64, 0, 0, 61, 70, 0, 56, 51, 0, 0, 0, 46, 21, 0, 1, 49, 63, 0, 0, 25, 0, 0, 0, 0, 29, 67, 0, 16, 0, 0, 66, 0, 0, 50, 0, 0, 0, 22, 0, 42, 31, 37, 34, 0, 0, 0, 20, 38, 0, 62, 0, 6, 69, 47, 59, 0, 0, 0, 15, 0, 57, 32, 40, 71, 44, 45, 0, 41, 26, 55, 8, 0, 72
|0, 0, 0, 32, 0, 72, 0, 33, 0, 26, 0, 0, 0, 0, 0, 0, 0, 79, 0, 0, 0, 0, 0, 0, 0, 0, 0, 0, 8, 51, 0, 0, 9, 0, 0, 0, 0, 0, 0, 17, 0, 0, 7, 0, 78, 35, 0, 0, 76, 0, 66, 0, 36, 80, 0, 31, 3, 74, 0, 10, 0, 77, 0, 0, 39, 27, 60, 0, 59, 70, 64, 0, 0, 29, 24, 0, 81, 0, 0, 2, 0
|0, 75, 0, 46, 0, 66, 0, 61, 8, 0, 0, 0, 33, 27, 0, 0, 0, 0, 0, 0, 0, 0, 40, 0, 0, 44, 18, 68, 0, 50, 0, 0, 0, 0, 0, 0, 0, 5, 0, 53, 0, 70, 71, 0, 20, 39, 55, 0, 0, 0, 0, 54, 19, 0, 67, 0, 0, 37, 0, 34, 80, 0, 30, 17, 3, 0, 0, 69, 63, 2, 10, 77, 51, 28, 59, 0, 0, 35, 76, 0, 0
|0, 0, 74, 0, 0, 0, 0, 0, 53, 0, 18, 58, 0, 78, 0, 62, 20, 0, 81, 47, 0, 0, 0, 0, 0, 48, 0, 36, 0, 45, 0, 0, 17, 0, 66, 0, 52, 0, 0, 0, 72, 37, 8, 26, 63, 0, 0, 75, 29, 0, 0, 61, 0, 38, 0, 7, 32, 0, 35, 0, 0, 71, 60, 0, 4, 42, 0, 0, 0, 0, 0, 50, 0, 0, 80, 0, 0, 0, 68, 0, 25
|0, 0, 79, 0, 0, 22, 0, 15, 0, 37, 76, 64, 0, 0, 16, 0, 0, 34, 0, 17, 0, 0, 0, 0, 0, 0, 0, 77, 0, 63, 0, 19, 58, 0, 0, 0, 6, 0, 9, 0, 38, 46, 0, 0, 0, 14, 74, 43, 62, 0, 0, 53, 0, 3, 68, 28, 0, 55, 51, 40, 0, 36, 27, 0, 0, 41, 0, 0, 5, 0, 0, 44, 0, 0, 0, 18, 0, 57, 0, 75, 0
|16, 9, 19, 0, 0, 63, 71, 0, 0, 0, 35, 23, 0, 0, 0, 0, 42, 0, 59, 74, 37, 68, 0, 0, 33, 0, 0, 80, 0, 65, 24, 0, 79, 31, 34, 0, 0, 0, 75, 28, 10, 18, 47, 0, 40, 0, 0, 0, 0, 0, 0, 0, 0, 25, 0, 76, 53, 0, 5, 0, 0, 0, 0, 0, 66, 6, 0, 0, 0, 43, 52, 0, 1, 36, 0, 0, 12, 67, 32, 0, 0
|0, 0, 31, 0, 57, 1, 0, 37, 44, 66, 0, 39, 47, 0, 0, 0, 3, 80, 0, 77, 14, 34, 0, 5, 0, 2, 0, 0, 38, 53, 0, 52, 0, 78, 40, 0, 61, 0, 0, 0, 32, 59, 0, 0, 35, 68, 0, 79, 0, 60, 49, 0, 0, 0, 25, 42, 33, 0, 15, 4, 0, 0, 73, 29, 0, 62, 26, 58, 0, 0, 0, 0, 70, 0, 0, 11, 0, 69, 23, 0, 0
|0, 43, 18, 0, 0, 0, 0, 7, 0, 40, 32, 0, 8, 74, 0, 0, 1, 0, 62, 79, 52, 78, 53, 0, 0, 42, 0, 20, 0, 33, 37, 54, 0, 76, 0, 59, 0, 0, 0, 0, 36, 0, 0, 0, 16, 10, 27, 0, 0, 0, 0, 69, 47, 67, 0, 2, 70, 0, 39, 0, 0, 72, 57, 68, 12, 0, 0, 51, 46, 0, 19, 0, 66, 4, 63, 14, 0, 0, 31, 22, 5
|0, 13, 76, 0, 20, 70, 42, 0, 0, 68, 0, 0, 46, 10, 0, 0, 0, 5, 0, 12, 55, 61, 60, 0, 0, 0, 75, 18, 0, 69, 0, 0, 0, 0, 4, 15, 0, 0, 0, 43, 0, 25, 57, 2, 0, 0, 50, 45, 21, 0, 26, 0, 64, 0, 0, 0, 0, 0, 0, 0, 0, 24, 66, 0, 54, 11, 0, 80, 0, 33, 0, 0, 0, 0, 0, 52, 78, 0, 58, 34, 0
|0, 16, 0, 0, 0, 0, 46, 55, 0, 0, 0, 43, 0, 76, 9, 77, 0, 0, 37, 58, 10, 0, 0, 0, 0, 0, 23, 27, 0, 0, 22, 0, 0, 81, 19, 64, 0, 36, 17, 40, 18, 69, 20, 50, 0, 0, 72, 0, 13, 0, 0, 8, 49, 44, 6, 0, 65, 0, 54, 0, 0, 78, 33, 0, 0, 31, 61, 25, 0, 0, 38, 0, 0, 0, 0, 53, 0, 0, 7, 15, 39
|0, 0, 15, 0, 0, 0, 0, 20, 63, 71, 31, 5, 0, 0, 0, 0, 0, 0, 0, 0, 0, 59, 41, 30, 0, 0, 42, 0, 0, 24, 0, 72, 0, 66, 0, 0, 0, 73, 0, 0, 55, 0, 0, 0, 0, 2, 0, 0, 78, 54, 53, 0, 0, 68, 23, 19, 69, 40, 0, 0, 0, 52, 36, 0, 79, 1, 0, 50, 80, 58, 0, 0, 62, 0, 13, 29, 4, 10, 0, 21, 77
|72, 0, 0, 0, 51, 67, 49, 25, 0, 64, 79, 10, 0, 6, 0, 28, 0, 0, 0, 0, 71, 0, 77, 33, 9, 40, 31, 62, 15, 46, 0, 0, 61, 0, 7, 0, 0, 0, 48, 0, 0, 23, 0, 47, 76, 18, 81, 0, 0, 19, 52, 60, 24, 11, 16, 22, 17, 14, 0, 0, 30, 80, 21, 3, 0, 32, 0, 0, 4, 0, 54, 0, 0, 0, 0, 2, 0, 27, 56, 55, 43
|0, 27, 34, 0, 13, 69, 79, 0, 0, 46, 0, 53, 0, 51, 0, 39, 0, 58, 48, 0, 36, 65, 0, 17, 61, 0, 0, 50, 18, 0, 0, 0, 0, 54, 9, 5, 29, 0, 0, 81, 0, 0, 26, 0, 0, 0, 0, 0, 67, 0, 47, 0, 0, 0, 2, 70, 0, 35, 76, 0, 0, 64, 1, 0, 77, 0, 0, 74, 24, 0, 42, 0, 78, 3, 0, 59, 25, 19, 28, 12, 38
|0, 0, 0, 0, 11, 0, 66, 17, 28, 0, 0, 45, 0, 0, 23, 18, 0, 61, 80, 6, 0, 49, 0, 0, 0, 0, 0, 0, 77, 0, 0, 0, 0, 0, 35, 0, 0, 59, 0, 0, 0, 0, 0, 0, 10, 0, 0, 0, 0, 79, 29, 57, 62, 0, 53, 0, 0, 0, 0, 0, 0, 0, 0, 70, 78, 0, 0, 0, 76, 64, 39, 0, 81, 0, 0, 67, 52, 0, 44, 51, 31
|18, 0, 0, 0, 0, 0, 0, 6, 0, 0, 69, 0, 0, 24, 72, 74, 0, 3, 70, 0, 0, 75, 0, 66, 0, 38, 0, 11, 0, 0, 8, 0, 31, 44, 0, 0, 0, 64, 52, 7, 43, 1, 79, 0, 67, 77, 0, 0, 0, 0, 0, 42, 0, 0, 55, 63, 0, 0, 46, 5, 57, 0, 25, 9, 0, 0, 47, 0, 13, 0, 12, 2, 68, 73, 0, 30, 48, 37, 60, 0, 76
|32, 0, 0, 0, 0, 0, 19, 64, 10, 67, 63, 0, 40, 0, 11, 13, 17, 27, 5, 0, 69, 0, 0, 78, 12, 73, 55, 0, 57, 0, 59, 53, 23, 39, 0, 4, 30, 0, 61, 25, 51, 0, 0, 68, 0, 7, 0, 0, 3, 66, 35, 70, 15, 16, 0, 0, 29, 44, 41, 0, 0, 0, 0, 0, 0, 18, 0, 0, 21, 45, 0, 8, 0, 0, 1, 72, 0, 0, 0, 0, 0
|3, 0, 23, 0, 70, 78, 0, 0, 29, 12, 36, 0, 30, 73, 0, 50, 0, 48, 26, 0, 0, 20, 21, 43, 54, 47, 0, 55, 67, 76, 25, 79, 0, 0, 0, 58, 74, 0, 0, 0, 0, 0, 0, 0, 56, 0, 33, 51, 0, 63, 0, 0, 5, 39, 0, 0, 0, 59, 66, 0, 10, 61, 49, 53, 0, 0, 69, 11, 40, 0, 0, 52, 57, 0, 45, 0, 71, 65, 0, 16, 41
|0, 0, 0, 0, 74, 0, 41, 0, 0, 2, 0, 59, 15, 68, 0, 7, 54, 65, 76, 0, 45, 0, 25, 0, 0, 0, 0, 0, 0, 0, 0, 28, 3, 0, 52, 47, 32, 0, 78, 62, 0, 0, 58, 0, 0, 27, 0, 0, 50, 12, 0, 64, 0, 0, 0, 77, 0, 43, 0, 79, 0, 0, 0, 60, 37, 0, 0, 30, 19, 0, 0, 72, 69, 0, 18, 0, 0, 0, 0, 46, 0
|13, 35, 0, 43, 77, 0, 0, 60, 17, 0, 10, 0, 5, 44, 0, 31, 19, 52, 34, 0, 0, 57, 0, 0, 79, 0, 0, 24, 69, 0, 62, 0, 0, 0, 0, 29, 47, 0, 8, 0, 48, 0, 72, 16, 32, 33, 6, 7, 0, 0, 0, 81, 51, 0, 0, 45, 18, 58, 0, 0, 0, 50, 42, 0, 0, 0, 0, 38, 55, 21, 0, 0, 0, 49, 0, 0, 37, 73, 25, 0, 0
|0, 72, 0, 75, 0, 25, 0, 18, 47, 24, 73, 50, 77, 48, 0, 4, 0, 51, 0, 49, 0, 32, 0, 0, 0, 81, 0, 65, 0, 17, 0, 38, 27, 0, 0, 21, 0, 67, 41, 0, 0, 0, 0, 28, 0, 0, 60, 0, 0, 0, 0, 2, 0, 45, 76, 56, 0, 0, 44, 36, 35, 0, 0, 1, 6, 79, 29, 53, 0, 0, 13, 54, 55, 0, 0, 61, 8, 0, 0, 78, 70
|45, 79, 0, 0, 81, 0, 57, 0, 2, 0, 0, 0, 39, 0, 7, 0, 61, 72, 0, 56, 40, 64, 46, 0, 13, 0, 51, 0, 5, 67, 53, 0, 0, 0, 0, 0, 0, 0, 73, 0, 0, 15, 0, 0, 25, 0, 59, 0, 0, 78, 0, 27, 0, 0, 22, 6, 0, 31, 47, 0, 0, 41, 0, 32, 43, 17, 0, 0, 0, 80, 66, 20, 0, 0, 0, 0, 18, 29, 16, 28, 34
|0, 3, 62, 0, 22, 7, 80, 4, 34, 15, 0, 0, 0, 41, 0, 0, 0, 0, 0, 71, 6, 0, 0, 28, 0, 17, 20, 0, 19, 0, 12, 8, 0, 0, 0, 0, 65, 75, 0, 0, 46, 0, 61, 36, 0, 13, 0, 0, 0, 72, 0, 0, 52, 43, 0, 0, 66, 11, 0, 0, 0, 0, 0, 26, 0, 0, 0, 0, 67, 0, 81, 0, 76, 38, 0, 48, 0, 58, 0, 40, 44
|15, 42, 10, 68, 0, 23, 0, 0, 6, 53, 25, 54, 0, 62, 64, 9, 8, 0, 0, 0, 0, 3, 30, 55, 0, 33, 0, 0, 0, 0, 0, 0, 0, 51, 79, 0, 2, 0, 76, 0, 0, 81, 0, 0, 0, 29, 0, 0, 0, 26, 38, 0, 40, 0, 0, 0, 74, 0, 27, 43, 17, 37, 0, 31, 0, 49, 0, 0, 0, 0, 0, 69, 63, 41, 0, 56, 0, 0, 24, 13, 0
|0, 0, 0, 0, 0, 0, 67, 29, 0, 47, 0, 1, 43, 0, 0, 0, 56, 55, 0, 0, 72, 0, 23, 0, 0, 27, 5, 7, 32, 42, 0, 0, 54, 0, 45, 0, 0, 0, 12, 57, 0, 0, 68, 6, 26, 0, 0, 18, 71, 77, 0, 0, 9, 31, 0, 0, 15, 61, 0, 52, 64, 0, 38, 0, 41, 40, 22, 39, 36, 3, 11, 0, 0, 0, 0, 0, 75, 0, 17, 0, 0
|58, 0, 0, 0, 0, 31, 50, 0, 46, 78, 38, 0, 74, 29, 27, 35, 0, 42, 39, 80, 0, 63, 70, 0, 0, 75, 43, 59, 0, 0, 11, 81, 0, 0, 0, 36, 69, 0, 7, 0, 0, 62, 33, 13, 0, 0, 32, 28, 0, 0, 41, 15, 0, 57, 40, 0, 55, 73, 71, 49, 0, 12, 4, 0, 19, 0, 30, 24, 0, 37, 0, 45, 6, 0, 0, 65, 47, 0, 77, 0, 0
|0, 0, 69, 0, 0, 0, 61, 0, 0, 58, 0, 0, 32, 22, 0, 34, 60, 17, 0, 1, 0, 38, 0, 25, 0, 37, 8, 0, 0, 6, 15, 20, 0, 0, 0, 0, 18, 0, 4, 71, 80, 30, 0, 0, 0, 0, 0, 0, 53, 0, 0, 10, 0, 0, 59, 0, 0, 0, 72, 77, 0, 16, 65, 0, 0, 51, 0, 57, 0, 27, 35, 28, 39, 0, 0, 0, 50, 0, 45, 0, 11
|11, 55, 32, 56, 0, 0, 70, 48, 0, 0, 0, 18, 0, 65, 13, 37, 0, 0, 0, 21, 0, 26, 50, 0, 0, 45, 41, 2, 58, 49, 61, 43, 0, 72, 0, 30, 0, 0, 0, 0, 0, 78, 0, 31, 38, 0, 64, 0, 73, 47, 46, 5, 35, 0, 0, 0, 0, 0, 33, 0, 79, 25, 68, 34, 14, 76, 0, 44, 74, 62, 0, 42, 53, 51, 0, 36, 67, 4, 12, 0, 7
|61, 0, 30, 0, 0, 26, 0, 0, 9, 0, 65, 16, 0, 80, 22, 0, 27, 46, 0, 81, 44, 54, 0, 0, 0, 0, 12, 0, 66, 0, 51, 0, 0, 63, 0, 0, 0, 47, 62, 0, 0, 48, 0, 7, 17, 55, 5, 49, 8, 0, 45, 73, 0, 0, 0, 0, 0, 33, 0, 0, 0, 70, 0, 0, 0, 67, 52, 36, 25, 50, 0, 13, 2, 21, 0, 0, 32, 0, 0, 0, 0
|4, 39, 81, 0, 0, 44, 0, 0, 0, 0, 0, 0, 51, 30, 0, 52, 62, 0, 38, 0, 25, 0, 0, 0, 73, 0, 0, 32, 55, 0, 0, 31, 0, 75, 24, 9, 28, 0, 57, 66, 56, 0, 80, 29, 70, 11, 1, 54, 0, 34, 20, 36, 42, 0, 0, 53, 71, 0, 13, 8, 23, 0, 0, 0, 0, 0, 18, 0, 0, 40, 58, 0, 61, 0, 33, 76, 16, 68, 78, 47, 0
|71, 62, 0, 0, 0, 0, 36, 79, 0, 0, 77, 0, 17, 18, 73, 0, 64, 0, 0, 0, 0, 58, 0, 27, 43, 0, 0, 44, 56, 0, 0, 34, 0, 14, 54, 22, 46, 51, 59, 0, 0, 0, 0, 0, 0, 0, 0, 0, 0, 35, 61, 40, 75, 0, 0, 74, 0, 50, 0, 0, 15, 0, 0, 0, 0, 0, 0, 76, 2, 8, 53, 0, 0, 24, 0, 45, 23, 31, 49, 0, 80
|0, 0, 51, 0, 0, 19, 17, 0, 12, 0, 0, 55, 11, 0, 8, 0, 78, 70, 0, 0, 46, 0, 16, 0, 36, 0, 0, 0, 42, 7, 0, 0, 1, 0, 53, 0, 75, 2, 37, 34, 0, 31, 0, 0, 0, 0, 63, 22, 77, 10, 13, 48, 0, 0, 0, 41, 20, 49, 0, 21, 0, 28, 0, 62, 80, 9, 0, 66, 3, 57, 0, 0, 50, 40, 0, 0, 0, 0, 0, 0, 26
|31, 0, 7, 0, 0, 18, 24, 8, 59, 0, 0, 0, 0, 0, 0, 0, 71, 26, 66, 2, 3, 0, 34, 0, 53, 22, 37, 41, 0, 78, 0, 0, 68, 0, 0, 0, 64, 69, 0, 0, 21, 0, 4, 0, 39, 0, 16, 74, 0, 76, 43, 29, 12, 81, 0, 0, 61, 36, 0, 44, 52, 0, 0, 23, 11, 0, 77, 0, 14, 0, 49, 0, 0, 46, 17, 0, 0, 0, 0, 0, 15
|0, 0, 11, 40, 46, 0, 0, 66, 0, 0, 42, 72, 29, 0, 0, 2, 0, 0, 0, 0, 0, 0, 52, 47, 75, 0, 21, 81, 33, 0, 26, 76, 45, 13, 36, 80, 49, 0, 0, 73, 0, 0, 30, 14, 43, 62, 78, 0, 0, 70, 69, 0, 0, 32, 0, 24, 0, 68, 10, 0, 0, 19, 0, 16, 0, 0, 38, 0, 56, 0, 0, 61, 48, 12, 7, 1, 77, 9, 34, 0, 57
|14, 0, 70, 29, 76, 77, 60, 10, 25, 0, 61, 0, 0, 20, 34, 24, 49, 69, 0, 30, 0, 0, 0, 0, 0, 8, 35, 67, 0, 0, 38, 23, 74, 52, 0, 0, 0, 0, 0, 41, 16, 0, 0, 0, 0, 15, 46, 0, 64, 0, 27, 26, 0, 0, 47, 81, 75, 80, 58, 73, 0, 59, 0, 42, 0, 37, 6, 48, 32, 55, 0, 0, 0, 0, 0, 51, 0, 0, 13, 39, 0
|48, 78, 55, 0, 75, 47, 0, 49, 41, 63, 60, 0, 0, 38, 39, 0, 0, 14, 7, 32, 23, 0, 10, 42, 0, 51, 68, 12, 46, 5, 29, 0, 37, 79, 61, 0, 0, 1, 24, 0, 35, 13, 50, 0, 58, 25, 0, 0, 0, 0, 0, 0, 59, 0, 0, 40, 56, 0, 0, 16, 0, 0, 0, 69, 0, 72, 0, 0, 73, 0, 43, 0, 0, 0, 0, 81, 0, 0, 71, 0, 0
|64, 73, 0, 13, 0, 0, 72, 0, 32, 33, 0, 0, 0, 0, 0, 81, 0, 74, 0, 78, 80, 9, 5, 77, 0, 20, 0, 0, 0, 21, 0, 0, 0, 0, 0, 0, 15, 0, 10, 6, 0, 26, 0, 0, 0, 71, 0, 60, 41, 52, 0, 0, 67, 0, 0, 0, 0, 48, 30, 11, 0, 62, 0, 35, 0, 0, 0, 0, 44, 24, 0, 65, 58, 25, 0, 0, 38, 66, 0, 37, 0
|8, 0, 46, 0, 24, 2, 0, 0, 52, 0, 5, 0, 7, 66, 65, 0, 75, 0, 16, 27, 31, 33, 72, 0, 0, 0, 0, 61, 0, 0, 0, 62, 0, 45, 0, 0, 0, 10, 50, 14, 22, 41, 0, 79, 0, 0, 0, 0, 0, 0, 81, 0, 0, 36, 21, 0, 80, 38, 0, 0, 0, 0, 0, 28, 42, 0, 13, 29, 47, 60, 0, 15, 0, 30, 55, 23, 0, 20, 0, 77, 18
|0, 29, 0, 0, 14, 0, 68, 50, 55, 0, 11, 0, 0, 0, 0, 16, 0, 33, 12, 4, 77, 48, 0, 0, 0, 0, 0, 0, 0, 0, 0, 5, 69, 0, 59, 76, 73, 32, 0, 23, 0, 0, 0, 43, 0, 72, 71, 80, 27, 0, 67, 0, 0, 49, 24, 57, 47, 0, 18, 0, 54, 0, 62, 0, 1, 81, 0, 2, 0, 0, 7, 26, 56, 0, 3, 39, 0, 17, 61, 79, 0
|56, 0, 0, 72, 0, 0, 12, 0, 0, 80, 24, 51, 19, 0, 0, 79, 0, 0, 54, 66, 68, 11, 0, 1, 21, 28, 81, 0, 27, 0, 0, 0, 73, 0, 38, 10, 0, 0, 0, 0, 2, 0, 0, 0, 57, 78, 23, 0, 4, 0, 0, 0, 46, 60, 50, 34, 0, 0, 20, 0, 37, 0, 52, 0, 0, 61, 0, 62, 33, 41, 0, 63, 7, 65, 0, 0, 0, 0, 35, 0, 0
|0, 28, 0, 10, 0, 4, 0, 74, 48, 35, 0, 0, 78, 71, 17, 0, 0, 0, 0, 55, 42, 80, 15, 0, 34, 0, 22, 0, 0, 0, 0, 0, 67, 30, 32, 0, 25, 0, 3, 26, 0, 0, 29, 53, 0, 19, 68, 0, 0, 0, 0, 14, 0, 0, 33, 16, 49, 0, 0, 56, 1, 27, 58, 44, 0, 50, 65, 0, 0, 0, 46, 0, 21, 72, 0, 5, 0, 0, 0, 60, 0
|67, 30, 75, 0, 0, 32, 16, 53, 36, 0, 0, 20, 0, 4, 0, 73, 39, 0, 0, 0, 0, 0, 0, 0, 3, 0, 57, 34, 0, 0, 0, 0, 0, 17, 72, 0, 37, 0, 0, 0, 31, 0, 0, 0, 0, 6, 0, 0, 0, 0, 10, 62, 1, 0, 11, 0, 0, 60, 0, 48, 0, 0, 0, 52, 0, 14, 66, 79, 0, 49, 0, 0, 0, 19, 0, 54, 0, 15, 0, 29, 28
|0, 0, 80, 0, 0, 79, 25, 0, 0, 69, 0, 0, 61, 0, 28, 30, 0, 10, 56, 0, 63, 0, 47, 64, 19, 5, 65, 0, 0, 31, 0, 74, 53, 41, 42, 0, 4, 78, 0, 52, 75, 33, 0, 72, 1, 3, 0, 0, 44, 0, 0, 39, 0, 0, 0, 73, 0, 0, 0, 0, 32, 0, 15, 21, 58, 0, 0, 67, 11, 0, 0, 68, 0, 26, 0, 50, 0, 34, 0, 0, 0
|5, 70, 0, 81, 0, 0, 0, 71, 0, 0, 64, 6, 0, 49, 52, 0, 53, 0, 0, 14, 7, 0, 0, 0, 17, 0, 30, 9, 0, 29, 3, 37, 21, 0, 8, 0, 27, 0, 0, 0, 61, 0, 51, 0, 55, 38, 12, 0, 47, 0, 0, 50, 26, 0, 74, 0, 40, 13, 0, 78, 31, 79, 22, 57, 0, 19, 0, 0, 69, 0, 59, 0, 0, 11, 10, 0, 0, 0, 42, 0, 63
|0, 57, 0, 33, 17, 54, 0, 0, 19, 0, 0, 0, 0, 14, 58, 40, 9, 68, 13, 0, 74, 79, 75, 0, 49, 0, 50, 0, 4, 2, 44, 0, 7, 0, 22, 0, 11, 56, 5, 70, 71, 35, 67, 0, 62, 16, 0, 31, 0, 59, 0, 0, 37, 0, 61, 0, 42, 53, 29, 46, 0, 0, 0, 0, 45, 0, 39, 10, 30, 77, 34, 24, 36, 32, 25, 0, 0, 0, 0, 73, 8
|34, 0, 65, 0, 38, 27, 21, 0, 11, 13, 72, 0, 45, 0, 81, 56, 63, 29, 23, 73, 0, 51, 20, 36, 78, 18, 10, 16, 0, 77, 0, 0, 15, 0, 0, 54, 0, 0, 0, 74, 12, 64, 0, 0, 0, 0, 0, 0, 61, 0, 0, 0, 43, 30, 0, 0, 28, 0, 0, 0, 39, 0, 19, 22, 40, 0, 0, 5, 0, 0, 31, 0, 14, 0, 53, 37, 0, 0, 0, 0, 0
|0, 2, 0, 0, 4, 33, 0, 0, 22, 43, 0, 0, 0, 40, 36, 0, 0, 18, 78, 24, 81, 69, 0, 63, 46, 0, 0, 0, 0, 55, 52, 0, 48, 0, 0, 28, 35, 30, 13, 0, 0, 42, 5, 25, 60, 0, 38, 0, 0, 14, 0, 0, 80, 50, 0, 59, 10, 12, 79, 31, 61, 66, 7, 0, 67, 0, 0, 75, 54, 0, 0, 0, 0, 15, 37, 0, 0, 39, 11, 76, 64
|6, 21, 61, 0, 0, 0, 0, 16, 0, 0, 2, 0, 50, 17, 0, 80, 0, 60, 18, 0, 0, 0, 59, 79, 0, 31, 0, 0, 0, 14, 81, 0, 43, 19, 0, 62, 55, 0, 69, 0, 0, 0, 34, 0, 0, 23, 0, 11, 20, 0, 63, 49, 0, 10, 37, 44, 73, 15, 36, 13, 24, 0, 0, 0, 0, 71, 0, 32, 70, 0, 0, 0, 25, 22, 0, 3, 35, 0, 0, 68, 30
|51, 15, 53, 0, 0, 35, 11, 0, 0, 56, 0, 66, 76, 0, 12, 46, 68, 1, 0, 34, 0, 0, 0, 0, 5, 0, 0, 0, 0, 39, 80, 60, 8, 16, 37, 25, 0, 28, 26, 49, 0, 29, 0, 24, 0, 0, 0, 0, 0, 42, 73, 22, 0, 0, 0, 0, 27, 0, 0, 62, 0, 0, 48, 0, 30, 36, 40, 0, 0, 81, 2, 10, 79, 0, 0, 0, 17, 71, 0, 0, 0
|47, 0, 50, 36, 0, 0, 73, 0, 0, 49, 28, 0, 63, 0, 0, 0, 0, 4, 57, 0, 48, 25, 0, 37, 0, 0, 17, 30, 23, 0, 5, 0, 0, 0, 18, 66, 0, 0, 0, 58, 27, 0, 0, 0, 0, 40, 3, 24, 0, 0, 54, 0, 0, 0, 0, 0, 60, 0, 0, 80, 77, 53, 0, 0, 0, 64, 0, 72, 62, 0, 55, 0, 0, 0, 0, 12, 0, 0, 29, 41, 51
|75, 63, 20, 0, 0, 0, 0, 77, 14, 0, 3, 13, 0, 0, 53, 0, 0, 59, 0, 43, 28, 0, 0, 44, 67, 0, 38, 0, 0, 54, 0, 0, 42, 70, 0, 45, 0, 4, 79, 51, 17, 0, 0, 0, 72, 21, 30, 0, 0, 71, 0, 0, 0, 62, 9, 55, 0, 0, 0, 35, 6, 58, 56, 0, 0, 0, 0, 15, 0, 0, 37, 39, 8, 0, 0, 78, 0, 48, 27, 0, 60
|0, 44, 49, 71, 29, 12, 48, 46, 0, 0, 6, 42, 0, 0, 0, 8, 77, 0, 60, 20, 0, 74, 9, 23, 0, 14, 66, 22, 0, 40, 7, 11, 0, 0, 0, 0, 0, 0, 0, 67, 62, 0, 0, 0, 0, 26, 2, 0, 0, 43, 1, 0, 58, 0, 0, 33, 68, 0, 21, 81, 0, 30, 0, 19, 0, 25, 0, 0, 0, 0, 0, 0, 73, 69, 0, 0, 0, 0, 52, 18, 0
|0, 0, 37, 31, 45, 43, 69, 0, 56, 0, 0, 15, 58, 72, 47, 29, 0, 0, 53, 68, 11, 0, 0, 0, 80, 30, 49, 0, 59, 36, 0, 0, 4, 0, 0, 0, 0, 0, 70, 0, 78, 61, 1, 3, 46, 12, 0, 17, 0, 0, 0, 28, 8, 0, 0, 0, 0, 0, 0, 0, 63, 42, 0, 0, 74, 7, 79, 0, 0, 0, 18, 34, 0, 0, 0, 0, 0, 16, 0, 0, 0
|30, 0, 13, 25, 0, 28, 9, 32, 79, 0, 0, 24, 81, 37, 44, 0, 0, 11, 0, 16, 64, 0, 0, 0, 62, 0, 0, 0, 76, 61, 46, 0, 72, 15, 0, 0, 0, 0, 23, 0, 0, 0, 6, 57, 48, 5, 0, 0, 60, 0, 0, 0, 0, 70, 3, 0, 0, 54, 19, 18, 22, 0, 74, 0, 0, 0, 42, 0, 0, 0, 41, 12, 40, 1, 2, 58, 0, 0, 0, 0, 0
|0, 34, 5, 0, 0, 55, 0, 0, 24, 39, 30, 0, 0, 0, 0, 0, 0, 25, 0, 54, 0, 0, 0, 0, 1, 12, 7, 51, 6, 44, 0, 0, 71, 0, 0, 41, 0, 40, 0, 0, 47, 0, 0, 0, 64, 0, 0, 0, 52, 9, 77, 0, 0, 74, 57, 11, 46, 0, 0, 28, 0, 29, 78, 0, 76, 43, 0, 0, 0, 0, 0, 80, 59, 0, 81, 0, 56, 0, 0, 62, 21
|0, 0, 0, 0, 63, 0, 75, 0, 0, 36, 81, 17, 28, 0, 0, 0, 0, 0, 31, 69, 8, 0, 0, 0, 64, 1, 0, 42, 0, 66, 0, 58, 0, 0, 68, 0, 21, 35, 72, 0, 0, 4, 0, 18, 14, 0, 0, 0, 39, 11, 0, 0, 0, 51, 19, 29, 59, 32, 60, 0, 53, 20, 70, 61, 0, 0, 44, 0, 0, 76, 0, 74, 0, 0, 78, 0, 73, 49, 6, 0, 33
|0, 17, 25, 67, 59, 53, 0, 0, 3, 14, 0, 40, 0, 0, 0, 66, 0, 71, 0, 75, 12, 0, 0, 0, 6, 7, 0, 0, 45, 23, 43, 13, 11, 69, 0, 0, 70, 26, 34, 27, 0, 68, 52, 62, 0, 0, 20, 0, 32, 0, 0, 16, 61, 9, 0, 47, 30, 0, 37, 0, 36, 39, 8, 0, 48, 0, 0, 81, 0, 0, 0, 1, 0, 0, 76, 0, 55, 0, 22, 65, 10
|0, 0, 24, 0, 0, 0, 37, 0, 0, 61, 58, 49, 26, 0, 67, 0, 0, 0, 0, 35, 39, 0, 27, 0, 32, 0, 77, 0, 0, 0, 0, 0, 76, 53, 29, 52, 0, 0, 40, 0, 0, 6, 0, 0, 0, 0, 48, 70, 23, 0, 0, 3, 72, 0, 18, 0, 50, 71, 34, 0, 0, 0, 0, 10, 0, 60, 19, 0, 0, 9, 63, 38, 30, 0, 0, 0, 0, 0, 47, 0, 14
|0, 0, 0, 55, 42, 14, 10, 72, 15, 16, 0, 0, 0, 0, 2, 0, 34, 63, 30, 3, 66, 62, 76, 24, 59, 46, 0, 0, 0, 79, 0, 35, 41, 0, 21, 0, 0, 0, 81, 0, 0, 0, 25, 0, 0, 0, 47, 29, 0, 28, 0, 0, 0, 58, 0, 0, 0, 26, 52, 7, 0, 1, 61, 0, 0, 57, 0, 68, 0, 0, 0, 53, 60, 20, 0, 0, 0, 0, 54, 8, 37
|0, 54, 58, 0, 0, 0, 13, 34, 0, 41, 74, 0, 18, 77, 0, 68, 43, 0, 0, 0, 0, 0, 11, 0, 0, 0, 4, 26, 0, 73, 0, 71, 64, 55, 20, 8, 7, 0, 0, 0, 0, 60, 32, 0, 33, 0, 62, 14, 0, 0, 40, 35, 0, 22, 0, 5, 78, 28, 17, 0, 12, 0, 75, 0, 2, 52, 46, 59, 0, 42, 0, 36, 38, 48, 51, 0, 0, 56, 53, 81, 0
|29, 0, 60, 0, 79, 0, 64, 0, 0, 75, 0, 0, 0, 12, 51, 0, 0, 56, 22, 0, 0, 0, 33, 13, 55, 36, 0, 1, 37, 72, 4, 0, 0, 6, 0, 14, 0, 61, 0, 0, 50, 8, 9, 63, 0, 44, 0, 71, 59, 27, 0, 80, 0, 0, 73, 10, 21, 3, 0, 0, 0, 0, 0, 43, 0, 0, 0, 0, 17, 34, 70, 32, 0, 7, 66, 0, 62, 25, 0, 0, 67
|0, 51, 48, 8, 0, 11, 0, 0, 0, 21, 53, 62, 0, 39, 0, 0, 6, 31, 0, 44, 54, 0, 78, 29, 58, 0, 0, 0, 61, 0, 0, 0, 0, 0, 47, 46, 0, 0, 28, 0, 0, 10, 0, 0, 0, 64, 25, 0, 0, 0, 0, 0, 0, 34, 77, 0, 0, 42, 80, 0, 0, 81, 0, 0, 0, 0, 55, 0, 0, 79, 69, 40, 3, 0, 0, 0, 0, 0, 50, 0, 36
|74, 38, 0, 0, 69, 0, 33, 65, 30, 79, 78, 37, 0, 0, 70, 23, 0, 0, 0, 0, 0, 0, 17, 71, 45, 0, 48, 0, 39, 0, 19, 9, 0, 80, 81, 51, 0, 11, 0, 24, 0, 0, 41, 77, 0, 67, 7, 53, 0, 0, 56, 1, 0, 26, 0, 0, 58, 0, 0, 57, 46, 0, 0, 72, 0, 0, 31, 0, 12, 0, 0, 0, 75, 0, 0, 0, 28, 52, 59, 0, 0
|0, 71, 27, 0, 0, 80, 32, 0, 0, 0, 0, 33, 52, 0, 0, 60, 0, 47, 20, 0, 61, 0, 0, 0, 0, 0, 0, 0, 0, 0, 0, 22, 0, 0, 78, 0, 0, 0, 29, 46, 23, 0, 0, 5, 0, 43, 19, 0, 0, 38, 15, 0, 73, 12, 0, 35, 0, 0, 0, 0, 11, 0, 76, 0, 0, 3, 8, 0, 0, 14, 0, 0, 26, 39, 77, 21, 0, 72, 0, 0, 0|];