order = 9;
grid = [|80, 0, 0, 34, 55, 0, 30, 0, 4, 72, 0, 0, 38, 0, 0, 21, 51, 50, 27, 53, 47, 76, 42, 0, 0, 15, 1, 54, 26, 19, 67, 45, 0, 0, 63, 0, 0, 0, 43, 68, 0, 0, 0, 52, 36, 75, 17, 61, 0, 13, 7, 41, 0, 0, 0, 49, 0, 0, 0, 0, 0, 0, 0, 40, 0, 39, 32, 23, 0, 78, 28, 0, 0, 60, 12, 71, 0, 0, 10, 0, 35
|0, 26, 0, 61, 0, 48, 81, 23, 0, 0, 80, 0, 0, 0, 5, 0, 0, 0, 19, 0, 0, 0, 0, 0, 38, 0, 0, 0, 0, 71, 0, 40, 77, 0, 39, 0, 0, 60, 25, 21, 0, 32, 0, 0, 0, 58, 9, 66, 0, 62, 65, 0, 0, 0, 36, 1, 22, 0, 0, 0, 2, 31, 64, 51, 33, 13, 35, 56, 45, 46, 0, 76, 0, 0, 0, 44, 0, 0, 0, 54, 73
|0, 0, 72, 65, 0, 50, 29, 0, 0, 9, 0, 44, 37, 42, 35, 10, 41, 0, 0, 40, 73, 0, 0, 0, 77, 0, 46, 69, 70, 34, 78, 0, 0, 0, 0, 0, 12, 8, 0, 63, 4, 67, 0, 33, 5, 0, 0, 15, 25, 56, 0, 0, 30, 0, 62, 75, 38, 0, 55, 47, 27, 0, 0, 54, 22, 0, 0, 0, 0, 26, 0, 18, 0, 66, 0, 0, 43, 0, 3, 49, 0
|41, 0, 0, 0, 64, 10, 0, 0, 0, 65, 68, 11, 79, 47, 71, 0, 73, 0, 0, 59, 0, 12, 69, 0, 0, 0, 0, 5, 25, 32, 0, 55, 0, 0, 0, 0, 0, 49, 0, 0, 45, 0, 0, 46, 0, 51, 42, 0, 54, 0, 22, 0, 0, 28, 0, 15, 16, 56, 0, 20, 26, 0, 40, 0, 38, 0, 0, 37, 72, 30, 0, 58, 0, 0, 39, 7, 0, 0, 33, 0, 4
|25, 69, 47, 0, 0, 0, 15, 54, 39, 18, 27, 0, 0, 0, 30, 49, 22, 45, 41, 31, 0, 0, 0, 0, 0, 70, 58, 33, 72, 0, 0, 0, 38, 0, 0, 0, 78, 0, 53, 50, 0, 79, 0, 0, 29, 0, 0, 19, 0, 67, 44, 0, 0, 35, 63, 4, 13, 65, 0, 0, 42, 9, 46, 0, 0, 20, 0, 7, 0, 0, 75, 21, 0, 0, 0, 0, 36, 0, 0, 0, 0
|0, 0, 28, 79, 0, 0, 62, 13, 66, 0, 0, 2, 6, 69, 32, 57, 0, 81, 0, 67, 30, 45, 0, 0, 0, 39, 0, 60, 0, 0, 75, 0, 56, 46, 80, 68, 26, 0, 0, 0, 76, 0, 0, 0, 0, 1, 0, 0, 63, 73, 0, 71, 14, 5, 51, 21, 34, 0, 59, 54, 0, 11, 77, 0, 49, 0, 36, 0, 15, 0, 4, 0, 64, 0, 8, 55, 41, 0, 0, 19, 0
|0, 0, 57, 0, 33, 0, 53, 3, 75, 60, 0, 63, 0, 0, 0, 26, 0, 0, 24, 51, 78, 55, 0, 0, 18, 49, 0, 0, 16, 12, 0, 0, 0, 8, 0, 42, 59, 20, 38, 54, 13, 19, 0, 0, 0, 0, 0, 0, 0, 39, 4, 0, 0, 0, 0, 58, 0, 52, 0, 0, 0, 35, 0, 73, 0, 0, 0, 0, 0, 0, 80, 0, 15, 0, 30, 0, 0, 28, 21, 17, 32
|70, 0, 68, 0, 0, 0, 0, 27, 0, 0, 0, 78, 31, 54, 0, 61, 58, 39, 75, 65, 62, 7, 36, 0, 0, 13, 11, 0, 1, 0, 0, 0, 66, 2, 0, 0, 72, 17, 0, 55, 0, 14, 0, 73, 30, 52, 0, 0, 0, 81, 0, 0, 0, 21, 0, 71, 79, 41, 0, 0, 19, 18, 23, 0, 50, 0, 0, 0, 0, 10, 0, 64, 45, 0, 34, 20, 0, 51, 48, 0, 0
|0, 49, 71, 20, 32, 0, 78, 45, 0, 8, 0, 77, 36, 28, 4, 0, 0, 7, 64, 23, 0, 0, 0, 21, 57, 35, 79, 0, 53, 22, 58, 0, 0, 0, 0, 0, 34, 66, 0, 0, 81, 74, 0, 37, 27, 70, 0, 0, 0, 55, 33, 0, 0, 0, 0, 0, 0, 0, 12, 0, 60, 10, 0, 0, 16, 0, 0, 9, 0, 0, 0, 0, 0, 0, 0, 25, 0, 75, 0, 0, 68
|0, 1, 77, 41, 0, 0, 76, 0, 54, 0, 0, 35, 72, 0, 75, 20, 0, 8, 58, 42, 32, 44, 49, 46, 65, 66, 0, 64, 14, 43, 0, 0, 78, 0, 60, 53, 0, 62, 0, 0, 0, 0, 19, 0, 13, 9, 45, 0, 0, 15, 48, 11, 29, 79, 0, 50, 0, 0, 0, 0, 0, 0, 24, 0, 69, 0, 37, 40, 0, 0, 0, 0, 18, 0, 47, 0, 0, 0, 0, 0, 71
|0, 0, 0, 0, 0, 71, 7, 0, 62, 0, 0, 0, 24, 2, 74, 58, 0, 77, 0, 33, 0, 29, 0, 67, 0, 60, 28, 21, 0, 0, 0, 65, 36, 5, 50, 0, 0, 3, 0, 0, 53, 66, 78, 23, 0, 47, 40, 57, 6, 46, 59, 31, 0, 0, 0, 61, 51, 0, 22, 0, 14, 0, 0, 0, 0, 45, 0, 17, 1, 19, 0, 43, 54, 0, 0, 8, 11, 0, 73, 4, 52
|49, 0, 66, 47, 30, 0, 0, 0, 0, 0, 23, 4, 0, 0, 57, 71, 0, 73, 0, 0, 0, 0, 12, 0, 0, 26, 0, 0, 0, 0, 56, 29, 0, 0, 67, 0, 5, 18, 31, 0, 0, 0, 43, 17, 0, 0, 0, 2, 68, 61, 0, 0, 69, 53, 39, 0, 11, 0, 0, 0, 0, 7, 34, 0, 60, 65, 54, 42, 0, 0, 50, 62, 19, 75, 0, 0, 72, 24, 15, 27, 79
|0, 0, 67, 0, 78, 0, 0, 28, 0, 0, 0, 7, 0, 9, 18, 27, 40, 0, 0, 0, 34, 0, 0, 75, 41, 0, 69, 79, 68, 0, 0, 16, 0, 0, 0, 0, 0, 50, 0, 30, 0, 0, 73, 0, 0, 0, 0, 0, 1, 80, 0, 25, 0, 0, 12, 0, 0, 0, 62, 71, 56, 0, 53, 0, 0, 5, 81, 13, 52, 15, 57, 3, 0, 0, 22, 74, 33, 0, 46, 0, 0
|0, 0, 0, 52, 0, 0, 63, 35, 0, 22, 12, 46, 0, 61, 37, 0, 0, 64, 4, 7, 0, 0, 14, 80, 0, 23, 0, 70, 73, 27, 6, 49, 0, 0, 0, 44, 77, 48, 0, 39, 0, 0, 0, 8, 11, 0, 0, 50, 0, 0, 0, 30, 18, 0, 0, 0, 54, 21, 78, 74, 59, 5, 0, 0, 29, 2, 24, 26, 0, 0, 0, 66, 0, 57, 56, 0, 0, 60, 0, 0, 9
|0, 0, 0, 58, 15, 0, 59, 0, 0, 0, 0, 0, 3, 0, 0, 47, 5, 78, 0, 0, 0, 0, 13, 0, 68, 0, 0, 38, 0, 0, 71, 0, 0, 0, 0, 0, 81, 7, 55, 0, 0, 54, 0, 0, 61, 41, 0, 77, 43, 22, 64, 12, 33, 0, 52, 17, 0, 72, 32, 0, 20, 46, 0, 4, 56, 0, 0, 28, 0, 11, 0, 79, 0, 37, 48, 63, 40, 0, 0, 0, 49
|20, 0, 56, 0, 0, 34, 44, 0, 26, 0, 29, 0, 0, 21, 0, 0, 0, 0, 47, 22, 19, 0, 73, 81, 40, 61, 27, 45, 0, 0, 17, 0, 24, 0, 55, 0, 0, 0, 0, 0, 49, 0, 0, 0, 0, 74, 39, 0, 0, 3, 0, 72, 4, 0, 38, 13, 0, 0, 0, 0, 0, 8, 9, 0, 0, 0, 10, 71, 23, 0, 14, 16, 31, 0, 58, 62, 0, 41, 0, 0, 0
|79, 32, 0, 0, 50, 29, 0, 0, 0, 6, 54, 0, 69, 31, 60, 70, 14, 0, 17, 62, 0, 56, 18, 53, 0, 52, 15, 0, 47, 41, 1, 66, 46, 10, 0, 0, 76, 72, 33, 0, 63, 0, 0, 0, 9, 0, 0, 0, 5, 0, 0, 0, 44, 42, 81, 26, 37, 0, 75, 0, 0, 0, 0, 0, 0, 58, 12, 0, 0, 0, 0, 73, 77, 67, 64, 0, 0, 0, 0, 61, 0
|0, 0, 0, 0, 37, 42, 51, 0, 72, 0, 0, 0, 68, 16, 79, 32, 0, 53, 11, 39, 0, 5, 55, 0, 50, 0, 0, 75, 40, 0, 0, 61, 0, 20, 0, 0, 57, 0, 64, 0, 25, 0, 10, 15, 0, 0, 52, 67, 0, 17, 62, 66, 0, 24, 0, 0, 0, 4, 0, 65, 0, 44, 35, 0, 0, 0, 0, 8, 18, 0, 0, 0, 12, 0, 0, 13, 0, 0, 0, 36, 6
|77, 36, 14, 2, 0, 0, 58, 0, 0, 0, 0, 61, 0, 0, 0, 0, 0, 0, 9, 0, 0, 0, 1, 49, 0, 19, 0, 0, 0, 0, 13, 0, 29, 67, 0, 0, 0, 65, 0, 80, 0, 50, 74, 4, 0, 22, 0, 0, 0, 0, 34, 78, 11, 0, 0, 38, 52, 62, 0, 0, 69, 47, 59, 18, 53, 0, 15, 0, 0, 0, 0, 71, 44, 45, 0, 0, 0, 0, 8, 0, 72
|21, 0, 0, 32, 56, 0, 55, 0, 0, 0, 4, 0, 14, 15, 0, 0, 50, 79, 0, 13, 57, 43, 38, 69, 0, 0, 0, 46, 8, 0, 42, 47, 9, 0, 75, 0, 48, 0, 0, 17, 0, 34, 0, 0, 0, 35, 73, 40, 76, 5, 0, 52, 36, 80, 44, 0, 0, 74, 0, 0, 0, 77, 11, 0, 0, 0, 0, 16, 59, 70, 64, 49, 0, 0, 24, 6, 81, 0, 19, 0, 0
|38, 0, 0, 46, 47, 66, 45, 61, 0, 0, 0, 0, 0, 27, 0, 43, 25, 0, 0, 36, 0, 4, 0, 58, 0, 44, 0, 0, 64, 50, 0, 57, 81, 11, 0, 6, 0, 5, 14, 53, 42, 0, 71, 0, 20, 0, 55, 65, 0, 0, 12, 54, 19, 13, 67, 78, 26, 0, 0, 34, 80, 21, 0, 17, 0, 24, 74, 69, 0, 2, 10, 0, 51, 0, 0, 79, 60, 0, 76, 0, 48
|0, 6, 74, 0, 10, 30, 0, 11, 53, 55, 18, 0, 44, 78, 69, 62, 0, 0, 0, 47, 51, 16, 31, 0, 0, 0, 73, 0, 41, 0, 14, 0, 0, 43, 0, 0, 0, 0, 19, 0, 72, 37, 0, 0, 0, 59, 28, 0, 29, 1, 0, 0, 0, 38, 64, 0, 0, 46, 0, 0, 49, 0, 0, 0, 4, 0, 0, 0, 0, 0, 0, 0, 13, 27, 0, 0, 0, 40, 0, 3, 0
|78, 0, 79, 59, 0, 22, 26, 0, 0, 0, 0, 0, 0, 0, 0, 0, 2, 0, 0, 17, 0, 0, 80, 0, 10, 54, 0, 0, 7, 0, 32, 0, 58, 0, 0, 0, 0, 0, 0, 0, 38, 0, 60, 67, 69, 14, 74, 43, 0, 0, 72, 53, 0, 3, 68, 28, 12, 55, 0, 0, 50, 0, 27, 8, 0, 41, 25, 1, 0, 0, 0, 44, 42, 0, 21, 18, 0, 0, 39, 75, 47
|16, 0, 0, 0, 0, 0, 0, 0, 69, 57, 35, 23, 0, 60, 0, 0, 42, 0, 59, 0, 0, 68, 0, 41, 0, 0, 64, 0, 62, 0, 24, 2, 79, 0, 0, 0, 51, 0, 0, 0, 10, 0, 0, 0, 0, 30, 58, 4, 81, 44, 0, 0, 0, 0, 29, 0, 0, 17, 0, 0, 0, 0, 13, 14, 0, 0, 0, 21, 78, 0, 0, 56, 1, 0, 0, 38, 12, 0, 32, 20, 46
|50, 0, 0, 0, 0, 0, 0, 0, 44, 66, 0, 39, 47, 0, 19, 0, 0, 80, 28, 77, 0, 34, 8, 0, 24, 2, 0, 72, 38, 0, 10, 52, 30, 0, 0, 0, 61, 55, 0, 0, 0, 59, 0, 21, 35, 68, 56, 79, 0, 60, 49, 18, 0, 71, 0, 0, 33, 63, 0, 0, 43, 0, 0, 29, 0, 62, 26, 0, 0, 20, 36, 7, 0, 9, 0, 11, 64, 0, 0, 74, 17
|0, 43, 0, 28, 25, 3, 0, 0, 80, 40, 0, 0, 0, 74, 24, 0, 1, 0, 0, 79, 52, 0, 0, 0, 30, 0, 0, 0, 0, 0, 37, 0, 0, 76, 0, 59, 0, 44, 0, 0, 36, 73, 64, 0, 0, 0, 0, 6, 0, 48, 0, 69, 0, 67, 58, 0, 0, 81, 0, 0, 0, 0, 57, 68, 12, 55, 0, 0, 46, 23, 19, 0, 66, 0, 63, 0, 0, 61, 31, 22, 5
|0, 13, 0, 0, 0, 0, 0, 0, 0, 0, 59, 36, 0, 0, 6, 0, 29, 5, 71, 12, 55, 0, 60, 7, 23, 32, 0, 18, 22, 69, 0, 0, 0, 74, 0, 15, 31, 27, 49, 0, 0, 25, 0, 2, 3, 63, 0, 45, 21, 51, 26, 17, 0, 0, 0, 79, 0, 16, 65, 0, 8, 0, 66, 0, 54, 0, 48, 80, 28, 33, 9, 0, 0, 56, 73, 52, 78, 30, 58, 34, 53
|0, 0, 1, 0, 48, 57, 0, 0, 60, 62, 0, 43, 0, 0, 9, 77, 52, 0, 0, 58, 0, 2, 3, 0, 0, 34, 0, 0, 21, 56, 0, 0, 0, 0, 0, 0, 71, 0, 17, 40, 18, 69, 20, 0, 0, 0, 0, 0, 0, 30, 74, 0, 0, 44, 6, 68, 0, 75, 0, 42, 47, 0, 0, 0, 0, 31, 61, 0, 26, 0, 0, 5, 0, 80, 0, 53, 0, 0, 7, 15, 0
|37, 0, 0, 7, 9, 0, 35, 20, 63, 71, 31, 5, 0, 0, 0, 0, 16, 38, 0, 0, 67, 0, 41, 30, 0, 0, 0, 6, 0, 24, 0, 0, 70, 66, 51, 34, 0, 0, 60, 3, 55, 12, 22, 0, 65, 0, 0, 0, 78, 0, 53, 0, 76, 0, 0, 19, 0, 0, 11, 32, 28, 0, 36, 81, 79, 0, 43, 0, 80, 0, 44, 48, 0, 17, 13, 0, 4, 0, 0, 21, 0
|0, 58, 0, 0, 51, 0, 49, 0, 0, 0, 0, 0, 0, 0, 0, 28, 35, 0, 0, 0, 71, 0, 0, 0, 0, 40, 0, 0, 0, 46, 41, 0, 61, 0, 7, 26, 0, 0, 0, 45, 0, 0, 0, 0, 76, 0, 0, 0, 65, 0, 52, 0, 24, 0, 16, 0, 17, 14, 8, 39, 30, 80, 21, 3, 73, 0, 75, 0, 0, 59, 54, 0, 0, 34, 0, 2, 0, 0, 0, 0, 0
|52, 27, 34, 0, 0, 0, 79, 0, 31, 46, 0, 53, 0, 51, 55, 39, 37, 58, 0, 57, 36, 0, 0, 0, 61, 62, 44, 0, 0, 68, 0, 0, 63, 0, 0, 0, 0, 0, 0, 0, 33, 16, 0, 0, 21, 20, 0, 41, 0, 0, 0, 0, 0, 0, 2, 0, 4, 35, 0, 15, 72, 64, 0, 7, 0, 56, 23, 74, 0, 0, 42, 22, 0, 0, 49, 0, 25, 19, 28, 0, 0
|0, 0, 4, 30, 0, 0, 0, 0, 28, 0, 0, 0, 21, 56, 0, 18, 0, 61, 80, 0, 60, 49, 0, 0, 0, 68, 74, 43, 77, 0, 0, 36, 16, 42, 35, 0, 19, 0, 2, 9, 15, 38, 37, 0, 0, 0, 0, 0, 0, 79, 0, 0, 0, 0, 53, 0, 24, 0, 50, 58, 71, 3, 0, 70, 0, 0, 0, 0, 0, 64, 39, 0, 0, 54, 40, 67, 0, 33, 0, 51, 31
|0, 56, 0, 0, 40, 0, 0, 0, 0, 0, 0, 0, 0, 24, 0, 74, 0, 0, 0, 0, 0, 0, 39, 0, 16, 38, 53, 11, 78, 0, 0, 80, 0, 44, 0, 0, 0, 64, 0, 0, 0, 1, 79, 0, 67, 0, 0, 0, 58, 36, 0, 0, 0, 23, 55, 0, 62, 0, 0, 0, 57, 0, 0, 0, 0, 0, 0, 0, 0, 51, 12, 0, 68, 0, 35, 30, 0, 0, 60, 0, 0
|32, 0, 2, 76, 71, 62, 19, 0, 10, 67, 63, 0, 40, 0, 0, 0, 17, 27, 0, 52, 0, 22, 79, 78, 12, 0, 0, 0, 57, 0, 59, 53, 23, 0, 33, 4, 0, 0, 0, 0, 0, 0, 28, 68, 54, 7, 0, 0, 3, 66, 0, 70, 15, 16, 56, 0, 29, 44, 41, 26, 0, 0, 31, 0, 46, 18, 0, 0, 0, 0, 0, 8, 47, 58, 1, 0, 20, 0, 9, 0, 0
|0, 0, 23, 22, 70, 0, 38, 81, 0, 12, 36, 19, 30, 73, 80, 50, 4, 48, 0, 0, 0, 20, 0, 43, 54, 47, 24, 0, 67, 0, 0, 79, 0, 0, 0, 0, 74, 46, 35, 42, 14, 72, 0, 44, 56, 31, 0, 51, 9, 63, 6, 0, 5, 0, 0, 18, 7, 59, 66, 37, 10, 0, 49, 0, 0, 0, 69, 11, 0, 28, 62, 52, 0, 0, 45, 64, 71, 0, 0, 16, 0
|0, 80, 0, 53, 0, 8, 41, 0, 42, 2, 0, 59, 15, 0, 0, 7, 54, 0, 76, 63, 0, 14, 0, 0, 81, 11, 0, 0, 29, 0, 49, 0, 0, 0, 52, 47, 32, 31, 78, 62, 0, 57, 58, 66, 0, 27, 0, 0, 50, 0, 17, 0, 0, 4, 0, 0, 9, 43, 73, 0, 0, 0, 51, 60, 0, 10, 0, 0, 0, 16, 0, 72, 69, 6, 0, 70, 22, 23, 0, 46, 0
|0, 35, 0, 0, 0, 65, 0, 0, 0, 70, 10, 14, 0, 0, 0, 31, 0, 52, 0, 76, 22, 57, 0, 12, 0, 0, 0, 0, 69, 0, 0, 41, 40, 9, 0, 0, 47, 0, 8, 0, 48, 0, 0, 0, 0, 33, 0, 7, 0, 0, 11, 0, 0, 61, 0, 45, 0, 0, 53, 0, 78, 0, 42, 71, 0, 0, 64, 0, 0, 0, 0, 75, 27, 49, 68, 0, 0, 0, 0, 30, 2
|33, 0, 0, 75, 39, 25, 14, 18, 0, 24, 73, 50, 77, 0, 3, 4, 0, 0, 0, 49, 58, 0, 68, 0, 7, 81, 62, 0, 71, 17, 64, 38, 27, 37, 0, 0, 66, 0, 41, 0, 0, 0, 0, 28, 23, 34, 60, 20, 12, 0, 30, 2, 0, 0, 76, 0, 57, 19, 44, 36, 0, 69, 5, 1, 6, 79, 0, 53, 10, 52, 0, 54, 0, 0, 0, 61, 0, 26, 0, 0, 0
|0, 79, 0, 0, 81, 74, 57, 30, 0, 11, 0, 0, 0, 36, 0, 0, 61, 72, 0, 56, 0, 0, 46, 0, 0, 24, 0, 0, 0, 0, 0, 0, 0, 0, 0, 0, 14, 21, 0, 0, 0, 0, 35, 42, 0, 65, 59, 0, 37, 0, 19, 27, 23, 8, 0, 0, 0, 0, 47, 75, 70, 41, 26, 0, 0, 0, 50, 0, 58, 80, 66, 0, 0, 0, 54, 69, 0, 29, 16, 28, 0
|0, 3, 62, 37, 0, 0, 0, 4, 0, 15, 0, 30, 2, 41, 0, 0, 33, 0, 0, 0, 0, 0, 74, 0, 0, 0, 20, 0, 0, 16, 0, 0, 39, 0, 0, 50, 65, 0, 0, 5, 0, 53, 61, 0, 49, 0, 0, 0, 42, 0, 79, 24, 52, 0, 0, 32, 0, 0, 0, 1, 29, 0, 14, 26, 0, 0, 0, 77, 67, 25, 81, 60, 0, 0, 0, 0, 21, 58, 0, 40, 44
|0, 42, 10, 0, 0, 23, 28, 0, 0, 53, 0, 54, 71, 62, 64, 0, 0, 0, 36, 11, 0, 3, 0, 55, 52, 33, 0, 0, 0, 35, 57, 0, 60, 0, 79, 75, 0, 0, 76, 0, 0, 0, 0, 0, 50, 29, 0, 0, 0, 0, 0, 0, 0, 1, 34, 0, 74, 0, 27, 43, 0, 0, 39, 31, 47, 0, 4, 0, 7, 61, 48, 69, 63, 41, 72, 56, 5, 0, 0, 0, 19
|0, 76, 78, 0, 8, 0, 67, 29, 51, 47, 0, 0, 0, 0, 0, 0, 0, 55, 73, 60, 0, 53, 23, 0, 0, 27, 0, 7, 32, 42, 0, 0, 0, 0, 0, 0, 20, 0, 0, 0, 0, 24, 68, 6, 0, 0, 44, 0, 0, 77, 0, 0, 0, 0, 28, 30, 0, 0, 63, 0, 0, 0, 0, 0, 41, 40, 22, 0, 0, 3, 11, 0, 0, 10, 0, 0, 0, 0, 17, 0, 0
|0, 53, 0, 0, 5, 0, 50, 0, 0, 78, 0, 0, 0, 29, 27, 0, 0, 0, 0, 0, 18, 63, 70, 61, 0, 0, 43, 59, 0, 0, 11, 0, 0, 56, 14, 36, 69, 52, 7, 64, 0, 0, 0, 0, 0, 76, 32, 28, 0, 0, 0, 15, 0, 57, 40, 20, 55, 73, 71, 49, 0, 12, 0, 0, 0, 0, 0, 24, 8, 37, 0, 0, 0, 79, 60, 65, 47, 0, 0, 1, 3
|0, 24, 0, 21, 41, 0, 0, 12, 0, 58, 66, 81, 0, 22, 46, 0, 60, 0, 0, 0, 29, 0, 19, 0, 0, 0, 0, 76, 13, 6, 15, 0, 47, 0, 0, 31, 0, 0, 4, 0, 0, 30, 70, 0, 0, 0, 67, 56, 0, 0, 3, 0, 0, 48, 0, 54, 0, 7, 72, 77, 62, 16, 0, 78, 9, 0, 5, 0, 0, 27, 35, 28, 0, 0, 0, 33, 0, 0, 45, 42, 0
|11, 55, 32, 0, 1, 52, 0, 0, 71, 0, 0, 0, 75, 0, 0, 0, 0, 6, 15, 0, 0, 0, 0, 0, 66, 0, 0, 2, 58, 49, 0, 43, 0, 72, 77, 30, 54, 0, 0, 0, 29, 78, 17, 31, 0, 0, 64, 39, 73, 0, 46, 5, 35, 0, 8, 3, 0, 24, 0, 0, 79, 0, 0, 34, 14, 0, 0, 0, 74, 62, 23, 0, 53, 51, 20, 36, 67, 4, 0, 57, 7
|0, 74, 30, 0, 0, 0, 56, 0, 9, 0, 65, 0, 0, 80, 22, 0, 0, 46, 40, 0, 44, 0, 24, 57, 0, 0, 12, 58, 66, 64, 51, 6, 35, 63, 10, 19, 3, 47, 0, 20, 79, 0, 77, 0, 0, 55, 0, 0, 8, 0, 0, 73, 39, 18, 78, 0, 0, 0, 0, 0, 0, 0, 43, 15, 59, 0, 52, 36, 25, 0, 0, 13, 2, 0, 0, 60, 32, 53, 0, 11, 0
|4, 39, 0, 15, 0, 0, 0, 69, 50, 0, 21, 79, 0, 30, 43, 0, 62, 37, 0, 72, 25, 0, 67, 0, 0, 0, 45, 0, 55, 59, 0, 0, 0, 75, 0, 9, 0, 0, 57, 66, 56, 5, 80, 0, 0, 11, 1, 0, 0, 0, 0, 0, 0, 6, 46, 53, 0, 0, 0, 8, 23, 0, 0, 0, 0, 0, 0, 19, 64, 40, 0, 41, 0, 0, 0, 76, 0, 0, 0, 0, 0
|0, 62, 42, 0, 0, 0, 36, 79, 0, 3, 77, 47, 0, 0, 0, 48, 0, 19, 0, 41, 0, 0, 0, 27, 0, 0, 13, 0, 56, 0, 0, 34, 0, 0, 0, 22, 46, 0, 59, 0, 0, 55, 0, 0, 52, 4, 37, 9, 30, 0, 61, 40, 0, 0, 72, 0, 0, 0, 7, 0, 15, 0, 0, 39, 0, 28, 0, 0, 0, 0, 0, 0, 10, 24, 0, 0, 0, 0, 0, 0, 0
|0, 0, 0, 0, 0, 19, 17, 0, 0, 0, 0, 55, 0, 58, 0, 0, 78, 0, 0, 64, 46, 15, 0, 74, 0, 56, 0, 0, 0, 0, 39, 0, 1, 65, 53, 71, 75, 2, 0, 0, 0, 0, 0, 0, 0, 0, 63, 22, 77, 0, 13, 48, 38, 0, 0, 41, 0, 49, 0, 0, 0, 28, 45, 62, 80, 9, 27, 0, 3, 0, 60, 81, 50, 0, 0, 0, 0, 79, 0, 0, 0
|0, 0, 0, 0, 58, 18, 24, 0, 0, 0, 0, 0, 9, 0, 10, 25, 71, 0, 66, 0, 0, 0, 34, 0, 53, 0, 0, 41, 0, 78, 0, 0, 68, 0, 62, 0, 64, 0, 45, 72, 0, 0, 4, 0, 0, 79, 0, 0, 19, 76, 43, 0, 0, 0, 0, 67, 61, 0, 38, 0, 52, 0, 0, 23, 11, 0, 77, 0, 0, 63, 49, 51, 28, 46, 17, 0, 0, 6, 20, 56, 15
|0, 0, 11, 40, 0, 0, 6, 66, 0, 54, 0, 0, 0, 67, 41, 0, 15, 0, 55, 0, 0, 0, 0, 47, 75, 50, 21, 81, 0, 0, 0, 76, 45, 13, 0, 80, 49, 0, 74, 73, 0, 27, 0, 0, 43, 0, 78, 58, 51, 70, 0, 44, 0, 32, 79, 0, 0, 68, 10, 0, 0, 0, 0, 16, 71, 0, 38, 31, 56, 0, 5, 61, 48, 0, 0, 1, 0, 0, 0, 64, 0
|14, 5, 70, 29, 76, 77, 60, 10, 25, 0, 61, 0, 0, 20, 0, 24, 0, 0, 79, 0, 1, 19, 62, 4, 0, 0, 0, 0, 28, 0, 38, 23, 74, 52, 0, 72, 9, 0, 36, 0, 0, 0, 0, 40, 0, 15, 0, 68, 0, 0, 27, 26, 50, 56, 47, 0, 75, 0, 0, 73, 0, 0, 2, 42, 0, 0, 0, 48, 0, 0, 0, 17, 43, 18, 65, 51, 63, 54, 0, 39, 0
|0, 78, 55, 54, 75, 0, 22, 49, 41, 0, 0, 0, 0, 38, 0, 0, 0, 14, 7, 32, 23, 18, 0, 42, 0, 51, 0, 0, 0, 0, 29, 0, 37, 79, 61, 0, 67, 1, 0, 19, 0, 0, 50, 0, 0, 0, 0, 33, 0, 0, 80, 21, 0, 17, 27, 40, 56, 64, 77, 0, 9, 26, 0, 69, 0, 0, 20, 0, 73, 0, 0, 0, 52, 0, 4, 0, 0, 8, 0, 0, 62
|64, 0, 3, 13, 0, 0, 72, 63, 0, 33, 0, 0, 0, 59, 40, 0, 28, 0, 0, 0, 80, 0, 5, 77, 0, 20, 0, 4, 0, 21, 16, 70, 0, 27, 43, 0, 0, 22, 10, 0, 8, 26, 53, 12, 0, 0, 0, 0, 41, 52, 0, 47, 0, 2, 31, 39, 1, 48, 0, 11, 51, 0, 54, 0, 75, 29, 7, 46, 44, 0, 79, 0, 0, 0, 0, 0, 38, 66, 14, 37, 55
|8, 0, 0, 0, 24, 2, 1, 76, 0, 0, 5, 3, 0, 66, 65, 0, 75, 43, 16, 0, 0, 0, 0, 32, 39, 0, 0, 61, 35, 26, 68, 62, 12, 45, 6, 40, 17, 10, 0, 0, 0, 0, 54, 0, 0, 53, 11, 0, 0, 57, 0, 51, 0, 36, 0, 0, 80, 38, 70, 59, 4, 0, 71, 28, 0, 48, 0, 29, 47, 60, 73, 15, 0, 30, 0, 0, 58, 20, 0, 77, 18
|35, 0, 64, 0, 14, 0, 68, 0, 0, 34, 0, 22, 25, 46, 0, 0, 0, 0, 0, 0, 0, 0, 0, 0, 0, 53, 60, 0, 0, 52, 63, 0, 69, 58, 0, 76, 73, 32, 0, 0, 0, 0, 38, 0, 0, 72, 71, 0, 0, 41, 67, 0, 0, 0, 0, 0, 47, 0, 18, 0, 54, 75, 62, 74, 1, 0, 0, 2, 20, 6, 0, 0, 56, 31, 0, 0, 45, 0, 61, 79, 0
|0, 0, 0, 0, 0, 15, 0, 44, 77, 80, 24, 51, 19, 26, 31, 79, 0, 67, 54, 0, 68, 0, 0, 0, 0, 0, 0, 71, 27, 0, 55, 0, 0, 0, 38, 10, 0, 0, 39, 0, 0, 0, 36, 0, 0, 78, 0, 48, 0, 0, 32, 75, 0, 60, 0, 34, 0, 5, 0, 0, 0, 0, 52, 0, 0, 61, 0, 62, 0, 41, 16, 63, 0, 65, 70, 22, 0, 0, 0, 9, 0
|0, 28, 9, 0, 0, 0, 31, 74, 48, 0, 57, 0, 78, 0, 17, 54, 38, 23, 61, 55, 0, 0, 0, 0, 0, 59, 22, 39, 0, 70, 0, 0, 0, 30, 32, 20, 0, 81, 3, 0, 66, 45, 29, 53, 0, 0, 68, 0, 0, 0, 76, 0, 7, 52, 33, 0, 49, 77, 0, 56, 0, 0, 0, 44, 0, 0, 0, 18, 0, 0, 46, 0, 21, 72, 0, 0, 0, 2, 0, 0, 0
|0, 30, 75, 0, 0, 0, 0, 0, 0, 0, 0, 20, 0, 4, 0, 73, 0, 76, 0, 0, 0, 0, 0, 26, 3, 0, 57, 0, 0, 81, 0, 56, 80, 17, 0, 0, 37, 0, 0, 0, 31, 7, 63, 0, 77, 0, 22, 5, 0, 21, 10, 0, 0, 0, 0, 25, 44, 60, 0, 0, 41, 0, 12, 0, 0, 0, 66, 79, 38, 0, 8, 0, 33, 0, 0, 0, 0, 0, 0, 29, 0
|0, 0, 80, 6, 0, 0, 25, 0, 49, 69, 0, 0, 61, 55, 0, 30, 0, 0, 56, 0, 0, 71, 0, 0, 0, 5, 0, 0, 0, 31, 48, 0, 0, 0, 0, 43, 4, 78, 0, 52, 75, 33, 59, 0, 1, 0, 77, 0, 0, 0, 70, 39, 0, 0, 0, 0, 35, 0, 14, 0, 0, 23, 15, 21, 58, 12, 17, 67, 0, 0, 0, 0, 0, 0, 0, 50, 57, 0, 0, 0, 16
|5, 0, 45, 0, 66, 0, 0, 0, 0, 0, 64, 6, 62, 0, 52, 0, 0, 2, 0, 14, 7, 0, 44, 0, 17, 0, 0, 0, 65, 0, 3, 0, 21, 0, 8, 0, 27, 34, 0, 0, 61, 0, 51, 20, 55, 38, 0, 73, 0, 25, 28, 50, 26, 0, 0, 36, 40, 0, 68, 0, 31, 79, 22, 0, 0, 0, 56, 0, 0, 0, 0, 0, 0, 0, 0, 75, 0, 80, 42, 48, 0
|0, 0, 0, 33, 0, 0, 47, 51, 0, 0, 0, 21, 12, 14, 58, 0, 0, 0, 0, 0, 0, 79, 75, 0, 49, 6, 50, 23, 0, 2, 0, 0, 0, 0, 22, 78, 11, 56, 0, 0, 71, 35, 0, 60, 0, 16, 15, 31, 0, 0, 0, 0, 0, 63, 0, 0, 42, 53, 29, 0, 0, 65, 0, 0, 0, 0, 0, 0, 30, 77, 0, 0, 0, 0, 25, 43, 0, 64, 0, 73, 0
|34, 0, 0, 60, 0, 27, 0, 0, 0, 0, 72, 0, 45, 0, 81, 56, 63, 29, 23, 0, 0, 51, 20, 36, 78, 0, 0, 16, 75, 0, 66, 46, 15, 25, 0, 54, 0, 80, 0, 74, 0, 0, 0, 0, 6, 17, 0, 0, 61, 69, 42, 33, 43, 0, 26, 0, 28, 0, 0, 2, 0, 0, 0, 22, 40, 70, 3, 0, 71, 4, 31, 9, 0, 47, 53, 37, 44, 0, 62, 0, 1
|68, 0, 0, 0, 4, 33, 8, 0, 22, 43, 0, 0, 0, 40, 0, 0, 74, 0, 78, 24, 0, 69, 51, 0, 46, 0, 0, 3, 34, 55, 0, 0, 48, 77, 0, 28, 35, 0, 13, 32, 0, 0, 5, 0, 0, 56, 0, 0, 45, 0, 57, 0, 0, 50, 0, 59, 0, 12, 79, 31, 0, 0, 0, 6, 0, 23, 9, 0, 0, 73, 21, 0, 0, 15, 37, 0, 53, 39, 11, 0, 64
|0, 21, 0, 0, 0, 0, 0, 0, 0, 0, 2, 48, 0, 0, 0, 0, 7, 0, 0, 0, 0, 0, 59, 79, 42, 0, 39, 29, 9, 0, 81, 0, 43, 19, 0, 0, 55, 38, 0, 0, 52, 56, 34, 74, 0, 0, 4, 11, 20, 33, 0, 0, 53, 10, 0, 44, 73, 0, 0, 13, 0, 67, 0, 0, 8, 71, 28, 32, 0, 65, 0, 46, 25, 0, 75, 3, 35, 47, 57, 0, 30
|0, 15, 0, 0, 54, 35, 0, 41, 0, 0, 0, 0, 0, 52, 0, 0, 0, 1, 0, 0, 0, 0, 0, 6, 0, 55, 0, 0, 0, 39, 0, 60, 8, 16, 0, 0, 44, 0, 0, 0, 0, 29, 21, 24, 59, 61, 0, 0, 75, 42, 73, 22, 0, 0, 0, 0, 27, 23, 69, 62, 38, 0, 48, 0, 30, 36, 40, 14, 77, 0, 2, 10, 0, 0, 19, 9, 0, 0, 70, 72, 65
|47, 19, 50, 0, 0, 0, 73, 0, 0, 49, 28, 69, 0, 0, 45, 33, 0, 0, 0, 61, 0, 25, 35, 0, 70, 0, 0, 30, 0, 0, 5, 0, 10, 0, 0, 0, 43, 0, 0, 58, 0, 0, 15, 0, 8, 0, 0, 0, 0, 0, 0, 46, 0, 7, 0, 0, 0, 20, 2, 80, 0, 53, 16, 0, 26, 0, 78, 72, 62, 56, 55, 11, 0, 74, 0, 12, 14, 42, 29, 0, 0
|0, 63, 20, 18, 0, 76, 0, 0, 14, 73, 0, 0, 0, 23, 0, 0, 0, 0, 0, 0, 28, 0, 2, 44, 67, 0, 0, 31, 0, 54, 47, 0, 0, 0, 0, 45, 0, 0, 79, 0, 17, 0, 0, 81, 72, 21, 0, 0, 34, 71, 0, 19, 25, 0, 0, 55, 0, 1, 0, 35, 0, 0, 0, 50, 24, 0, 33, 0, 66, 69, 0, 39, 8, 0, 0, 78, 0, 0, 0, 5, 0
|65, 0, 0, 0, 0, 12, 48, 0, 0, 10, 0, 0, 34, 0, 61, 8, 77, 0, 60, 20, 0, 0, 9, 23, 4, 14, 0, 0, 0, 40, 0, 11, 0, 0, 0, 24, 0, 41, 0, 0, 0, 39, 31, 0, 37, 26, 0, 76, 72, 0, 0, 0, 58, 0, 0, 33, 0, 0, 21, 0, 0, 0, 0, 19, 57, 0, 16, 3, 0, 0, 51, 59, 73, 69, 38, 0, 0, 0, 0, 0, 45
|81, 66, 37, 0, 0, 0, 0, 62, 0, 5, 0, 15, 58, 72, 47, 0, 26, 0, 0, 68, 0, 52, 22, 0, 80, 0, 49, 0, 0, 0, 0, 0, 0, 0, 65, 0, 0, 0, 70, 2, 78, 0, 1, 3, 0, 12, 13, 0, 48, 64, 0, 0, 8, 41, 0, 14, 39, 0, 0, 0, 0, 0, 0, 0, 74, 7, 79, 0, 0, 44, 18, 0, 0, 77, 67, 0, 0, 16, 55, 0, 23
|30, 10, 0, 0, 0, 0, 0, 0, 0, 20, 55, 24, 81, 0, 44, 78, 0, 11, 50, 0, 64, 0, 0, 0, 62, 0, 26, 53, 76, 0, 0, 0, 72, 0, 27, 17, 0, 14, 0, 65, 73, 0, 6, 0, 48, 0, 0, 0, 60, 0, 39, 59, 0, 0, 0, 0, 0, 0, 19, 0, 0, 34, 0, 0, 0, 38, 0, 4, 49, 0, 41, 0, 0, 0, 2, 58, 31, 0, 43, 33, 0
|60, 34, 5, 0, 0, 55, 0, 42, 24, 0, 0, 38, 35, 19, 0, 22, 0, 0, 8, 0, 75, 0, 65, 0, 0, 0, 7, 51, 0, 44, 0, 0, 71, 33, 0, 41, 53, 40, 20, 18, 0, 36, 0, 0, 64, 0, 0, 27, 0, 9, 0, 0, 0, 0, 57, 0, 0, 70, 0, 28, 45, 0, 0, 0, 0, 0, 0, 61, 31, 0, 0, 0, 0, 63, 0, 26, 0, 13, 4, 0, 0
|62, 40, 0, 9, 0, 0, 75, 0, 0, 0, 81, 17, 0, 0, 38, 3, 10, 24, 31, 0, 0, 47, 0, 0, 0, 1, 34, 42, 0, 0, 0, 0, 5, 48, 0, 0, 0, 35, 0, 0, 0, 0, 0, 18, 14, 0, 41, 52, 39, 0, 50, 0, 0, 0, 19, 29, 59, 32, 60, 0, 53, 0, 70, 61, 23, 30, 44, 22, 37, 76, 0, 0, 0, 0, 78, 0, 73, 0, 0, 71, 33
|0, 0, 25, 0, 0, 53, 0, 78, 0, 14, 46, 0, 0, 0, 50, 0, 0, 0, 0, 0, 12, 0, 56, 0, 0, 7, 0, 0, 0, 23, 0, 0, 11, 0, 44, 60, 0, 26, 34, 27, 58, 68, 0, 62, 0, 54, 0, 0, 0, 2, 0, 0, 0, 9, 49, 0, 30, 51, 37, 0, 36, 0, 0, 24, 0, 0, 0, 81, 29, 18, 0, 1, 41, 0, 76, 4, 0, 0, 22, 65, 10
|0, 0, 0, 0, 21, 0, 0, 36, 0, 0, 58, 49, 26, 11, 0, 0, 65, 15, 0, 0, 39, 28, 27, 0, 0, 16, 0, 17, 31, 0, 33, 59, 0, 53, 0, 0, 0, 13, 0, 69, 20, 0, 0, 54, 12, 0, 48, 70, 0, 0, 68, 3, 72, 78, 0, 0, 0, 71, 0, 0, 25, 56, 79, 0, 7, 0, 19, 64, 75, 9, 0, 0, 0, 0, 0, 46, 2, 0, 0, 44, 0
|0, 18, 6, 55, 42, 0, 0, 0, 0, 0, 0, 0, 0, 64, 0, 45, 0, 63, 30, 0, 0, 62, 76, 24, 0, 46, 0, 0, 50, 79, 0, 35, 41, 0, 21, 0, 0, 0, 81, 78, 0, 0, 25, 51, 0, 69, 47, 29, 17, 28, 36, 0, 74, 58, 0, 23, 0, 0, 52, 0, 0, 1, 0, 0, 0, 0, 11, 68, 0, 71, 77, 53, 60, 0, 0, 0, 0, 0, 54, 0, 37
|76, 54, 58, 0, 0, 0, 13, 0, 16, 41, 0, 9, 0, 0, 29, 0, 0, 30, 0, 25, 0, 0, 11, 72, 15, 79, 0, 26, 0, 73, 27, 0, 0, 0, 20, 0, 7, 37, 0, 0, 57, 0, 0, 19, 33, 66, 0, 14, 0, 0, 0, 35, 65, 0, 69, 0, 0, 28, 0, 45, 0, 0, 0, 80, 2, 0, 46, 0, 50, 42, 0, 36, 0, 48, 51, 31, 1, 56, 53, 0, 0
|0, 0, 60, 49, 79, 68, 64, 47, 0, 75, 19, 0, 0, 0, 51, 0, 69, 56, 22, 0, 0, 81, 0, 0, 0, 0, 2, 1, 0, 72, 0, 0, 0, 6, 0, 0, 39, 0, 30, 0, 50, 8, 9, 63, 31, 44, 0, 0, 59, 0, 5, 0, 0, 0, 0, 0, 0, 0, 0, 38, 0, 0, 0, 43, 0, 0, 58, 0, 17, 34, 70, 32, 11, 7, 66, 40, 62, 0, 0, 0, 67
|0, 0, 48, 0, 19, 11, 43, 26, 0, 21, 0, 62, 27, 0, 0, 0, 6, 31, 0, 0, 54, 23, 0, 0, 58, 9, 0, 0, 0, 38, 18, 0, 57, 0, 47, 0, 0, 71, 0, 76, 59, 10, 45, 0, 2, 0, 25, 30, 33, 4, 0, 37, 60, 0, 77, 65, 0, 0, 0, 0, 13, 81, 63, 41, 0, 66, 0, 0, 0, 79, 0, 0, 3, 68, 32, 17, 74, 0, 0, 35, 0
|74, 0, 0, 0, 0, 0, 0, 65, 0, 79, 78, 0, 54, 0, 0, 0, 76, 0, 68, 0, 0, 0, 17, 71, 45, 0, 48, 40, 39, 25, 0, 0, 34, 80, 81, 51, 36, 0, 0, 0, 64, 0, 41, 77, 0, 67, 0, 0, 55, 0, 0, 0, 0, 0, 4, 66, 0, 2, 43, 0, 46, 0, 44, 72, 62, 0, 0, 0, 0, 13, 6, 27, 75, 42, 0, 15, 28, 52, 59, 63, 0
|0, 0, 0, 0, 0, 0, 32, 0, 0, 59, 7, 0, 52, 0, 0, 60, 44, 47, 0, 50, 61, 0, 0, 18, 0, 0, 0, 0, 63, 30, 0, 22, 75, 62, 0, 49, 0, 74, 29, 46, 23, 17, 0, 0, 0, 0, 0, 81, 0, 38, 15, 6, 73, 12, 0, 0, 0, 9, 16, 0, 0, 0, 0, 0, 0, 0, 0, 65, 0, 14, 0, 0, 26, 39, 77, 21, 0, 0, 79, 0, 69|];