order = 9;
grid = [|79, 32, 11, 1, 60, 4, 0, 0, 55, 7, 0, 0, 12, 0, 39, 62, 0, 0, 42, 68, 0, 0, 0, 0, 49, 0, 0, 9, 6, 0, 0, 33, 78, 14, 3, 28, 0, 0, 0, 66, 2, 21, 37, 81, 5, 20, 73, 0, 56, 36, 0, 71, 0, 0, 0, 0, 0, 18, 75, 15, 51, 46, 0, 24, 0, 0, 59, 0, 0, 67, 35, 0, 31, 53, 0, 72, 0, 22, 0, 0, 0
|0, 8, 0, 0, 0, 47, 0, 5, 44, 0, 78, 11, 0, 0, 27, 0, 0, 0, 6, 0, 1, 0, 4, 0, 0, 33, 20, 18, 43, 42, 0, 0, 0, 0, 0, 0, 0, 74, 49, 59, 51, 0, 80, 0, 64, 24, 7, 0, 76, 13, 17, 40, 50, 0, 0, 16, 72, 0, 35, 12, 0, 32, 0, 0, 21, 0, 46, 48, 0, 63, 15, 0, 0, 0, 0, 0, 0, 0, 0, 36, 25
|0, 0, 68, 0, 25, 67, 2, 77, 19, 0, 0, 69, 0, 0, 0, 0, 0, 0, 0, 55, 26, 0, 12, 0, 34, 0, 53, 0, 37, 0, 0, 0, 0, 57, 16, 8, 29, 0, 46, 0, 14, 70, 0, 0, 0, 0, 0, 0, 0, 80, 0, 0, 0, 0, 65, 43, 36, 0, 6, 20, 47, 0, 21, 0, 0, 52, 60, 54, 0, 76, 0, 4, 56, 17, 0, 0, 0, 0, 44, 0, 0
|18, 31, 0, 0, 3, 61, 35, 0, 0, 16, 0, 0, 74, 0, 29, 0, 0, 1, 0, 0, 0, 0, 0, 22, 43, 0, 59, 0, 0, 0, 62, 0, 0, 26, 0, 0, 0, 0, 0, 44, 0, 0, 0, 65, 36, 0, 0, 0, 0, 21, 30, 0, 0, 55, 0, 7, 0, 73, 0, 0, 0, 0, 19, 20, 0, 0, 71, 80, 0, 49, 0, 11, 0, 0, 5, 0, 0, 0, 69, 34, 0
|0, 52, 0, 0, 59, 0, 0, 46, 12, 76, 0, 26, 8, 6, 44, 25, 0, 0, 0, 0, 80, 0, 81, 0, 31, 0, 0, 4, 41, 68, 0, 1, 17, 0, 36, 50, 7, 0, 71, 0, 0, 55, 0, 32, 0, 0, 0, 0, 23, 28, 79, 53, 70, 0, 9, 62, 0, 0, 22, 0, 0, 63, 56, 0, 0, 5, 0, 78, 0, 27, 0, 43, 0, 33, 0, 0, 38, 0, 48, 29, 18
|71, 0, 43, 37, 0, 0, 0, 27, 0, 55, 0, 14, 15, 35, 0, 30, 81, 0, 56, 3, 21, 62, 29, 0, 0, 38, 0, 0, 0, 70, 0, 0, 0, 66, 0, 51, 0, 4, 0, 0, 8, 9, 0, 0, 28, 0, 31, 47, 58, 0, 0, 0, 12, 0, 0, 0, 79, 68, 0, 0, 0, 44, 1, 0, 0, 0, 0, 69, 75, 34, 0, 32, 13, 0, 0, 45, 0, 0, 0, 2, 0
|49, 69, 0, 0, 0, 0, 0, 53, 0, 0, 0, 64, 0, 68, 0, 0, 40, 36, 0, 71, 30, 0, 0, 25, 0, 0, 61, 80, 0, 0, 34, 0, 0, 0, 0, 44, 56, 6, 0, 12, 0, 24, 77, 31, 0, 32, 0, 0, 35, 8, 0, 45, 0, 81, 0, 10, 5, 59, 0, 0, 0, 0, 11, 0, 42, 0, 1, 9, 0, 0, 0, 73, 0, 0, 0, 0, 0, 14, 43, 76, 0
|0, 15, 10, 29, 0, 0, 36, 0, 0, 0, 72, 79, 0, 63, 4, 0, 20, 0, 75, 0, 0, 0, 0, 0, 67, 0, 19, 0, 0, 0, 38, 0, 0, 0, 0, 48, 61, 0, 0, 0, 0, 52, 0, 0, 47, 0, 33, 6, 41, 62, 9, 2, 44, 0, 0, 45, 0, 13, 71, 74, 0, 8, 55, 30, 0, 0, 0, 77, 0, 23, 0, 0, 0, 35, 32, 0, 12, 16, 21, 0, 0
|56, 0, 64, 0, 0, 42, 66, 70, 0, 0, 0, 0, 0, 46, 0, 0, 0, 0, 0, 0, 0, 41, 0, 0, 36, 0, 23, 0, 0, 0, 21, 81, 0, 12, 0, 77, 0, 73, 43, 3, 0, 30, 26, 0, 17, 0, 4, 5, 0, 0, 52, 0, 74, 0, 0, 78, 27, 0, 25, 0, 0, 0, 0, 40, 0, 0, 0, 0, 45, 0, 0, 0, 0, 0, 0, 57, 80, 0, 20, 0, 0
|65, 0, 0, 0, 0, 1, 0, 0, 79, 34, 80, 0, 11, 73, 0, 64, 72, 50, 39, 0, 0, 0, 0, 55, 66, 0, 0, 31, 0, 75, 0, 0, 0, 0, 0, 52, 0, 8, 0, 45, 0, 29, 0, 0, 0, 36, 0, 0, 28, 0, 19, 0, 0, 0, 14, 0, 0, 0, 3, 0, 0, 53, 0, 0, 0, 37, 20, 0, 74, 57, 10, 0, 24, 58, 44, 0, 2, 61, 38, 0, 0
|0, 0, 53, 0, 0, 0, 29, 23, 63, 0, 4, 61, 58, 3, 0, 66, 0, 41, 0, 42, 38, 48, 11, 54, 0, 67, 44, 0, 16, 46, 0, 0, 0, 0, 14, 0, 0, 70, 20, 0, 18, 0, 0, 0, 37, 5, 0, 0, 51, 69, 0, 0, 0, 0, 47, 26, 0, 33, 77, 0, 9, 0, 0, 81, 13, 28, 0, 0, 55, 21, 50, 0, 0, 0, 0, 0, 52, 0, 0, 0, 19
|59, 55, 0, 16, 0, 81, 0, 37, 0, 0, 32, 67, 0, 0, 45, 0, 0, 0, 0, 0, 19, 40, 8, 18, 46, 7, 35, 34, 0, 0, 80, 0, 9, 0, 0, 11, 0, 0, 0, 0, 38, 0, 0, 0, 10, 0, 23, 0, 0, 66, 53, 0, 41, 0, 0, 0, 0, 0, 0, 78, 58, 48, 75, 0, 0, 0, 2, 0, 42, 26, 43, 0, 65, 0, 0, 0, 0, 0, 74, 4, 0
|0, 80, 25, 43, 0, 0, 0, 11, 0, 0, 0, 21, 0, 26, 62, 0, 15, 0, 0, 30, 0, 79, 0, 75, 0, 37, 0, 0, 0, 51, 0, 38, 10, 74, 81, 55, 40, 19, 41, 71, 0, 0, 0, 0, 0, 0, 64, 0, 32, 57, 58, 0, 39, 0, 72, 2, 45, 23, 52, 65, 66, 31, 0, 63, 0, 0, 61, 0, 47, 0, 34, 70, 28, 0, 0, 16, 0, 0, 35, 33, 0
|64, 0, 66, 24, 0, 0, 73, 44, 0, 0, 75, 0, 33, 55, 0, 0, 10, 37, 0, 0, 5, 0, 71, 53, 0, 59, 0, 0, 23, 0, 57, 0, 20, 0, 0, 4, 39, 0, 47, 0, 0, 63, 0, 0, 72, 35, 0, 0, 6, 0, 68, 0, 80, 26, 0, 0, 0, 41, 8, 0, 0, 0, 0, 0, 49, 12, 30, 0, 0, 65, 29, 0, 21, 0, 56, 11, 0, 3, 0, 45, 0
|0, 57, 0, 0, 42, 0, 0, 71, 0, 23, 0, 47, 0, 78, 0, 0, 59, 6, 31, 77, 60, 0, 25, 0, 51, 68, 0, 19, 0, 58, 0, 43, 0, 2, 44, 0, 0, 0, 0, 53, 26, 28, 0, 0, 0, 33, 37, 0, 54, 0, 46, 74, 0, 18, 24, 0, 0, 0, 64, 38, 0, 0, 0, 0, 35, 45, 22, 1, 0, 0, 76, 0, 17, 34, 0, 0, 8, 67, 75, 39, 0
|35, 0, 0, 0, 0, 0, 20, 30, 0, 0, 42, 0, 81, 0, 28, 0, 13, 8, 29, 0, 3, 50, 0, 10, 63, 73, 0, 25, 0, 33, 12, 24, 0, 0, 0, 53, 2, 46, 0, 0, 0, 0, 0, 64, 0, 0, 44, 0, 0, 0, 0, 0, 21, 7, 59, 19, 0, 0, 0, 18, 0, 0, 68, 79, 54, 17, 0, 41, 56, 60, 52, 0, 48, 0, 0, 0, 55, 5, 0, 0, 36
|38, 0, 48, 12, 0, 0, 0, 0, 52, 22, 36, 0, 29, 0, 0, 0, 60, 39, 0, 0, 45, 33, 0, 21, 74, 62, 2, 0, 0, 30, 0, 0, 0, 37, 0, 41, 0, 0, 0, 0, 0, 51, 0, 57, 0, 0, 63, 0, 0, 75, 72, 9, 8, 0, 20, 0, 0, 0, 80, 0, 0, 10, 54, 64, 44, 58, 0, 24, 0, 16, 11, 14, 59, 0, 1, 69, 40, 0, 0, 0, 78
|74, 0, 0, 0, 0, 14, 0, 28, 39, 35, 0, 5, 38, 44, 79, 40, 0, 0, 0, 16, 0, 0, 0, 17, 0, 0, 0, 21, 60, 0, 72, 45, 68, 0, 59, 0, 6, 0, 25, 54, 0, 11, 0, 0, 0, 12, 0, 49, 0, 0, 0, 34, 52, 29, 27, 61, 0, 42, 36, 1, 0, 0, 0, 0, 0, 0, 0, 0, 62, 19, 71, 0, 0, 47, 0, 51, 0, 37, 15, 13, 0
|51, 46, 69, 6, 30, 22, 0, 12, 70, 52, 77, 0, 0, 0, 54, 0, 0, 0, 0, 0, 0, 0, 34, 11, 50, 23, 0, 0, 0, 0, 24, 16, 0, 13, 0, 1, 64, 39, 5, 18, 43, 32, 17, 72, 80, 37, 0, 0, 62, 0, 8, 0, 58, 0, 0, 25, 0, 63, 61, 10, 31, 19, 0, 0, 0, 71, 42, 0, 0, 59, 41, 20, 0, 74, 67, 0, 7, 21, 36, 0, 0
|0, 7, 16, 23, 8, 0, 55, 0, 0, 4, 0, 0, 17, 0, 20, 29, 34, 15, 0, 0, 65, 0, 0, 57, 21, 44, 0, 56, 0, 39, 46, 0, 6, 63, 0, 66, 0, 28, 0, 0, 48, 0, 2, 0, 50, 0, 1, 0, 0, 0, 0, 0, 0, 10, 74, 0, 77, 72, 62, 22, 40, 47, 0, 0, 26, 0, 0, 38, 0, 53, 51, 0, 70, 30, 0, 59, 41, 52, 31, 35, 68
|0, 0, 0, 0, 0, 0, 45, 52, 0, 8, 0, 0, 0, 0, 59, 49, 21, 0, 0, 0, 0, 72, 0, 1, 0, 53, 76, 29, 34, 54, 73, 0, 77, 80, 68, 0, 0, 35, 16, 10, 12, 81, 0, 0, 46, 44, 47, 0, 0, 0, 0, 38, 23, 25, 18, 0, 0, 0, 41, 0, 0, 57, 0, 0, 58, 62, 0, 0, 6, 0, 0, 0, 4, 0, 0, 78, 0, 0, 60, 0, 75
|0, 0, 0, 0, 61, 44, 31, 0, 38, 62, 0, 0, 37, 0, 0, 18, 0, 0, 33, 78, 69, 27, 41, 0, 47, 0, 0, 0, 0, 25, 20, 0, 0, 0, 52, 40, 34, 23, 0, 0, 0, 0, 21, 0, 75, 0, 0, 0, 72, 30, 0, 0, 64, 0, 4, 14, 0, 53, 0, 0, 8, 0, 0, 0, 0, 2, 68, 0, 0, 32, 0, 29, 0, 0, 50, 0, 0, 0, 28, 0, 42
|0, 0, 1, 0, 0, 0, 75, 0, 67, 0, 7, 25, 0, 23, 0, 0, 47, 28, 0, 0, 37, 22, 16, 0, 61, 58, 0, 0, 38, 0, 0, 0, 0, 33, 50, 0, 20, 57, 59, 0, 0, 0, 0, 41, 30, 0, 0, 48, 19, 42, 80, 11, 69, 0, 29, 17, 0, 0, 68, 0, 55, 0, 12, 0, 36, 0, 0, 0, 0, 0, 27, 0, 6, 45, 0, 0, 0, 77, 0, 0, 0
|0, 0, 0, 0, 0, 15, 10, 29, 80, 0, 0, 0, 0, 0, 76, 63, 64, 0, 0, 70, 31, 18, 5, 0, 20, 0, 42, 2, 0, 3, 0, 0, 0, 48, 67, 37, 0, 0, 1, 0, 33, 22, 0, 51, 0, 0, 68, 0, 0, 50, 66, 0, 0, 46, 13, 0, 39, 0, 0, 0, 0, 0, 79, 28, 57, 77, 0, 0, 8, 0, 65, 0, 0, 0, 0, 0, 71, 34, 0, 0, 0
|0, 0, 34, 56, 9, 0, 42, 0, 0, 0, 0, 70, 24, 72, 50, 22, 0, 79, 80, 67, 25, 0, 6, 46, 0, 0, 0, 0, 17, 0, 28, 0, 31, 0, 4, 0, 0, 65, 55, 11, 77, 74, 0, 29, 27, 21, 0, 0, 60, 0, 0, 0, 0, 0, 0, 15, 44, 69, 73, 0, 0, 7, 48, 39, 61, 63, 64, 0, 52, 78, 0, 0, 76, 0, 0, 58, 0, 0, 0, 0, 0
|78, 64, 0, 50, 0, 0, 58, 41, 57, 0, 53, 0, 0, 0, 0, 26, 6, 68, 0, 0, 0, 0, 59, 32, 77, 0, 0, 81, 27, 0, 44, 0, 0, 0, 0, 14, 45, 47, 0, 0, 0, 0, 70, 0, 31, 28, 0, 0, 18, 43, 0, 39, 34, 0, 0, 0, 56, 51, 0, 67, 0, 0, 16, 9, 19, 54, 0, 0, 49, 79, 25, 1, 61, 0, 0, 0, 13, 0, 22, 0, 0
|0, 33, 49, 47, 0, 0, 5, 0, 0, 0, 46, 0, 0, 0, 0, 11, 38, 31, 43, 0, 48, 56, 0, 36, 0, 66, 64, 26, 0, 32, 41, 8, 22, 79, 0, 0, 0, 0, 0, 0, 0, 19, 0, 60, 0, 0, 52, 0, 0, 0, 0, 20, 0, 0, 0, 54, 0, 9, 0, 42, 0, 0, 0, 0, 0, 34, 0, 50, 21, 24, 0, 0, 69, 0, 57, 0, 65, 25, 0, 0, 0
|39, 0, 0, 0, 0, 26, 0, 72, 0, 0, 0, 1, 0, 58, 0, 0, 56, 35, 9, 37, 0, 0, 44, 43, 0, 0, 45, 0, 0, 8, 0, 0, 0, 0, 0, 0, 78, 0, 0, 0, 0, 64, 0, 28, 0, 0, 40, 0, 0, 63, 0, 50, 0, 0, 19, 55, 0, 79, 11, 52, 0, 0, 59, 65, 17, 0, 66, 0, 34, 0, 0, 3, 15, 0, 29, 0, 0, 0, 0, 75, 48
|61, 75, 44, 0, 0, 9, 0, 0, 18, 0, 40, 0, 0, 66, 81, 79, 0, 0, 0, 72, 17, 0, 69, 74, 0, 46, 57, 47, 64, 0, 0, 25, 0, 0, 26, 36, 68, 48, 6, 43, 0, 76, 19, 0, 0, 11, 0, 45, 0, 52, 23, 78, 0, 0, 77, 0, 34, 0, 0, 73, 50, 0, 0, 0, 10, 70, 53, 0, 22, 38, 0, 0, 37, 12, 63, 35, 58, 0, 24, 20, 0
|0, 12, 38, 0, 0, 0, 0, 0, 64, 61, 10, 55, 31, 0, 32, 2, 69, 0, 0, 49, 36, 0, 0, 47, 0, 0, 0, 42, 4, 0, 0, 0, 18, 22, 24, 27, 0, 59, 54, 72, 74, 67, 15, 53, 7, 34, 51, 0, 39, 3, 73, 29, 60, 0, 0, 30, 1, 44, 58, 0, 0, 0, 0, 0, 52, 0, 0, 0, 0, 28, 0, 0, 40, 71, 0, 13, 43, 0, 81, 0, 0
|37, 0, 58, 0, 70, 13, 0, 48, 65, 0, 73, 23, 21, 0, 75, 0, 0, 38, 34, 62, 52, 10, 19, 51, 0, 0, 0, 32, 20, 0, 50, 77, 0, 3, 56, 33, 0, 36, 22, 0, 0, 79, 0, 14, 11, 6, 0, 46, 12, 59, 43, 64, 26, 0, 68, 63, 0, 0, 0, 0, 0, 0, 69, 31, 30, 76, 24, 18, 71, 0, 54, 0, 39, 0, 0, 0, 0, 0, 0, 0, 1
|15, 0, 7, 0, 62, 0, 0, 0, 40, 39, 74, 0, 36, 0, 0, 0, 0, 64, 0, 33, 23, 78, 50, 0, 73, 0, 0, 0, 0, 0, 0, 57, 0, 0, 43, 0, 25, 0, 0, 16, 24, 3, 10, 2, 0, 0, 0, 0, 0, 22, 0, 70, 42, 58, 0, 5, 0, 0, 0, 53, 35, 51, 0, 19, 79, 0, 0, 0, 0, 0, 0, 0, 26, 77, 31, 54, 18, 69, 0, 66, 0
|68, 6, 0, 0, 0, 0, 34, 55, 0, 0, 0, 52, 19, 0, 43, 72, 0, 0, 79, 64, 0, 59, 21, 0, 2, 0, 0, 28, 48, 0, 0, 12, 0, 0, 0, 39, 0, 9, 0, 56, 0, 31, 20, 0, 60, 0, 0, 0, 38, 0, 0, 1, 0, 76, 0, 0, 0, 37, 10, 0, 80, 4, 41, 8, 50, 0, 0, 0, 29, 58, 44, 0, 0, 23, 78, 0, 0, 57, 0, 0, 3
|3, 0, 0, 71, 0, 0, 81, 54, 0, 0, 0, 0, 0, 14, 67, 0, 70, 29, 0, 0, 0, 39, 22, 66, 80, 8, 0, 0, 0, 0, 17, 0, 0, 21, 63, 78, 0, 38, 0, 73, 0, 0, 34, 0, 0, 77, 2, 68, 0, 0, 0, 0, 0, 0, 75, 0, 0, 0, 0, 0, 0, 26, 23, 0, 45, 0, 35, 0, 0, 25, 0, 0, 0, 0, 74, 0, 0, 44, 19, 0, 0
|52, 0, 0, 0, 0, 0, 0, 0, 0, 57, 34, 30, 0, 0, 0, 17, 0, 0, 0, 65, 75, 0, 0, 16, 0, 14, 3, 0, 0, 0, 0, 0, 73, 44, 0, 6, 0, 80, 0, 50, 0, 71, 63, 0, 49, 79, 0, 28, 0, 0, 31, 67, 54, 62, 56, 0, 15, 66, 0, 40, 0, 2, 0, 21, 43, 0, 0, 0, 64, 0, 81, 47, 27, 36, 38, 10, 0, 46, 11, 41, 0
|0, 67, 63, 0, 57, 2, 0, 78, 0, 0, 68, 0, 0, 0, 8, 0, 24, 46, 0, 15, 61, 0, 0, 0, 1, 54, 70, 13, 5, 49, 30, 0, 55, 52, 10, 0, 0, 29, 18, 0, 17, 27, 58, 0, 0, 0, 14, 81, 0, 35, 48, 0, 0, 71, 0, 0, 22, 0, 0, 3, 0, 0, 47, 23, 0, 32, 0, 0, 73, 20, 77, 39, 72, 0, 34, 28, 64, 0, 80, 0, 0
|0, 0, 13, 0, 53, 58, 0, 0, 6, 79, 0, 0, 0, 49, 0, 56, 0, 9, 0, 0, 0, 0, 0, 30, 64, 0, 21, 0, 81, 61, 65, 0, 0, 0, 54, 0, 0, 0, 0, 31, 0, 57, 0, 0, 0, 71, 43, 0, 0, 0, 55, 75, 38, 0, 46, 0, 0, 8, 29, 0, 74, 0, 0, 0, 0, 0, 0, 36, 0, 73, 69, 0, 20, 0, 41, 70, 67, 0, 27, 63, 66
|63, 0, 0, 62, 0, 39, 48, 68, 59, 0, 20, 0, 0, 75, 69, 0, 0, 0, 55, 0, 0, 0, 0, 0, 58, 34, 1, 0, 3, 0, 0, 66, 24, 46, 60, 7, 38, 79, 36, 0, 23, 25, 45, 0, 65, 0, 18, 0, 0, 0, 2, 0, 56, 64, 42, 0, 21, 22, 57, 0, 77, 0, 0, 0, 27, 0, 0, 70, 28, 0, 0, 0, 0, 15, 12, 0, 0, 0, 0, 0, 32
|0, 14, 0, 18, 77, 64, 0, 0, 0, 29, 0, 62, 0, 36, 60, 0, 0, 74, 0, 51, 68, 66, 80, 27, 0, 24, 0, 78, 31, 26, 0, 48, 28, 23, 49, 15, 50, 54, 0, 0, 11, 75, 0, 0, 0, 52, 20, 0, 0, 12, 0, 0, 9, 0, 0, 73, 0, 30, 19, 5, 34, 0, 0, 41, 37, 56, 0, 71, 17, 81, 40, 8, 0, 69, 0, 33, 0, 0, 0, 79, 0
|9, 0, 40, 7, 21, 37, 3, 69, 0, 67, 51, 0, 0, 0, 0, 0, 77, 17, 0, 19, 79, 0, 70, 0, 0, 0, 0, 0, 11, 45, 36, 0, 0, 0, 74, 0, 53, 64, 29, 0, 32, 0, 71, 49, 0, 41, 0, 0, 0, 0, 15, 28, 0, 57, 0, 50, 58, 0, 14, 26, 0, 0, 66, 16, 25, 35, 55, 0, 0, 0, 63, 80, 0, 0, 62, 44, 39, 10, 0, 52, 0
|50, 34, 20, 54, 44, 12, 26, 0, 0, 0, 81, 45, 0, 0, 0, 80, 37, 78, 23, 0, 28, 0, 75, 0, 0, 25, 15, 0, 47, 27, 0, 68, 0, 0, 5, 0, 0, 1, 58, 0, 0, 0, 0, 17, 77, 0, 35, 10, 0, 0, 0, 0, 53, 0, 0, 0, 38, 0, 0, 55, 0, 62, 2, 67, 33, 48, 52, 43, 0, 11, 0, 18, 0, 46, 0, 0, 0, 36, 30, 73, 0
|0, 66, 0, 0, 0, 0, 0, 33, 36, 54, 15, 0, 30, 59, 0, 0, 76, 24, 0, 0, 0, 7, 45, 0, 0, 41, 9, 0, 57, 0, 37, 0, 0, 56, 0, 73, 0, 0, 34, 0, 0, 12, 5, 13, 0, 67, 0, 50, 48, 25, 0, 0, 61, 0, 0, 0, 0, 0, 72, 0, 70, 0, 0, 0, 0, 3, 21, 51, 0, 0, 0, 60, 0, 64, 68, 0, 0, 0, 0, 0, 4
|67, 0, 71, 0, 41, 0, 27, 65, 75, 0, 58, 0, 55, 52, 0, 0, 0, 0, 57, 18, 0, 0, 31, 69, 0, 0, 0, 0, 72, 19, 0, 4, 38, 0, 0, 76, 0, 0, 0, 33, 80, 68, 39, 0, 0, 0, 70, 36, 22, 0, 11, 63, 1, 77, 0, 0, 0, 16, 49, 0, 0, 20, 0, 66, 0, 59, 0, 0, 13, 9, 0, 0, 74, 0, 26, 0, 37, 0, 0, 0, 23
|0, 0, 17, 0, 4, 0, 0, 0, 81, 31, 0, 28, 2, 0, 0, 0, 65, 3, 0, 59, 0, 12, 39, 0, 11, 0, 0, 0, 0, 0, 35, 44, 75, 18, 30, 43, 16, 0, 26, 70, 63, 0, 0, 46, 55, 58, 0, 23, 0, 34, 45, 0, 0, 6, 0, 0, 68, 0, 0, 0, 15, 0, 33, 38, 53, 10, 29, 76, 20, 64, 0, 7, 0, 24, 61, 9, 0, 0, 42, 77, 14
|0, 0, 0, 49, 0, 0, 79, 1, 11, 0, 0, 0, 0, 5, 0, 48, 0, 0, 0, 0, 67, 0, 0, 0, 16, 0, 36, 0, 14, 52, 9, 0, 0, 0, 0, 0, 18, 0, 0, 0, 0, 40, 4, 0, 0, 0, 74, 32, 0, 65, 0, 19, 17, 0, 0, 0, 12, 3, 0, 64, 75, 69, 0, 57, 77, 0, 0, 72, 0, 0, 23, 58, 0, 25, 0, 55, 35, 0, 54, 0, 34
|4, 17, 8, 0, 46, 57, 0, 63, 71, 0, 0, 36, 0, 0, 26, 67, 0, 0, 0, 45, 0, 0, 0, 0, 78, 55, 0, 0, 25, 0, 7, 0, 0, 15, 64, 0, 0, 41, 53, 0, 65, 0, 0, 0, 0, 47, 28, 27, 0, 5, 59, 21, 18, 24, 0, 79, 19, 0, 12, 60, 29, 58, 0, 76, 2, 1, 0, 0, 0, 0, 0, 0, 0, 6, 13, 50, 22, 70, 39, 0, 0
|0, 44, 0, 0, 34, 0, 0, 0, 0, 0, 0, 20, 0, 0, 5, 81, 0, 22, 12, 0, 0, 0, 51, 0, 4, 21, 0, 62, 75, 0, 0, 0, 0, 53, 13, 59, 43, 0, 0, 42, 45, 0, 0, 47, 0, 7, 39, 31, 50, 0, 0, 73, 78, 0, 0, 0, 0, 0, 0, 0, 0, 67, 0, 0, 0, 0, 0, 0, 33, 77, 0, 0, 0, 0, 0, 0, 0, 48, 0, 56, 0
|5, 73, 0, 0, 76, 50, 14, 0, 0, 30, 31, 40, 0, 74, 0, 12, 25, 0, 0, 58, 2, 77, 37, 15, 35, 43, 27, 60, 39, 18, 0, 0, 0, 0, 0, 0, 0, 0, 0, 19, 0, 0, 46, 78, 0, 55, 36, 80, 0, 0, 0, 0, 0, 0, 7, 68, 32, 0, 63, 13, 21, 42, 3, 0, 59, 0, 0, 22, 57, 29, 9, 0, 0, 0, 0, 0, 0, 26, 1, 0, 0
|2, 0, 0, 22, 0, 0, 0, 60, 0, 0, 0, 63, 39, 0, 0, 0, 27, 0, 0, 14, 64, 0, 0, 41, 0, 42, 0, 0, 0, 0, 58, 0, 46, 69, 33, 0, 9, 0, 48, 37, 0, 0, 7, 0, 40, 45, 0, 35, 29, 0, 0, 62, 30, 54, 0, 0, 0, 76, 66, 77, 16, 0, 0, 80, 0, 78, 0, 28, 70, 0, 18, 0, 0, 20, 0, 0, 0, 0, 8, 0, 21
|0, 40, 0, 38, 0, 28, 0, 16, 0, 0, 65, 4, 0, 29, 66, 7, 46, 0, 0, 0, 0, 0, 47, 34, 62, 5, 0, 63, 74, 0, 0, 21, 0, 0, 0, 0, 0, 81, 0, 0, 49, 59, 67, 0, 0, 0, 0, 0, 0, 76, 41, 0, 68, 0, 0, 56, 0, 0, 2, 44, 36, 0, 0, 71, 55, 27, 0, 45, 39, 0, 0, 6, 0, 0, 0, 77, 0, 18, 0, 12, 0
|69, 0, 12, 0, 0, 0, 0, 18, 0, 17, 0, 32, 0, 0, 0, 61, 2, 23, 44, 0, 0, 0, 0, 0, 81, 0, 39, 66, 0, 29, 43, 0, 16, 0, 0, 79, 0, 75, 28, 0, 0, 0, 25, 77, 0, 0, 57, 0, 0, 0, 0, 37, 48, 0, 34, 40, 47, 1, 0, 0, 0, 0, 0, 11, 0, 67, 3, 0, 0, 0, 0, 53, 64, 0, 0, 0, 59, 76, 0, 0, 73
|0, 37, 0, 35, 13, 0, 0, 0, 29, 50, 62, 0, 53, 28, 64, 0, 58, 47, 60, 0, 0, 0, 18, 73, 30, 0, 75, 57, 0, 0, 0, 56, 51, 45, 1, 67, 0, 0, 0, 0, 0, 0, 16, 0, 3, 0, 32, 19, 0, 10, 74, 69, 22, 12, 0, 0, 0, 24, 0, 39, 6, 65, 15, 52, 0, 61, 54, 26, 23, 14, 0, 38, 0, 68, 0, 0, 0, 17, 33, 0, 7
|48, 56, 0, 67, 11, 0, 0, 0, 0, 0, 21, 76, 0, 77, 41, 0, 0, 0, 38, 0, 13, 49, 54, 72, 9, 69, 79, 23, 0, 0, 0, 0, 30, 40, 0, 17, 32, 0, 51, 0, 70, 39, 0, 0, 68, 75, 0, 26, 0, 0, 0, 33, 14, 15, 0, 20, 55, 0, 0, 0, 0, 5, 53, 0, 0, 50, 0, 0, 12, 74, 0, 44, 34, 43, 4, 0, 0, 0, 0, 37, 0
|80, 3, 0, 15, 39, 0, 62, 0, 72, 0, 6, 0, 45, 0, 0, 0, 0, 0, 22, 0, 0, 0, 0, 28, 40, 32, 0, 35, 0, 50, 0, 0, 37, 34, 0, 0, 0, 56, 13, 29, 0, 38, 0, 0, 4, 0, 0, 0, 0, 44, 60, 0, 0, 0, 0, 27, 0, 70, 69, 0, 26, 0, 0, 0, 0, 21, 8, 0, 51, 0, 31, 65, 0, 0, 0, 63, 16, 0, 0, 0, 0
|6, 28, 0, 0, 50, 32, 0, 0, 30, 21, 0, 78, 0, 0, 0, 0, 18, 0, 49, 0, 0, 16, 0, 19, 7, 0, 67, 0, 0, 63, 2, 0, 42, 0, 0, 65, 14, 22, 0, 64, 60, 0, 0, 0, 71, 66, 0, 0, 36, 0, 69, 0, 73, 52, 35, 74, 0, 25, 0, 0, 0, 0, 34, 0, 38, 0, 0, 10, 54, 0, 0, 0, 79, 76, 0, 0, 0, 53, 26, 0, 55
|0, 35, 61, 0, 0, 33, 0, 0, 0, 2, 49, 22, 69, 0, 0, 32, 0, 63, 3, 81, 55, 0, 0, 71, 70, 0, 0, 72, 0, 20, 45, 0, 0, 7, 57, 26, 0, 0, 4, 34, 0, 58, 0, 18, 19, 0, 0, 0, 0, 0, 1, 0, 0, 44, 0, 0, 0, 0, 0, 0, 0, 23, 9, 0, 0, 31, 0, 73, 0, 0, 37, 0, 41, 5, 0, 15, 0, 74, 56, 50, 0
|0, 27, 2, 0, 0, 0, 0, 26, 0, 72, 67, 0, 25, 0, 19, 73, 0, 52, 0, 0, 0, 17, 0, 0, 0, 0, 0, 0, 0, 38, 0, 0, 44, 0, 0, 0, 42, 37, 80, 7, 28, 0, 0, 45, 0, 0, 59, 33, 68, 40, 0, 23, 6, 70, 0, 65, 18, 60, 21, 31, 61, 0, 0, 55, 1, 8, 32, 0, 36, 0, 0, 78, 75, 66, 3, 0, 51, 62, 71, 58, 11
|31, 38, 24, 34, 0, 0, 19, 21, 0, 0, 48, 75, 59, 0, 0, 8, 0, 27, 45, 2, 0, 11, 14, 37, 68, 60, 78, 74, 33, 0, 0, 36, 0, 51, 0, 0, 0, 69, 0, 0, 0, 46, 62, 0, 0, 0, 0, 0, 0, 41, 0, 0, 57, 32, 0, 0, 16, 43, 26, 0, 0, 0, 39, 0, 76, 20, 81, 0, 0, 52, 47, 0, 0, 22, 0, 61, 0, 0, 0, 25, 40
|0, 13, 0, 0, 52, 29, 12, 20, 5, 51, 0, 57, 28, 0, 35, 45, 0, 0, 0, 0, 39, 0, 46, 76, 8, 0, 0, 0, 78, 4, 16, 47, 15, 0, 62, 54, 11, 26, 0, 24, 67, 17, 81, 40, 0, 3, 0, 0, 30, 0, 37, 0, 19, 0, 32, 69, 41, 0, 33, 0, 59, 64, 0, 68, 0, 0, 0, 0, 0, 71, 75, 61, 23, 0, 0, 73, 0, 60, 0, 72, 0
|0, 0, 0, 40, 0, 41, 76, 0, 68, 13, 5, 34, 0, 0, 58, 14, 0, 81, 35, 0, 62, 0, 72, 0, 22, 10, 0, 55, 18, 0, 77, 64, 0, 0, 27, 32, 21, 0, 0, 1, 0, 56, 0, 33, 8, 0, 0, 0, 0, 4, 75, 47, 0, 79, 50, 0, 51, 46, 38, 0, 0, 3, 0, 60, 23, 0, 16, 0, 69, 12, 70, 42, 30, 0, 19, 52, 78, 0, 0, 9, 0
|75, 71, 0, 39, 55, 0, 74, 80, 0, 0, 37, 0, 26, 50, 0, 53, 0, 44, 59, 0, 32, 69, 0, 9, 6, 0, 40, 76, 0, 0, 0, 0, 0, 0, 11, 3, 65, 0, 0, 0, 25, 0, 49, 0, 0, 0, 0, 24, 81, 0, 0, 7, 51, 21, 45, 0, 20, 0, 0, 0, 0, 1, 52, 2, 0, 0, 0, 0, 19, 22, 64, 0, 0, 0, 43, 4, 77, 0, 0, 38, 17
|53, 11, 0, 0, 0, 0, 0, 0, 0, 0, 12, 0, 0, 47, 71, 0, 0, 0, 0, 0, 41, 64, 42, 0, 79, 0, 0, 0, 40, 21, 13, 0, 19, 0, 73, 69, 0, 51, 0, 0, 0, 0, 0, 0, 76, 0, 0, 0, 0, 2, 0, 0, 0, 9, 0, 4, 0, 0, 0, 27, 0, 0, 0, 0, 66, 0, 39, 0, 26, 0, 24, 35, 0, 0, 37, 46, 0, 0, 70, 32, 0
|0, 78, 0, 0, 63, 0, 60, 0, 58, 0, 0, 0, 64, 0, 0, 0, 0, 62, 0, 75, 0, 61, 0, 13, 65, 4, 5, 0, 8, 14, 68, 23, 0, 71, 0, 80, 27, 32, 0, 38, 0, 0, 55, 0, 0, 0, 11, 22, 26, 18, 0, 0, 45, 74, 57, 77, 17, 0, 0, 0, 44, 79, 0, 0, 3, 40, 25, 67, 0, 0, 0, 56, 0, 0, 0, 39, 0, 49, 0, 0, 69
|42, 49, 0, 76, 65, 54, 0, 15, 0, 28, 0, 27, 0, 0, 53, 75, 0, 32, 0, 13, 14, 71, 79, 70, 0, 40, 0, 61, 0, 0, 39, 6, 67, 30, 0, 0, 37, 55, 0, 26, 0, 0, 8, 0, 0, 10, 0, 7, 0, 47, 0, 0, 72, 0, 0, 3, 74, 0, 60, 0, 24, 16, 43, 0, 73, 0, 12, 0, 31, 33, 0, 0, 0, 0, 22, 0, 0, 0, 0, 17, 38
|58, 29, 31, 55, 12, 0, 6, 0, 0, 0, 0, 56, 0, 18, 73, 0, 0, 30, 0, 60, 0, 42, 57, 7, 17, 0, 0, 0, 13, 44, 0, 0, 59, 68, 0, 0, 0, 20, 0, 39, 0, 35, 64, 0, 0, 0, 22, 34, 0, 0, 0, 80, 0, 0, 38, 33, 9, 45, 0, 0, 23, 0, 8, 0, 16, 11, 0, 0, 0, 0, 1, 0, 47, 0, 0, 0, 69, 0, 0, 0, 0
|0, 0, 57, 32, 28, 0, 30, 64, 27, 0, 0, 0, 0, 13, 0, 52, 0, 0, 0, 0, 0, 0, 0, 45, 0, 0, 73, 0, 79, 0, 55, 54, 0, 0, 0, 0, 12, 42, 10, 15, 0, 0, 6, 50, 0, 0, 76, 75, 0, 16, 70, 18, 0, 0, 26, 0, 71, 61, 34, 0, 1, 0, 0, 14, 48, 0, 17, 68, 0, 39, 74, 5, 0, 49, 0, 0, 56, 0, 0, 0, 58
|0, 53, 0, 0, 2, 68, 71, 0, 0, 0, 70, 38, 0, 11, 61, 74, 42, 0, 0, 0, 0, 0, 55, 39, 41, 0, 33, 15, 0, 12, 1, 0, 5, 19, 29, 0, 3, 58, 0, 65, 46, 0, 36, 0, 0, 0, 0, 63, 9, 0, 0, 0, 27, 0, 49, 0, 0, 0, 18, 75, 64, 21, 0, 22, 72, 47, 0, 0, 44, 30, 28, 0, 0, 79, 16, 0, 24, 59, 0, 10, 0
|36, 20, 45, 19, 73, 77, 0, 67, 4, 41, 0, 0, 0, 24, 0, 0, 5, 0, 46, 54, 0, 0, 64, 0, 0, 3, 0, 33, 0, 37, 60, 72, 0, 49, 18, 42, 23, 68, 0, 13, 31, 0, 0, 0, 0, 0, 58, 30, 17, 61, 14, 57, 0, 0, 0, 0, 0, 0, 0, 0, 0, 76, 0, 0, 75, 66, 15, 52, 32, 55, 0, 2, 50, 0, 0, 0, 74, 11, 0, 0, 12
|46, 0, 78, 0, 0, 38, 0, 43, 0, 0, 64, 0, 0, 0, 0, 0, 67, 54, 0, 9, 81, 53, 28, 44, 0, 0, 12, 0, 0, 71, 40, 0, 0, 0, 17, 75, 30, 60, 14, 22, 0, 7, 51, 24, 29, 4, 0, 25, 11, 0, 77, 0, 0, 33, 0, 0, 57, 0, 56, 0, 0, 13, 0, 0, 0, 80, 0, 35, 27, 37, 0, 0, 0, 0, 52, 0, 0, 0, 0, 70, 0
|17, 0, 59, 10, 0, 0, 0, 0, 0, 0, 8, 72, 1, 0, 23, 3, 0, 0, 16, 11, 74, 47, 0, 49, 75, 50, 0, 20, 35, 0, 0, 9, 52, 36, 0, 56, 0, 45, 0, 0, 0, 5, 76, 0, 34, 0, 0, 0, 43, 0, 0, 0, 29, 28, 0, 66, 0, 39, 53, 0, 14, 81, 0, 0, 71, 60, 0, 0, 18, 0, 0, 0, 0, 0, 15, 0, 63, 42, 67, 0, 61
|62, 0, 0, 0, 40, 60, 11, 75, 8, 45, 2, 33, 0, 79, 21, 77, 12, 7, 20, 0, 0, 29, 66, 0, 0, 0, 30, 0, 24, 0, 0, 3, 0, 47, 0, 16, 41, 0, 0, 0, 0, 1, 52, 61, 32, 0, 81, 0, 0, 0, 39, 0, 0, 36, 54, 28, 4, 0, 0, 37, 72, 0, 0, 0, 0, 0, 19, 58, 0, 46, 0, 69, 53, 0, 0, 0, 27, 55, 0, 0, 0
|0, 0, 0, 26, 0, 16, 0, 9, 34, 0, 0, 17, 63, 0, 14, 36, 0, 71, 51, 48, 27, 15, 0, 0, 0, 80, 0, 0, 46, 0, 70, 0, 23, 77, 41, 74, 66, 0, 0, 21, 0, 33, 0, 0, 54, 0, 42, 0, 78, 0, 32, 55, 13, 0, 0, 0, 0, 0, 79, 0, 0, 0, 0, 0, 0, 0, 0, 0, 40, 61, 3, 0, 0, 0, 0, 0, 60, 0, 0, 0, 0
|0, 0, 3, 53, 0, 36, 44, 38, 28, 0, 0, 0, 0, 0, 63, 68, 73, 75, 17, 0, 0, 32, 0, 12, 0, 79, 0, 0, 62, 0, 0, 0, 80, 0, 0, 0, 0, 16, 37, 49, 0, 0, 0, 39, 33, 40, 29, 0, 71, 15, 5, 58, 67, 66, 0, 0, 13, 0, 0, 0, 20, 34, 74, 0, 65, 46, 10, 2, 61, 0, 72, 0, 14, 57, 24, 0, 0, 41, 55, 21, 0
|0, 18, 26, 0, 0, 0, 54, 0, 0, 0, 0, 0, 0, 34, 16, 0, 0, 51, 0, 5, 72, 0, 0, 0, 52, 56, 14, 3, 67, 53, 0, 74, 43, 0, 0, 10, 0, 0, 0, 77, 50, 0, 40, 62, 0, 39, 0, 0, 2, 0, 0, 22, 0, 23, 0, 41, 73, 55, 0, 0, 79, 37, 0, 35, 69, 30, 9, 0, 81, 6, 0, 64, 0, 28, 0, 0, 70, 58, 32, 42, 0
|0, 0, 4, 78, 48, 0, 37, 0, 2, 0, 0, 0, 0, 53, 0, 10, 28, 42, 30, 25, 15, 0, 13, 8, 3, 20, 43, 49, 0, 56, 52, 0, 29, 73, 0, 0, 67, 0, 0, 27, 0, 60, 0, 54, 18, 81, 0, 0, 0, 0, 65, 0, 24, 50, 70, 44, 0, 0, 0, 23, 17, 0, 0, 58, 74, 75, 7, 55, 0, 66, 0, 0, 0, 0, 69, 0, 0, 0, 0, 19, 39
|0, 9, 81, 0, 0, 0, 65, 8, 25, 56, 18, 29, 0, 15, 0, 0, 0, 0, 0, 0, 63, 23, 0, 0, 0, 22, 51, 0, 45, 0, 0, 0, 11, 28, 39, 64, 0, 0, 0, 0, 0, 0, 0, 0, 1, 70, 27, 0, 0, 6, 0, 79, 16, 19, 80, 0, 0, 0, 78, 0, 52, 12, 32, 0, 40, 0, 34, 0, 60, 0, 0, 17, 49, 50, 0, 3, 54, 0, 77, 67, 0
|0, 0, 0, 0, 0, 0, 0, 74, 0, 0, 44, 8, 61, 0, 0, 0, 0, 69, 0, 21, 0, 0, 0, 0, 53, 31, 37, 54, 0, 16, 0, 20, 13, 0, 0, 0, 70, 0, 0, 48, 52, 14, 22, 36, 51, 0, 0, 64, 0, 0, 34, 41, 0, 59, 0, 75, 0, 0, 9, 0, 0, 0, 24, 78, 0, 39, 0, 0, 0, 0, 0, 27, 10, 0, 73, 0, 15, 71, 0, 0, 0
|12, 39, 79, 63, 6, 0, 80, 0, 0, 0, 0, 0, 62, 0, 57, 60, 0, 0, 69, 29, 16, 55, 0, 64, 44, 78, 0, 0, 0, 0, 8, 0, 61, 0, 0, 0, 28, 0, 45, 0, 0, 0, 24, 0, 13, 74, 0, 0, 52, 56, 10, 3, 33, 0, 0, 0, 0, 4, 15, 0, 27, 68, 36, 0, 32, 38, 49, 19, 0, 18, 73, 0, 22, 7, 17, 48, 0, 47, 0, 0, 5
|76, 62, 27, 69, 0, 0, 0, 0, 0, 26, 0, 35, 0, 0, 49, 0, 0, 0, 0, 41, 70, 75, 0, 0, 10, 65, 71, 0, 44, 66, 0, 40, 57, 1, 79, 0, 0, 0, 23, 0, 29, 0, 0, 0, 74, 18, 48, 54, 4, 68, 0, 32, 28, 0, 0, 0, 0, 77, 7, 0, 0, 39, 0, 0, 31, 24, 80, 37, 0, 0, 45, 22, 81, 61, 0, 0, 11, 12, 0, 78, 33
|0, 58, 15, 60, 0, 0, 41, 0, 32, 0, 0, 31, 0, 45, 0, 0, 0, 12, 0, 50, 0, 0, 0, 0, 18, 39, 28, 71, 0, 34, 6, 0, 72, 0, 0, 24, 0, 0, 0, 0, 0, 61, 53, 26, 0, 0, 0, 0, 0, 51, 0, 0, 0, 11, 0, 0, 0, 19, 30, 0, 22, 54, 10, 33, 67, 0, 0, 0, 16, 48, 36, 0, 0, 0, 0, 64, 66, 0, 0, 0, 27
|7, 0, 0, 0, 64, 0, 0, 50, 0, 65, 0, 24, 22, 67, 55, 0, 0, 0, 81, 0, 73, 0, 77, 0, 27, 74, 0, 36, 0, 0, 14, 26, 21, 76, 12, 68, 0, 0, 0, 32, 0, 8, 72, 0, 59, 61, 0, 0, 0, 45, 44, 31, 75, 1, 0, 71, 53, 40, 0, 69, 33, 0, 0, 0, 0, 0, 0, 20, 0, 15, 57, 51, 63, 0, 0, 80, 0, 79, 0, 0, 0|];