order = 9;
grid = [|31, 77, 0, 69, 0, 23, 54, 0, 0, 0, 0, 12, 0, 0, 73, 11, 0, 80, 20, 0, 0, 16, 40, 0, 38, 67, 0, 0, 0, 24, 0, 41, 17, 0, 71, 52, 0, 14, 46, 55, 0, 0, 9, 0, 1, 51, 0, 64, 0, 0, 56, 0, 4, 70, 13, 3, 0, 21, 0, 0, 0, 42, 5, 44, 0, 0, 32, 0, 0, 47, 0, 28, 2, 62, 0, 36, 0, 75, 0, 61, 43
|39, 0, 0, 12, 17, 49, 50, 48, 0, 0, 33, 0, 58, 10, 8, 0, 61, 0, 70, 0, 32, 46, 0, 0, 0, 80, 56, 0, 0, 22, 0, 3, 73, 0, 59, 42, 0, 0, 0, 28, 0, 0, 0, 0, 52, 0, 75, 0, 0, 2, 0, 78, 65, 13, 63, 0, 40, 51, 0, 23, 0, 0, 26, 0, 14, 77, 18, 0, 54, 0, 0, 0, 76, 44, 16, 0, 24, 34, 0, 0, 0
|71, 0, 0, 67, 0, 0, 0, 25, 0, 0, 0, 1, 0, 0, 70, 65, 0, 0, 21, 14, 0, 0, 64, 0, 52, 0, 79, 4, 43, 0, 0, 35, 78, 0, 0, 0, 0, 0, 42, 56, 2, 0, 33, 44, 3, 6, 46, 0, 76, 0, 0, 0, 62, 59, 0, 53, 0, 0, 0, 58, 77, 0, 0, 15, 36, 17, 26, 24, 0, 73, 10, 40, 22, 23, 54, 0, 0, 8, 5, 51, 0
|11, 32, 0, 16, 0, 8, 9, 0, 0, 35, 0, 2, 0, 28, 0, 59, 0, 0, 0, 0, 0, 0, 77, 39, 0, 0, 0, 0, 61, 0, 70, 74, 0, 19, 0, 0, 43, 0, 12, 23, 0, 4, 0, 21, 57, 36, 40, 0, 0, 0, 0, 26, 80, 0, 45, 0, 0, 78, 0, 0, 0, 0, 0, 0, 29, 38, 51, 0, 0, 0, 0, 27, 0, 15, 0, 0, 49, 0, 0, 0, 0
|65, 0, 0, 0, 0, 0, 66, 52, 3, 0, 0, 43, 0, 6, 44, 0, 0, 0, 0, 78, 31, 0, 36, 73, 50, 2, 0, 63, 0, 21, 0, 0, 0, 0, 38, 0, 8, 0, 0, 76, 18, 0, 54, 0, 0, 0, 9, 0, 61, 0, 41, 0, 0, 0, 15, 0, 1, 4, 0, 0, 47, 0, 32, 42, 25, 0, 0, 49, 23, 0, 75, 35, 77, 0, 0, 60, 68, 0, 58, 0, 13
|0, 42, 4, 0, 60, 0, 0, 0, 0, 47, 0, 31, 37, 17, 72, 23, 0, 0, 0, 26, 1, 76, 0, 0, 0, 0, 0, 66, 44, 57, 0, 0, 0, 0, 81, 15, 0, 0, 0, 0, 73, 0, 75, 0, 0, 8, 63, 67, 18, 35, 0, 54, 53, 49, 0, 0, 55, 0, 24, 0, 9, 0, 0, 0, 0, 65, 12, 46, 0, 61, 0, 3, 0, 56, 28, 27, 52, 0, 0, 0, 0
|64, 21, 38, 0, 45, 61, 0, 0, 79, 0, 18, 0, 9, 40, 0, 56, 13, 0, 17, 53, 62, 51, 0, 19, 44, 42, 49, 67, 0, 23, 65, 0, 16, 68, 0, 55, 69, 27, 30, 72, 7, 0, 77, 41, 0, 0, 1, 0, 0, 0, 0, 15, 0, 0, 0, 14, 0, 0, 52, 60, 0, 50, 12, 20, 81, 0, 57, 0, 34, 0, 0, 31, 66, 0, 63, 0, 29, 0, 0, 0, 78
|0, 56, 0, 22, 68, 0, 15, 80, 0, 36, 0, 16, 0, 0, 45, 32, 46, 0, 0, 63, 0, 0, 23, 6, 0, 7, 24, 51, 0, 40, 0, 47, 69, 0, 1, 0, 0, 13, 0, 11, 0, 66, 17, 48, 70, 0, 44, 0, 52, 0, 12, 57, 73, 0, 0, 0, 0, 0, 8, 10, 0, 2, 81, 37, 0, 64, 0, 60, 43, 39, 72, 76, 14, 38, 59, 0, 0, 3, 0, 0, 55
|24, 75, 36, 0, 0, 5, 6, 0, 13, 14, 74, 48, 50, 42, 0, 7, 0, 0, 0, 0, 0, 0, 12, 27, 0, 0, 55, 39, 0, 0, 0, 0, 20, 54, 0, 76, 0, 0, 0, 0, 0, 0, 32, 15, 16, 0, 43, 17, 0, 29, 31, 0, 0, 23, 0, 59, 0, 0, 70, 57, 0, 22, 0, 0, 67, 52, 0, 69, 0, 56, 11, 0, 0, 9, 0, 65, 46, 35, 1, 0, 53
|72, 78, 28, 31, 0, 42, 0, 0, 0, 0, 0, 0, 0, 0, 26, 0, 9, 24, 0, 76, 37, 0, 0, 74, 20, 57, 17, 0, 56, 0, 0, 54, 0, 0, 12, 0, 61, 0, 0, 0, 0, 0, 0, 70, 0, 18, 49, 0, 0, 73, 0, 0, 0, 0, 0, 40, 0, 33, 0, 0, 60, 0, 0, 0, 75, 5, 35, 0, 69, 13, 36, 0, 38, 0, 79, 0, 51, 25, 44, 15, 71
|0, 47, 61, 63, 0, 0, 0, 46, 52, 0, 80, 7, 68, 34, 28, 0, 0, 71, 50, 0, 78, 23, 0, 0, 62, 0, 0, 44, 0, 3, 0, 0, 30, 49, 0, 25, 0, 0, 11, 0, 38, 0, 0, 0, 0, 42, 4, 31, 10, 0, 43, 2, 0, 26, 77, 0, 0, 0, 76, 0, 13, 70, 0, 39, 45, 0, 33, 79, 72, 51, 0, 0, 74, 6, 60, 0, 19, 73, 0, 0, 0
|2, 0, 0, 29, 74, 0, 0, 0, 0, 63, 0, 42, 17, 4, 15, 0, 58, 54, 18, 0, 0, 0, 0, 33, 51, 44, 0, 23, 69, 77, 0, 72, 0, 0, 34, 73, 0, 0, 0, 62, 0, 52, 0, 78, 6, 25, 0, 5, 40, 16, 0, 28, 36, 35, 49, 0, 0, 0, 59, 0, 0, 8, 30, 0, 0, 67, 0, 55, 0, 76, 0, 0, 0, 10, 0, 0, 3, 0, 57, 53, 0
|12, 79, 0, 30, 20, 33, 0, 0, 49, 0, 0, 0, 59, 78, 0, 0, 0, 52, 47, 0, 0, 0, 34, 43, 0, 72, 36, 68, 57, 76, 0, 26, 22, 42, 6, 0, 35, 60, 0, 0, 0, 55, 10, 50, 19, 45, 0, 65, 44, 0, 0, 80, 0, 62, 0, 51, 17, 0, 29, 0, 37, 0, 0, 0, 0, 28, 1, 0, 56, 0, 0, 73, 0, 0, 32, 0, 0, 0, 0, 75, 0
|53, 37, 32, 0, 58, 26, 0, 0, 62, 0, 31, 0, 3, 0, 22, 0, 48, 14, 79, 0, 0, 1, 42, 0, 0, 19, 0, 11, 0, 0, 0, 61, 0, 0, 0, 0, 0, 0, 0, 73, 29, 49, 0, 0, 0, 30, 64, 0, 15, 54, 0, 52, 67, 0, 0, 0, 0, 74, 68, 0, 20, 0, 0, 0, 0, 0, 0, 81, 60, 0, 0, 59, 56, 63, 0, 16, 39, 0, 36, 0, 0
|0, 0, 75, 0, 44, 0, 51, 0, 0, 13, 38, 0, 57, 76, 6, 0, 0, 0, 0, 49, 69, 66, 39, 46, 0, 0, 41, 0, 7, 0, 0, 0, 9, 80, 19, 0, 67, 48, 45, 0, 0, 40, 2, 0, 14, 0, 33, 0, 0, 0, 0, 8, 34, 56, 79, 0, 36, 0, 0, 0, 72, 52, 54, 0, 0, 63, 23, 0, 0, 29, 0, 43, 47, 11, 0, 0, 27, 0, 50, 55, 0
|66, 9, 0, 25, 38, 80, 48, 0, 0, 37, 56, 0, 0, 0, 21, 0, 81, 55, 0, 2, 0, 0, 0, 29, 40, 8, 0, 17, 0, 43, 0, 32, 24, 36, 78, 0, 0, 0, 33, 27, 0, 75, 79, 76, 28, 60, 0, 20, 39, 74, 0, 0, 0, 51, 26, 0, 0, 0, 12, 46, 0, 0, 4, 49, 0, 0, 0, 16, 57, 0, 0, 0, 52, 65, 35, 62, 0, 0, 68, 0, 0
|45, 19, 0, 34, 65, 0, 0, 23, 0, 43, 60, 72, 30, 62, 66, 0, 0, 61, 0, 64, 0, 0, 0, 10, 0, 0, 0, 71, 53, 18, 13, 14, 0, 0, 63, 1, 5, 44, 68, 0, 15, 51, 0, 20, 0, 46, 69, 38, 57, 0, 0, 0, 0, 27, 42, 28, 0, 0, 0, 80, 24, 0, 47, 0, 0, 32, 0, 0, 0, 31, 37, 0, 40, 29, 0, 49, 0, 0, 59, 70, 0
|0, 8, 15, 0, 0, 69, 0, 0, 0, 0, 0, 0, 0, 19, 49, 64, 0, 0, 0, 0, 0, 68, 21, 0, 65, 54, 0, 81, 10, 0, 0, 33, 38, 0, 0, 51, 0, 0, 66, 0, 46, 56, 0, 0, 63, 0, 76, 23, 79, 0, 53, 22, 50, 55, 34, 31, 0, 0, 6, 0, 0, 0, 0, 0, 52, 0, 77, 14, 80, 0, 74, 62, 24, 0, 12, 37, 1, 78, 61, 0, 0
|40, 0, 22, 13, 0, 52, 0, 0, 0, 81, 77, 61, 0, 0, 39, 0, 25, 0, 0, 31, 0, 7, 76, 14, 0, 0, 0, 0, 0, 75, 0, 20, 0, 0, 0, 44, 0, 65, 0, 6, 0, 21, 23, 0, 48, 79, 0, 69, 72, 0, 0, 0, 0, 0, 41, 66, 0, 46, 47, 0, 57, 0, 0, 0, 5, 0, 9, 0, 70, 12, 0, 0, 78, 19, 4, 43, 0, 45, 0, 0, 0
|21, 36, 0, 81, 61, 0, 0, 0, 0, 73, 0, 6, 0, 0, 30, 35, 57, 0, 0, 24, 0, 13, 25, 0, 12, 41, 15, 0, 0, 0, 45, 0, 54, 72, 0, 63, 60, 56, 0, 0, 59, 74, 70, 0, 22, 33, 37, 51, 68, 0, 40, 19, 0, 52, 0, 67, 11, 62, 0, 50, 0, 0, 0, 0, 46, 0, 0, 76, 0, 0, 0, 44, 0, 28, 0, 0, 55, 18, 0, 0, 0
|0, 0, 0, 0, 0, 0, 23, 0, 2, 28, 0, 66, 5, 0, 58, 0, 8, 10, 0, 0, 61, 0, 0, 0, 0, 0, 34, 0, 9, 0, 3, 19, 0, 76, 52, 26, 0, 33, 0, 78, 0, 46, 12, 0, 0, 16, 77, 0, 0, 0, 0, 0, 25, 0, 0, 0, 49, 0, 31, 0, 69, 0, 0, 27, 32, 45, 62, 0, 0, 0, 81, 51, 0, 42, 21, 0, 0, 38, 80, 35, 74
|0, 16, 48, 0, 0, 9, 38, 0, 0, 0, 46, 0, 47, 3, 0, 0, 42, 11, 28, 0, 52, 0, 0, 0, 0, 29, 64, 12, 73, 37, 81, 71, 0, 0, 66, 77, 0, 25, 63, 58, 0, 19, 0, 45, 68, 34, 0, 2, 0, 65, 0, 0, 61, 53, 55, 0, 74, 0, 0, 0, 0, 4, 0, 60, 0, 0, 0, 0, 0, 0, 39, 67, 51, 0, 27, 6, 8, 31, 72, 0, 7
|74, 0, 72, 33, 27, 76, 0, 0, 0, 52, 48, 0, 0, 59, 0, 54, 17, 53, 0, 57, 55, 0, 46, 21, 2, 0, 35, 28, 6, 38, 0, 11, 42, 0, 0, 0, 0, 4, 50, 0, 69, 36, 0, 0, 0, 26, 18, 58, 0, 0, 29, 0, 0, 66, 0, 0, 0, 0, 63, 0, 0, 0, 22, 30, 0, 0, 0, 0, 71, 0, 13, 0, 67, 0, 49, 0, 40, 0, 0, 0, 44
|0, 25, 0, 41, 0, 79, 39, 0, 0, 0, 0, 0, 0, 0, 27, 0, 0, 0, 0, 47, 72, 20, 63, 66, 0, 0, 6, 0, 0, 0, 0, 57, 0, 0, 0, 0, 0, 0, 18, 44, 11, 0, 0, 2, 0, 75, 0, 0, 46, 32, 81, 36, 42, 30, 0, 0, 0, 26, 0, 76, 0, 34, 0, 74, 0, 50, 40, 0, 0, 0, 52, 0, 12, 0, 0, 0, 0, 5, 3, 0, 0
|28, 0, 0, 57, 0, 68, 59, 0, 0, 41, 22, 36, 32, 0, 62, 78, 12, 0, 19, 0, 0, 0, 0, 9, 5, 0, 73, 0, 0, 0, 56, 4, 0, 0, 64, 34, 3, 16, 72, 81, 0, 0, 24, 0, 42, 0, 60, 0, 47, 13, 0, 0, 0, 0, 6, 44, 21, 25, 0, 0, 10, 38, 65, 0, 0, 61, 37, 66, 0, 69, 31, 77, 0, 0, 0, 58, 0, 0, 0, 46, 0
|0, 34, 0, 47, 78, 0, 10, 0, 0, 16, 0, 0, 24, 0, 0, 19, 0, 0, 0, 3, 0, 60, 58, 79, 0, 32, 0, 0, 62, 61, 5, 0, 50, 0, 35, 0, 0, 52, 13, 1, 0, 0, 26, 0, 0, 0, 0, 0, 41, 0, 0, 0, 0, 0, 0, 54, 42, 0, 0, 81, 0, 0, 40, 0, 0, 29, 59, 0, 0, 4, 0, 6, 37, 70, 0, 0, 0, 0, 76, 36, 25
|0, 65, 0, 0, 0, 0, 0, 31, 0, 23, 0, 0, 76, 0, 75, 0, 0, 0, 38, 39, 0, 78, 16, 67, 54, 0, 0, 0, 0, 49, 0, 48, 60, 7, 0, 0, 53, 0, 29, 57, 0, 34, 0, 51, 0, 4, 0, 15, 24, 0, 1, 0, 0, 28, 72, 0, 9, 77, 3, 0, 27, 0, 35, 21, 79, 0, 11, 0, 42, 36, 0, 64, 32, 66, 14, 0, 62, 0, 33, 71, 0
|26, 35, 37, 0, 41, 0, 0, 30, 72, 61, 67, 0, 65, 64, 60, 0, 27, 0, 73, 50, 0, 0, 2, 0, 45, 0, 77, 0, 0, 28, 22, 0, 0, 70, 0, 0, 51, 55, 0, 8, 31, 44, 42, 24, 33, 56, 6, 76, 0, 0, 0, 21, 15, 0, 81, 10, 0, 43, 0, 32, 0, 80, 69, 25, 63, 0, 16, 0, 0, 0, 0, 0, 0, 0, 47, 3, 0, 59, 66, 0, 0
|44, 27, 0, 0, 0, 0, 0, 11, 10, 0, 0, 17, 0, 0, 0, 0, 0, 49, 42, 0, 0, 36, 5, 0, 0, 31, 3, 0, 0, 0, 0, 0, 0, 45, 0, 0, 0, 1, 0, 74, 0, 22, 0, 0, 56, 70, 52, 72, 53, 0, 0, 0, 0, 80, 33, 77, 48, 0, 37, 71, 2, 0, 0, 57, 6, 0, 0, 54, 0, 43, 55, 0, 0, 0, 30, 61, 0, 41, 4, 0, 0
|32, 0, 0, 0, 28, 22, 49, 0, 0, 9, 30, 3, 48, 16, 36, 0, 0, 8, 0, 61, 19, 41, 14, 12, 24, 69, 0, 0, 0, 0, 0, 0, 18, 57, 0, 0, 0, 0, 47, 10, 25, 0, 71, 35, 81, 17, 65, 0, 78, 0, 4, 0, 66, 73, 0, 70, 44, 0, 58, 0, 62, 0, 53, 0, 60, 0, 75, 0, 29, 0, 0, 42, 80, 0, 0, 45, 50, 0, 23, 0, 0
|48, 0, 0, 0, 0, 74, 18, 38, 25, 0, 0, 0, 0, 2, 0, 0, 23, 0, 0, 80, 63, 26, 51, 65, 0, 0, 72, 0, 0, 53, 47, 0, 79, 0, 0, 64, 0, 58, 0, 0, 67, 0, 34, 0, 0, 5, 39, 28, 36, 81, 32, 0, 59, 0, 0, 7, 52, 0, 0, 0, 30, 0, 17, 0, 0, 0, 14, 8, 44, 0, 0, 19, 0, 0, 11, 71, 0, 49, 0, 24, 9
|0, 0, 0, 2, 81, 0, 33, 63, 0, 50, 0, 0, 51, 31, 0, 45, 11, 37, 40, 0, 0, 28, 79, 70, 34, 20, 22, 0, 74, 65, 6, 0, 0, 0, 3, 46, 59, 0, 16, 32, 0, 0, 0, 17, 77, 0, 71, 12, 55, 0, 62, 0, 0, 25, 4, 19, 0, 5, 39, 0, 78, 73, 0, 56, 15, 0, 36, 26, 0, 0, 0, 1, 0, 68, 43, 0, 64, 0, 53, 0, 18
|9, 0, 17, 0, 4, 78, 70, 36, 0, 0, 0, 63, 56, 0, 33, 71, 47, 0, 64, 67, 25, 0, 0, 38, 53, 37, 58, 0, 51, 69, 0, 0, 81, 0, 72, 0, 46, 45, 7, 0, 14, 0, 0, 40, 0, 44, 57, 18, 0, 0, 0, 0, 26, 16, 0, 68, 0, 50, 0, 59, 23, 0, 0, 66, 77, 73, 0, 0, 39, 30, 0, 12, 0, 20, 0, 0, 15, 0, 22, 0, 0
|80, 0, 50, 0, 0, 7, 34, 51, 0, 0, 13, 22, 74, 77, 0, 5, 72, 73, 23, 75, 0, 0, 59, 0, 57, 0, 33, 29, 0, 20, 0, 25, 0, 0, 0, 0, 0, 0, 26, 0, 28, 0, 63, 68, 0, 0, 0, 0, 48, 27, 46, 0, 0, 0, 0, 0, 0, 67, 40, 47, 11, 0, 6, 0, 58, 0, 45, 21, 0, 0, 0, 0, 8, 0, 2, 0, 0, 12, 0, 0, 0
|0, 13, 0, 0, 3, 15, 62, 57, 55, 25, 26, 34, 53, 0, 29, 70, 0, 81, 0, 6, 21, 0, 32, 0, 0, 43, 27, 0, 0, 16, 0, 24, 0, 60, 10, 0, 0, 11, 76, 0, 0, 50, 0, 0, 18, 0, 54, 33, 45, 38, 22, 20, 0, 0, 0, 0, 0, 65, 35, 28, 1, 9, 49, 0, 0, 0, 0, 0, 48, 0, 0, 0, 39, 7, 0, 0, 14, 0, 0, 58, 0
|73, 40, 5, 0, 12, 0, 0, 0, 29, 15, 0, 80, 20, 0, 0, 76, 0, 0, 0, 0, 0, 18, 0, 0, 0, 55, 0, 56, 0, 30, 48, 0, 0, 0, 0, 0, 4, 6, 23, 37, 57, 27, 0, 0, 0, 64, 0, 79, 74, 19, 0, 68, 8, 2, 54, 0, 45, 41, 13, 22, 31, 25, 0, 28, 0, 3, 0, 32, 38, 70, 59, 0, 36, 51, 69, 78, 10, 17, 63, 60, 33
|34, 0, 21, 0, 0, 41, 0, 0, 54, 76, 40, 0, 0, 50, 81, 0, 0, 58, 10, 0, 30, 61, 0, 0, 0, 0, 0, 32, 0, 52, 0, 44, 15, 0, 0, 0, 0, 35, 0, 48, 45, 0, 0, 53, 0, 57, 23, 0, 49, 0, 13, 0, 0, 0, 0, 78, 0, 0, 69, 0, 56, 0, 0, 0, 0, 71, 0, 51, 64, 3, 27, 0, 0, 73, 0, 0, 59, 37, 67, 63, 0
|58, 0, 0, 56, 0, 29, 0, 9, 0, 0, 4, 54, 35, 21, 0, 0, 0, 16, 0, 0, 0, 11, 0, 37, 0, 0, 23, 59, 0, 6, 64, 0, 0, 0, 0, 81, 0, 70, 0, 0, 63, 0, 0, 0, 0, 0, 24, 36, 0, 76, 18, 61, 0, 38, 80, 73, 72, 47, 0, 0, 0, 0, 0, 43, 0, 0, 0, 40, 52, 77, 0, 0, 53, 30, 0, 0, 0, 0, 7, 0, 0
|36, 61, 60, 0, 0, 43, 52, 0, 22, 32, 27, 49, 15, 0, 42, 0, 45, 0, 55, 65, 0, 0, 0, 0, 0, 53, 0, 0, 3, 80, 38, 10, 0, 17, 57, 0, 0, 0, 0, 20, 0, 13, 73, 0, 0, 0, 0, 0, 19, 0, 28, 0, 72, 0, 58, 6, 0, 76, 0, 0, 0, 68, 0, 24, 2, 21, 0, 37, 11, 0, 33, 26, 0, 46, 0, 35, 71, 44, 39, 78, 54
|57, 0, 79, 53, 55, 0, 0, 49, 30, 0, 0, 59, 0, 0, 0, 0, 0, 66, 56, 29, 73, 70, 20, 0, 64, 27, 0, 0, 39, 0, 0, 0, 0, 0, 0, 0, 0, 0, 0, 0, 10, 81, 4, 0, 78, 54, 0, 0, 17, 0, 67, 0, 0, 31, 22, 0, 16, 15, 9, 0, 0, 0, 13, 0, 0, 34, 58, 12, 0, 0, 41, 0, 42, 0, 5, 68, 65, 0, 0, 8, 40
|0, 62, 0, 0, 40, 0, 4, 6, 0, 0, 64, 0, 61, 0, 53, 3, 0, 0, 0, 36, 0, 71, 54, 31, 0, 9, 0, 0, 13, 0, 0, 0, 0, 77, 0, 35, 0, 0, 80, 0, 0, 0, 51, 0, 24, 0, 41, 0, 43, 0, 16, 0, 5, 0, 0, 0, 0, 34, 50, 0, 38, 0, 0, 8, 20, 60, 0, 73, 28, 32, 0, 0, 0, 0, 0, 1, 23, 0, 27, 2, 58
|63, 28, 27, 50, 0, 81, 0, 44, 39, 0, 52, 5, 69, 75, 7, 0, 1, 72, 34, 0, 0, 57, 6, 0, 0, 0, 0, 73, 0, 46, 0, 36, 45, 0, 51, 0, 0, 2, 22, 47, 0, 0, 0, 38, 0, 40, 0, 68, 59, 42, 0, 58, 0, 15, 0, 24, 10, 0, 33, 77, 0, 0, 31, 0, 0, 0, 0, 0, 0, 0, 0, 0, 25, 0, 0, 11, 0, 0, 74, 0, 16
|0, 0, 0, 0, 0, 0, 68, 19, 78, 24, 0, 13, 0, 0, 0, 51, 73, 29, 62, 18, 0, 0, 60, 59, 0, 74, 2, 22, 0, 4, 58, 0, 0, 0, 30, 9, 0, 0, 5, 0, 37, 31, 0, 0, 0, 47, 80, 0, 70, 48, 45, 46, 0, 0, 0, 0, 79, 54, 25, 0, 66, 0, 75, 0, 0, 72, 81, 50, 0, 7, 0, 10, 28, 52, 0, 0, 0, 0, 12, 0, 0
|0, 0, 70, 51, 0, 18, 20, 0, 24, 77, 79, 0, 25, 71, 68, 0, 0, 17, 0, 28, 33, 0, 22, 58, 80, 0, 0, 0, 0, 0, 49, 0, 61, 75, 0, 0, 42, 64, 0, 34, 76, 0, 0, 0, 0, 53, 0, 0, 69, 55, 0, 9, 0, 8, 39, 0, 0, 0, 0, 0, 0, 0, 23, 0, 0, 59, 78, 36, 0, 0, 57, 0, 0, 47, 0, 14, 0, 48, 0, 0, 4
|67, 73, 0, 3, 48, 46, 1, 45, 0, 31, 0, 0, 0, 8, 0, 0, 28, 0, 25, 43, 5, 72, 0, 0, 0, 24, 63, 0, 0, 14, 0, 23, 34, 0, 0, 0, 0, 0, 0, 0, 0, 0, 0, 0, 0, 62, 26, 4, 71, 44, 0, 60, 0, 0, 11, 61, 0, 53, 42, 20, 21, 0, 59, 0, 16, 0, 30, 38, 0, 0, 56, 17, 0, 0, 0, 80, 0, 0, 75, 0, 29
|8, 24, 0, 55, 43, 25, 74, 34, 81, 70, 0, 0, 80, 68, 56, 0, 44, 47, 78, 21, 59, 0, 0, 0, 0, 0, 13, 49, 0, 71, 0, 0, 26, 67, 76, 38, 33, 18, 10, 12, 54, 14, 0, 7, 31, 0, 61, 6, 1, 0, 20, 27, 58, 0, 0, 0, 30, 22, 60, 64, 0, 0, 37, 0, 0, 19, 0, 4, 32, 17, 0, 41, 16, 0, 0, 46, 53, 0, 0, 65, 0
|0, 49, 40, 61, 67, 0, 0, 0, 0, 0, 65, 0, 0, 0, 16, 0, 0, 28, 2, 0, 76, 0, 17, 0, 70, 62, 7, 1, 0, 66, 0, 6, 0, 0, 0, 11, 47, 0, 0, 71, 53, 0, 0, 0, 0, 0, 0, 43, 73, 0, 0, 4, 13, 0, 10, 34, 59, 32, 0, 0, 19, 18, 0, 77, 0, 51, 22, 56, 74, 48, 29, 0, 0, 3, 20, 5, 0, 0, 0, 12, 14
|41, 14, 18, 68, 2, 0, 47, 20, 69, 55, 0, 58, 0, 0, 0, 61, 76, 32, 53, 37, 36, 0, 0, 30, 28, 71, 9, 0, 0, 7, 19, 80, 31, 0, 0, 0, 77, 0, 17, 29, 0, 0, 40, 0, 0, 35, 0, 0, 16, 0, 42, 79, 0, 0, 0, 25, 67, 0, 46, 0, 0, 21, 0, 0, 0, 44, 54, 75, 6, 24, 12, 57, 59, 50, 0, 51, 70, 62, 64, 0, 49
|54, 0, 0, 0, 73, 0, 0, 0, 0, 0, 6, 64, 0, 43, 0, 0, 0, 0, 0, 52, 0, 0, 29, 77, 27, 50, 8, 0, 55, 0, 0, 28, 47, 16, 56, 0, 0, 0, 59, 0, 5, 0, 0, 0, 0, 0, 0, 41, 7, 18, 19, 34, 0, 0, 20, 39, 0, 0, 0, 26, 4, 72, 0, 0, 40, 0, 60, 53, 0, 14, 2, 66, 33, 0, 0, 0, 61, 67, 30, 0, 21
|4, 0, 13, 0, 0, 16, 0, 28, 71, 38, 35, 75, 0, 0, 0, 27, 0, 30, 0, 23, 20, 0, 1, 0, 0, 6, 19, 41, 37, 0, 32, 40, 65, 0, 53, 0, 0, 72, 51, 0, 66, 64, 0, 0, 50, 0, 0, 81, 0, 0, 70, 59, 76, 0, 24, 0, 73, 49, 0, 14, 12, 31, 7, 62, 0, 0, 43, 0, 0, 15, 21, 0, 0, 78, 0, 0, 0, 36, 0, 44, 80
|19, 0, 52, 70, 0, 32, 0, 60, 0, 0, 0, 0, 66, 57, 0, 62, 31, 5, 0, 0, 58, 0, 72, 0, 25, 12, 10, 0, 0, 0, 0, 51, 59, 0, 0, 0, 0, 0, 0, 26, 0, 0, 38, 0, 0, 0, 0, 75, 0, 0, 8, 56, 33, 65, 0, 23, 80, 0, 0, 17, 55, 13, 29, 1, 0, 39, 0, 18, 0, 0, 0, 69, 68, 81, 40, 34, 0, 0, 47, 0, 73
|56, 51, 0, 0, 0, 0, 0, 0, 21, 59, 0, 0, 14, 0, 71, 46, 0, 0, 48, 0, 57, 47, 0, 0, 39, 0, 74, 0, 25, 12, 73, 22, 62, 43, 0, 0, 0, 0, 49, 13, 0, 0, 0, 55, 0, 72, 67, 0, 0, 52, 15, 0, 54, 0, 36, 76, 0, 0, 27, 0, 0, 77, 0, 0, 7, 0, 0, 23, 79, 0, 0, 63, 0, 8, 37, 10, 58, 0, 9, 0, 0
|62, 0, 23, 0, 0, 1, 35, 53, 0, 0, 0, 0, 12, 0, 41, 2, 77, 19, 14, 81, 0, 32, 0, 16, 0, 0, 68, 0, 0, 54, 0, 0, 29, 0, 0, 3, 76, 0, 25, 0, 61, 79, 74, 0, 0, 0, 0, 57, 26, 17, 0, 30, 71, 0, 66, 0, 58, 0, 0, 51, 63, 5, 0, 0, 0, 0, 0, 0, 73, 42, 20, 0, 55, 24, 75, 56, 7, 0, 69, 13, 0
|6, 7, 0, 59, 33, 0, 0, 0, 48, 0, 29, 23, 0, 0, 1, 37, 0, 0, 75, 0, 0, 0, 18, 0, 0, 26, 0, 0, 24, 8, 4, 81, 64, 20, 58, 57, 0, 78, 0, 36, 0, 0, 19, 0, 44, 14, 50, 62, 0, 0, 0, 0, 47, 0, 0, 0, 0, 0, 53, 0, 0, 0, 0, 0, 0, 0, 0, 0, 5, 67, 0, 0, 43, 0, 76, 41, 72, 0, 15, 0, 66
|0, 0, 67, 0, 62, 34, 3, 0, 0, 0, 76, 20, 1, 0, 0, 41, 35, 0, 16, 0, 17, 0, 0, 0, 6, 0, 0, 0, 0, 32, 0, 0, 0, 65, 4, 22, 7, 68, 0, 0, 27, 0, 43, 61, 0, 80, 0, 0, 0, 0, 0, 77, 0, 19, 78, 0, 0, 0, 21, 0, 70, 0, 51, 29, 0, 8, 56, 11, 0, 0, 0, 30, 0, 0, 0, 55, 63, 53, 10, 5, 0
|0, 0, 57, 43, 0, 0, 65, 0, 0, 0, 0, 0, 36, 0, 80, 0, 0, 6, 35, 0, 24, 0, 56, 62, 23, 0, 78, 0, 16, 74, 50, 0, 58, 0, 0, 72, 9, 0, 0, 49, 0, 0, 0, 0, 40, 71, 68, 60, 54, 0, 0, 0, 69, 20, 0, 0, 0, 0, 77, 0, 81, 10, 0, 0, 0, 0, 0, 52, 31, 21, 26, 70, 0, 0, 7, 0, 0, 0, 0, 22, 37
|0, 0, 39, 0, 16, 50, 0, 22, 36, 0, 43, 0, 54, 0, 78, 0, 0, 0, 45, 0, 0, 49, 0, 2, 26, 33, 53, 0, 14, 56, 0, 0, 0, 59, 7, 69, 41, 21, 70, 65, 0, 0, 0, 0, 10, 76, 32, 0, 66, 62, 0, 0, 0, 0, 73, 0, 38, 72, 0, 4, 0, 28, 80, 64, 19, 27, 0, 58, 0, 0, 0, 48, 81, 67, 0, 0, 75, 0, 20, 0, 68
|0, 0, 0, 0, 0, 0, 0, 55, 0, 17, 0, 38, 4, 0, 51, 72, 68, 59, 41, 10, 27, 0, 75, 32, 30, 0, 76, 26, 0, 11, 43, 0, 0, 0, 79, 47, 57, 0, 19, 0, 78, 0, 22, 13, 0, 21, 0, 63, 0, 56, 9, 0, 39, 33, 0, 0, 71, 69, 0, 7, 25, 0, 0, 50, 0, 0, 67, 0, 0, 0, 49, 0, 1, 40, 0, 74, 77, 42, 8, 0, 0
|0, 18, 0, 0, 19, 45, 0, 0, 0, 0, 0, 0, 62, 0, 5, 50, 29, 0, 0, 20, 0, 25, 0, 57, 48, 0, 43, 75, 68, 55, 0, 0, 0, 0, 0, 0, 0, 73, 37, 0, 12, 58, 36, 0, 69, 24, 0, 0, 0, 4, 10, 0, 52, 46, 0, 42, 22, 59, 54, 0, 6, 47, 56, 0, 0, 0, 0, 39, 0, 0, 0, 0, 3, 80, 64, 33, 60, 0, 32, 14, 0
|0, 0, 63, 0, 0, 0, 0, 0, 0, 8, 53, 0, 81, 0, 67, 0, 0, 77, 39, 0, 54, 58, 0, 11, 0, 0, 0, 0, 0, 0, 10, 42, 0, 0, 0, 20, 56, 0, 0, 35, 0, 0, 0, 0, 0, 12, 16, 3, 0, 0, 0, 0, 0, 29, 17, 45, 0, 0, 64, 0, 5, 19, 0, 0, 0, 1, 0, 47, 0, 2, 9, 75, 44, 0, 61, 0, 78, 57, 0, 0, 70
|49, 74, 81, 0, 0, 0, 0, 79, 9, 3, 42, 0, 0, 0, 0, 44, 71, 56, 51, 0, 0, 0, 0, 52, 0, 60, 21, 24, 0, 0, 18, 39, 77, 46, 0, 0, 0, 47, 0, 30, 34, 28, 0, 31, 0, 58, 0, 14, 0, 0, 0, 73, 0, 0, 53, 0, 0, 20, 0, 0, 16, 0, 0, 12, 55, 36, 0, 0, 59, 57, 0, 0, 65, 17, 0, 76, 4, 6, 11, 0, 0
|38, 0, 0, 0, 6, 10, 56, 54, 0, 0, 75, 0, 19, 58, 0, 24, 0, 0, 0, 46, 18, 0, 0, 50, 37, 0, 0, 0, 0, 0, 30, 0, 63, 8, 23, 70, 71, 17, 32, 5, 0, 0, 0, 0, 0, 65, 0, 0, 0, 0, 61, 0, 28, 36, 52, 0, 0, 0, 41, 0, 0, 0, 79, 0, 68, 0, 15, 0, 0, 0, 78, 45, 49, 16, 62, 12, 43, 39, 0, 29, 0
|0, 17, 0, 44, 77, 59, 5, 0, 75, 11, 28, 0, 39, 22, 34, 0, 16, 0, 36, 70, 7, 0, 0, 47, 0, 0, 29, 0, 71, 0, 25, 1, 41, 35, 61, 33, 0, 0, 53, 63, 0, 0, 0, 0, 0, 0, 0, 0, 31, 51, 64, 23, 0, 0, 76, 0, 3, 9, 0, 0, 0, 0, 0, 65, 0, 37, 0, 62, 0, 0, 0, 0, 0, 21, 0, 38, 0, 27, 0, 0, 56
|0, 72, 0, 0, 79, 0, 0, 0, 57, 44, 0, 0, 63, 0, 20, 36, 49, 4, 0, 51, 0, 10, 0, 64, 9, 0, 0, 53, 22, 68, 11, 56, 0, 0, 0, 0, 48, 0, 1, 15, 26, 0, 0, 34, 0, 0, 14, 0, 62, 0, 55, 47, 21, 0, 37, 58, 0, 0, 80, 41, 17, 40, 66, 0, 43, 75, 52, 0, 0, 59, 0, 0, 29, 0, 0, 0, 33, 0, 78, 0, 24
|33, 0, 34, 0, 37, 47, 61, 0, 0, 2, 0, 0, 42, 56, 24, 43, 41, 0, 0, 0, 79, 21, 0, 0, 0, 45, 70, 7, 26, 36, 51, 0, 0, 23, 8, 0, 0, 0, 0, 0, 0, 17, 0, 0, 0, 0, 28, 39, 30, 0, 0, 18, 0, 64, 59, 63, 0, 0, 75, 0, 0, 0, 52, 73, 0, 0, 5, 29, 77, 0, 0, 0, 0, 0, 0, 0, 9, 0, 0, 49, 0
|14, 0, 49, 0, 0, 0, 55, 39, 46, 6, 0, 35, 0, 0, 57, 68, 51, 64, 0, 0, 47, 42, 0, 0, 8, 15, 0, 0, 59, 72, 16, 0, 0, 0, 0, 0, 74, 0, 0, 0, 0, 0, 78, 0, 0, 48, 0, 0, 13, 60, 65, 0, 40, 76, 31, 9, 0, 2, 0, 0, 3, 1, 11, 32, 17, 56, 19, 27, 26, 20, 0, 24, 0, 0, 53, 69, 0, 43, 41, 23, 0
|22, 0, 54, 36, 52, 48, 0, 74, 19, 0, 8, 0, 0, 23, 11, 80, 0, 0, 32, 5, 0, 81, 44, 34, 13, 25, 75, 20, 28, 9, 17, 0, 0, 6, 0, 0, 0, 0, 0, 0, 40, 71, 59, 0, 0, 0, 29, 0, 56, 0, 0, 0, 0, 0, 14, 0, 76, 27, 18, 70, 65, 49, 0, 0, 42, 0, 0, 0, 10, 0, 0, 15, 0, 0, 0, 21, 47, 1, 0, 4, 0
|0, 44, 68, 21, 29, 17, 0, 71, 51, 33, 3, 19, 0, 27, 0, 0, 0, 45, 0, 40, 0, 6, 0, 20, 59, 11, 67, 25, 0, 0, 66, 0, 0, 0, 42, 2, 10, 0, 14, 0, 0, 65, 0, 32, 0, 15, 0, 26, 0, 34, 50, 16, 0, 37, 0, 0, 61, 36, 0, 0, 0, 30, 0, 0, 57, 54, 0, 0, 22, 0, 0, 0, 63, 75, 0, 0, 0, 0, 0, 39, 0
|77, 0, 0, 65, 75, 20, 31, 64, 18, 48, 59, 0, 0, 46, 17, 22, 0, 25, 0, 58, 0, 74, 24, 0, 71, 73, 50, 0, 0, 0, 0, 76, 80, 40, 39, 32, 19, 36, 0, 70, 72, 69, 67, 47, 0, 0, 5, 0, 0, 49, 0, 1, 68, 81, 57, 0, 23, 0, 45, 6, 51, 44, 0, 9, 37, 55, 0, 0, 33, 28, 0, 0, 7, 0, 0, 30, 2, 0, 0, 0, 0
|16, 41, 76, 11, 69, 0, 0, 0, 4, 0, 0, 28, 0, 65, 9, 0, 0, 0, 30, 0, 23, 17, 49, 68, 0, 52, 57, 0, 0, 0, 0, 0, 75, 13, 18, 10, 2, 0, 8, 0, 0, 0, 0, 56, 0, 22, 74, 0, 0, 61, 0, 0, 70, 0, 0, 43, 0, 0, 0, 78, 0, 0, 77, 0, 0, 31, 34, 0, 36, 45, 0, 0, 54, 0, 0, 0, 0, 20, 6, 73, 59
|0, 66, 0, 0, 0, 0, 13, 0, 0, 0, 73, 79, 0, 5, 40, 18, 54, 60, 29, 48, 0, 0, 0, 22, 0, 0, 0, 0, 78, 0, 0, 0, 0, 44, 69, 71, 20, 0, 0, 0, 55, 77, 28, 0, 7, 59, 0, 0, 33, 80, 75, 0, 0, 0, 46, 21, 0, 0, 0, 0, 53, 0, 42, 23, 0, 0, 0, 0, 51, 58, 0, 4, 15, 35, 57, 0, 37, 68, 26, 0, 36
|5, 0, 0, 45, 59, 30, 0, 8, 0, 75, 0, 76, 0, 0, 47, 0, 10, 13, 33, 0, 60, 31, 0, 69, 0, 14, 0, 0, 0, 1, 67, 55, 0, 0, 62, 79, 0, 0, 6, 0, 0, 0, 46, 43, 0, 19, 3, 0, 23, 9, 36, 0, 0, 78, 0, 38, 0, 73, 0, 12, 0, 0, 20, 16, 0, 53, 80, 70, 0, 11, 40, 68, 34, 72, 25, 0, 44, 71, 0, 0, 0
|0, 0, 42, 15, 0, 53, 0, 0, 40, 0, 25, 0, 67, 52, 14, 28, 0, 0, 76, 0, 50, 24, 0, 61, 0, 0, 39, 36, 0, 0, 0, 0, 0, 71, 0, 6, 0, 20, 48, 54, 47, 0, 68, 63, 0, 0, 79, 49, 0, 30, 0, 0, 0, 0, 0, 81, 37, 16, 26, 35, 0, 0, 0, 22, 64, 66, 0, 0, 41, 74, 0, 38, 0, 31, 70, 23, 32, 0, 0, 0, 3
|20, 54, 0, 74, 0, 0, 78, 0, 16, 0, 66, 0, 38, 0, 0, 0, 0, 70, 7, 0, 0, 69, 45, 17, 0, 22, 5, 0, 0, 0, 0, 15, 0, 62, 49, 0, 0, 0, 73, 0, 36, 0, 53, 37, 0, 0, 11, 61, 0, 0, 0, 0, 27, 0, 0, 80, 0, 8, 0, 0, 0, 29, 0, 0, 21, 0, 55, 0, 50, 0, 46, 56, 35, 33, 0, 0, 0, 0, 0, 0, 0
|3, 59, 0, 0, 46, 0, 0, 0, 63, 64, 0, 11, 0, 24, 37, 8, 7, 78, 43, 0, 9, 0, 0, 28, 79, 49, 47, 0, 0, 0, 54, 66, 0, 0, 0, 0, 0, 0, 0, 21, 0, 33, 56, 0, 26, 0, 0, 0, 67, 68, 73, 0, 0, 0, 0, 0, 6, 30, 0, 72, 0, 12, 39, 58, 69, 16, 0, 0, 0, 60, 0, 0, 5, 0, 50, 0, 36, 76, 25, 0, 41
|18, 23, 19, 27, 72, 0, 28, 0, 0, 0, 61, 0, 0, 29, 54, 0, 5, 22, 0, 16, 0, 2, 0, 15, 1, 34, 0, 3, 46, 64, 0, 65, 0, 12, 44, 0, 11, 0, 35, 0, 81, 0, 50, 39, 4, 0, 0, 56, 0, 0, 51, 25, 0, 47, 0, 62, 0, 0, 0, 53, 58, 79, 21, 0, 0, 0, 70, 0, 0, 0, 32, 0, 20, 0, 68, 0, 57, 0, 0, 0, 75
|35, 29, 55, 77, 66, 51, 22, 0, 0, 53, 0, 0, 41, 1, 76, 33, 0, 0, 0, 72, 0, 0, 0, 26, 0, 36, 0, 8, 0, 0, 0, 68, 0, 0, 28, 0, 0, 0, 0, 40, 0, 42, 44, 49, 61, 31, 19, 0, 0, 0, 0, 0, 57, 43, 69, 0, 70, 0, 56, 5, 64, 0, 63, 0, 12, 0, 0, 0, 0, 75, 15, 7, 17, 14, 0, 79, 0, 0, 0, 16, 0
|0, 0, 0, 0, 31, 0, 76, 0, 0, 46, 0, 10, 55, 0, 32, 0, 0, 79, 6, 0, 38, 0, 0, 0, 67, 48, 51, 0, 0, 0, 0, 0, 5, 0, 26, 43, 17, 12, 0, 0, 0, 0, 8, 0, 23, 0, 0, 0, 0, 15, 44, 35, 0, 0, 0, 0, 0, 61, 0, 0, 0, 78, 9, 19, 0, 0, 20, 0, 0, 80, 77, 36, 0, 0, 56, 0, 66, 0, 13, 40, 0
|79, 50, 33, 0, 0, 13, 0, 24, 0, 20, 0, 0, 21, 0, 0, 0, 0, 36, 0, 0, 0, 73, 68, 78, 35, 0, 0, 0, 72, 17, 0, 38, 14, 56, 41, 18, 27, 71, 57, 0, 0, 29, 0, 0, 0, 10, 66, 40, 5, 0, 3, 0, 0, 0, 43, 0, 54, 0, 55, 15, 49, 75, 76, 59, 0, 4, 0, 42, 0, 65, 0, 47, 26, 58, 0, 0, 69, 0, 46, 0, 0
|61, 2, 45, 0, 5, 0, 81, 0, 0, 71, 0, 60, 0, 80, 0, 73, 0, 0, 0, 0, 64, 0, 0, 0, 19, 59, 0, 0, 47, 50, 0, 0, 0, 0, 31, 29, 65, 43, 0, 7, 0, 62, 0, 46, 79, 0, 55, 0, 21, 36, 58, 0, 0, 39, 48, 0, 32, 10, 0, 24, 33, 3, 0, 14, 44, 11, 0, 35, 0, 0, 51, 23, 0, 77, 0, 28, 0, 15, 0, 0, 72
|52, 0, 0, 0, 0, 36, 0, 12, 0, 58, 51, 9, 49, 63, 0, 15, 43, 0, 0, 0, 13, 56, 74, 23, 29, 77, 0, 16, 32, 0, 75, 59, 7, 0, 0, 61, 0, 0, 78, 0, 64, 0, 0, 19, 0, 41, 0, 0, 80, 0, 24, 14, 0, 0, 47, 0, 0, 0, 0, 0, 0, 0, 0, 0, 33, 0, 0, 5, 0, 0, 0, 0, 71, 0, 0, 8, 0, 22, 45, 0, 0|];