order = 6;
grid = [|12, 0, 0, 3, 23, 0, 0, 0, 16, 4, 2, 9, 29, 0, 34, 14, 32, 10, 0, 22, 6, 30, 28, 0, 35, 15, 25, 31, 0, 0, 0, 0, 0, 0, 0, 0
|31, 28, 21, 9, 14, 0, 0, 0, 3, 0, 0, 13, 16, 0, 0, 11, 0, 22, 25, 0, 0, 0, 20, 0, 0, 0, 24, 0, 30, 7, 0, 32, 12, 0, 0, 0
|0, 27, 6, 0, 30, 29, 0, 34, 0, 33, 0, 21, 0, 0, 0, 0, 7, 0, 5, 0, 0, 0, 0, 0, 0, 22, 0, 0, 2, 3, 0, 11, 1, 0, 0, 31
|0, 16, 34, 2, 0, 0, 0, 1, 0, 36, 0, 31, 19, 0, 4, 0, 5, 0, 9, 0, 35, 0, 0, 33, 17, 6, 23, 0, 21, 0, 0, 0, 0, 7, 29, 25
|10, 0, 0, 0, 36, 24, 0, 15, 0, 0, 0, 29, 21, 0, 2, 25, 0, 0, 0, 0, 12, 32, 27, 17, 0, 0, 0, 0, 1, 4, 0, 0, 0, 14, 34, 0
|25, 18, 0, 4, 20, 0, 12, 23, 35, 28, 0, 0, 30, 0, 0, 15, 0, 0, 0, 34, 0, 21, 0, 0, 11, 33, 36, 8, 27, 0, 0, 16, 0, 0, 9, 0
|9, 0, 0, 7, 0, 0, 5, 0, 36, 0, 14, 0, 0, 32, 0, 24, 0, 3, 2, 25, 13, 29, 8, 0, 4, 21, 0, 0, 0, 19, 20, 0, 0, 11, 1, 0
|4, 0, 0, 0, 1, 0, 34, 0, 17, 24, 0, 0, 0, 0, 21, 30, 18, 19, 0, 15, 10, 0, 0, 11, 0, 32, 0, 0, 0, 33, 25, 0, 0, 0, 12, 14
|0, 0, 0, 0, 0, 17, 0, 31, 0, 0, 30, 0, 0, 26, 0, 22, 0, 0, 20, 9, 7, 27, 23, 0, 29, 0, 0, 36, 6, 24, 16, 0, 0, 3, 0, 0
|0, 14, 0, 28, 0, 12, 0, 8, 29, 0, 23, 0, 0, 0, 0, 31, 0, 13, 17, 0, 5, 35, 21, 0, 0, 0, 0, 0, 16, 11, 34, 0, 36, 6, 0, 0
|33, 0, 0, 6, 16, 19, 0, 4, 13, 22, 12, 35, 9, 0, 11, 0, 0, 2, 0, 0, 18, 0, 30, 0, 14, 34, 15, 26, 28, 25, 0, 17, 0, 0, 31, 27
|23, 0, 5, 15, 29, 0, 2, 0, 26, 0, 21, 0, 36, 0, 0, 34, 0, 25, 0, 0, 32, 0, 0, 4, 0, 0, 0, 0, 3, 0, 19, 0, 0, 22, 0, 9
|0, 6, 0, 0, 0, 0, 25, 0, 0, 0, 0, 2, 0, 28, 0, 3, 36, 0, 0, 12, 34, 23, 0, 27, 21, 0, 0, 0, 0, 26, 0, 29, 20, 0, 0, 0
|11, 0, 0, 0, 0, 0, 0, 12, 0, 0, 0, 0, 32, 22, 0, 0, 35, 0, 13, 18, 0, 0, 36, 0, 6, 16, 0, 19, 0, 0, 24, 21, 2, 0, 0, 0
|18, 0, 28, 0, 32, 0, 0, 35, 0, 30, 16, 19, 0, 14, 0, 0, 10, 23, 22, 17, 20, 26, 0, 31, 0, 0, 11, 0, 7, 12, 15, 25, 0, 34, 4, 13
|34, 0, 12, 22, 0, 14, 29, 0, 0, 21, 15, 0, 27, 0, 18, 0, 0, 0, 0, 0, 30, 0, 0, 24, 23, 0, 0, 0, 0, 0, 0, 36, 3, 0, 0, 0
|21, 30, 27, 0, 13, 0, 0, 9, 20, 0, 0, 0, 0, 0, 0, 0, 25, 0, 28, 8, 11, 0, 0, 35, 0, 29, 32, 0, 24, 31, 0, 6, 17, 12, 0, 22
|0, 36, 0, 0, 31, 7, 1, 32, 33, 0, 26, 24, 0, 0, 0, 0, 30, 34, 15, 6, 0, 14, 29, 0, 8, 0, 0, 27, 0, 0, 0, 18, 0, 28, 10, 0
|0, 33, 0, 0, 3, 0, 0, 0, 0, 0, 0, 18, 0, 0, 30, 8, 0, 27, 1, 0, 0, 11, 25, 23, 0, 0, 0, 4, 32, 0, 28, 0, 26, 20, 22, 24
|0, 8, 24, 0, 18, 0, 0, 30, 0, 0, 32, 0, 0, 0, 31, 0, 0, 0, 27, 0, 33, 0, 35, 13, 28, 36, 0, 0, 11, 0, 0, 0, 0, 5, 21, 15
|7, 0, 13, 0, 0, 0, 0, 0, 8, 25, 29, 12, 0, 1, 0, 0, 33, 0, 0, 21, 0, 0, 0, 0, 20, 0, 6, 0, 0, 0, 0, 0, 14, 30, 2, 0
|0, 15, 0, 0, 4, 0, 35, 6, 7, 0, 0, 11, 23, 0, 24, 0, 13, 32, 8, 28, 0, 0, 16, 0, 31, 3, 2, 17, 19, 0, 18, 0, 0, 0, 0, 29
|0, 0, 29, 0, 28, 21, 0, 24, 0, 16, 5, 22, 4, 2, 0, 0, 20, 0, 0, 7, 0, 3, 15, 14, 0, 0, 0, 0, 0, 18, 0, 8, 0, 19, 0, 32
|1, 0, 11, 27, 10, 25, 0, 0, 0, 13, 33, 0, 0, 34, 0, 0, 15, 5, 0, 0, 0, 9, 22, 0, 0, 24, 0, 29, 8, 0, 17, 0, 16, 0, 7, 0
|29, 0, 35, 0, 0, 0, 0, 0, 0, 17, 3, 0, 0, 31, 0, 0, 23, 0, 32, 0, 0, 0, 0, 25, 0, 14, 0, 0, 0, 20, 10, 0, 6, 2, 36, 0
|13, 0, 0, 0, 25, 5, 26, 0, 0, 0, 18, 0, 17, 29, 0, 27, 24, 28, 0, 0, 0, 0, 1, 2, 0, 0, 0, 30, 36, 0, 4, 0, 0, 0, 3, 0
|0, 0, 22, 0, 12, 30, 24, 0, 23, 2, 19, 0, 1, 15, 14, 0, 0, 0, 0, 13, 9, 7, 0, 20, 0, 31, 0, 11, 0, 6, 0, 0, 0, 33, 25, 28
|27, 0, 0, 0, 0, 0, 16, 0, 25, 35, 0, 0, 0, 30, 20, 13, 8, 0, 3, 10, 19, 0, 0, 6, 15, 26, 0, 0, 29, 2, 22, 0, 0, 0, 5, 1
|28, 24, 36, 0, 0, 0, 13, 0, 0, 7, 0, 32, 25, 0, 16, 4, 0, 6, 21, 0, 0, 5, 0, 29, 22, 35, 0, 0, 17, 0, 9, 0, 31, 26, 8, 19
|0, 3, 0, 11, 0, 2, 33, 0, 22, 12, 4, 8, 0, 35, 0, 5, 19, 21, 16, 0, 0, 0, 24, 0, 0, 18, 0, 0, 25, 10, 0, 20, 0, 0, 30, 23
|0, 0, 0, 0, 0, 10, 8, 16, 32, 0, 35, 0, 6, 11, 26, 0, 28, 30, 0, 0, 0, 12, 7, 9, 18, 23, 19, 0, 0, 0, 13, 22, 25, 0, 0, 0
|0, 11, 9, 23, 0, 3, 0, 33, 19, 10, 0, 0, 7, 0, 0, 36, 0, 15, 14, 35, 24, 34, 0, 0, 0, 2, 30, 0, 12, 0, 0, 0, 21, 0, 0, 0
|0, 0, 0, 26, 7, 0, 0, 0, 21, 15, 0, 0, 0, 5, 0, 0, 34, 0, 0, 16, 0, 0, 0, 0, 0, 0, 9, 0, 31, 22, 29, 0, 30, 27, 0, 0
|8, 32, 0, 30, 0, 28, 0, 7, 12, 0, 20, 0, 0, 0, 0, 0, 27, 0, 10, 0, 25, 0, 19, 21, 0, 0, 29, 24, 13, 0, 0, 26, 35, 31, 6, 0
|0, 22, 0, 0, 0, 0, 6, 0, 0, 27, 0, 0, 0, 12, 0, 0, 0, 8, 26, 20, 0, 13, 0, 0, 0, 0, 0, 0, 0, 0, 0, 0, 0, 0, 14, 0
|5, 0, 19, 0, 21, 6, 0, 0, 34, 29, 0, 0, 13, 25, 0, 0, 0, 0, 36, 0, 22, 4, 0, 30, 0, 10, 0, 0, 0, 27, 8, 0, 0, 0, 0, 18|];