order = 6;
grid = [|0, 20, 24, 26, 0, 1, 0, 0, 0, 32, 0, 0, 0, 31, 0, 0, 9, 18, 0, 0, 0, 4, 10, 0, 0, 0, 3, 0, 0, 0, 22, 0, 0, 0, 0, 0
|13, 4, 3, 0, 0, 0, 0, 33, 0, 2, 0, 0, 0, 12, 8, 36, 35, 10, 0, 0, 0, 5, 26, 0, 21, 20, 0, 0, 30, 6, 0, 27, 0, 0, 7, 19
|0, 0, 0, 2, 15, 0, 0, 0, 11, 35, 0, 4, 0, 0, 14, 28, 0, 0, 1, 0, 0, 0, 0, 6, 24, 16, 0, 0, 32, 0, 21, 31, 36, 0, 30, 20
|0, 16, 0, 0, 18, 0, 26, 22, 34, 3, 30, 1, 0, 11, 25, 0, 29, 0, 0, 2, 0, 7, 27, 0, 0, 0, 31, 9, 12, 36, 0, 0, 0, 10, 0, 0
|36, 31, 0, 32, 0, 11, 0, 5, 28, 0, 0, 0, 26, 22, 21, 6, 0, 1, 0, 0, 0, 0, 0, 0, 4, 10, 0, 0, 0, 0, 0, 0, 2, 34, 3, 0
|0, 0, 34, 22, 5, 10, 0, 20, 0, 0, 16, 9, 0, 32, 0, 0, 0, 24, 21, 0, 0, 0, 31, 0, 0, 27, 0, 25, 0, 0, 0, 0, 29, 18, 0, 26
|0, 0, 0, 6, 34, 0, 16, 0, 0, 0, 0, 11, 9, 0, 12, 23, 0, 0, 24, 20, 0, 13, 7, 2, 0, 4, 30, 0, 36, 33, 26, 0, 10, 0, 17, 0
|28, 0, 5, 0, 35, 0, 33, 0, 0, 6, 0, 36, 0, 18, 0, 25, 30, 3, 11, 0, 23, 0, 0, 0, 12, 0, 0, 0, 24, 0, 16, 21, 31, 0, 19, 0
|0, 36, 0, 16, 24, 0, 0, 0, 15, 18, 26, 8, 6, 0, 1, 0, 0, 29, 10, 28, 5, 0, 0, 4, 0, 17, 23, 0, 0, 2, 9, 3, 0, 33, 0, 0
|9, 29, 0, 17, 12, 0, 22, 0, 0, 13, 0, 0, 0, 0, 0, 0, 0, 0, 0, 26, 3, 14, 0, 0, 16, 0, 5, 0, 7, 0, 0, 11, 0, 0, 35, 0
|11, 21, 0, 33, 0, 4, 23, 12, 30, 0, 0, 0, 0, 14, 0, 0, 0, 0, 35, 18, 0, 16, 19, 32, 26, 0, 0, 0, 20, 0, 0, 0, 6, 24, 0, 0
|0, 0, 0, 3, 7, 23, 28, 2, 29, 0, 0, 34, 5, 0, 0, 24, 26, 0, 0, 15, 12, 21, 0, 9, 0, 0, 0, 22, 0, 0, 0, 30, 18, 1, 27, 0
|0, 13, 26, 24, 0, 9, 10, 0, 16, 4, 14, 0, 8, 0, 0, 0, 5, 0, 0, 30, 33, 20, 2, 0, 1, 0, 0, 0, 28, 29, 3, 0, 27, 11, 22, 25
|0, 0, 12, 20, 27, 35, 0, 0, 36, 0, 28, 32, 19, 0, 0, 16, 13, 0, 3, 0, 0, 25, 0, 0, 17, 14, 0, 0, 10, 0, 0, 0, 24, 0, 0, 0
|0, 0, 0, 0, 33, 0, 0, 18, 0, 24, 0, 22, 15, 0, 0, 0, 0, 12, 7, 11, 0, 10, 28, 0, 27, 36, 0, 5, 0, 0, 0, 13, 20, 30, 0, 17
|0, 0, 0, 0, 0, 14, 0, 17, 0, 19, 0, 0, 24, 1, 0, 0, 25, 36, 0, 4, 21, 0, 13, 18, 9, 34, 6, 0, 15, 0, 0, 0, 23, 32, 16, 5
|34, 0, 29, 30, 0, 0, 25, 13, 20, 11, 0, 0, 0, 28, 0, 0, 27, 0, 0, 1, 0, 0, 0, 16, 0, 0, 4, 0, 0, 0, 0, 7, 9, 0, 0, 0
|18, 0, 0, 10, 0, 0, 0, 1, 7, 27, 15, 26, 35, 0, 4, 3, 0, 20, 29, 22, 0, 36, 0, 0, 0, 0, 0, 0, 13, 0, 0, 28, 12, 0, 8, 0
|14, 24, 20, 0, 0, 22, 0, 0, 35, 26, 0, 0, 28, 6, 0, 8, 0, 0, 0, 33, 36, 0, 0, 3, 19, 0, 17, 30, 18, 9, 23, 0, 0, 27, 0, 7
|0, 0, 0, 0, 0, 0, 0, 0, 0, 5, 12, 27, 29, 0, 0, 0, 1, 0, 0, 10, 9, 0, 11, 15, 22, 0, 21, 0, 0, 0, 0, 8, 0, 17, 14, 31
|0, 0, 23, 0, 0, 33, 4, 0, 0, 0, 0, 29, 17, 27, 9, 22, 2, 0, 20, 21, 7, 32, 0, 26, 11, 25, 28, 0, 0, 0, 0, 1, 3, 36, 10, 30
|3, 17, 35, 34, 0, 0, 9, 0, 14, 7, 0, 28, 32, 25, 19, 4, 0, 0, 13, 0, 18, 0, 29, 0, 2, 24, 0, 0, 8, 0, 0, 26, 5, 0, 20, 0
|6, 1, 18, 5, 29, 28, 0, 34, 25, 0, 0, 0, 36, 0, 0, 13, 23, 0, 0, 0, 14, 0, 24, 27, 0, 0, 0, 0, 0, 0, 2, 22, 35, 0, 9, 32
|0, 0, 0, 13, 19, 15, 8, 0, 33, 0, 22, 20, 0, 0, 26, 0, 12, 35, 2, 5, 6, 0, 0, 25, 14, 32, 36, 29, 0, 0, 0, 0, 34, 0, 18, 0
|0, 28, 1, 0, 0, 34, 35, 26, 0, 33, 0, 25, 0, 0, 0, 0, 24, 9, 0, 0, 0, 0, 0, 10, 31, 0, 0, 0, 21, 0, 27, 32, 14, 0, 0, 0
|0, 12, 0, 0, 26, 0, 17, 0, 27, 0, 32, 0, 0, 30, 3, 7, 19, 8, 5, 13, 0, 15, 0, 24, 20, 22, 18, 14, 0, 34, 0, 23, 11, 0, 25, 35
|22, 0, 33, 0, 21, 0, 20, 4, 0, 12, 34, 0, 23, 0, 15, 32, 14, 16, 36, 27, 31, 35, 9, 7, 28, 0, 10, 3, 25, 30, 0, 18, 17, 26, 6, 24
|0, 7, 27, 0, 0, 16, 0, 0, 6, 0, 0, 0, 0, 0, 0, 1, 28, 26, 18, 32, 0, 0, 0, 17, 0, 0, 0, 0, 0, 0, 31, 0, 0, 19, 2, 12
|0, 0, 0, 0, 0, 0, 0, 28, 5, 0, 2, 7, 0, 0, 0, 0, 0, 21, 0, 0, 0, 11, 16, 0, 0, 0, 0, 17, 0, 32, 29, 0, 0, 3, 1, 34
|0, 32, 15, 0, 0, 0, 3, 0, 31, 0, 13, 18, 25, 35, 0, 0, 4, 6, 12, 0, 0, 2, 34, 30, 29, 19, 27, 0, 1, 0, 20, 0, 22, 0, 0, 21
|21, 0, 0, 0, 1, 0, 6, 19, 12, 20, 0, 35, 7, 16, 0, 0, 22, 13, 0, 29, 2, 0, 3, 0, 33, 0, 34, 0, 14, 0, 0, 0, 26, 0, 23, 0
|0, 34, 9, 0, 6, 0, 0, 21, 0, 0, 0, 14, 0, 0, 30, 0, 17, 0, 0, 0, 0, 0, 20, 11, 32, 0, 0, 0, 22, 15, 0, 0, 0, 0, 0, 27
|0, 33, 16, 0, 0, 0, 0, 0, 0, 0, 8, 0, 12, 0, 0, 0, 0, 0, 0, 17, 19, 0, 25, 0, 0, 0, 0, 0, 3, 26, 0, 20, 0, 0, 0, 0
|0, 26, 0, 7, 0, 8, 2, 0, 13, 0, 0, 0, 1, 0, 0, 0, 0, 0, 0, 0, 30, 0, 18, 0, 0, 0, 0, 0, 27, 5, 0, 35, 21, 0, 15, 3
|23, 0, 0, 27, 13, 3, 7, 11, 9, 0, 33, 30, 21, 0, 0, 0, 20, 0, 26, 0, 32, 0, 5, 0, 36, 2, 0, 24, 0, 31, 1, 0, 0, 0, 28, 0
|0, 10, 0, 35, 0, 5, 31, 0, 32, 0, 3, 0, 0, 0, 27, 19, 8, 0, 0, 7, 0, 0, 14, 21, 0, 28, 20, 13, 17, 25, 0, 0, 33, 0, 36, 0|];