order = 6;
grid = [|36, 35, 0, 19, 3, 0, 0, 1, 0, 0, 0, 0, 26, 32, 33, 28, 13, 0, 0, 0, 0, 0, 25, 0, 0, 0, 0, 0, 16, 0, 20, 30, 0, 6, 24, 0
|0, 9, 5, 11, 0, 0, 29, 0, 0, 0, 12, 0, 24, 31, 0, 0, 0, 0, 18, 32, 0, 0, 0, 0, 14, 26, 0, 25, 22, 0, 13, 19, 2, 15, 8, 0
|0, 27, 0, 0, 25, 0, 32, 20, 0, 0, 0, 36, 0, 0, 0, 5, 0, 14, 0, 19, 11, 30, 0, 12, 24, 17, 6, 35, 0, 15, 26, 0, 0, 0, 33, 0
|7, 17, 4, 28, 16, 0, 35, 0, 2, 0, 0, 5, 27, 0, 36, 25, 0, 11, 0, 0, 0, 0, 20, 0, 29, 23, 21, 0, 0, 30, 0, 3, 32, 0, 34, 31
|33, 0, 20, 0, 32, 0, 0, 25, 21, 0, 11, 23, 0, 10, 0, 18, 0, 2, 0, 0, 27, 15, 0, 29, 31, 0, 19, 28, 7, 0, 0, 35, 0, 16, 22, 36
|0, 30, 24, 0, 0, 0, 28, 19, 0, 0, 0, 4, 0, 16, 0, 0, 6, 1, 0, 10, 0, 5, 0, 0, 0, 13, 36, 11, 33, 0, 0, 21, 0, 0, 27, 17
|0, 0, 0, 10, 0, 31, 2, 18, 15, 35, 0, 0, 0, 0, 26, 21, 0, 0, 33, 17, 0, 0, 19, 0, 12, 0, 5, 34, 0, 0, 24, 13, 0, 8, 9, 4
|15, 0, 22, 0, 0, 7, 33, 0, 0, 8, 0, 0, 0, 14, 0, 24, 10, 9, 11, 0, 0, 0, 0, 27, 1, 31, 0, 30, 0, 21, 18, 17, 0, 36, 25, 0
|25, 0, 28, 36, 0, 27, 0, 0, 31, 24, 7, 9, 0, 0, 0, 0, 33, 12, 29, 13, 21, 0, 34, 6, 0, 10, 15, 0, 0, 0, 23, 16, 22, 14, 11, 35
|14, 0, 0, 24, 0, 0, 0, 0, 0, 1, 17, 22, 0, 0, 0, 0, 31, 0, 0, 8, 10, 0, 0, 9, 3, 0, 4, 0, 0, 0, 0, 0, 33, 34, 28, 2
|11, 0, 0, 0, 23, 17, 5, 0, 10, 0, 4, 0, 0, 34, 0, 0, 0, 0, 0, 0, 1, 32, 0, 30, 9, 35, 24, 0, 36, 22, 0, 0, 19, 7, 26, 0
|6, 34, 0, 4, 0, 0, 27, 26, 0, 0, 13, 16, 20, 0, 22, 0, 0, 0, 0, 31, 0, 0, 0, 5, 33, 29, 0, 17, 11, 28, 21, 1, 10, 0, 0, 12
|18, 0, 13, 25, 0, 14, 0, 0, 0, 0, 0, 0, 0, 1, 0, 9, 3, 17, 0, 12, 2, 0, 21, 0, 5, 20, 0, 0, 0, 35, 0, 0, 31, 0, 0, 0
|0, 0, 0, 21, 34, 0, 15, 0, 1, 0, 19, 8, 0, 0, 0, 23, 0, 0, 0, 25, 4, 16, 0, 0, 0, 36, 29, 0, 13, 10, 0, 0, 0, 20, 7, 11
|5, 11, 0, 7, 0, 0, 26, 30, 13, 0, 0, 32, 6, 18, 16, 14, 0, 25, 31, 15, 0, 17, 36, 0, 0, 8, 2, 0, 21, 27, 0, 4, 1, 0, 0, 33
|12, 20, 33, 0, 0, 32, 0, 36, 28, 18, 0, 0, 0, 0, 0, 0, 2, 0, 7, 0, 24, 0, 0, 0, 0, 34, 22, 6, 0, 0, 15, 8, 0, 13, 0, 16
|24, 0, 0, 1, 27, 4, 31, 0, 0, 0, 35, 0, 15, 0, 11, 0, 20, 21, 5, 6, 13, 29, 8, 22, 0, 7, 32, 26, 25, 16, 0, 0, 0, 18, 14, 9
|10, 19, 0, 16, 8, 30, 0, 0, 0, 0, 14, 33, 22, 26, 35, 34, 36, 13, 0, 0, 20, 27, 0, 0, 15, 9, 0, 31, 12, 0, 25, 0, 29, 0, 0, 21
|0, 0, 32, 0, 0, 11, 0, 0, 35, 33, 0, 6, 28, 0, 0, 0, 0, 0, 0, 3, 34, 13, 27, 0, 16, 2, 10, 5, 0, 0, 0, 0, 0, 0, 0, 0
|0, 0, 21, 0, 0, 35, 10, 12, 25, 2, 0, 0, 5, 3, 0, 13, 16, 0, 0, 30, 0, 6, 0, 0, 4, 28, 33, 29, 0, 36, 8, 22, 0, 0, 20, 34
|0, 0, 34, 0, 0, 0, 0, 0, 18, 0, 0, 20, 10, 0, 0, 36, 26, 35, 0, 0, 0, 23, 0, 31, 22, 21, 0, 0, 0, 13, 19, 0, 0, 0, 0, 24
|16, 24, 0, 0, 0, 0, 0, 31, 32, 28, 1, 0, 0, 0, 29, 0, 0, 0, 9, 0, 19, 0, 2, 21, 0, 30, 0, 8, 0, 0, 5, 18, 0, 23, 0, 10
|28, 6, 10, 3, 0, 0, 19, 0, 30, 29, 0, 14, 1, 0, 0, 27, 0, 32, 8, 0, 0, 20, 0, 15, 0, 18, 7, 9, 24, 0, 35, 33, 0, 0, 0, 13
|13, 1, 26, 23, 33, 0, 17, 24, 0, 36, 0, 0, 0, 2, 0, 0, 14, 0, 0, 0, 0, 0, 0, 35, 0, 25, 0, 3, 0, 31, 9, 15, 16, 28, 30, 29
|4, 0, 0, 0, 13, 36, 0, 14, 0, 20, 2, 0, 0, 0, 0, 32, 0, 0, 35, 11, 0, 0, 0, 0, 0, 0, 0, 23, 28, 0, 22, 0, 6, 0, 0, 18
|35, 32, 0, 0, 24, 0, 0, 23, 36, 27, 3, 26, 0, 29, 2, 15, 0, 0, 13, 0, 0, 0, 0, 17, 20, 0, 0, 18, 5, 12, 0, 0, 9, 0, 0, 8
|29, 12, 3, 0, 21, 6, 0, 15, 19, 0, 22, 35, 0, 4, 0, 0, 0, 36, 0, 0, 0, 1, 16, 32, 7, 0, 27, 10, 0, 0, 0, 0, 0, 0, 0, 0
|0, 7, 11, 33, 0, 26, 18, 0, 0, 6, 28, 0, 12, 27, 19, 17, 0, 3, 0, 0, 14, 0, 31, 0, 13, 0, 25, 0, 35, 0, 0, 0, 0, 0, 0, 0
|1, 5, 18, 0, 14, 28, 25, 0, 0, 0, 34, 0, 35, 0, 6, 26, 0, 16, 22, 0, 0, 0, 0, 0, 0, 0, 31, 0, 9, 8, 17, 0, 0, 0, 0, 3
|23, 0, 31, 17, 19, 9, 1, 7, 24, 0, 5, 0, 0, 0, 34, 22, 18, 0, 0, 27, 3, 12, 0, 0, 0, 0, 11, 21, 0, 0, 2, 0, 20, 35, 16, 14
|26, 0, 1, 5, 9, 33, 0, 0, 0, 0, 0, 18, 0, 12, 13, 0, 0, 0, 0, 23, 0, 0, 24, 25, 21, 32, 0, 20, 6, 0, 10, 14, 0, 0, 15, 22
|2, 0, 14, 0, 0, 0, 0, 10, 9, 0, 0, 0, 0, 21, 0, 4, 0, 0, 3, 7, 0, 0, 0, 0, 27, 24, 34, 0, 0, 5, 33, 0, 0, 0, 0, 19
|34, 25, 0, 32, 11, 24, 36, 13, 0, 0, 30, 0, 0, 6, 15, 3, 9, 23, 19, 0, 0, 14, 29, 1, 28, 0, 18, 4, 10, 0, 0, 20, 8, 26, 0, 0
|8, 0, 7, 0, 0, 0, 14, 35, 29, 0, 0, 0, 2, 0, 5, 0, 0, 0, 20, 0, 30, 34, 17, 4, 26, 0, 0, 36, 0, 0, 0, 0, 24, 21, 0, 27
|3, 0, 29, 0, 0, 0, 0, 0, 7, 16, 33, 28, 36, 20, 0, 1, 0, 0, 0, 0, 8, 0, 0, 0, 25, 0, 0, 0, 14, 0, 0, 34, 0, 0, 5, 6
|0, 18, 0, 31, 12, 23, 11, 34, 20, 5, 0, 0, 0, 30, 0, 33, 24, 0, 0, 21, 6, 0, 0, 26, 8, 16, 35, 0, 29, 17, 28, 9, 13, 0, 4, 0|];