order = 6;
grid = [|36, 0, 0, 20, 0, 16, 0, 0, 9, 34, 3, 1, 0, 11, 0, 0, 0, 0, 0, 0, 0, 0, 6, 0, 0, 26, 29, 5, 0, 17, 0, 0, 21, 27, 25, 0
|11, 5, 26, 15, 31, 4, 0, 0, 0, 35, 0, 2, 8, 17, 20, 34, 30, 0, 0, 0, 0, 0, 23, 0, 27, 0, 25, 1, 0, 0, 0, 0, 0, 0, 3, 0
|30, 0, 0, 0, 21, 2, 27, 26, 0, 0, 31, 0, 1, 16, 23, 0, 0, 7, 12, 24, 0, 0, 8, 0, 15, 0, 0, 0, 0, 0, 4, 10, 9, 0, 0, 0
|9, 32, 0, 0, 24, 0, 13, 16, 0, 0, 23, 0, 0, 0, 0, 0, 29, 0, 0, 4, 2, 25, 14, 28, 0, 0, 12, 20, 34, 33, 8, 1, 0, 35, 0, 0
|0, 19, 6, 0, 0, 34, 0, 33, 0, 17, 0, 8, 0, 28, 25, 4, 31, 9, 21, 0, 0, 0, 5, 15, 0, 32, 13, 10, 0, 24, 0, 29, 16, 0, 0, 0
|0, 25, 0, 0, 27, 0, 0, 19, 0, 29, 18, 0, 0, 5, 0, 15, 0, 0, 35, 1, 22, 0, 0, 9, 36, 8, 0, 11, 0, 16, 0, 0, 28, 0, 34, 0
|3, 12, 0, 13, 33, 0, 9, 0, 7, 0, 0, 0, 22, 0, 29, 24, 0, 0, 0, 17, 0, 10, 0, 5, 0, 0, 0, 23, 0, 36, 0, 0, 19, 34, 14, 28
|0, 28, 0, 0, 0, 35, 0, 32, 31, 0, 0, 0, 0, 23, 36, 5, 0, 0, 0, 18, 0, 0, 0, 25, 0, 22, 9, 0, 15, 7, 1, 20, 24, 16, 33, 0
|8, 20, 1, 0, 36, 0, 33, 0, 0, 0, 21, 17, 7, 0, 31, 14, 34, 0, 23, 0, 28, 9, 0, 0, 32, 0, 2, 26, 0, 19, 0, 4, 11, 0, 0, 25
|7, 11, 0, 0, 0, 5, 0, 4, 0, 26, 19, 0, 9, 8, 0, 12, 21, 25, 3, 0, 35, 30, 0, 0, 24, 0, 1, 34, 14, 0, 0, 23, 0, 0, 0, 0
|0, 0, 0, 4, 9, 0, 8, 13, 34, 0, 0, 0, 17, 0, 30, 19, 0, 0, 0, 0, 32, 0, 1, 29, 0, 0, 18, 28, 0, 12, 0, 36, 3, 7, 35, 21
|0, 0, 0, 0, 34, 0, 16, 23, 35, 27, 5, 36, 0, 3, 28, 0, 4, 1, 19, 0, 7, 12, 0, 0, 0, 0, 0, 25, 0, 10, 0, 0, 0, 31, 13, 0
|0, 0, 27, 0, 0, 20, 35, 0, 36, 4, 0, 0, 0, 9, 0, 0, 0, 0, 0, 0, 21, 0, 0, 26, 0, 0, 14, 8, 0, 0, 25, 0, 29, 33, 18, 0
|0, 8, 30, 0, 0, 0, 12, 31, 18, 3, 6, 33, 0, 0, 32, 0, 0, 0, 0, 28, 14, 4, 0, 16, 25, 0, 0, 13, 24, 27, 21, 17, 0, 0, 19, 23
|26, 0, 3, 0, 0, 0, 0, 8, 21, 0, 22, 23, 0, 4, 13, 16, 14, 0, 27, 29, 0, 33, 34, 0, 6, 0, 7, 0, 35, 1, 11, 28, 0, 0, 30, 24
|16, 33, 0, 0, 0, 0, 0, 0, 0, 0, 0, 0, 0, 0, 0, 23, 0, 6, 0, 2, 0, 0, 13, 31, 26, 4, 30, 0, 28, 0, 35, 8, 22, 0, 0, 14
|21, 34, 0, 0, 7, 0, 0, 0, 13, 0, 0, 24, 30, 29, 15, 0, 28, 33, 0, 3, 0, 35, 0, 8, 0, 23, 0, 19, 10, 20, 0, 27, 0, 0, 0, 5
|24, 0, 0, 23, 12, 14, 0, 30, 0, 20, 27, 0, 21, 25, 0, 0, 3, 19, 11, 10, 0, 0, 18, 36, 16, 0, 0, 9, 29, 32, 34, 13, 0, 1, 0, 6
|0, 1, 25, 17, 13, 33, 0, 0, 23, 19, 2, 22, 0, 6, 21, 27, 9, 3, 0, 8, 34, 5, 36, 4, 0, 10, 0, 7, 0, 14, 31, 16, 0, 24, 0, 0
|0, 21, 9, 0, 0, 0, 0, 29, 0, 24, 16, 27, 0, 0, 14, 0, 12, 0, 0, 0, 17, 0, 0, 0, 0, 1, 23, 18, 30, 25, 19, 0, 0, 4, 0, 33
|0, 0, 4, 0, 30, 0, 0, 0, 0, 7, 33, 0, 5, 32, 22, 28, 0, 24, 13, 0, 9, 16, 0, 0, 0, 36, 0, 31, 27, 29, 10, 34, 0, 0, 0, 15
|29, 0, 0, 27, 35, 19, 0, 0, 0, 9, 0, 13, 4, 15, 0, 0, 17, 0, 24, 0, 23, 0, 0, 0, 0, 33, 0, 16, 0, 0, 32, 12, 0, 14, 0, 0
|12, 0, 16, 0, 0, 18, 0, 36, 5, 31, 4, 21, 0, 0, 11, 1, 7, 0, 0, 25, 10, 0, 19, 0, 0, 0, 0, 22, 17, 0, 26, 0, 20, 29, 28, 3
|5, 0, 0, 7, 10, 24, 0, 0, 0, 0, 32, 11, 0, 0, 18, 0, 0, 0, 20, 0, 0, 1, 29, 3, 0, 12, 28, 6, 9, 4, 0, 0, 0, 0, 27, 0
|22, 0, 0, 0, 0, 0, 0, 20, 16, 0, 0, 29, 19, 7, 4, 26, 23, 28, 0, 13, 0, 0, 3, 10, 0, 34, 0, 0, 0, 0, 0, 0, 0, 32, 9, 27
|0, 24, 12, 16, 0, 0, 23, 7, 27, 11, 30, 9, 0, 14, 5, 17, 0, 31, 29, 34, 18, 32, 0, 20, 0, 25, 0, 0, 4, 0, 0, 21, 0, 0, 10, 0
|0, 0, 0, 0, 17, 0, 0, 0, 0, 28, 0, 14, 0, 13, 0, 0, 25, 21, 0, 9, 6, 0, 11, 0, 29, 0, 0, 24, 0, 23, 0, 31, 0, 0, 0, 0
|0, 0, 11, 26, 0, 23, 0, 34, 17, 33, 0, 32, 12, 0, 8, 0, 18, 0, 0, 0, 0, 19, 7, 24, 28, 0, 0, 15, 0, 22, 0, 35, 30, 0, 0, 0
|0, 0, 34, 10, 4, 25, 5, 0, 0, 0, 26, 0, 15, 0, 35, 0, 11, 32, 0, 0, 1, 21, 0, 0, 0, 16, 20, 0, 0, 18, 29, 0, 0, 13, 0, 8
|32, 0, 0, 0, 1, 28, 36, 21, 0, 6, 35, 10, 0, 0, 0, 3, 20, 34, 8, 0, 16, 26, 27, 0, 0, 7, 31, 0, 0, 0, 0, 0, 0, 5, 0, 0
|0, 0, 19, 34, 25, 21, 0, 22, 24, 23, 7, 0, 28, 12, 16, 9, 0, 0, 17, 0, 0, 0, 0, 1, 10, 0, 6, 0, 0, 0, 0, 0, 0, 0, 15, 0
|0, 17, 0, 6, 16, 0, 0, 9, 25, 36, 29, 0, 0, 0, 34, 10, 0, 15, 0, 32, 0, 0, 21, 0, 0, 0, 35, 0, 18, 0, 0, 24, 27, 8, 31, 1
|23, 14, 0, 0, 26, 1, 6, 0, 0, 0, 20, 35, 0, 0, 3, 29, 0, 17, 0, 12, 0, 0, 0, 2, 0, 5, 24, 0, 0, 0, 16, 32, 0, 0, 0, 0
|4, 0, 0, 0, 29, 0, 0, 0, 0, 13, 0, 30, 20, 0, 33, 35, 8, 0, 22, 15, 0, 31, 10, 0, 7, 28, 16, 0, 1, 0, 17, 26, 0, 23, 0, 34
|15, 22, 24, 0, 8, 0, 0, 0, 2, 0, 0, 0, 23, 0, 6, 32, 0, 30, 14, 16, 29, 0, 0, 27, 0, 9, 0, 21, 25, 3, 13, 18, 0, 0, 0, 0
|10, 0, 0, 0, 20, 32, 0, 1, 0, 0, 0, 0, 11, 19, 0, 0, 0, 22, 4, 0, 24, 0, 0, 0, 0, 27, 0, 12, 0, 0, 14, 0, 6, 0, 29, 9|];