order = 6;
grid = [|17, 0, 29, 21, 0, 16, 7, 0, 26, 34, 0, 19, 15, 0, 0, 1, 24, 9, 0, 0, 10, 4, 14, 28, 22, 0, 0, 0, 0, 0, 23, 0, 32, 20, 0, 0
|0, 30, 3, 0, 34, 0, 0, 0, 0, 0, 0, 0, 28, 35, 36, 12, 11, 0, 20, 31, 17, 0, 22, 0, 2, 19, 0, 0, 18, 32, 0, 0, 0, 0, 10, 0
|36, 28, 35, 0, 0, 0, 31, 0, 0, 0, 0, 0, 29, 5, 7, 0, 8, 23, 18, 33, 0, 0, 19, 0, 4, 0, 0, 0, 10, 0, 0, 0, 1, 0, 0, 34
|0, 0, 0, 2, 0, 0, 4, 22, 0, 0, 0, 0, 0, 0, 3, 31, 0, 30, 26, 11, 0, 0, 0, 23, 34, 29, 0, 0, 0, 8, 28, 18, 36, 0, 0, 0
|0, 18, 0, 31, 9, 23, 29, 36, 30, 27, 0, 0, 14, 33, 0, 26, 4, 21, 12, 0, 0, 13, 8, 0, 28, 25, 0, 7, 11, 0, 5, 16, 0, 0, 15, 19
|11, 22, 32, 4, 14, 0, 28, 0, 6, 0, 8, 16, 17, 18, 0, 0, 25, 0, 7, 27, 0, 36, 0, 9, 0, 5, 33, 13, 26, 0, 31, 0, 0, 0, 0, 21
|0, 2, 17, 27, 21, 12, 26, 11, 0, 32, 14, 0, 0, 9, 0, 0, 0, 0, 6, 0, 0, 34, 0, 35, 33, 16, 20, 0, 0, 36, 0, 0, 4, 24, 19, 5
|31, 35, 14, 0, 0, 8, 2, 0, 0, 21, 29, 20, 0, 0, 6, 25, 33, 0, 17, 30, 0, 0, 0, 27, 0, 0, 0, 19, 0, 4, 22, 0, 0, 9, 0, 15
|0, 0, 0, 1, 0, 4, 0, 7, 0, 0, 0, 34, 19, 27, 0, 30, 0, 0, 0, 0, 9, 20, 0, 32, 0, 0, 0, 28, 0, 31, 0, 36, 0, 35, 0, 29
|0, 7, 0, 33, 0, 11, 12, 4, 28, 31, 24, 23, 0, 0, 0, 16, 35, 34, 0, 0, 0, 0, 0, 0, 0, 9, 0, 6, 0, 0, 0, 20, 0, 10, 0, 8
|0, 0, 18, 0, 5, 22, 0, 0, 15, 35, 0, 0, 21, 20, 0, 24, 0, 0, 0, 0, 0, 0, 0, 0, 27, 32, 0, 0, 0, 7, 30, 28, 13, 0, 0, 0
|0, 9, 0, 0, 0, 24, 0, 0, 0, 25, 1, 27, 0, 0, 13, 0, 32, 0, 33, 0, 0, 0, 2, 15, 0, 35, 0, 0, 30, 34, 21, 0, 31, 7, 0, 0
|0, 10, 0, 3, 30, 0, 0, 17, 0, 0, 0, 25, 6, 0, 0, 13, 23, 0, 28, 0, 26, 22, 24, 19, 1, 15, 0, 27, 31, 0, 2, 21, 0, 36, 0, 0
|0, 4, 2, 29, 17, 0, 0, 20, 0, 33, 21, 0, 0, 0, 10, 36, 0, 22, 0, 0, 0, 25, 0, 0, 0, 34, 24, 32, 6, 0, 19, 0, 12, 0, 28, 30
|22, 0, 23, 0, 0, 6, 35, 0, 0, 36, 0, 13, 24, 12, 9, 34, 0, 0, 0, 0, 0, 29, 0, 0, 0, 4, 0, 0, 0, 0, 0, 17, 15, 0, 0, 32
|0, 16, 0, 0, 0, 13, 5, 19, 0, 29, 30, 26, 35, 0, 0, 0, 0, 0, 14, 0, 36, 0, 31, 0, 0, 17, 0, 23, 0, 0, 1, 0, 0, 0, 0, 0
|20, 0, 31, 0, 12, 27, 34, 1, 10, 0, 0, 0, 0, 2, 30, 19, 0, 3, 15, 5, 7, 0, 17, 0, 0, 26, 0, 0, 0, 21, 24, 0, 0, 8, 29, 22
|0, 19, 25, 8, 35, 0, 23, 27, 0, 0, 0, 28, 0, 0, 0, 17, 0, 0, 34, 6, 0, 0, 0, 2, 0, 0, 29, 0, 0, 18, 0, 10, 26, 31, 0, 9
|0, 17, 0, 10, 0, 0, 0, 0, 34, 28, 0, 0, 25, 0, 24, 15, 0, 0, 16, 1, 0, 6, 21, 5, 35, 11, 0, 0, 0, 0, 27, 0, 0, 0, 0, 36
|5, 0, 0, 34, 0, 1, 22, 3, 0, 0, 10, 29, 4, 7, 16, 0, 0, 0, 35, 26, 28, 0, 0, 36, 0, 0, 0, 24, 17, 33, 18, 0, 9, 0, 13, 0
|0, 0, 0, 9, 19, 0, 0, 0, 4, 0, 0, 11, 20, 0, 28, 0, 0, 0, 0, 22, 0, 12, 34, 30, 0, 21, 0, 0, 15, 0, 0, 0, 0, 0, 16, 0
|0, 0, 8, 0, 3, 0, 0, 12, 9, 0, 19, 0, 36, 0, 26, 23, 0, 5, 11, 0, 0, 0, 20, 31, 0, 7, 13, 0, 0, 27, 35, 4, 29, 0, 0, 10
|27, 24, 0, 35, 0, 0, 1, 30, 21, 16, 5, 0, 9, 6, 0, 0, 18, 8, 2, 0, 13, 32, 15, 0, 0, 0, 0, 0, 23, 14, 7, 33, 0, 0, 26, 0
|16, 0, 0, 23, 0, 20, 13, 0, 0, 0, 0, 0, 0, 0, 0, 0, 0, 2, 0, 0, 0, 3, 10, 7, 0, 36, 4, 34, 0, 28, 0, 0, 14, 0, 0, 0
|1, 20, 0, 0, 0, 10, 8, 0, 0, 6, 0, 0, 31, 29, 4, 18, 7, 0, 30, 17, 0, 5, 0, 22, 0, 33, 0, 0, 27, 0, 34, 13, 0, 0, 0, 0
|15, 0, 9, 0, 0, 0, 0, 33, 0, 0, 0, 22, 0, 0, 27, 2, 5, 35, 32, 0, 0, 19, 6, 0, 0, 1, 21, 26, 34, 0, 29, 0, 0, 17, 8, 28
|0, 0, 0, 0, 0, 17, 27, 25, 0, 24, 28, 5, 0, 0, 0, 9, 34, 0, 21, 13, 16, 2, 12, 0, 0, 22, 0, 31, 29, 3, 0, 30, 6, 26, 0, 0
|0, 34, 36, 28, 22, 0, 11, 21, 16, 0, 4, 0, 8, 26, 12, 0, 0, 0, 29, 20, 0, 0, 27, 1, 0, 0, 5, 0, 32, 0, 0, 31, 0, 0, 0, 3
|0, 0, 27, 0, 0, 29, 10, 26, 0, 0, 0, 14, 33, 0, 22, 21, 36, 0, 23, 28, 0, 35, 9, 0, 20, 0, 0, 0, 0, 6, 0, 5, 16, 0, 18, 0
|30, 6, 0, 0, 0, 21, 19, 29, 0, 0, 15, 0, 23, 16, 11, 0, 0, 10, 31, 0, 34, 0, 7, 0, 9, 28, 14, 8, 0, 2, 36, 0, 25, 0, 0, 27
|0, 0, 26, 18, 29, 36, 30, 0, 5, 14, 31, 8, 0, 10, 0, 0, 17, 19, 24, 0, 25, 28, 0, 0, 7, 0, 0, 2, 20, 15, 12, 6, 21, 16, 0, 0
|12, 0, 21, 0, 10, 9, 0, 0, 0, 11, 33, 35, 16, 0, 15, 7, 0, 6, 13, 0, 0, 14, 0, 26, 32, 0, 27, 0, 0, 0, 0, 2, 0, 0, 0, 0
|4, 0, 0, 11, 0, 0, 36, 28, 29, 19, 0, 0, 2, 32, 25, 20, 13, 0, 9, 15, 0, 0, 0, 0, 10, 0, 0, 5, 22, 0, 0, 0, 34, 30, 0, 23
|0, 0, 0, 15, 28, 31, 0, 13, 0, 0, 20, 0, 0, 0, 0, 5, 9, 27, 0, 0, 2, 17, 0, 0, 0, 24, 34, 4, 12, 0, 14, 19, 0, 0, 36, 0
|0, 8, 0, 17, 0, 34, 0, 6, 0, 0, 27, 0, 0, 0, 0, 28, 0, 24, 22, 0, 31, 0, 0, 12, 0, 0, 0, 33, 0, 13, 0, 9, 0, 29, 0, 0
|2, 13, 0, 30, 0, 33, 9, 0, 0, 3, 0, 0, 12, 14, 21, 0, 0, 29, 4, 34, 0, 0, 36, 20, 0, 0, 0, 0, 0, 11, 8, 0, 28, 0, 27, 7|];