order = 6;
grid = [|0, 0, 34, 0, 7, 2, 36, 10, 23, 14, 17, 19, 0, 21, 0, 0, 8, 12, 0, 0, 3, 0, 0, 27, 0, 0, 0, 0, 0, 15, 5, 0, 0, 33, 29, 0
|26, 6, 0, 12, 0, 0, 34, 1, 29, 0, 0, 0, 23, 0, 0, 32, 13, 28, 0, 0, 35, 0, 0, 17, 0, 25, 21, 5, 22, 0, 0, 11, 7, 18, 0, 0
|27, 0, 0, 0, 0, 0, 25, 0, 0, 11, 7, 0, 0, 24, 0, 18, 0, 10, 1, 21, 31, 0, 0, 0, 0, 35, 12, 0, 0, 0, 26, 15, 34, 23, 0, 16
|0, 0, 0, 29, 5, 18, 0, 32, 28, 35, 0, 0, 33, 2, 1, 0, 0, 0, 15, 34, 0, 0, 0, 7, 0, 26, 11, 36, 10, 24, 30, 0, 17, 13, 0, 19
|0, 0, 0, 28, 0, 4, 0, 30, 2, 0, 5, 22, 6, 0, 26, 19, 0, 3, 0, 0, 29, 18, 12, 11, 0, 16, 0, 7, 34, 0, 0, 21, 25, 14, 1, 10
|25, 0, 19, 0, 0, 0, 0, 21, 18, 12, 4, 26, 11, 0, 0, 34, 0, 0, 23, 0, 0, 30, 0, 5, 29, 13, 20, 0, 28, 14, 0, 0, 0, 0, 8, 0
|0, 0, 0, 26, 0, 0, 9, 0, 0, 6, 25, 0, 0, 30, 0, 0, 0, 0, 0, 0, 28, 0, 23, 10, 0, 0, 0, 0, 0, 0, 20, 0, 0, 0, 16, 35
|7, 0, 20, 27, 0, 30, 0, 5, 17, 26, 0, 0, 4, 0, 24, 2, 12, 32, 6, 35, 0, 0, 0, 16, 3, 0, 8, 0, 25, 11, 31, 0, 0, 19, 0, 9
|17, 36, 10, 0, 4, 25, 0, 29, 0, 0, 12, 24, 0, 16, 0, 0, 3, 31, 0, 2, 0, 0, 9, 20, 26, 0, 0, 0, 0, 22, 0, 14, 11, 30, 0, 0
|19, 14, 28, 31, 0, 3, 0, 0, 0, 0, 8, 0, 7, 23, 0, 33, 22, 18, 21, 27, 0, 0, 0, 25, 0, 0, 0, 0, 12, 5, 0, 0, 0, 0, 0, 0
|0, 13, 15, 1, 12, 0, 11, 7, 32, 0, 19, 10, 0, 26, 0, 35, 0, 8, 0, 36, 0, 31, 0, 30, 20, 28, 0, 0, 0, 0, 0, 0, 23, 0, 3, 21
|0, 16, 21, 0, 0, 0, 0, 0, 14, 1, 0, 0, 9, 17, 0, 0, 15, 0, 3, 0, 0, 19, 0, 12, 7, 0, 0, 0, 0, 0, 0, 22, 6, 28, 0, 8
|0, 10, 0, 19, 0, 24, 0, 0, 0, 0, 0, 4, 35, 0, 0, 0, 32, 5, 0, 30, 18, 0, 0, 0, 12, 0, 0, 0, 0, 26, 0, 33, 0, 25, 14, 0
|0, 26, 0, 0, 0, 21, 0, 0, 7, 0, 31, 0, 0, 19, 3, 0, 0, 34, 0, 29, 0, 17, 28, 0, 22, 9, 0, 11, 14, 0, 4, 1, 13, 0, 0, 0
|31, 34, 18, 9, 0, 0, 35, 0, 19, 13, 26, 0, 2, 0, 0, 0, 21, 29, 11, 22, 5, 0, 7, 0, 0, 17, 0, 33, 30, 0, 0, 0, 10, 0, 0, 0
|3, 8, 32, 0, 14, 0, 28, 9, 27, 30, 2, 29, 18, 11, 0, 15, 33, 23, 0, 1, 19, 0, 13, 4, 24, 0, 10, 25, 35, 16, 12, 0, 0, 0, 5, 7
|16, 7, 11, 23, 22, 15, 0, 25, 0, 3, 36, 0, 27, 14, 0, 24, 0, 0, 12, 31, 9, 8, 35, 21, 32, 5, 0, 19, 0, 0, 28, 0, 0, 0, 34, 0
|0, 27, 0, 33, 0, 0, 0, 15, 0, 5, 0, 0, 0, 28, 0, 0, 0, 0, 25, 0, 10, 0, 36, 14, 8, 0, 0, 0, 29, 0, 0, 0, 0, 17, 0, 0
|0, 29, 0, 0, 19, 0, 3, 26, 0, 0, 0, 14, 30, 36, 0, 0, 0, 22, 0, 0, 0, 0, 0, 0, 6, 12, 1, 10, 27, 0, 34, 0, 0, 32, 0, 31
|0, 0, 0, 3, 15, 16, 18, 12, 9, 19, 21, 0, 25, 0, 0, 0, 11, 27, 14, 32, 0, 23, 4, 0, 36, 0, 0, 34, 0, 7, 10, 30, 0, 0, 0, 0
|1, 0, 33, 0, 0, 22, 24, 13, 5, 0, 0, 23, 17, 0, 34, 0, 0, 0, 0, 11, 26, 0, 10, 0, 0, 21, 25, 35, 3, 29, 0, 19, 14, 0, 0, 36
|23, 0, 0, 18, 0, 0, 2, 20, 8, 0, 27, 1, 10, 5, 33, 7, 35, 14, 30, 15, 36, 3, 24, 0, 28, 19, 0, 4, 16, 0, 17, 9, 0, 29, 12, 0
|0, 0, 0, 36, 0, 0, 4, 0, 0, 0, 0, 25, 0, 0, 32, 3, 19, 0, 0, 8, 0, 0, 0, 0, 15, 0, 17, 0, 24, 0, 16, 5, 18, 0, 11, 0
|14, 0, 0, 20, 28, 17, 7, 0, 10, 0, 29, 36, 15, 0, 0, 0, 24, 21, 0, 0, 6, 25, 1, 34, 0, 8, 30, 0, 0, 32, 23, 13, 4, 3, 27, 33
|0, 30, 0, 0, 0, 0, 22, 8, 0, 0, 0, 9, 0, 0, 0, 0, 34, 0, 0, 0, 15, 21, 0, 0, 0, 6, 0, 0, 36, 0, 0, 0, 3, 31, 32, 0
|6, 3, 0, 5, 17, 0, 26, 0, 12, 7, 13, 32, 0, 31, 2, 0, 18, 0, 0, 0, 0, 34, 20, 0, 0, 0, 4, 0, 11, 0, 0, 10, 19, 0, 0, 14
|18, 0, 0, 25, 0, 31, 0, 0, 15, 0, 20, 5, 0, 0, 0, 27, 0, 0, 2, 9, 17, 0, 30, 32, 14, 0, 26, 0, 0, 0, 0, 0, 0, 0, 0, 34
|0, 20, 0, 0, 36, 9, 29, 0, 0, 0, 28, 0, 14, 7, 0, 21, 0, 26, 0, 25, 16, 0, 31, 0, 0, 0, 2, 32, 0, 0, 15, 18, 0, 12, 4, 0
|33, 19, 0, 0, 0, 0, 17, 3, 36, 31, 10, 0, 13, 0, 20, 29, 0, 11, 0, 4, 0, 0, 14, 1, 0, 0, 0, 12, 0, 0, 2, 28, 0, 0, 0, 0
|0, 4, 13, 0, 34, 0, 0, 0, 21, 0, 0, 0, 0, 0, 0, 0, 0, 9, 0, 0, 0, 36, 18, 0, 31, 0, 0, 0, 0, 0, 25, 0, 0, 0, 0, 17
|5, 0, 0, 32, 31, 0, 1, 28, 30, 0, 6, 0, 21, 34, 0, 0, 4, 19, 27, 13, 0, 0, 0, 23, 0, 36, 0, 0, 0, 0, 9, 0, 24, 10, 0, 0
|0, 35, 30, 0, 0, 0, 0, 0, 0, 25, 0, 21, 8, 13, 31, 0, 28, 6, 0, 14, 1, 0, 34, 0, 5, 11, 7, 24, 0, 12, 36, 32, 0, 22, 19, 0
|0, 0, 0, 34, 13, 28, 12, 0, 31, 27, 33, 8, 0, 10, 11, 0, 0, 0, 36, 0, 0, 0, 3, 0, 35, 32, 0, 26, 0, 4, 1, 0, 0, 0, 21, 0
|0, 17, 0, 0, 8, 26, 5, 0, 13, 10, 0, 2, 36, 0, 0, 0, 29, 0, 31, 0, 30, 15, 6, 0, 25, 22, 0, 9, 0, 33, 0, 0, 0, 0, 7, 0
|0, 24, 0, 16, 0, 0, 14, 0, 0, 0, 0, 0, 0, 0, 0, 0, 0, 0, 29, 12, 0, 0, 0, 0, 34, 0, 27, 0, 21, 0, 6, 8, 33, 0, 30, 0
|11, 25, 6, 0, 0, 0, 0, 19, 0, 36, 9, 0, 0, 33, 27, 0, 0, 15, 4, 0, 0, 5, 0, 0, 30, 0, 0, 0, 23, 0, 0, 35, 2, 0, 31, 0|];