order = 6;
grid = [|0, 0, 12, 0, 0, 0, 0, 21, 0, 30, 34, 0, 0, 28, 0, 7, 31, 0, 0, 8, 20, 0, 32, 19, 0, 27, 0, 29, 24, 13, 0, 0, 9, 0, 0, 0
|0, 0, 15, 18, 35, 28, 23, 0, 0, 27, 0, 0, 32, 2, 0, 9, 0, 5, 0, 31, 36, 30, 0, 0, 6, 22, 0, 0, 19, 3, 25, 0, 0, 7, 0, 0
|33, 9, 16, 0, 0, 27, 0, 7, 19, 22, 0, 14, 29, 20, 30, 0, 26, 0, 23, 0, 4, 0, 6, 3, 0, 21, 32, 15, 25, 28, 34, 0, 13, 31, 36, 0
|25, 0, 2, 0, 34, 0, 29, 0, 33, 0, 32, 24, 0, 0, 0, 3, 15, 0, 28, 35, 0, 0, 0, 10, 0, 0, 0, 0, 0, 0, 0, 0, 0, 5, 27, 0
|4, 0, 24, 13, 6, 30, 17, 0, 0, 15, 26, 31, 0, 27, 22, 0, 0, 35, 0, 0, 11, 34, 9, 0, 10, 5, 8, 0, 2, 0, 16, 0, 3, 0, 0, 0
|0, 26, 29, 0, 5, 8, 0, 0, 0, 9, 0, 25, 16, 21, 14, 34, 18, 10, 0, 27, 0, 15, 0, 0, 7, 35, 33, 31, 0, 11, 0, 28, 22, 0, 23, 4
|31, 0, 9, 0, 0, 0, 35, 15, 0, 5, 3, 0, 0, 10, 19, 29, 0, 0, 0, 33, 28, 24, 8, 0, 25, 36, 0, 0, 21, 0, 23, 30, 0, 16, 0, 0
|18, 0, 0, 0, 0, 24, 0, 0, 25, 0, 0, 0, 0, 1, 26, 0, 0, 7, 35, 0, 0, 0, 30, 0, 0, 0, 0, 0, 0, 8, 17, 0, 10, 33, 2, 11
|8, 0, 0, 0, 0, 17, 10, 2, 0, 16, 0, 20, 0, 32, 23, 12, 25, 0, 0, 22, 0, 14, 0, 0, 13, 0, 11, 0, 0, 0, 0, 18, 28, 29, 0, 0
|30, 0, 0, 36, 11, 26, 0, 0, 0, 0, 0, 0, 0, 33, 0, 0, 5, 9, 13, 0, 0, 25, 27, 0, 0, 0, 0, 0, 0, 0, 0, 20, 19, 8, 0, 0
|0, 16, 27, 7, 21, 15, 0, 0, 28, 0, 1, 0, 0, 8, 0, 0, 24, 0, 32, 0, 10, 29, 0, 20, 0, 3, 0, 0, 6, 18, 0, 14, 26, 0, 25, 22
|0, 0, 0, 25, 0, 0, 0, 8, 0, 34, 0, 13, 0, 0, 0, 15, 17, 6, 0, 0, 31, 26, 0, 0, 14, 7, 0, 0, 0, 0, 3, 12, 0, 0, 24, 0
|0, 20, 0, 0, 18, 0, 36, 35, 6, 28, 0, 0, 12, 14, 0, 0, 0, 0, 0, 0, 0, 21, 0, 15, 0, 0, 0, 3, 0, 0, 4, 23, 0, 10, 0, 31
|11, 30, 0, 0, 0, 9, 3, 12, 0, 2, 0, 23, 0, 19, 20, 32, 28, 0, 0, 0, 0, 36, 17, 22, 0, 18, 6, 0, 7, 0, 27, 0, 0, 0, 13, 0
|0, 0, 0, 27, 0, 0, 30, 11, 0, 18, 0, 0, 3, 23, 0, 0, 9, 0, 0, 0, 0, 0, 0, 0, 0, 0, 24, 33, 13, 0, 6, 0, 32, 0, 0, 0
|23, 15, 4, 0, 0, 0, 0, 0, 0, 25, 0, 0, 0, 5, 0, 2, 22, 30, 0, 0, 0, 7, 3, 0, 0, 32, 29, 0, 9, 26, 18, 11, 0, 1, 28, 17
|0, 0, 5, 0, 0, 0, 1, 33, 32, 0, 0, 22, 7, 0, 35, 11, 0, 0, 0, 2, 6, 0, 24, 31, 27, 0, 17, 0, 10, 0, 9, 0, 21, 0, 8, 3
|6, 2, 36, 0, 0, 0, 15, 4, 9, 14, 13, 0, 0, 0, 1, 0, 0, 0, 0, 0, 27, 8, 0, 0, 0, 0, 0, 21, 20, 0, 0, 34, 5, 19, 0, 30
|21, 0, 0, 35, 0, 0, 24, 0, 0, 0, 16, 28, 1, 0, 0, 33, 6, 14, 0, 0, 29, 10, 0, 27, 30, 20, 0, 9, 0, 0, 11, 0, 31, 0, 3, 5
|16, 0, 0, 0, 22, 1, 13, 20, 29, 21, 0, 30, 0, 9, 0, 0, 0, 23, 0, 0, 0, 0, 36, 0, 0, 0, 0, 7, 33, 0, 35, 0, 27, 2, 0, 0
|19, 0, 30, 34, 0, 0, 0, 18, 0, 1, 0, 9, 0, 7, 24, 31, 0, 27, 22, 0, 0, 0, 16, 33, 35, 2, 0, 0, 3, 0, 0, 0, 29, 0, 0, 23
|9, 0, 8, 0, 0, 0, 7, 25, 35, 26, 0, 36, 0, 0, 0, 0, 20, 0, 5, 0, 0, 11, 2, 6, 0, 0, 0, 0, 27, 0, 0, 10, 24, 0, 14, 0
|5, 13, 31, 29, 0, 0, 34, 14, 0, 0, 10, 0, 22, 0, 21, 30, 0, 28, 25, 18, 12, 20, 35, 9, 0, 0, 1, 0, 15, 19, 8, 0, 0, 6, 0, 33
|26, 10, 0, 0, 0, 2, 8, 31, 27, 0, 33, 15, 0, 0, 0, 0, 0, 11, 0, 1, 34, 13, 0, 4, 0, 14, 28, 16, 0, 0, 20, 0, 12, 0, 18, 0
|15, 0, 0, 8, 0, 19, 28, 0, 0, 0, 0, 1, 13, 24, 12, 0, 0, 3, 2, 6, 7, 0, 0, 0, 0, 0, 0, 0, 11, 0, 0, 27, 30, 9, 0, 0
|1, 24, 0, 0, 0, 32, 33, 6, 0, 31, 0, 11, 0, 0, 5, 0, 36, 0, 0, 15, 0, 19, 0, 0, 21, 13, 0, 8, 0, 0, 12, 0, 25, 0, 0, 28
|0, 0, 23, 26, 30, 0, 21, 0, 7, 0, 0, 0, 0, 0, 0, 4, 0, 0, 0, 0, 0, 0, 0, 28, 33, 0, 15, 0, 17, 0, 0, 0, 0, 13, 0, 0
|0, 0, 0, 4, 0, 21, 0, 0, 0, 0, 35, 0, 31, 0, 28, 0, 33, 2, 36, 0, 0, 3, 22, 1, 20, 0, 0, 0, 0, 0, 7, 0, 15, 11, 17, 0
|12, 17, 0, 0, 0, 11, 9, 0, 18, 8, 0, 29, 20, 0, 10, 0, 7, 19, 0, 34, 21, 0, 0, 13, 2, 23, 3, 14, 35, 1, 32, 5, 36, 0, 0, 0
|27, 34, 7, 10, 31, 5, 0, 0, 0, 0, 0, 0, 0, 35, 0, 0, 0, 0, 0, 0, 0, 0, 20, 0, 0, 6, 0, 0, 0, 0, 33, 0, 18, 0, 0, 0
|0, 11, 21, 31, 0, 0, 0, 5, 0, 0, 29, 0, 0, 0, 0, 28, 35, 12, 17, 0, 8, 0, 0, 30, 3, 10, 27, 0, 0, 0, 19, 32, 0, 34, 1, 25
|0, 4, 26, 0, 0, 12, 20, 22, 0, 17, 0, 19, 25, 0, 0, 10, 3, 33, 0, 9, 32, 0, 0, 0, 1, 0, 7, 0, 23, 24, 0, 31, 2, 27, 0, 0
|0, 32, 19, 1, 0, 0, 0, 34, 3, 7, 9, 0, 0, 15, 29, 5, 0, 0, 12, 0, 0, 4, 11, 26, 0, 25, 31, 0, 18, 0, 36, 0, 0, 0, 10, 6
|17, 0, 33, 0, 29, 0, 31, 0, 0, 0, 25, 10, 0, 6, 18, 21, 1, 32, 20, 0, 0, 0, 0, 23, 28, 0, 19, 0, 8, 15, 22, 4, 0, 26, 11, 0
|20, 8, 0, 0, 25, 0, 32, 0, 0, 0, 0, 18, 34, 22, 0, 27, 0, 17, 3, 0, 0, 0, 31, 0, 26, 33, 36, 0, 0, 5, 0, 35, 0, 0, 12, 0
|7, 27, 22, 5, 14, 6, 2, 1, 4, 0, 24, 0, 0, 31, 0, 16, 23, 0, 15, 10, 19, 0, 28, 0, 32, 34, 0, 20, 29, 0, 0, 0, 0, 0, 30, 18|];