order = 6;
grid = [|7, 13, 25, 30, 4, 0, 1, 0, 0, 0, 34, 0, 31, 0, 26, 0, 0, 0, 0, 0, 10, 24, 0, 0, 33, 0, 0, 2, 0, 15, 0, 35, 19, 18, 20, 16
|0, 29, 0, 0, 10, 12, 24, 27, 0, 18, 13, 0, 35, 0, 0, 34, 0, 5, 1, 15, 0, 0, 2, 0, 0, 0, 14, 0, 6, 3, 0, 32, 0, 0, 0, 31
|0, 0, 0, 0, 15, 0, 32, 26, 2, 0, 0, 19, 0, 18, 25, 0, 20, 0, 13, 14, 5, 30, 0, 17, 35, 0, 24, 0, 29, 0, 33, 12, 0, 0, 0, 0
|0, 18, 34, 24, 0, 0, 35, 0, 12, 33, 14, 16, 0, 0, 29, 11, 0, 36, 20, 0, 0, 0, 0, 0, 25, 0, 31, 0, 0, 0, 0, 0, 15, 0, 0, 30
|16, 0, 0, 26, 20, 0, 0, 0, 3, 0, 0, 0, 0, 12, 0, 33, 0, 1, 35, 0, 21, 9, 29, 0, 30, 0, 34, 32, 7, 0, 0, 0, 36, 0, 0, 0
|33, 35, 23, 0, 32, 14, 0, 8, 4, 28, 20, 0, 19, 2, 15, 30, 0, 16, 0, 0, 25, 27, 34, 7, 0, 12, 0, 11, 0, 0, 0, 24, 0, 0, 0, 0
|21, 1, 0, 32, 36, 0, 0, 0, 20, 19, 0, 0, 11, 24, 31, 22, 25, 0, 0, 0, 33, 34, 18, 0, 5, 0, 10, 0, 0, 0, 0, 0, 0, 35, 0, 14
|6, 0, 0, 15, 0, 33, 21, 18, 0, 31, 1, 0, 14, 20, 0, 3, 0, 0, 4, 30, 22, 29, 0, 0, 0, 0, 0, 0, 0, 36, 0, 0, 7, 24, 12, 0
|0, 34, 0, 14, 0, 10, 11, 15, 7, 0, 3, 0, 1, 17, 0, 0, 33, 0, 27, 0, 36, 0, 26, 0, 31, 32, 25, 35, 24, 0, 0, 0, 0, 0, 8, 21
|0, 3, 35, 0, 0, 0, 0, 0, 0, 0, 12, 0, 16, 5, 0, 0, 26, 10, 31, 20, 14, 0, 9, 24, 6, 7, 11, 0, 0, 23, 15, 33, 27, 0, 0, 29
|24, 0, 0, 0, 16, 0, 0, 0, 35, 14, 30, 22, 8, 23, 28, 2, 0, 12, 0, 0, 17, 0, 0, 0, 13, 0, 1, 3, 0, 0, 34, 0, 31, 0, 0, 20
|0, 9, 5, 0, 18, 31, 26, 0, 10, 24, 0, 0, 0, 32, 0, 15, 0, 7, 0, 11, 3, 35, 6, 0, 0, 0, 0, 0, 0, 14, 2, 19, 17, 4, 0, 0
|32, 28, 16, 0, 7, 0, 8, 0, 5, 0, 0, 13, 26, 0, 14, 0, 0, 15, 0, 0, 0, 31, 3, 27, 10, 0, 21, 23, 0, 35, 25, 1, 12, 22, 0, 0
|1, 0, 0, 0, 0, 20, 0, 19, 25, 0, 9, 36, 3, 16, 0, 0, 31, 0, 30, 24, 0, 4, 0, 12, 0, 0, 2, 13, 0, 26, 0, 0, 0, 10, 29, 6
|18, 11, 0, 0, 26, 0, 0, 6, 0, 17, 15, 0, 4, 19, 24, 0, 10, 0, 0, 16, 13, 23, 20, 0, 1, 25, 0, 0, 0, 7, 0, 0, 0, 3, 31, 0
|17, 2, 10, 23, 0, 9, 0, 0, 11, 0, 26, 0, 36, 0, 0, 0, 34, 0, 0, 33, 6, 25, 0, 0, 3, 0, 0, 30, 4, 31, 7, 0, 0, 19, 27, 0
|0, 24, 0, 13, 0, 25, 0, 3, 33, 0, 0, 23, 9, 22, 30, 0, 0, 20, 26, 0, 0, 0, 36, 11, 0, 17, 0, 0, 14, 0, 35, 8, 4, 0, 2, 0
|0, 30, 0, 0, 0, 0, 10, 0, 31, 1, 0, 0, 25, 0, 0, 18, 0, 0, 0, 9, 0, 32, 0, 21, 0, 0, 22, 0, 8, 0, 0, 26, 0, 0, 16, 28
|14, 19, 0, 0, 2, 16, 17, 0, 0, 0, 31, 0, 7, 0, 22, 0, 0, 25, 24, 0, 0, 11, 23, 18, 0, 10, 6, 1, 12, 28, 8, 0, 33, 0, 34, 0
|13, 21, 12, 34, 0, 0, 0, 0, 15, 23, 0, 0, 18, 0, 5, 0, 0, 0, 36, 19, 30, 0, 16, 0, 0, 24, 20, 0, 22, 33, 0, 4, 9, 0, 35, 0
|0, 4, 36, 0, 8, 0, 7, 24, 22, 0, 32, 30, 13, 0, 0, 0, 0, 0, 25, 27, 15, 0, 33, 10, 0, 14, 23, 0, 2, 0, 1, 0, 0, 6, 21, 0
|0, 0, 0, 33, 22, 24, 28, 34, 0, 0, 0, 11, 0, 0, 32, 23, 12, 4, 0, 0, 0, 0, 17, 0, 0, 36, 3, 29, 0, 0, 0, 7, 20, 0, 0, 25
|9, 15, 30, 17, 0, 1, 0, 4, 0, 0, 10, 12, 0, 35, 0, 16, 0, 0, 29, 0, 20, 0, 0, 0, 34, 0, 7, 26, 11, 0, 36, 0, 0, 0, 0, 32
|0, 32, 18, 0, 0, 0, 0, 0, 0, 29, 33, 20, 0, 36, 0, 0, 15, 0, 0, 0, 1, 0, 0, 0, 27, 35, 8, 0, 0, 0, 31, 0, 0, 0, 13, 0
|30, 33, 6, 0, 34, 23, 29, 12, 26, 9, 16, 0, 0, 13, 1, 24, 0, 0, 0, 25, 0, 0, 0, 0, 21, 0, 35, 5, 0, 0, 0, 0, 32, 0, 0, 0
|25, 22, 15, 28, 35, 26, 0, 0, 0, 0, 21, 0, 0, 7, 20, 5, 36, 31, 0, 23, 12, 16, 32, 0, 0, 0, 30, 0, 0, 34, 6, 29, 2, 0, 4, 17
|0, 14, 13, 10, 0, 5, 0, 0, 0, 25, 0, 2, 0, 15, 0, 0, 6, 0, 8, 0, 0, 0, 0, 0, 0, 28, 0, 0, 0, 0, 24, 9, 0, 12, 0, 0
|11, 0, 29, 0, 0, 36, 31, 0, 24, 0, 4, 0, 0, 28, 0, 35, 0, 0, 0, 0, 0, 0, 0, 33, 8, 0, 27, 15, 25, 32, 0, 0, 0, 21, 26, 0
|4, 0, 24, 2, 0, 32, 20, 36, 0, 34, 0, 15, 0, 0, 3, 0, 0, 0, 0, 29, 0, 6, 28, 0, 23, 0, 26, 7, 31, 0, 22, 27, 25, 30, 5, 0
|20, 0, 1, 0, 0, 0, 0, 0, 28, 0, 0, 3, 33, 0, 16, 25, 32, 30, 0, 0, 24, 0, 0, 0, 29, 0, 0, 0, 0, 2, 0, 0, 0, 0, 14, 35
|15, 7, 32, 0, 13, 0, 0, 0, 0, 0, 0, 0, 0, 14, 8, 0, 0, 0, 0, 12, 9, 36, 25, 0, 0, 0, 18, 33, 35, 0, 23, 0, 30, 20, 0, 5
|26, 20, 22, 0, 28, 30, 33, 31, 0, 7, 0, 0, 0, 11, 0, 0, 4, 17, 16, 0, 0, 0, 0, 35, 36, 5, 19, 6, 1, 21, 0, 13, 3, 27, 0, 0
|0, 25, 0, 0, 23, 27, 15, 14, 6, 0, 0, 0, 0, 34, 0, 0, 0, 0, 0, 28, 0, 0, 24, 0, 7, 0, 13, 10, 3, 0, 0, 0, 1, 17, 22, 4
|0, 36, 14, 21, 24, 0, 0, 16, 17, 32, 0, 0, 0, 27, 0, 13, 30, 29, 33, 0, 0, 1, 31, 0, 22, 0, 0, 0, 26, 0, 12, 0, 35, 9, 0, 7
|10, 0, 4, 35, 0, 29, 0, 0, 0, 30, 0, 0, 20, 25, 36, 6, 19, 0, 0, 26, 27, 22, 21, 14, 0, 16, 0, 0, 0, 8, 32, 0, 0, 33, 0, 0
|34, 0, 3, 1, 0, 0, 0, 22, 36, 20, 25, 29, 24, 0, 18, 0, 0, 0, 0, 0, 0, 17, 15, 30, 0, 0, 0, 0, 0, 11, 16, 21, 0, 31, 19, 0|];