order = 6;
grid = [|6, 12, 27, 23, 34, 0, 20, 29, 0, 0, 19, 24, 31, 0, 0, 0, 11, 2, 33, 0, 25, 0, 15, 7, 0, 0, 0, 21, 28, 14, 17, 0, 22, 0, 0, 0
|24, 0, 0, 20, 0, 0, 0, 0, 36, 25, 0, 17, 0, 0, 0, 0, 0, 29, 0, 0, 0, 0, 0, 13, 0, 34, 0, 0, 0, 35, 33, 31, 0, 10, 19, 4
|0, 0, 19, 32, 0, 0, 2, 0, 0, 33, 14, 13, 0, 0, 0, 24, 17, 22, 1, 0, 0, 0, 0, 23, 0, 0, 25, 0, 0, 4, 12, 0, 0, 3, 7, 0
|3, 0, 36, 0, 15, 0, 0, 26, 16, 0, 30, 0, 0, 0, 0, 13, 27, 18, 35, 0, 0, 20, 4, 0, 29, 19, 7, 2, 10, 0, 0, 0, 24, 14, 34, 23
|0, 0, 28, 0, 30, 0, 6, 5, 4, 12, 0, 3, 10, 0, 35, 0, 20, 19, 0, 0, 16, 22, 0, 0, 0, 0, 36, 0, 0, 17, 9, 15, 1, 21, 25, 0
|14, 0, 0, 0, 0, 9, 21, 0, 23, 35, 0, 1, 36, 0, 0, 0, 7, 0, 0, 0, 24, 0, 0, 10, 15, 0, 3, 0, 16, 32, 0, 13, 20, 11, 0, 0
|0, 0, 34, 0, 4, 0, 19, 23, 0, 0, 25, 0, 27, 0, 0, 0, 0, 15, 0, 16, 20, 0, 0, 0, 2, 33, 29, 13, 0, 7, 0, 35, 10, 18, 11, 0
|0, 14, 17, 0, 18, 0, 3, 4, 9, 2, 0, 0, 0, 32, 0, 0, 0, 0, 11, 33, 31, 0, 19, 0, 0, 0, 21, 0, 0, 6, 13, 0, 0, 0, 24, 0
|19, 0, 0, 24, 0, 0, 36, 0, 0, 0, 18, 0, 0, 0, 0, 0, 33, 0, 3, 0, 0, 0, 22, 0, 0, 0, 26, 25, 0, 30, 0, 0, 5, 0, 0, 28
|5, 0, 0, 35, 0, 0, 0, 7, 34, 6, 0, 10, 18, 11, 0, 14, 0, 0, 0, 1, 12, 0, 0, 0, 28, 4, 23, 36, 0, 0, 21, 0, 0, 0, 0, 29
|0, 30, 13, 0, 0, 22, 0, 35, 28, 14, 31, 0, 0, 0, 17, 10, 8, 0, 0, 26, 0, 0, 18, 0, 0, 32, 0, 24, 0, 1, 4, 0, 0, 33, 0, 7
|10, 25, 32, 0, 0, 7, 0, 1, 22, 0, 33, 12, 0, 0, 0, 0, 0, 0, 4, 28, 23, 0, 35, 0, 0, 11, 0, 14, 0, 18, 0, 19, 15, 0, 0, 0
|17, 19, 0, 0, 32, 27, 0, 0, 25, 29, 0, 0, 0, 0, 0, 28, 5, 0, 0, 24, 0, 26, 23, 0, 7, 2, 0, 0, 0, 15, 3, 33, 0, 0, 0, 0
|13, 4, 2, 26, 3, 0, 0, 16, 30, 34, 21, 0, 19, 29, 0, 18, 36, 14, 0, 27, 6, 9, 0, 5, 33, 0, 10, 0, 0, 22, 11, 0, 31, 0, 23, 0
|1, 0, 0, 0, 23, 5, 0, 24, 11, 0, 35, 33, 16, 0, 0, 17, 0, 12, 2, 0, 7, 0, 10, 0, 25, 14, 0, 0, 0, 0, 6, 26, 0, 32, 18, 0
|36, 0, 0, 10, 7, 24, 15, 0, 5, 0, 1, 0, 26, 35, 2, 6, 0, 0, 19, 14, 0, 12, 0, 0, 34, 17, 0, 0, 3, 0, 0, 8, 29, 0, 13, 22
|0, 0, 14, 0, 0, 12, 0, 0, 0, 20, 26, 28, 0, 0, 9, 7, 0, 1, 8, 0, 33, 0, 36, 16, 11, 24, 0, 0, 0, 0, 0, 5, 0, 0, 10, 34
|31, 0, 0, 16, 33, 0, 0, 0, 0, 0, 0, 2, 0, 0, 0, 30, 24, 13, 34, 0, 1, 0, 17, 0, 0, 0, 0, 19, 0, 26, 7, 0, 0, 0, 12, 0
|0, 0, 35, 1, 12, 20, 10, 19, 0, 0, 0, 34, 0, 0, 0, 22, 0, 36, 14, 25, 5, 0, 31, 0, 0, 16, 0, 7, 6, 33, 24, 0, 0, 9, 0, 13
|4, 0, 0, 0, 0, 31, 26, 18, 6, 30, 16, 0, 2, 17, 0, 9, 21, 23, 0, 0, 10, 33, 1, 35, 0, 0, 0, 0, 0, 0, 22, 11, 36, 0, 0, 0
|34, 0, 0, 9, 0, 2, 0, 17, 0, 0, 13, 0, 32, 7, 28, 0, 0, 31, 0, 18, 19, 0, 0, 29, 24, 35, 1, 8, 0, 0, 10, 0, 0, 25, 0, 0
|32, 0, 0, 6, 0, 14, 0, 27, 15, 7, 0, 0, 25, 0, 0, 0, 1, 5, 0, 3, 0, 0, 0, 9, 0, 21, 0, 11, 2, 0, 0, 0, 33, 0, 0, 0
|0, 7, 10, 0, 0, 0, 0, 28, 31, 1, 0, 36, 0, 18, 29, 19, 0, 26, 21, 0, 32, 0, 0, 0, 9, 0, 27, 4, 0, 0, 15, 3, 2, 8, 16, 0
|0, 0, 0, 19, 0, 30, 0, 25, 12, 22, 9, 5, 34, 0, 20, 8, 16, 24, 0, 0, 0, 23, 13, 36, 0, 0, 0, 32, 26, 0, 0, 0, 7, 6, 17, 1
|20, 0, 15, 12, 0, 0, 25, 2, 33, 0, 0, 31, 0, 13, 0, 0, 30, 0, 0, 29, 0, 32, 28, 0, 21, 0, 22, 27, 0, 0, 35, 0, 0, 5, 1, 0
|0, 21, 0, 0, 0, 19, 0, 32, 0, 0, 11, 0, 14, 0, 0, 0, 18, 0, 10, 12, 26, 0, 3, 2, 4, 0, 0, 1, 17, 0, 0, 0, 0, 24, 0, 0
|8, 0, 25, 14, 0, 29, 0, 0, 0, 0, 0, 0, 0, 0, 0, 0, 0, 28, 0, 0, 0, 0, 0, 0, 0, 12, 0, 0, 0, 11, 32, 7, 21, 23, 33, 3
|23, 0, 1, 4, 2, 0, 0, 0, 0, 0, 0, 21, 17, 0, 0, 0, 10, 6, 0, 0, 0, 0, 7, 19, 16, 30, 0, 26, 0, 0, 0, 36, 13, 0, 15, 0
|22, 0, 0, 0, 0, 16, 0, 0, 0, 24, 29, 7, 0, 0, 0, 0, 0, 32, 0, 0, 27, 0, 33, 1, 6, 0, 0, 0, 23, 0, 28, 0, 0, 0, 2, 11
|18, 33, 0, 0, 26, 34, 0, 13, 0, 16, 0, 19, 29, 36, 7, 21, 0, 11, 23, 0, 15, 24, 30, 0, 0, 0, 2, 0, 0, 3, 0, 0, 8, 0, 9, 0
|0, 0, 0, 0, 0, 32, 0, 0, 0, 31, 23, 27, 35, 6, 0, 0, 19, 34, 25, 9, 0, 11, 0, 33, 0, 7, 4, 0, 0, 16, 30, 1, 0, 13, 0, 5
|0, 0, 0, 18, 0, 28, 16, 0, 1, 0, 4, 35, 22, 0, 14, 0, 0, 0, 6, 0, 13, 17, 5, 0, 32, 0, 11, 0, 33, 0, 0, 0, 27, 0, 0, 12
|0, 0, 0, 0, 0, 33, 14, 0, 0, 8, 2, 0, 13, 1, 15, 11, 4, 17, 0, 22, 35, 0, 0, 34, 26, 0, 0, 0, 0, 12, 0, 32, 18, 0, 0, 0
|16, 0, 12, 0, 1, 4, 32, 33, 0, 0, 22, 0, 0, 3, 5, 0, 0, 7, 0, 23, 0, 28, 0, 18, 0, 0, 0, 0, 21, 13, 36, 0, 11, 35, 0, 17
|0, 0, 3, 36, 0, 13, 0, 12, 26, 18, 0, 0, 28, 0, 0, 23, 0, 16, 0, 0, 0, 10, 21, 15, 14, 6, 0, 0, 0, 31, 0, 24, 25, 0, 22, 0
|35, 31, 0, 0, 0, 17, 28, 11, 0, 13, 5, 0, 33, 0, 21, 25, 0, 10, 0, 19, 0, 1, 27, 32, 0, 0, 9, 0, 0, 2, 0, 0, 26, 15, 4, 16|];