order = 6;
grid = [|18, 0, 0, 26, 0, 27, 25, 10, 4, 0, 15, 1, 0, 31, 0, 0, 0, 0, 22, 0, 0, 21, 28, 34, 17, 8, 0, 5, 0, 0, 14, 20, 0, 0, 24, 13
|0, 0, 31, 10, 0, 21, 0, 0, 35, 33, 13, 27, 0, 6, 0, 0, 22, 28, 0, 0, 11, 0, 0, 9, 0, 0, 0, 0, 1, 0, 0, 15, 0, 0, 30, 29
|14, 32, 0, 0, 1, 4, 0, 0, 12, 0, 0, 0, 0, 0, 34, 23, 15, 0, 0, 0, 0, 29, 13, 0, 0, 24, 0, 10, 27, 11, 0, 26, 36, 0, 0, 18
|0, 0, 34, 8, 17, 0, 0, 7, 19, 0, 14, 31, 0, 0, 0, 3, 0, 0, 0, 0, 36, 32, 26, 16, 0, 0, 35, 0, 15, 28, 0, 5, 0, 0, 1, 0
|0, 0, 0, 0, 0, 15, 0, 0, 0, 0, 0, 0, 0, 0, 18, 0, 0, 14, 0, 0, 1, 0, 23, 0, 0, 0, 0, 0, 0, 0, 31, 0, 19, 22, 0, 3
|19, 28, 0, 9, 23, 0, 0, 0, 0, 0, 30, 0, 10, 0, 36, 1, 0, 32, 0, 25, 15, 33, 0, 0, 7, 0, 0, 0, 31, 26, 0, 2, 0, 34, 17, 0
|0, 0, 27, 0, 0, 3, 0, 6, 0, 0, 28, 19, 14, 23, 17, 22, 0, 11, 0, 0, 10, 20, 0, 7, 18, 0, 26, 0, 0, 0, 36, 21, 15, 25, 33, 4
|22, 0, 0, 34, 24, 14, 4, 21, 36, 0, 9, 25, 0, 0, 8, 0, 7, 3, 0, 1, 0, 0, 0, 17, 32, 16, 0, 0, 13, 0, 0, 0, 23, 0, 0, 10
|36, 0, 0, 0, 21, 0, 0, 0, 0, 0, 5, 32, 34, 18, 12, 0, 0, 16, 11, 23, 14, 2, 0, 27, 0, 0, 0, 0, 7, 6, 3, 0, 0, 0, 19, 20
|32, 0, 0, 0, 0, 28, 0, 0, 27, 7, 0, 0, 0, 0, 2, 0, 0, 30, 0, 5, 0, 0, 4, 36, 0, 10, 0, 0, 0, 0, 0, 16, 0, 0, 0, 8
|0, 0, 1, 0, 7, 0, 0, 0, 0, 0, 35, 18, 0, 32, 0, 10, 0, 0, 0, 0, 0, 24, 0, 0, 19, 23, 0, 25, 0, 0, 5, 0, 22, 0, 13, 0
|5, 0, 0, 15, 25, 23, 10, 14, 33, 0, 31, 17, 19, 0, 0, 28, 24, 21, 35, 0, 22, 0, 0, 8, 0, 36, 0, 0, 0, 27, 29, 32, 0, 6, 18, 7
|3, 19, 23, 36, 0, 0, 17, 0, 20, 0, 0, 0, 0, 27, 21, 31, 14, 2, 34, 0, 13, 11, 0, 30, 15, 0, 33, 35, 0, 25, 1, 0, 0, 10, 4, 9
|0, 1, 0, 11, 0, 0, 31, 30, 23, 0, 0, 14, 0, 0, 16, 0, 10, 0, 0, 27, 24, 0, 33, 4, 21, 18, 0, 0, 0, 0, 6, 0, 0, 0, 5, 35
|0, 12, 0, 0, 0, 24, 0, 4, 18, 0, 8, 7, 23, 22, 13, 5, 17, 0, 20, 3, 28, 0, 0, 0, 0, 26, 30, 1, 6, 0, 0, 0, 0, 36, 0, 16
|0, 0, 0, 29, 10, 0, 28, 36, 0, 0, 0, 21, 30, 0, 35, 34, 0, 4, 0, 17, 25, 12, 19, 22, 8, 0, 0, 0, 5, 0, 18, 24, 31, 0, 14, 0
|0, 14, 21, 32, 0, 0, 35, 0, 0, 0, 0, 10, 0, 24, 0, 0, 26, 0, 29, 0, 0, 0, 0, 18, 0, 0, 31, 0, 0, 7, 27, 0, 0, 0, 12, 30
|35, 0, 4, 0, 27, 0, 13, 1, 0, 0, 0, 0, 0, 20, 29, 0, 28, 0, 0, 0, 0, 0, 32, 0, 0, 0, 0, 34, 24, 0, 23, 19, 0, 21, 8, 0
|0, 36, 0, 0, 0, 0, 19, 0, 0, 0, 22, 0, 0, 0, 31, 11, 0, 29, 24, 13, 17, 0, 27, 14, 0, 0, 1, 18, 0, 0, 0, 0, 0, 8, 34, 28
|0, 27, 10, 0, 28, 32, 33, 0, 0, 8, 0, 4, 0, 0, 0, 0, 0, 0, 18, 11, 0, 0, 35, 23, 24, 17, 16, 0, 14, 34, 0, 3, 0, 20, 0, 0
|8, 24, 15, 23, 0, 35, 18, 3, 0, 0, 7, 36, 0, 14, 0, 21, 0, 0, 0, 0, 0, 0, 6, 32, 0, 33, 27, 11, 28, 29, 0, 30, 2, 26, 31, 0
|11, 0, 0, 18, 4, 0, 34, 16, 0, 0, 23, 0, 0, 8, 27, 24, 3, 0, 28, 10, 0, 0, 2, 0, 0, 20, 22, 0, 0, 36, 19, 0, 0, 0, 0, 1
|0, 0, 26, 0, 0, 0, 14, 25, 0, 0, 20, 29, 28, 0, 0, 0, 34, 7, 0, 8, 3, 0, 0, 0, 0, 2, 21, 0, 35, 0, 0, 0, 0, 0, 9, 11
|0, 29, 7, 0, 0, 0, 30, 0, 1, 24, 0, 0, 22, 19, 0, 0, 23, 0, 9, 0, 0, 31, 0, 0, 0, 13, 6, 8, 3, 5, 35, 0, 0, 0, 0, 36
|0, 4, 11, 35, 0, 0, 0, 0, 5, 0, 25, 33, 12, 15, 24, 6, 19, 17, 0, 20, 27, 18, 0, 28, 22, 0, 0, 0, 26, 0, 30, 8, 29, 9, 2, 14
|30, 23, 17, 25, 0, 2, 6, 0, 29, 0, 0, 0, 0, 28, 0, 20, 16, 31, 15, 0, 7, 9, 0, 35, 0, 0, 8, 0, 4, 32, 33, 1, 3, 19, 27, 24
|27, 0, 0, 0, 0, 7, 0, 17, 0, 22, 26, 20, 0, 0, 0, 0, 0, 5, 0, 12, 0, 0, 0, 11, 0, 21, 29, 33, 19, 0, 10, 0, 6, 13, 35, 0
|6, 0, 16, 24, 0, 5, 15, 27, 0, 14, 0, 30, 29, 0, 0, 36, 21, 35, 2, 0, 26, 13, 10, 1, 0, 0, 23, 17, 12, 20, 0, 0, 0, 0, 0, 0
|10, 0, 12, 0, 26, 0, 36, 35, 28, 0, 0, 8, 0, 0, 22, 32, 13, 34, 0, 0, 0, 0, 0, 0, 0, 0, 0, 27, 30, 2, 0, 31, 16, 0, 20, 25
|0, 31, 0, 0, 0, 29, 32, 0, 0, 1, 0, 0, 0, 0, 0, 27, 11, 8, 17, 0, 0, 0, 34, 25, 28, 3, 0, 15, 0, 0, 0, 12, 0, 7, 23, 5
|17, 8, 36, 7, 0, 0, 11, 9, 15, 0, 0, 0, 0, 0, 28, 0, 0, 22, 0, 0, 35, 10, 14, 0, 0, 0, 32, 2, 0, 0, 0, 4, 0, 0, 0, 0
|26, 0, 0, 0, 11, 25, 8, 20, 0, 28, 0, 12, 31, 0, 0, 0, 0, 0, 3, 0, 0, 0, 22, 13, 23, 0, 0, 6, 34, 16, 0, 0, 0, 29, 0, 33
|23, 0, 14, 0, 30, 19, 0, 0, 0, 0, 0, 35, 0, 36, 15, 16, 0, 1, 0, 0, 0, 34, 0, 26, 5, 22, 0, 20, 8, 24, 32, 28, 0, 27, 25, 2
|4, 0, 24, 5, 0, 1, 7, 33, 0, 2, 36, 22, 9, 17, 14, 13, 32, 0, 0, 0, 30, 0, 0, 0, 0, 19, 0, 0, 0, 0, 0, 0, 0, 0, 0, 31
|31, 0, 20, 13, 6, 0, 0, 32, 0, 0, 1, 26, 21, 12, 0, 29, 0, 0, 0, 0, 2, 0, 17, 0, 0, 35, 7, 0, 18, 9, 0, 14, 0, 24, 22, 23
|0, 18, 32, 0, 33, 0, 0, 19, 25, 0, 0, 0, 27, 35, 7, 2, 4, 0, 0, 31, 0, 0, 11, 0, 30, 1, 0, 0, 10, 0, 0, 6, 5, 15, 0, 26|];