order = 6;
grid = [|22, 20, 31, 0, 1, 26, 16, 34, 0, 0, 30, 32, 8, 0, 0, 0, 0, 0, 7, 0, 3, 0, 21, 14, 36, 0, 0, 17, 0, 0, 18, 0, 0, 9, 0, 0
|0, 0, 0, 0, 33, 17, 0, 20, 0, 0, 0, 4, 34, 0, 0, 16, 0, 0, 0, 31, 0, 24, 26, 30, 0, 2, 35, 9, 29, 0, 13, 1, 0, 0, 0, 0
|0, 0, 15, 0, 2, 0, 0, 12, 0, 0, 0, 1, 0, 31, 23, 24, 0, 17, 10, 34, 4, 19, 0, 0, 0, 0, 0, 25, 0, 14, 0, 3, 0, 0, 0, 0
|0, 0, 0, 4, 35, 0, 0, 0, 0, 10, 25, 17, 0, 3, 18, 29, 7, 36, 0, 20, 0, 1, 27, 9, 34, 15, 0, 0, 26, 33, 0, 0, 28, 0, 6, 12
|0, 0, 11, 0, 25, 16, 3, 0, 29, 0, 0, 0, 0, 30, 0, 0, 9, 0, 0, 22, 0, 0, 36, 15, 0, 0, 0, 20, 1, 0, 0, 34, 17, 0, 0, 27
|12, 27, 0, 7, 18, 34, 0, 14, 8, 21, 0, 0, 0, 1, 20, 0, 35, 5, 0, 0, 0, 33, 28, 17, 19, 0, 10, 24, 13, 11, 4, 26, 0, 15, 30, 36
|31, 33, 24, 0, 14, 0, 18, 22, 3, 0, 4, 35, 0, 0, 5, 0, 36, 9, 0, 0, 0, 2, 12, 0, 0, 29, 20, 0, 10, 0, 7, 0, 26, 6, 27, 0
|8, 0, 0, 0, 3, 23, 26, 30, 0, 24, 0, 0, 0, 0, 1, 18, 31, 12, 0, 29, 0, 0, 16, 28, 15, 27, 0, 0, 0, 0, 0, 14, 0, 0, 0, 0
|20, 0, 0, 18, 16, 0, 0, 0, 0, 19, 7, 21, 0, 28, 0, 0, 26, 14, 0, 4, 11, 27, 8, 36, 23, 0, 22, 0, 31, 1, 9, 0, 2, 0, 0, 13
|0, 0, 21, 27, 0, 0, 0, 32, 31, 0, 0, 16, 0, 0, 17, 20, 11, 24, 35, 30, 0, 0, 0, 26, 0, 4, 0, 0, 5, 36, 19, 22, 0, 0, 0, 10
|0, 12, 0, 0, 0, 0, 0, 0, 0, 0, 0, 0, 21, 0, 29, 22, 15, 0, 31, 0, 0, 0, 9, 0, 13, 7, 18, 8, 17, 0, 24, 0, 4, 34, 5, 0
|0, 36, 1, 0, 0, 0, 6, 0, 14, 34, 12, 23, 0, 7, 0, 3, 16, 0, 5, 0, 22, 10, 0, 0, 0, 30, 0, 0, 25, 28, 0, 0, 0, 33, 15, 0
|0, 0, 0, 35, 0, 0, 29, 36, 23, 18, 0, 0, 26, 9, 6, 4, 12, 0, 30, 0, 28, 0, 0, 19, 0, 14, 0, 0, 2, 24, 1, 0, 0, 13, 0, 0
|0, 15, 0, 13, 8, 0, 17, 0, 0, 20, 21, 0, 27, 16, 0, 1, 0, 19, 3, 0, 26, 11, 4, 0, 9, 0, 25, 0, 0, 23, 30, 28, 0, 24, 36, 32
|0, 0, 2, 5, 11, 22, 13, 6, 34, 0, 15, 12, 0, 24, 0, 35, 29, 28, 0, 7, 0, 0, 1, 32, 0, 3, 0, 0, 0, 27, 0, 8, 0, 0, 17, 0
|0, 18, 0, 20, 0, 1, 0, 3, 24, 0, 28, 9, 0, 0, 0, 30, 8, 0, 0, 25, 2, 12, 0, 0, 5, 0, 0, 10, 32, 6, 0, 0, 0, 0, 0, 34
|0, 16, 0, 0, 0, 0, 19, 10, 0, 0, 0, 25, 0, 13, 14, 0, 0, 3, 0, 18, 27, 0, 6, 24, 0, 0, 0, 22, 0, 29, 15, 9, 0, 12, 0, 35
|4, 0, 0, 0, 27, 24, 0, 0, 0, 0, 0, 26, 31, 0, 32, 15, 25, 21, 0, 0, 9, 0, 0, 0, 28, 16, 0, 0, 0, 8, 0, 19, 5, 11, 0, 0
|0, 19, 0, 3, 5, 8, 0, 0, 0, 0, 0, 0, 7, 12, 0, 0, 0, 13, 0, 0, 0, 0, 2, 11, 0, 26, 0, 1, 35, 18, 36, 0, 0, 0, 28, 22
|36, 0, 0, 0, 0, 4, 0, 0, 26, 0, 0, 33, 18, 11, 8, 21, 0, 25, 12, 6, 23, 3, 7, 0, 0, 0, 0, 0, 22, 0, 0, 27, 24, 17, 0, 0
|23, 26, 32, 16, 20, 0, 0, 0, 0, 0, 29, 24, 3, 34, 0, 19, 0, 0, 0, 0, 0, 22, 17, 0, 0, 0, 28, 11, 0, 0, 0, 0, 15, 0, 1, 0
|0, 6, 25, 33, 0, 29, 0, 0, 0, 23, 0, 0, 28, 0, 36, 0, 0, 2, 0, 0, 0, 0, 0, 0, 0, 32, 0, 30, 0, 0, 0, 7, 0, 0, 0, 11
|0, 7, 12, 0, 0, 0, 28, 16, 36, 8, 0, 11, 22, 0, 0, 10, 1, 0, 0, 0, 0, 30, 0, 0, 0, 0, 0, 0, 4, 13, 3, 0, 14, 18, 0, 6
|0, 34, 0, 0, 0, 0, 0, 0, 0, 0, 3, 7, 6, 0, 0, 0, 0, 0, 0, 0, 0, 18, 0, 1, 29, 0, 12, 0, 0, 0, 0, 21, 13, 35, 8, 0
|26, 4, 0, 0, 0, 0, 0, 11, 0, 0, 0, 0, 0, 20, 0, 9, 33, 31, 0, 0, 0, 5, 19, 6, 0, 24, 0, 0, 0, 0, 17, 10, 0, 0, 7, 0
|1, 24, 0, 21, 30, 5, 0, 7, 32, 0, 0, 0, 0, 22, 25, 17, 19, 0, 8, 0, 0, 29, 0, 0, 0, 0, 36, 0, 0, 9, 12, 2, 0, 0, 34, 0
|0, 31, 27, 17, 0, 20, 12, 24, 0, 29, 8, 0, 5, 0, 0, 11, 6, 10, 21, 28, 1, 4, 0, 0, 0, 0, 0, 7, 0, 30, 23, 35, 9, 36, 0, 0
|3, 0, 0, 0, 29, 0, 0, 0, 17, 9, 6, 0, 32, 0, 0, 0, 0, 0, 0, 0, 34, 14, 0, 35, 16, 0, 11, 0, 0, 0, 20, 15, 27, 19, 0, 4
|13, 25, 16, 12, 7, 15, 0, 21, 0, 0, 23, 0, 29, 27, 24, 0, 4, 0, 0, 0, 0, 0, 10, 31, 2, 17, 5, 0, 6, 22, 33, 0, 0, 32, 0, 0
|2, 0, 9, 19, 6, 11, 0, 0, 13, 0, 20, 0, 35, 0, 16, 0, 18, 30, 0, 0, 0, 17, 0, 7, 8, 0, 29, 0, 0, 26, 0, 5, 0, 0, 21, 0
|27, 2, 22, 1, 4, 0, 36, 0, 12, 5, 26, 13, 0, 35, 11, 31, 10, 0, 0, 0, 19, 32, 33, 34, 14, 0, 23, 0, 7, 17, 0, 24, 25, 3, 0, 0
|0, 0, 8, 0, 24, 14, 2, 0, 28, 0, 0, 0, 4, 0, 22, 25, 21, 34, 20, 11, 36, 16, 29, 12, 0, 0, 0, 0, 0, 32, 27, 6, 7, 26, 23, 0
|19, 35, 20, 0, 0, 28, 14, 0, 0, 0, 34, 0, 0, 33, 7, 0, 0, 6, 4, 21, 0, 9, 0, 0, 0, 0, 16, 0, 0, 25, 10, 36, 0, 0, 0, 0
|0, 30, 33, 0, 0, 0, 23, 0, 0, 7, 0, 31, 1, 19, 12, 27, 3, 8, 0, 0, 0, 0, 0, 0, 22, 0, 0, 0, 24, 20, 5, 29, 0, 0, 4, 0
|29, 0, 5, 34, 0, 25, 32, 4, 20, 0, 0, 15, 0, 26, 0, 0, 23, 18, 0, 24, 7, 0, 0, 0, 0, 12, 2, 0, 8, 0, 0, 13, 0, 21, 19, 33
|16, 0, 7, 23, 0, 0, 10, 27, 21, 0, 0, 30, 2, 0, 0, 14, 32, 0, 0, 0, 0, 26, 22, 0, 0, 36, 33, 19, 0, 0, 31, 0, 35, 0, 0, 0|];