order = 6;
grid = [|0, 0, 16, 0, 0, 0, 0, 0, 0, 26, 0, 0, 33, 0, 0, 0, 28, 31, 0, 0, 3, 11, 0, 25, 0, 6, 18, 0, 1, 27, 22, 30, 12, 0, 34, 0
|10, 0, 0, 0, 34, 0, 11, 21, 29, 9, 0, 6, 15, 35, 0, 0, 0, 0, 7, 1, 0, 33, 0, 16, 0, 14, 2, 0, 0, 4, 0, 24, 23, 0, 0, 0
|24, 30, 3, 5, 9, 0, 25, 0, 0, 27, 35, 0, 0, 1, 0, 16, 20, 0, 6, 0, 0, 31, 14, 0, 22, 13, 33, 0, 8, 0, 21, 0, 4, 15, 0, 36
|28, 1, 0, 7, 14, 32, 0, 0, 17, 0, 0, 12, 21, 8, 30, 22, 9, 23, 15, 24, 13, 0, 0, 0, 0, 3, 31, 0, 0, 11, 29, 0, 6, 2, 0, 20
|33, 18, 0, 27, 0, 0, 0, 0, 0, 0, 16, 0, 25, 13, 36, 4, 12, 0, 34, 0, 0, 8, 0, 17, 0, 0, 0, 0, 0, 24, 10, 0, 0, 0, 5, 3
|11, 0, 2, 0, 29, 6, 0, 22, 3, 0, 13, 0, 7, 0, 0, 18, 0, 17, 28, 30, 0, 12, 0, 0, 15, 5, 0, 0, 0, 0, 1, 8, 27, 35, 25, 33
|0, 0, 0, 15, 35, 26, 0, 3, 0, 22, 12, 31, 9, 5, 0, 10, 23, 0, 0, 16, 0, 2, 18, 7, 0, 30, 0, 25, 0, 0, 0, 14, 34, 24, 0, 13
|34, 9, 0, 28, 5, 0, 16, 18, 0, 11, 7, 0, 0, 36, 33, 0, 0, 26, 0, 0, 14, 1, 0, 0, 21, 4, 22, 19, 0, 0, 0, 10, 0, 12, 0, 0
|0, 2, 0, 4, 33, 10, 0, 20, 0, 25, 0, 21, 1, 0, 7, 0, 35, 0, 24, 3, 6, 0, 13, 0, 29, 0, 0, 0, 5, 0, 36, 18, 0, 26, 0, 27
|1, 0, 0, 0, 0, 31, 10, 0, 24, 19, 29, 36, 16, 0, 8, 25, 4, 27, 0, 0, 20, 0, 26, 35, 14, 23, 0, 3, 13, 33, 32, 0, 0, 0, 0, 22
|22, 0, 0, 21, 20, 25, 9, 4, 0, 13, 32, 33, 0, 0, 0, 0, 0, 0, 5, 0, 23, 34, 0, 19, 16, 0, 10, 0, 0, 0, 11, 0, 35, 0, 0, 31
|30, 16, 24, 0, 13, 0, 5, 26, 14, 0, 1, 0, 34, 0, 20, 3, 11, 0, 0, 0, 29, 0, 0, 10, 35, 0, 0, 0, 31, 0, 0, 4, 0, 6, 0, 9
|0, 0, 4, 0, 0, 9, 15, 0, 21, 0, 14, 0, 8, 10, 11, 0, 0, 0, 18, 23, 36, 0, 0, 0, 13, 0, 0, 33, 0, 0, 12, 6, 0, 34, 0, 16
|0, 8, 35, 0, 36, 16, 28, 12, 0, 0, 20, 0, 24, 0, 0, 7, 13, 0, 10, 25, 17, 0, 6, 0, 0, 15, 11, 4, 27, 9, 26, 0, 31, 18, 0, 21
|0, 0, 0, 24, 10, 34, 0, 11, 0, 8, 0, 0, 0, 0, 9, 15, 0, 1, 16, 2, 35, 28, 31, 0, 23, 0, 20, 0, 19, 0, 0, 0, 0, 0, 0, 0
|5, 7, 0, 0, 0, 13, 2, 23, 0, 33, 0, 30, 17, 0, 0, 34, 31, 21, 0, 19, 0, 0, 0, 0, 0, 0, 0, 0, 22, 6, 0, 25, 3, 28, 0, 0
|31, 0, 29, 1, 0, 0, 0, 9, 0, 6, 17, 0, 23, 0, 0, 0, 0, 20, 0, 0, 0, 15, 0, 0, 25, 0, 26, 0, 0, 0, 0, 0, 0, 0, 2, 0
|0, 0, 0, 2, 28, 0, 0, 35, 5, 36, 0, 0, 0, 0, 0, 6, 25, 0, 12, 0, 11, 9, 3, 21, 0, 0, 16, 1, 0, 0, 0, 20, 22, 13, 0, 8
|20, 3, 30, 26, 0, 35, 0, 25, 0, 34, 10, 13, 19, 2, 0, 27, 17, 0, 0, 14, 8, 0, 24, 0, 11, 9, 32, 0, 0, 0, 0, 0, 36, 0, 0, 0
|0, 0, 0, 0, 11, 0, 0, 0, 20, 15, 0, 29, 0, 9, 13, 33, 26, 0, 0, 28, 0, 0, 0, 0, 0, 8, 19, 23, 7, 5, 0, 0, 0, 0, 0, 0
|0, 10, 0, 0, 31, 0, 3, 0, 0, 17, 0, 0, 0, 0, 12, 0, 30, 0, 32, 26, 9, 0, 23, 33, 0, 35, 14, 2, 0, 13, 0, 0, 24, 21, 20, 25
|0, 28, 0, 32, 22, 0, 19, 7, 0, 23, 0, 26, 36, 3, 24, 35, 10, 0, 17, 0, 0, 25, 0, 0, 0, 0, 4, 0, 0, 31, 33, 0, 8, 30, 13, 0
|0, 19, 0, 18, 15, 0, 0, 16, 35, 32, 0, 24, 28, 0, 0, 0, 5, 0, 21, 0, 31, 0, 0, 2, 0, 0, 0, 17, 0, 0, 0, 26, 0, 3, 0, 34
|9, 0, 17, 25, 0, 0, 0, 0, 0, 31, 4, 0, 0, 0, 16, 23, 15, 0, 13, 20, 30, 35, 5, 27, 0, 0, 6, 28, 34, 0, 7, 0, 1, 0, 0, 0
|0, 23, 0, 34, 27, 0, 0, 0, 0, 0, 33, 0, 22, 7, 31, 0, 21, 3, 29, 0, 25, 0, 30, 1, 19, 17, 0, 0, 0, 0, 0, 32, 13, 20, 0, 0
|0, 0, 0, 0, 30, 7, 0, 27, 31, 0, 0, 0, 0, 25, 28, 9, 0, 24, 0, 33, 19, 13, 0, 0, 0, 1, 0, 35, 26, 0, 0, 17, 29, 0, 0, 11
|13, 15, 0, 0, 0, 22, 32, 0, 19, 16, 0, 3, 27, 23, 17, 8, 0, 0, 0, 34, 12, 0, 11, 0, 5, 0, 0, 0, 0, 0, 0, 0, 0, 10, 0, 0
|2, 31, 19, 9, 0, 11, 0, 1, 26, 0, 34, 0, 10, 33, 0, 0, 0, 12, 0, 18, 0, 0, 0, 0, 8, 22, 21, 0, 0, 0, 27, 23, 30, 0, 0, 0
|0, 20, 0, 35, 17, 21, 0, 0, 0, 0, 30, 25, 0, 29, 0, 11, 0, 0, 0, 0, 0, 6, 0, 0, 0, 32, 0, 13, 0, 0, 0, 0, 19, 0, 18, 0
|36, 24, 33, 0, 0, 0, 8, 29, 0, 35, 11, 17, 13, 18, 15, 30, 0, 0, 0, 0, 0, 0, 0, 32, 10, 12, 0, 31, 20, 7, 14, 34, 26, 9, 0, 0
|15, 0, 31, 33, 7, 2, 0, 17, 1, 0, 36, 22, 32, 26, 25, 0, 0, 0, 14, 0, 18, 29, 21, 11, 9, 19, 13, 8, 0, 3, 5, 0, 0, 16, 0, 0
|0, 14, 0, 10, 0, 27, 7, 8, 33, 29, 3, 19, 30, 31, 0, 5, 0, 0, 0, 0, 28, 0, 34, 0, 0, 0, 0, 18, 0, 0, 0, 0, 9, 4, 11, 6
|3, 0, 0, 0, 0, 36, 0, 13, 32, 30, 31, 0, 18, 11, 6, 24, 33, 9, 0, 0, 0, 27, 4, 0, 28, 0, 17, 7, 14, 21, 0, 12, 0, 0, 0, 0
|32, 0, 0, 11, 0, 28, 6, 0, 0, 10, 25, 0, 0, 0, 3, 0, 0, 36, 26, 0, 0, 16, 15, 0, 0, 27, 30, 0, 0, 22, 0, 0, 0, 19, 0, 14
|0, 25, 34, 19, 12, 30, 0, 28, 16, 4, 0, 15, 14, 27, 1, 17, 0, 13, 9, 35, 24, 23, 0, 8, 20, 2, 0, 11, 0, 0, 0, 0, 0, 0, 0, 29
|0, 0, 26, 6, 0, 0, 0, 5, 18, 0, 9, 0, 35, 15, 0, 19, 29, 4, 3, 22, 0, 0, 0, 12, 0, 31, 24, 34, 10, 25, 28, 21, 2, 8, 36, 0|];