order = 6;
grid = [|0, 0, 8, 0, 25, 9, 22, 24, 3, 0, 6, 0, 28, 0, 0, 18, 0, 23, 36, 0, 0, 0, 0, 0, 29, 15, 0, 0, 7, 27, 0, 0, 0, 0, 0, 0
|1, 24, 0, 0, 0, 21, 0, 35, 0, 2, 36, 0, 11, 7, 27, 0, 0, 19, 9, 13, 17, 0, 0, 3, 14, 33, 22, 25, 20, 34, 0, 30, 26, 0, 8, 29
|35, 0, 19, 0, 32, 34, 33, 31, 0, 11, 17, 21, 29, 0, 16, 0, 0, 0, 0, 0, 14, 27, 0, 7, 18, 0, 0, 12, 24, 4, 15, 28, 13, 36, 0, 6
|0, 0, 0, 16, 27, 0, 0, 0, 12, 0, 34, 0, 0, 13, 0, 0, 10, 6, 24, 21, 0, 0, 0, 0, 28, 0, 0, 9, 0, 0, 0, 0, 23, 0, 0, 1
|0, 2, 0, 13, 0, 0, 0, 18, 0, 9, 27, 4, 0, 34, 3, 1, 0, 0, 0, 0, 31, 0, 0, 0, 17, 21, 26, 0, 23, 19, 0, 0, 22, 0, 0, 33
|30, 33, 22, 17, 0, 0, 7, 0, 0, 20, 0, 0, 35, 0, 24, 21, 0, 0, 0, 0, 12, 18, 26, 8, 32, 11, 0, 31, 0, 13, 14, 0, 0, 0, 19, 34
|17, 15, 5, 3, 0, 0, 0, 36, 0, 0, 28, 29, 0, 23, 0, 0, 32, 14, 26, 0, 0, 0, 0, 0, 4, 9, 25, 0, 0, 0, 0, 22, 0, 0, 0, 16
|0, 9, 0, 29, 0, 32, 0, 0, 11, 0, 0, 10, 0, 0, 0, 0, 6, 0, 0, 0, 0, 21, 31, 0, 0, 35, 28, 26, 0, 0, 0, 0, 0, 30, 0, 0
|0, 22, 0, 34, 0, 36, 0, 15, 0, 5, 0, 30, 24, 0, 0, 0, 0, 0, 0, 0, 0, 0, 0, 0, 0, 12, 21, 20, 17, 0, 0, 0, 32, 0, 29, 0
|0, 0, 23, 10, 0, 8, 31, 0, 0, 0, 0, 6, 0, 16, 0, 25, 20, 21, 0, 0, 36, 0, 24, 28, 0, 0, 18, 0, 32, 11, 0, 0, 0, 0, 0, 0
|0, 26, 13, 6, 21, 0, 0, 0, 23, 16, 2, 25, 0, 0, 11, 0, 0, 0, 32, 7, 0, 0, 0, 0, 0, 0, 0, 30, 34, 0, 0, 31, 0, 17, 14, 15
|0, 0, 0, 0, 11, 0, 20, 0, 9, 8, 18, 0, 3, 0, 30, 0, 0, 0, 0, 0, 27, 14, 0, 0, 0, 0, 0, 36, 0, 23, 24, 0, 0, 0, 0, 5
|0, 0, 0, 0, 0, 2, 0, 0, 0, 31, 0, 9, 0, 32, 0, 3, 18, 0, 0, 0, 0, 30, 14, 33, 20, 6, 0, 19, 10, 21, 28, 0, 5, 0, 0, 0
|0, 0, 0, 30, 0, 0, 0, 0, 0, 0, 1, 20, 0, 10, 0, 0, 0, 0, 5, 0, 16, 11, 0, 35, 0, 0, 34, 3, 0, 0, 21, 24, 0, 14, 0, 4
|0, 11, 27, 0, 20, 0, 0, 6, 36, 18, 10, 0, 0, 12, 21, 17, 0, 35, 13, 0, 0, 0, 22, 9, 8, 0, 0, 0, 0, 24, 0, 0, 0, 15, 34, 0
|0, 0, 0, 0, 0, 0, 21, 0, 19, 0, 0, 0, 14, 22, 28, 31, 13, 0, 0, 0, 0, 20, 34, 1, 36, 2, 0, 4, 0, 15, 0, 0, 0, 23, 0, 0
|13, 0, 14, 15, 34, 0, 0, 0, 0, 28, 0, 16, 20, 6, 0, 2, 0, 7, 0, 31, 21, 0, 36, 10, 0, 0, 0, 0, 0, 22, 0, 0, 1, 3, 0, 0
|4, 0, 21, 0, 0, 0, 0, 0, 34, 0, 0, 0, 0, 0, 0, 0, 8, 0, 0, 6, 28, 15, 29, 23, 0, 7, 0, 35, 27, 0, 30, 36, 10, 0, 22, 0
|12, 0, 24, 0, 9, 22, 6, 0, 31, 0, 0, 27, 0, 17, 13, 0, 0, 0, 0, 14, 0, 0, 28, 15, 2, 0, 4, 33, 1, 29, 20, 0, 0, 0, 21, 8
|2, 17, 1, 5, 15, 0, 0, 0, 0, 0, 0, 33, 7, 18, 14, 0, 34, 10, 0, 36, 0, 0, 0, 4, 0, 0, 12, 0, 0, 0, 0, 0, 0, 0, 0, 26
|19, 32, 31, 0, 0, 0, 0, 2, 18, 25, 0, 8, 1, 0, 0, 28, 24, 3, 20, 27, 29, 9, 0, 0, 5, 14, 16, 0, 21, 6, 0, 12, 17, 11, 35, 0
|0, 0, 16, 0, 33, 0, 5, 0, 17, 0, 0, 0, 9, 0, 0, 20, 2, 26, 1, 32, 0, 31, 0, 0, 11, 0, 0, 34, 0, 0, 13, 18, 0, 28, 24, 0
|10, 28, 3, 14, 0, 0, 12, 1, 16, 0, 9, 22, 21, 25, 0, 0, 27, 4, 0, 0, 0, 17, 0, 24, 13, 20, 0, 0, 0, 0, 0, 0, 29, 0, 15, 31
|0, 34, 20, 27, 0, 4, 0, 28, 15, 0, 0, 0, 31, 19, 6, 0, 0, 12, 22, 0, 5, 0, 0, 0, 0, 8, 7, 24, 18, 17, 9, 0, 30, 32, 0, 3
|6, 29, 34, 0, 14, 23, 36, 25, 0, 26, 0, 7, 27, 0, 0, 0, 0, 0, 15, 0, 33, 0, 0, 31, 0, 16, 24, 17, 2, 0, 1, 0, 3, 4, 5, 20
|0, 8, 18, 11, 0, 27, 23, 0, 24, 33, 0, 0, 0, 1, 34, 0, 0, 0, 0, 0, 20, 0, 0, 0, 0, 0, 6, 0, 0, 10, 31, 0, 7, 25, 12, 0
|0, 35, 0, 20, 0, 16, 9, 10, 6, 1, 0, 31, 4, 0, 0, 23, 3, 17, 0, 18, 0, 0, 7, 0, 0, 34, 8, 0, 0, 36, 29, 0, 0, 0, 33, 28
|3, 0, 0, 1, 0, 7, 0, 0, 0, 34, 0, 15, 6, 0, 32, 0, 21, 20, 0, 0, 0, 28, 27, 14, 0, 0, 9, 0, 4, 0, 35, 0, 0, 0, 36, 0
|33, 13, 0, 25, 24, 15, 18, 0, 0, 0, 30, 0, 10, 0, 7, 0, 28, 0, 0, 4, 1, 0, 0, 21, 19, 0, 0, 11, 0, 0, 0, 17, 34, 9, 6, 0
|0, 12, 4, 21, 0, 19, 3, 32, 0, 29, 0, 17, 13, 11, 0, 0, 30, 0, 2, 25, 35, 34, 6, 5, 0, 0, 1, 7, 0, 28, 0, 0, 8, 0, 0, 24
|0, 36, 33, 0, 0, 0, 0, 13, 4, 0, 29, 26, 2, 0, 18, 0, 0, 22, 0, 16, 0, 10, 0, 0, 15, 24, 27, 0, 0, 25, 0, 0, 0, 0, 0, 35
|0, 3, 26, 0, 29, 0, 0, 9, 5, 6, 0, 0, 34, 0, 35, 10, 0, 0, 19, 0, 7, 0, 21, 0, 22, 0, 0, 0, 0, 18, 0, 0, 28, 1, 27, 0
|0, 18, 0, 0, 12, 14, 0, 0, 0, 10, 0, 24, 0, 0, 0, 0, 0, 31, 6, 35, 0, 0, 0, 20, 0, 4, 0, 1, 3, 7, 0, 0, 0, 8, 0, 0
|34, 0, 11, 4, 16, 31, 15, 3, 0, 19, 0, 18, 8, 9, 0, 0, 0, 0, 33, 0, 0, 5, 13, 0, 23, 26, 0, 0, 29, 35, 17, 0, 36, 0, 0, 21
|0, 0, 0, 0, 0, 6, 0, 0, 32, 23, 33, 0, 26, 24, 0, 0, 4, 0, 0, 28, 0, 25, 18, 0, 0, 0, 19, 0, 36, 0, 3, 0, 15, 0, 11, 22
|0, 25, 0, 0, 0, 0, 0, 7, 22, 35, 14, 0, 36, 0, 0, 0, 0, 0, 8, 9, 3, 0, 0, 27, 0, 0, 0, 6, 28, 12, 0, 34, 24, 0, 23, 0|];