order = 6;
grid = [|0, 26, 0, 5, 25, 28, 2, 29, 0, 0, 0, 22, 0, 0, 18, 0, 35, 23, 0, 0, 0, 0, 0, 0, 0, 0, 0, 8, 7, 15, 33, 0, 0, 0, 0, 1
|0, 23, 0, 11, 2, 0, 0, 26, 13, 28, 0, 6, 14, 0, 16, 0, 20, 0, 0, 0, 0, 35, 21, 0, 24, 31, 0, 29, 5, 0, 7, 0, 0, 27, 25, 0
|14, 9, 0, 0, 0, 8, 0, 10, 0, 0, 0, 5, 0, 32, 7, 0, 33, 0, 0, 0, 0, 22, 0, 18, 0, 11, 0, 2, 4, 17, 0, 0, 21, 3, 35, 0
|0, 0, 0, 0, 13, 0, 0, 0, 15, 0, 0, 23, 0, 21, 0, 0, 19, 0, 0, 10, 31, 30, 5, 3, 25, 0, 28, 20, 1, 27, 26, 0, 36, 2, 0, 0
|0, 0, 27, 24, 35, 0, 0, 19, 7, 0, 0, 8, 10, 0, 6, 5, 0, 0, 23, 9, 15, 0, 25, 0, 34, 3, 0, 22, 30, 33, 0, 0, 0, 0, 29, 0
|0, 0, 0, 0, 29, 0, 27, 0, 20, 0, 0, 0, 0, 0, 0, 12, 26, 28, 0, 33, 24, 36, 0, 4, 18, 23, 0, 14, 0, 0, 0, 0, 0, 0, 22, 10
|35, 0, 15, 12, 26, 30, 23, 0, 0, 17, 0, 3, 5, 0, 0, 9, 0, 27, 28, 7, 2, 32, 13, 6, 10, 36, 0, 0, 22, 0, 0, 24, 0, 14, 0, 34
|13, 31, 1, 0, 6, 3, 36, 11, 0, 0, 7, 0, 0, 0, 0, 0, 12, 10, 0, 0, 5, 19, 0, 33, 27, 18, 0, 0, 14, 0, 23, 15, 0, 32, 16, 25
|27, 36, 11, 0, 0, 0, 35, 0, 0, 9, 0, 0, 30, 0, 0, 0, 0, 6, 14, 26, 16, 0, 3, 24, 12, 15, 0, 34, 13, 0, 21, 2, 0, 0, 33, 0
|0, 10, 19, 14, 0, 0, 0, 0, 31, 5, 0, 0, 24, 0, 2, 0, 0, 36, 0, 0, 25, 11, 35, 30, 0, 33, 0, 0, 0, 0, 13, 3, 20, 9, 4, 0
|0, 0, 0, 0, 5, 32, 0, 33, 0, 0, 0, 14, 0, 29, 0, 0, 0, 0, 15, 0, 23, 0, 18, 22, 8, 17, 20, 21, 19, 0, 0, 7, 27, 10, 30, 26
|21, 0, 0, 28, 4, 23, 20, 30, 0, 0, 13, 32, 0, 15, 0, 0, 0, 14, 0, 0, 27, 0, 0, 0, 26, 0, 0, 0, 0, 0, 6, 35, 0, 0, 5, 22
|18, 4, 14, 0, 9, 11, 0, 0, 29, 0, 22, 0, 0, 16, 23, 0, 0, 33, 21, 5, 0, 28, 0, 34, 35, 6, 0, 0, 0, 0, 0, 0, 0, 31, 26, 0
|0, 8, 35, 0, 10, 15, 21, 0, 33, 14, 0, 0, 25, 0, 29, 0, 28, 12, 24, 18, 0, 0, 17, 31, 11, 0, 34, 30, 0, 32, 22, 0, 4, 19, 9, 16
|0, 0, 0, 21, 0, 24, 31, 5, 0, 34, 27, 35, 6, 19, 4, 0, 15, 20, 25, 22, 0, 3, 32, 0, 28, 0, 23, 0, 17, 18, 0, 0, 0, 0, 0, 0
|32, 0, 0, 33, 31, 0, 11, 0, 0, 0, 0, 0, 0, 0, 0, 0, 0, 5, 35, 14, 0, 2, 0, 0, 16, 0, 0, 13, 0, 22, 0, 6, 23, 25, 0, 21
|0, 28, 25, 7, 0, 0, 4, 18, 24, 36, 0, 20, 9, 0, 22, 11, 0, 26, 0, 13, 0, 12, 16, 23, 0, 0, 15, 0, 0, 21, 0, 0, 35, 34, 32, 0
|0, 6, 0, 0, 0, 0, 16, 0, 8, 7, 0, 9, 31, 0, 21, 35, 0, 32, 11, 15, 0, 0, 33, 0, 0, 2, 0, 10, 20, 0, 0, 0, 28, 24, 17, 0
|0, 19, 24, 17, 0, 2, 26, 3, 0, 23, 18, 27, 7, 4, 12, 33, 0, 0, 0, 0, 0, 0, 0, 10, 29, 16, 0, 0, 8, 31, 5, 21, 25, 0, 0, 0
|0, 0, 0, 6, 1, 0, 7, 34, 36, 0, 10, 0, 2, 30, 9, 0, 0, 0, 22, 32, 0, 0, 0, 25, 0, 28, 27, 0, 0, 13, 0, 0, 0, 35, 0, 0
|12, 7, 32, 29, 0, 0, 15, 0, 11, 19, 0, 0, 21, 22, 17, 0, 0, 31, 0, 0, 36, 24, 30, 0, 14, 0, 0, 23, 26, 10, 20, 33, 9, 16, 0, 6
|0, 0, 9, 0, 0, 0, 0, 8, 21, 0, 0, 4, 20, 0, 0, 10, 0, 0, 0, 0, 0, 33, 31, 0, 7, 19, 5, 0, 32, 0, 0, 23, 34, 11, 13, 30
|0, 0, 10, 0, 0, 0, 0, 0, 16, 0, 0, 0, 0, 6, 0, 32, 36, 0, 0, 0, 35, 0, 12, 21, 0, 20, 0, 18, 3, 0, 17, 0, 8, 7, 24, 2
|0, 0, 8, 0, 0, 0, 17, 9, 12, 31, 6, 28, 0, 0, 27, 0, 0, 16, 5, 20, 0, 0, 15, 0, 2, 24, 1, 0, 34, 0, 0, 0, 18, 0, 10, 0
|19, 0, 0, 10, 0, 0, 0, 0, 0, 0, 28, 36, 33, 35, 15, 0, 0, 29, 0, 0, 7, 0, 24, 0, 23, 27, 17, 5, 0, 0, 31, 4, 1, 20, 0, 0
|0, 0, 29, 2, 24, 0, 13, 20, 0, 22, 23, 0, 0, 0, 8, 16, 5, 0, 0, 0, 0, 0, 0, 0, 30, 10, 0, 7, 35, 34, 9, 0, 0, 0, 0, 14
|34, 3, 0, 32, 0, 0, 0, 31, 35, 0, 30, 0, 26, 27, 36, 20, 0, 24, 9, 0, 12, 21, 11, 16, 0, 22, 0, 28, 0, 0, 2, 0, 0, 0, 0, 0
|7, 20, 36, 0, 23, 0, 25, 0, 10, 26, 2, 21, 32, 0, 0, 1, 0, 0, 4, 34, 0, 5, 0, 0, 0, 0, 0, 15, 29, 8, 24, 0, 0, 28, 27, 0
|0, 0, 4, 35, 0, 0, 5, 7, 1, 33, 29, 11, 0, 0, 30, 0, 0, 0, 0, 27, 22, 6, 8, 0, 20, 14, 24, 0, 0, 0, 0, 0, 0, 0, 0, 0
|8, 12, 0, 18, 27, 0, 3, 15, 4, 0, 9, 34, 0, 14, 28, 0, 0, 0, 10, 0, 17, 20, 0, 0, 0, 13, 11, 0, 0, 26, 35, 16, 32, 0, 23, 5
|0, 0, 0, 13, 0, 0, 18, 0, 0, 1, 0, 0, 19, 0, 10, 0, 27, 0, 0, 0, 21, 0, 22, 0, 0, 0, 0, 0, 12, 7, 25, 28, 0, 0, 2, 29
|31, 11, 30, 3, 0, 0, 0, 0, 28, 0, 17, 12, 0, 0, 13, 0, 22, 0, 36, 24, 26, 27, 0, 0, 1, 0, 0, 0, 0, 16, 32, 0, 10, 0, 0, 0
|0, 14, 28, 0, 0, 0, 30, 35, 0, 0, 0, 31, 17, 0, 0, 6, 4, 0, 33, 25, 13, 0, 10, 2, 0, 26, 0, 11, 0, 19, 34, 12, 15, 0, 36, 0
|6, 2, 22, 0, 7, 0, 10, 21, 0, 13, 0, 0, 8, 0, 0, 0, 0, 0, 19, 0, 0, 0, 0, 0, 0, 0, 29, 31, 24, 20, 0, 14, 0, 5, 0, 0
|0, 24, 0, 25, 33, 0, 0, 36, 26, 0, 11, 0, 3, 0, 32, 2, 0, 34, 0, 0, 18, 1, 0, 5, 15, 0, 0, 27, 10, 23, 30, 0, 22, 0, 19, 0
|17, 0, 0, 0, 34, 10, 19, 0, 3, 0, 0, 0, 0, 0, 35, 0, 0, 0, 0, 0, 29, 0, 23, 0, 0, 0, 33, 9, 0, 14, 0, 26, 6, 0, 0, 7|];