order = 6;
grid = [|2, 0, 23, 0, 0, 10, 29, 0, 0, 0, 21, 0, 7, 0, 0, 0, 13, 30, 0, 36, 3, 15, 0, 0, 26, 0, 0, 0, 4, 33, 0, 14, 19, 0, 0, 0
|0, 0, 0, 0, 0, 0, 14, 0, 0, 0, 0, 34, 0, 23, 22, 11, 0, 0, 0, 0, 30, 24, 0, 0, 0, 9, 0, 0, 10, 18, 33, 0, 12, 29, 3, 0
|0, 0, 0, 0, 0, 21, 0, 15, 2, 0, 28, 0, 0, 0, 0, 0, 25, 8, 19, 0, 0, 0, 0, 0, 30, 22, 7, 13, 29, 0, 20, 1, 0, 0, 0, 0
|0, 33, 30, 18, 0, 7, 0, 24, 0, 13, 35, 0, 0, 21, 0, 27, 4, 17, 0, 0, 31, 29, 12, 0, 20, 19, 15, 0, 1, 0, 0, 0, 0, 0, 0, 0
|4, 0, 0, 0, 3, 34, 0, 27, 10, 6, 9, 0, 0, 1, 2, 15, 0, 20, 0, 0, 25, 0, 0, 26, 0, 8, 24, 21, 0, 11, 0, 0, 0, 0, 0, 0
|0, 28, 5, 0, 0, 0, 18, 4, 26, 0, 36, 0, 0, 0, 24, 0, 32, 0, 22, 0, 0, 20, 0, 0, 0, 0, 3, 25, 34, 0, 21, 13, 0, 15, 31, 35
|0, 0, 0, 0, 33, 0, 9, 0, 12, 1, 4, 13, 17, 0, 32, 0, 34, 0, 36, 0, 7, 0, 0, 30, 19, 0, 26, 0, 15, 0, 5, 0, 8, 0, 23, 2
|26, 0, 0, 21, 0, 5, 0, 32, 0, 0, 0, 0, 30, 28, 8, 0, 0, 7, 0, 0, 0, 0, 0, 18, 0, 0, 0, 1, 17, 0, 29, 25, 14, 10, 0, 33
|0, 9, 1, 0, 20, 15, 16, 0, 30, 0, 8, 0, 0, 0, 0, 0, 0, 0, 34, 19, 33, 0, 17, 14, 0, 0, 0, 32, 7, 29, 31, 0, 0, 0, 26, 0
|0, 12, 2, 0, 0, 0, 17, 0, 19, 34, 3, 0, 0, 29, 6, 0, 10, 0, 26, 15, 4, 0, 20, 16, 0, 0, 0, 0, 0, 0, 35, 0, 36, 0, 0, 22
|0, 0, 0, 19, 23, 0, 0, 0, 0, 21, 31, 18, 0, 4, 26, 0, 0, 0, 29, 0, 12, 0, 8, 0, 0, 20, 0, 0, 0, 10, 0, 0, 9, 32, 0, 3
|0, 0, 0, 4, 0, 0, 36, 6, 14, 0, 29, 0, 0, 13, 0, 20, 33, 0, 0, 0, 5, 1, 25, 0, 22, 0, 2, 9, 0, 0, 12, 19, 7, 0, 18, 0
|0, 0, 3, 16, 21, 0, 28, 0, 0, 0, 0, 0, 0, 25, 0, 0, 0, 0, 13, 0, 1, 4, 26, 0, 2, 12, 33, 23, 0, 15, 22, 35, 29, 14, 0, 0
|0, 0, 0, 0, 0, 0, 0, 10, 13, 19, 26, 0, 29, 7, 0, 6, 21, 0, 27, 0, 0, 18, 0, 0, 0, 0, 0, 0, 9, 17, 0, 30, 0, 8, 0, 0
|0, 19, 26, 0, 32, 23, 0, 0, 24, 0, 20, 0, 31, 3, 33, 14, 0, 0, 15, 5, 0, 7, 0, 0, 16, 29, 8, 18, 22, 0, 0, 0, 0, 34, 0, 0
|9, 5, 7, 27, 0, 25, 0, 8, 35, 0, 34, 0, 0, 0, 0, 0, 0, 0, 20, 22, 17, 23, 2, 0, 0, 30, 14, 36, 11, 0, 32, 26, 0, 0, 33, 0
|0, 6, 0, 0, 0, 0, 0, 0, 15, 0, 33, 31, 23, 0, 4, 17, 0, 0, 0, 0, 11, 12, 19, 36, 0, 21, 0, 26, 35, 0, 0, 9, 0, 7, 20, 0
|17, 0, 0, 0, 2, 0, 25, 21, 23, 36, 12, 29, 22, 0, 0, 26, 0, 0, 16, 0, 0, 0, 9, 31, 0, 34, 4, 19, 6, 5, 28, 0, 0, 0, 11, 0
|0, 34, 0, 0, 0, 28, 0, 0, 0, 32, 0, 0, 0, 0, 21, 3, 0, 33, 8, 23, 18, 26, 0, 10, 31, 0, 30, 0, 25, 2, 0, 0, 0, 6, 0, 27
|3, 0, 0, 0, 0, 32, 0, 0, 9, 0, 14, 0, 0, 35, 0, 2, 0, 4, 28, 0, 15, 0, 0, 12, 0, 6, 11, 22, 0, 0, 25, 0, 0, 19, 0, 10
|1, 26, 0, 33, 0, 0, 0, 0, 25, 0, 18, 0, 5, 11, 16, 24, 0, 10, 21, 0, 29, 0, 0, 0, 0, 0, 0, 8, 0, 28, 2, 0, 17, 9, 0, 20
|0, 0, 21, 0, 0, 16, 34, 0, 0, 0, 13, 17, 0, 0, 0, 0, 0, 25, 0, 1, 2, 19, 11, 0, 15, 0, 12, 0, 0, 9, 0, 0, 18, 33, 0, 0
|13, 20, 9, 0, 0, 0, 8, 0, 11, 0, 5, 0, 32, 31, 23, 34, 19, 0, 0, 0, 36, 6, 0, 33, 0, 0, 0, 0, 16, 4, 3, 12, 24, 28, 7, 30
|0, 8, 0, 0, 0, 19, 0, 0, 6, 28, 2, 24, 12, 0, 0, 7, 30, 0, 4, 0, 20, 9, 27, 35, 0, 10, 0, 0, 0, 0, 16, 5, 0, 0, 21, 0
|0, 0, 0, 26, 0, 36, 0, 7, 17, 11, 0, 0, 0, 0, 14, 0, 0, 3, 31, 20, 0, 0, 35, 13, 0, 18, 34, 28, 0, 22, 0, 0, 0, 2, 0, 0
|0, 23, 0, 24, 9, 2, 19, 31, 21, 0, 0, 0, 0, 20, 13, 28, 0, 11, 17, 3, 0, 27, 0, 1, 0, 33, 0, 4, 26, 25, 0, 0, 0, 0, 0, 0
|0, 32, 0, 0, 19, 22, 0, 29, 28, 0, 1, 26, 0, 0, 7, 9, 0, 0, 18, 0, 21, 8, 0, 23, 0, 0, 10, 30, 24, 0, 0, 0, 0, 12, 17, 6
|18, 0, 15, 0, 12, 0, 0, 0, 34, 0, 25, 8, 0, 0, 0, 0, 31, 2, 0, 0, 0, 0, 0, 7, 0, 35, 0, 0, 19, 0, 14, 0, 0, 21, 22, 0
|0, 0, 0, 28, 0, 0, 10, 0, 16, 0, 0, 4, 24, 8, 0, 18, 17, 15, 14, 12, 0, 36, 0, 0, 27, 0, 6, 0, 0, 20, 34, 0, 35, 25, 0, 0
|0, 0, 0, 31, 0, 14, 0, 0, 18, 22, 30, 9, 0, 32, 19, 1, 26, 0, 0, 25, 28, 5, 0, 0, 0, 3, 0, 0, 21, 7, 4, 0, 0, 0, 16, 0
|0, 0, 35, 0, 5, 9, 13, 2, 0, 0, 0, 0, 26, 33, 0, 0, 16, 6, 0, 0, 0, 3, 31, 8, 21, 4, 32, 0, 0, 0, 10, 17, 15, 0, 27, 14
|16, 0, 0, 0, 27, 11, 4, 12, 31, 35, 0, 0, 0, 15, 1, 32, 9, 14, 0, 0, 23, 0, 0, 2, 28, 0, 0, 10, 0, 0, 30, 0, 20, 0, 13, 7
|19, 0, 0, 8, 0, 26, 0, 18, 0, 0, 22, 0, 36, 0, 0, 21, 28, 13, 7, 0, 34, 0, 0, 0, 0, 25, 16, 12, 0, 0, 0, 0, 0, 1, 0, 0
|21, 0, 0, 0, 0, 0, 0, 34, 0, 3, 0, 0, 18, 12, 31, 35, 24, 5, 9, 0, 16, 30, 0, 20, 33, 17, 0, 15, 23, 0, 19, 0, 0, 0, 0, 29
|0, 30, 0, 0, 29, 24, 0, 28, 33, 0, 0, 0, 0, 2, 34, 4, 0, 27, 12, 26, 6, 22, 10, 5, 0, 14, 9, 11, 0, 0, 8, 21, 0, 0, 25, 0
|15, 0, 0, 34, 0, 18, 5, 14, 0, 25, 24, 1, 19, 17, 30, 29, 3, 0, 0, 4, 0, 0, 13, 0, 36, 26, 0, 7, 31, 0, 0, 16, 0, 0, 0, 12|];