order = 6;
grid = [|36, 0, 0, 20, 28, 0, 7, 24, 9, 34, 3, 1, 33, 0, 0, 0, 0, 12, 0, 0, 31, 0, 0, 19, 4, 26, 29, 0, 0, 0, 0, 14, 21, 0, 25, 32
|11, 0, 0, 0, 0, 4, 0, 0, 32, 0, 10, 0, 0, 17, 0, 34, 30, 0, 16, 33, 36, 29, 23, 0, 27, 0, 25, 1, 0, 9, 0, 0, 0, 6, 3, 0
|30, 0, 33, 0, 21, 0, 0, 26, 0, 0, 0, 0, 1, 16, 0, 13, 0, 0, 0, 0, 0, 0, 8, 0, 15, 0, 22, 35, 6, 28, 0, 10, 9, 0, 5, 20
|9, 0, 7, 0, 24, 22, 13, 16, 6, 0, 23, 5, 0, 21, 0, 18, 29, 0, 10, 4, 0, 25, 14, 0, 0, 0, 0, 0, 0, 33, 8, 0, 0, 35, 17, 0
|35, 0, 6, 0, 0, 0, 0, 0, 0, 0, 0, 0, 3, 0, 0, 0, 0, 0, 21, 0, 26, 11, 5, 0, 14, 32, 13, 0, 0, 0, 0, 0, 16, 0, 0, 22
|13, 0, 0, 0, 27, 17, 21, 19, 0, 0, 18, 0, 6, 5, 24, 0, 10, 0, 0, 0, 0, 0, 32, 9, 36, 0, 3, 0, 0, 16, 0, 33, 0, 0, 0, 0
|0, 12, 32, 13, 0, 26, 0, 25, 7, 0, 0, 0, 22, 20, 29, 24, 0, 0, 0, 17, 27, 0, 31, 5, 0, 35, 0, 23, 0, 0, 18, 30, 0, 34, 14, 0
|0, 0, 21, 0, 0, 35, 0, 32, 31, 0, 14, 12, 26, 0, 0, 5, 6, 0, 34, 18, 0, 8, 4, 25, 0, 0, 9, 0, 0, 7, 1, 20, 24, 16, 0, 10
|8, 0, 1, 24, 36, 27, 33, 3, 0, 30, 21, 0, 0, 0, 31, 14, 0, 18, 0, 6, 0, 0, 0, 0, 32, 0, 0, 0, 0, 0, 0, 0, 11, 0, 12, 25
|7, 0, 0, 0, 0, 5, 0, 4, 0, 0, 0, 20, 0, 8, 27, 12, 21, 0, 3, 0, 0, 0, 16, 0, 24, 13, 1, 34, 14, 0, 6, 23, 0, 17, 0, 29
|0, 0, 0, 4, 9, 31, 8, 0, 34, 0, 24, 15, 17, 10, 0, 19, 0, 2, 0, 20, 0, 0, 0, 29, 11, 0, 0, 28, 5, 0, 0, 0, 3, 7, 0, 21
|14, 0, 0, 2, 34, 0, 0, 0, 0, 0, 0, 0, 0, 0, 28, 11, 0, 0, 0, 0, 7, 12, 0, 0, 0, 20, 17, 0, 33, 0, 0, 15, 0, 31, 0, 0
|6, 13, 27, 0, 32, 0, 35, 0, 0, 0, 17, 34, 31, 0, 1, 0, 0, 0, 7, 0, 21, 23, 30, 26, 0, 15, 0, 0, 0, 5, 25, 0, 0, 0, 0, 0
|0, 0, 0, 36, 11, 0, 0, 0, 18, 0, 6, 33, 0, 0, 32, 0, 0, 0, 9, 0, 0, 0, 20, 16, 25, 2, 34, 0, 24, 27, 21, 0, 15, 0, 0, 23
|0, 0, 0, 0, 18, 0, 25, 8, 21, 5, 0, 0, 0, 0, 0, 0, 0, 0, 0, 0, 0, 0, 34, 0, 6, 0, 7, 0, 0, 1, 0, 28, 0, 9, 30, 24
|16, 0, 17, 0, 0, 10, 19, 0, 29, 0, 0, 0, 18, 0, 12, 23, 0, 0, 1, 2, 0, 24, 0, 0, 0, 4, 0, 3, 0, 21, 35, 0, 0, 0, 36, 0
|21, 34, 22, 0, 7, 9, 2, 0, 0, 16, 0, 0, 30, 0, 0, 0, 28, 33, 6, 0, 25, 35, 0, 0, 18, 23, 11, 19, 0, 20, 12, 0, 0, 0, 4, 0
|0, 4, 35, 0, 0, 14, 15, 0, 0, 0, 0, 28, 0, 0, 0, 0, 0, 0, 11, 10, 0, 22, 0, 36, 0, 31, 33, 9, 0, 32, 0, 0, 0, 1, 2, 6
|20, 1, 25, 17, 0, 0, 28, 12, 0, 0, 0, 0, 29, 6, 21, 0, 0, 3, 0, 8, 0, 0, 36, 4, 0, 0, 0, 7, 0, 0, 0, 0, 0, 24, 0, 30
|0, 0, 9, 0, 22, 3, 0, 0, 0, 24, 16, 27, 13, 0, 14, 0, 12, 0, 28, 31, 0, 0, 0, 11, 5, 1, 23, 18, 30, 0, 0, 7, 0, 0, 0, 0
|2, 0, 4, 0, 30, 11, 0, 17, 0, 0, 33, 18, 0, 32, 22, 28, 19, 0, 0, 0, 9, 0, 0, 0, 0, 36, 8, 0, 27, 0, 0, 34, 0, 0, 6, 15
|0, 0, 0, 0, 35, 19, 0, 6, 20, 9, 34, 13, 4, 15, 0, 25, 0, 8, 0, 7, 0, 0, 22, 0, 0, 33, 21, 16, 3, 11, 0, 0, 0, 0, 1, 36
|12, 23, 16, 0, 6, 0, 0, 36, 0, 0, 4, 21, 0, 33, 11, 1, 7, 35, 15, 0, 0, 27, 19, 14, 13, 0, 32, 0, 17, 34, 26, 0, 20, 29, 28, 3
|5, 36, 15, 0, 0, 0, 0, 0, 0, 0, 0, 0, 34, 0, 0, 0, 0, 0, 20, 0, 33, 1, 0, 3, 19, 0, 28, 0, 9, 4, 0, 22, 13, 21, 0, 0
|0, 6, 36, 21, 2, 8, 24, 20, 0, 0, 0, 0, 19, 7, 4, 0, 0, 28, 31, 13, 30, 15, 0, 10, 1, 0, 5, 17, 12, 0, 0, 0, 14, 32, 0, 27
|33, 24, 12, 0, 3, 13, 0, 7, 27, 0, 30, 9, 0, 14, 5, 17, 0, 31, 29, 34, 0, 32, 35, 0, 8, 25, 26, 2, 4, 6, 28, 21, 0, 0, 10, 0
|0, 0, 0, 0, 17, 0, 0, 15, 0, 0, 8, 0, 16, 13, 0, 0, 25, 0, 0, 9, 6, 0, 0, 22, 29, 0, 0, 0, 32, 0, 7, 0, 34, 0, 26, 0
|27, 9, 0, 26, 14, 0, 0, 34, 17, 0, 0, 0, 12, 0, 8, 6, 18, 29, 0, 5, 0, 19, 0, 0, 28, 0, 10, 15, 36, 0, 0, 0, 30, 0, 16, 2
|31, 0, 34, 10, 4, 25, 0, 0, 0, 0, 26, 3, 15, 27, 35, 30, 11, 32, 0, 0, 1, 21, 0, 0, 9, 0, 20, 14, 19, 18, 29, 6, 36, 0, 0, 0
|32, 0, 29, 18, 1, 28, 36, 0, 19, 0, 35, 0, 0, 2, 9, 0, 0, 0, 8, 14, 16, 0, 27, 12, 0, 0, 0, 30, 0, 13, 0, 0, 0, 0, 0, 4
|18, 0, 0, 34, 25, 21, 0, 22, 24, 0, 7, 31, 0, 12, 16, 0, 0, 4, 17, 0, 0, 0, 26, 1, 0, 0, 6, 0, 20, 0, 0, 5, 33, 30, 0, 0
|28, 0, 0, 6, 0, 0, 4, 9, 25, 36, 29, 0, 14, 0, 0, 10, 13, 15, 0, 32, 0, 7, 0, 23, 22, 11, 0, 0, 18, 30, 3, 0, 27, 8, 31, 0
|0, 0, 0, 0, 0, 0, 0, 0, 0, 0, 0, 0, 25, 18, 0, 29, 0, 17, 30, 0, 8, 0, 9, 2, 34, 0, 24, 0, 0, 0, 0, 0, 0, 19, 22, 0
|0, 0, 5, 9, 0, 36, 11, 0, 14, 0, 0, 0, 20, 24, 0, 35, 0, 0, 0, 0, 19, 31, 0, 0, 0, 28, 16, 0, 0, 0, 17, 26, 25, 23, 21, 34
|15, 22, 24, 35, 8, 0, 34, 5, 2, 0, 0, 0, 23, 31, 0, 0, 1, 30, 14, 0, 0, 0, 0, 27, 0, 0, 19, 0, 0, 0, 13, 18, 4, 11, 20, 0
|10, 0, 31, 33, 20, 0, 0, 1, 0, 8, 0, 16, 0, 19, 7, 21, 5, 0, 0, 0, 24, 0, 0, 18, 23, 0, 36, 12, 13, 26, 14, 2, 0, 28, 0, 9|];