order = 6;
grid = [|0, 31, 27, 0, 0, 35, 0, 0, 18, 6, 0, 17, 11, 22, 0, 0, 33, 0, 0, 0, 0, 0, 13, 0, 12, 26, 0, 0, 0, 0, 21, 0, 0, 0, 15, 0
|21, 14, 0, 36, 0, 0, 0, 2, 7, 0, 27, 28, 24, 0, 0, 0, 0, 0, 18, 0, 20, 26, 17, 0, 0, 0, 0, 22, 19, 4, 32, 6, 29, 5, 0, 0
|0, 0, 0, 0, 9, 15, 0, 3, 22, 0, 10, 0, 14, 0, 0, 16, 28, 0, 0, 0, 30, 0, 19, 0, 0, 6, 24, 0, 17, 13, 26, 25, 0, 12, 0, 0
|4, 0, 0, 22, 34, 19, 0, 13, 0, 15, 0, 0, 29, 6, 0, 0, 0, 12, 3, 35, 0, 0, 33, 25, 0, 8, 16, 0, 32, 0, 9, 30, 0, 11, 0, 0
|18, 0, 6, 0, 0, 16, 34, 0, 0, 25, 19, 32, 5, 0, 0, 0, 21, 0, 0, 12, 28, 0, 0, 31, 0, 0, 0, 0, 9, 1, 0, 27, 0, 0, 0, 0
|0, 0, 29, 3, 23, 0, 0, 21, 24, 0, 0, 12, 4, 0, 0, 30, 25, 13, 0, 0, 7, 0, 6, 2, 0, 27, 35, 0, 5, 0, 19, 17, 0, 8, 0, 0
|0, 0, 0, 19, 21, 0, 7, 10, 30, 0, 0, 11, 33, 27, 0, 5, 0, 17, 0, 0, 3, 0, 24, 1, 4, 18, 0, 0, 0, 9, 0, 0, 0, 26, 0, 0
|30, 0, 18, 7, 0, 0, 35, 9, 4, 13, 0, 16, 3, 0, 28, 32, 6, 0, 26, 0, 11, 10, 34, 0, 29, 0, 5, 0, 31, 0, 0, 0, 0, 0, 24, 0
|0, 28, 0, 0, 10, 3, 0, 0, 0, 2, 21, 29, 8, 0, 0, 34, 0, 0, 0, 0, 0, 0, 0, 0, 0, 14, 0, 0, 11, 0, 6, 7, 0, 0, 0, 27
|0, 0, 0, 0, 0, 24, 0, 0, 0, 0, 0, 19, 26, 0, 13, 0, 0, 18, 0, 29, 0, 0, 0, 23, 25, 0, 1, 10, 0, 0, 2, 15, 17, 0, 34, 30
|0, 23, 34, 6, 33, 0, 0, 0, 1, 0, 0, 0, 0, 0, 2, 0, 0, 0, 36, 25, 0, 35, 18, 9, 0, 24, 0, 30, 0, 0, 0, 11, 0, 0, 5, 0
|1, 0, 0, 0, 0, 27, 0, 0, 36, 0, 25, 0, 10, 23, 21, 0, 16, 9, 0, 7, 0, 33, 0, 22, 6, 19, 0, 0, 0, 17, 0, 0, 31, 35, 32, 0
|0, 0, 20, 0, 7, 0, 0, 19, 0, 0, 18, 22, 0, 24, 0, 28, 32, 35, 0, 33, 13, 0, 25, 0, 0, 0, 0, 0, 23, 3, 0, 12, 0, 29, 11, 0
|0, 0, 10, 0, 18, 31, 0, 0, 17, 23, 29, 0, 0, 5, 0, 0, 0, 21, 0, 28, 0, 22, 20, 0, 32, 0, 6, 0, 0, 24, 0, 19, 0, 0, 0, 0
|15, 32, 0, 12, 0, 11, 10, 33, 21, 0, 9, 0, 0, 0, 18, 14, 0, 7, 19, 24, 1, 3, 0, 0, 8, 0, 0, 0, 0, 0, 0, 0, 0, 2, 27, 6
|23, 30, 0, 0, 22, 0, 0, 0, 3, 14, 26, 13, 9, 4, 0, 0, 0, 0, 34, 0, 32, 0, 0, 36, 19, 21, 0, 28, 33, 25, 10, 0, 20, 24, 17, 7
|0, 21, 33, 0, 19, 0, 36, 28, 0, 1, 0, 24, 0, 0, 0, 27, 0, 29, 5, 0, 17, 6, 0, 0, 2, 22, 20, 0, 14, 0, 31, 0, 0, 0, 0, 0
|26, 0, 14, 0, 0, 0, 6, 16, 32, 0, 0, 0, 20, 19, 0, 0, 17, 33, 35, 0, 0, 0, 15, 0, 13, 0, 0, 4, 0, 0, 0, 0, 21, 0, 0, 28
|11, 20, 0, 0, 6, 10, 0, 0, 25, 9, 5, 21, 0, 3, 0, 22, 18, 14, 15, 0, 0, 0, 0, 35, 28, 36, 13, 0, 27, 0, 0, 32, 0, 16, 8, 34
|5, 1, 0, 0, 0, 0, 0, 15, 29, 0, 4, 3, 0, 0, 0, 0, 7, 11, 0, 0, 0, 0, 22, 0, 9, 0, 0, 32, 16, 0, 28, 21, 6, 0, 0, 0
|19, 4, 0, 0, 30, 9, 11, 0, 20, 0, 13, 8, 23, 28, 0, 0, 0, 6, 10, 0, 0, 32, 0, 0, 14, 35, 0, 21, 0, 22, 33, 5, 0, 1, 0, 17
|0, 0, 0, 17, 8, 28, 1, 0, 23, 36, 16, 0, 35, 0, 0, 0, 9, 0, 0, 20, 0, 0, 11, 7, 34, 29, 3, 0, 30, 15, 0, 0, 4, 0, 18, 0
|0, 0, 2, 0, 0, 0, 0, 0, 10, 0, 0, 34, 13, 32, 17, 0, 0, 0, 0, 0, 33, 0, 9, 0, 0, 31, 4, 5, 0, 0, 0, 0, 7, 15, 0, 0
|0, 22, 0, 0, 0, 32, 19, 0, 0, 0, 0, 14, 1, 16, 20, 36, 30, 4, 0, 0, 21, 25, 8, 5, 26, 12, 0, 11, 10, 0, 35, 0, 9, 0, 0, 13
|33, 34, 19, 0, 3, 0, 15, 29, 0, 10, 24, 0, 22, 0, 0, 0, 0, 0, 0, 9, 23, 0, 0, 4, 0, 0, 27, 31, 0, 6, 25, 0, 0, 17, 0, 0
|0, 0, 0, 2, 0, 0, 23, 0, 0, 0, 33, 7, 32, 0, 0, 0, 0, 5, 20, 14, 0, 18, 26, 0, 0, 17, 19, 1, 0, 28, 29, 16, 0, 0, 6, 0
|0, 35, 36, 21, 16, 0, 0, 0, 28, 26, 0, 9, 0, 0, 0, 7, 0, 0, 25, 0, 34, 11, 0, 0, 10, 0, 0, 14, 0, 0, 0, 4, 19, 0, 0, 0
|0, 26, 25, 11, 0, 0, 13, 35, 0, 0, 0, 0, 0, 0, 24, 0, 0, 23, 0, 27, 0, 0, 21, 0, 0, 0, 0, 29, 0, 0, 18, 22, 28, 34, 20, 0
|9, 0, 31, 10, 28, 0, 0, 0, 12, 27, 0, 2, 0, 21, 29, 0, 34, 0, 1, 0, 0, 7, 32, 19, 0, 16, 0, 0, 0, 0, 0, 26, 5, 0, 14, 0
|6, 0, 24, 0, 15, 23, 0, 0, 19, 20, 0, 0, 16, 0, 0, 0, 0, 0, 0, 0, 35, 5, 28, 0, 0, 25, 0, 26, 0, 0, 0, 13, 0, 31, 0, 0
|8, 0, 0, 35, 0, 36, 22, 0, 0, 0, 14, 0, 0, 0, 9, 0, 0, 30, 0, 0, 18, 17, 23, 6, 24, 0, 12, 0, 20, 0, 0, 31, 0, 3, 2, 26
|2, 6, 0, 1, 0, 0, 28, 5, 0, 24, 0, 0, 17, 34, 16, 23, 36, 19, 0, 26, 25, 0, 31, 32, 0, 3, 21, 13, 0, 0, 0, 0, 0, 20, 10, 18
|0, 0, 22, 29, 0, 0, 0, 0, 0, 16, 2, 6, 7, 10, 35, 0, 4, 0, 27, 19, 0, 34, 3, 28, 36, 0, 0, 0, 0, 0, 0, 0, 0, 0, 21, 15
|0, 0, 9, 0, 4, 20, 0, 0, 0, 0, 7, 0, 0, 2, 0, 8, 0, 32, 0, 0, 0, 21, 14, 0, 27, 0, 26, 0, 0, 30, 34, 29, 16, 0, 0, 5
|25, 5, 0, 23, 24, 21, 29, 0, 9, 0, 35, 0, 0, 0, 0, 0, 27, 0, 7, 13, 0, 2, 0, 15, 0, 0, 31, 0, 0, 0, 14, 0, 12, 0, 19, 0
|0, 16, 0, 34, 0, 0, 0, 0, 0, 19, 8, 0, 21, 0, 0, 0, 5, 0, 9, 0, 12, 0, 0, 0, 23, 0, 22, 0, 0, 29, 17, 24, 27, 0, 4, 25|];