order = 6;
grid = [|0, 0, 0, 0, 0, 0, 0, 35, 0, 28, 0, 23, 15, 29, 32, 14, 16, 0, 0, 6, 0, 21, 0, 0, 5, 11, 0, 33, 12, 0, 8, 34, 0, 0, 0, 0
|15, 14, 0, 0, 34, 31, 29, 0, 0, 0, 0, 0, 13, 0, 0, 12, 0, 0, 0, 0, 0, 28, 0, 0, 20, 0, 0, 27, 0, 35, 0, 0, 0, 9, 0, 0
|0, 0, 6, 2, 21, 27, 0, 20, 0, 9, 0, 1, 0, 35, 33, 3, 28, 0, 5, 0, 0, 0, 0, 8, 10, 4, 0, 0, 0, 25, 12, 22, 0, 0, 23, 0
|28, 32, 7, 0, 33, 0, 0, 31, 0, 0, 12, 3, 23, 20, 0, 21, 0, 0, 25, 0, 9, 0, 10, 0, 0, 0, 29, 0, 0, 6, 0, 0, 1, 0, 5, 4
|9, 29, 16, 0, 19, 0, 0, 0, 0, 0, 0, 10, 1, 0, 6, 0, 8, 0, 13, 34, 0, 32, 0, 7, 23, 28, 24, 36, 0, 0, 0, 31, 0, 0, 0, 0
|17, 0, 23, 0, 0, 0, 4, 5, 26, 0, 0, 0, 25, 7, 0, 0, 27, 0, 29, 0, 0, 16, 11, 0, 0, 0, 0, 0, 0, 31, 28, 35, 0, 0, 0, 0
|0, 22, 0, 9, 0, 0, 0, 0, 0, 19, 0, 6, 0, 0, 10, 0, 33, 3, 0, 0, 0, 25, 1, 0, 35, 0, 0, 0, 27, 26, 0, 0, 0, 20, 2, 29
|8, 0, 0, 0, 14, 0, 30, 25, 24, 3, 0, 0, 27, 21, 2, 0, 23, 0, 0, 0, 16, 18, 7, 13, 0, 34, 36, 0, 19, 17, 0, 33, 0, 0, 9, 0
|0, 16, 0, 0, 23, 0, 0, 21, 0, 0, 2, 12, 30, 0, 0, 0, 0, 24, 0, 20, 6, 11, 33, 34, 9, 3, 0, 0, 0, 0, 0, 8, 0, 0, 35, 0
|30, 0, 0, 0, 0, 33, 0, 0, 0, 11, 36, 0, 0, 19, 0, 0, 7, 0, 0, 17, 0, 0, 21, 29, 16, 0, 0, 0, 22, 0, 0, 23, 28, 0, 0, 0
|0, 0, 28, 0, 27, 0, 35, 0, 0, 0, 23, 0, 5, 25, 9, 0, 0, 6, 36, 0, 0, 0, 24, 15, 33, 30, 4, 0, 0, 20, 13, 11, 19, 0, 0, 0
|7, 15, 0, 34, 25, 0, 0, 0, 0, 0, 22, 0, 0, 26, 1, 0, 0, 0, 0, 19, 30, 0, 0, 0, 0, 0, 0, 8, 0, 0, 5, 16, 0, 36, 24, 0
|16, 0, 19, 36, 0, 0, 0, 0, 0, 0, 4, 0, 24, 6, 0, 35, 0, 7, 23, 18, 0, 33, 29, 0, 1, 0, 12, 26, 0, 10, 3, 32, 20, 15, 34, 8
|32, 0, 0, 0, 3, 0, 20, 7, 0, 0, 21, 26, 0, 0, 0, 0, 0, 27, 6, 13, 0, 0, 19, 0, 24, 0, 0, 0, 11, 29, 0, 0, 5, 33, 0, 28
|14, 0, 9, 0, 0, 0, 13, 18, 19, 24, 3, 0, 0, 0, 28, 0, 30, 8, 11, 31, 0, 22, 0, 0, 0, 16, 0, 0, 0, 15, 0, 10, 7, 12, 4, 0
|20, 17, 4, 0, 18, 23, 5, 15, 0, 14, 0, 0, 32, 1, 11, 19, 0, 12, 0, 0, 28, 0, 27, 0, 0, 31, 8, 0, 6, 34, 0, 29, 13, 0, 0, 0
|0, 24, 0, 0, 10, 15, 6, 0, 0, 1, 31, 16, 21, 34, 0, 0, 0, 29, 2, 14, 4, 7, 30, 17, 0, 0, 0, 0, 20, 36, 0, 0, 27, 11, 22, 0
|12, 2, 0, 0, 0, 25, 36, 0, 11, 34, 8, 28, 4, 0, 20, 0, 0, 0, 0, 35, 1, 15, 26, 21, 0, 0, 0, 3, 0, 0, 6, 0, 14, 19, 31, 0
|0, 0, 0, 11, 0, 0, 31, 0, 10, 6, 25, 2, 0, 0, 5, 0, 13, 35, 0, 0, 0, 29, 0, 0, 8, 33, 21, 17, 23, 19, 0, 27, 0, 4, 14, 32
|0, 0, 0, 17, 31, 14, 18, 0, 0, 0, 0, 0, 16, 36, 29, 0, 2, 23, 34, 26, 10, 27, 25, 0, 0, 13, 0, 5, 15, 30, 9, 0, 22, 8, 33, 6
|10, 6, 26, 0, 0, 0, 0, 0, 0, 30, 0, 0, 28, 0, 12, 17, 24, 34, 0, 0, 0, 8, 0, 0, 31, 29, 0, 11, 14, 0, 0, 36, 0, 0, 13, 20
|21, 0, 0, 0, 0, 0, 0, 0, 36, 0, 0, 0, 19, 11, 8, 0, 20, 0, 33, 0, 31, 14, 0, 6, 0, 0, 0, 34, 28, 0, 26, 0, 35, 23, 0, 0
|0, 8, 18, 27, 0, 0, 32, 0, 0, 29, 0, 0, 33, 31, 14, 1, 6, 9, 20, 3, 0, 2, 0, 0, 0, 0, 16, 0, 35, 0, 19, 0, 0, 21, 0, 7
|3, 35, 33, 0, 9, 32, 0, 0, 8, 12, 0, 27, 22, 0, 0, 0, 0, 21, 0, 15, 13, 5, 0, 11, 0, 36, 20, 7, 26, 0, 0, 1, 0, 31, 10, 0
|35, 0, 1, 19, 0, 0, 25, 12, 23, 0, 24, 31, 0, 0, 30, 0, 0, 17, 26, 29, 3, 0, 0, 0, 0, 0, 10, 22, 0, 21, 33, 0, 0, 0, 0, 0
|5, 13, 0, 0, 0, 0, 0, 34, 0, 16, 30, 11, 6, 28, 21, 0, 0, 0, 22, 0, 35, 19, 0, 0, 4, 17, 0, 12, 0, 18, 0, 0, 24, 0, 29, 0
|11, 10, 12, 0, 17, 0, 0, 0, 15, 33, 20, 4, 0, 0, 0, 27, 0, 0, 0, 0, 0, 36, 0, 18, 32, 7, 0, 0, 0, 0, 22, 25, 0, 1, 0, 16
|25, 0, 0, 4, 0, 0, 21, 0, 6, 0, 0, 0, 3, 16, 22, 13, 0, 0, 8, 10, 33, 0, 2, 0, 19, 0, 0, 30, 0, 0, 0, 0, 0, 28, 0, 14
|22, 34, 0, 31, 0, 8, 3, 19, 0, 27, 1, 13, 2, 33, 4, 24, 0, 0, 0, 32, 12, 0, 0, 28, 0, 25, 0, 15, 16, 0, 0, 21, 0, 30, 0, 11
|0, 0, 21, 3, 26, 30, 22, 29, 28, 0, 0, 0, 34, 0, 0, 31, 12, 25, 27, 0, 11, 6, 4, 0, 0, 0, 0, 20, 0, 0, 32, 2, 0, 0, 0, 0
|23, 9, 0, 14, 0, 0, 16, 0, 0, 26, 29, 0, 0, 0, 0, 0, 0, 0, 0, 2, 32, 3, 8, 10, 0, 0, 0, 18, 36, 22, 7, 24, 33, 34, 0, 0
|31, 0, 0, 32, 0, 36, 14, 0, 0, 10, 0, 21, 0, 0, 15, 23, 29, 30, 19, 11, 0, 1, 22, 0, 34, 20, 0, 0, 5, 16, 2, 0, 18, 0, 0, 26
|0, 0, 0, 16, 0, 0, 23, 0, 0, 18, 0, 0, 0, 5, 0, 2, 0, 1, 12, 28, 20, 0, 6, 26, 7, 0, 31, 9, 25, 0, 29, 30, 32, 0, 21, 10
|0, 12, 10, 30, 0, 0, 0, 1, 0, 8, 32, 0, 35, 18, 0, 0, 0, 0, 0, 0, 0, 0, 0, 33, 21, 0, 3, 0, 24, 23, 0, 13, 36, 0, 0, 0
|0, 0, 0, 0, 11, 26, 12, 6, 2, 0, 0, 0, 0, 32, 0, 34, 3, 33, 21, 23, 24, 13, 0, 0, 30, 1, 0, 0, 4, 14, 0, 20, 0, 35, 0, 0
|0, 0, 22, 0, 0, 0, 11, 13, 0, 0, 0, 34, 0, 12, 26, 0, 21, 36, 16, 0, 0, 30, 18, 0, 2, 0, 17, 32, 10, 0, 14, 0, 0, 5, 15, 1|];