order = 6;
grid = [|0, 0, 4, 0, 0, 0, 0, 0, 13, 0, 0, 0, 0, 33, 14, 25, 0, 26, 0, 0, 27, 0, 0, 17, 0, 0, 32, 24, 30, 11, 8, 36, 0, 19, 10, 0
|0, 27, 24, 0, 0, 0, 17, 16, 0, 6, 0, 7, 0, 35, 0, 0, 0, 0, 14, 0, 36, 20, 0, 30, 0, 0, 19, 0, 12, 0, 34, 0, 0, 0, 0, 15
|29, 0, 19, 0, 23, 0, 0, 0, 25, 0, 0, 0, 3, 0, 13, 30, 9, 0, 21, 0, 0, 0, 5, 0, 27, 18, 34, 0, 0, 0, 7, 0, 0, 0, 0, 0
|0, 31, 0, 21, 0, 0, 2, 0, 11, 29, 0, 1, 0, 18, 0, 0, 0, 36, 24, 0, 15, 32, 4, 0, 10, 0, 0, 0, 14, 0, 0, 0, 5, 0, 26, 30
|17, 13, 0, 32, 14, 0, 0, 27, 31, 0, 0, 0, 0, 0, 24, 0, 0, 16, 29, 18, 0, 0, 0, 0, 0, 0, 5, 0, 0, 15, 4, 9, 11, 21, 1, 35
|0, 0, 0, 0, 0, 0, 19, 5, 0, 14, 0, 32, 10, 12, 31, 1, 0, 0, 0, 0, 22, 0, 33, 6, 21, 20, 4, 0, 9, 0, 0, 23, 0, 0, 24, 27
|21, 4, 31, 0, 0, 0, 18, 15, 0, 24, 23, 0, 0, 0, 6, 10, 0, 0, 27, 0, 0, 0, 34, 29, 26, 9, 16, 25, 0, 8, 0, 0, 0, 0, 0, 7
|35, 0, 1, 0, 0, 9, 0, 0, 29, 0, 0, 0, 0, 5, 25, 0, 0, 0, 0, 0, 0, 0, 10, 23, 30, 0, 31, 28, 0, 0, 0, 0, 34, 0, 0, 12
|0, 19, 0, 29, 0, 0, 0, 0, 5, 0, 10, 17, 33, 0, 0, 0, 3, 4, 31, 0, 0, 6, 0, 36, 0, 34, 0, 11, 0, 12, 15, 0, 0, 26, 0, 9
|2, 5, 0, 20, 25, 0, 34, 26, 0, 0, 1, 31, 0, 0, 9, 0, 19, 32, 4, 17, 11, 0, 21, 15, 23, 10, 7, 0, 0, 0, 22, 0, 18, 0, 0, 24
|0, 23, 0, 26, 0, 7, 30, 0, 0, 0, 0, 12, 0, 20, 15, 18, 11, 31, 0, 0, 0, 0, 13, 0, 0, 0, 0, 0, 24, 5, 17, 0, 10, 4, 6, 0
|18, 12, 0, 16, 0, 0, 3, 0, 21, 13, 0, 0, 0, 0, 1, 0, 36, 0, 0, 7, 30, 26, 24, 9, 33, 15, 17, 0, 0, 6, 0, 31, 28, 35, 29, 25
|16, 0, 0, 34, 0, 27, 0, 10, 0, 11, 0, 2, 0, 0, 17, 31, 13, 33, 0, 5, 0, 0, 26, 20, 0, 0, 15, 23, 0, 0, 28, 0, 0, 0, 0, 0
|26, 0, 0, 0, 0, 0, 4, 18, 19, 0, 0, 14, 0, 0, 0, 2, 12, 0, 0, 27, 9, 0, 25, 0, 22, 0, 6, 0, 31, 28, 0, 30, 0, 29, 13, 0
|0, 0, 17, 18, 6, 0, 32, 0, 33, 0, 3, 26, 8, 0, 21, 36, 0, 0, 13, 0, 7, 15, 1, 0, 4, 0, 0, 35, 0, 2, 27, 0, 0, 0, 0, 23
|0, 30, 0, 0, 0, 25, 0, 13, 0, 8, 0, 6, 11, 0, 0, 29, 0, 20, 0, 32, 0, 0, 18, 0, 12, 17, 0, 0, 33, 0, 0, 0, 0, 22, 21, 0
|13, 0, 0, 23, 4, 0, 21, 1, 30, 17, 7, 0, 28, 22, 0, 26, 0, 15, 6, 0, 0, 8, 29, 0, 0, 36, 27, 34, 0, 24, 0, 12, 20, 0, 9, 11
|24, 0, 11, 31, 0, 0, 0, 20, 0, 0, 0, 9, 0, 34, 0, 32, 35, 1, 23, 0, 17, 21, 28, 0, 0, 26, 10, 0, 0, 30, 14, 0, 6, 7, 19, 0
|0, 20, 7, 35, 0, 4, 31, 19, 17, 0, 0, 34, 0, 0, 8, 0, 0, 23, 3, 30, 0, 9, 32, 0, 0, 16, 36, 0, 0, 0, 0, 18, 0, 24, 28, 2
|8, 0, 0, 28, 34, 3, 0, 0, 0, 0, 0, 25, 0, 0, 0, 0, 6, 0, 17, 14, 35, 1, 0, 0, 0, 0, 0, 27, 0, 33, 30, 0, 0, 0, 0, 29
|0, 25, 32, 9, 0, 0, 0, 0, 0, 26, 0, 0, 1, 0, 0, 27, 21, 0, 16, 11, 0, 0, 8, 7, 20, 0, 0, 0, 0, 0, 0, 14, 0, 0, 0, 19
|0, 29, 27, 36, 0, 0, 0, 23, 28, 0, 13, 0, 0, 32, 0, 17, 26, 0, 10, 4, 0, 33, 15, 18, 0, 22, 0, 7, 0, 3, 6, 1, 0, 8, 35, 0
|0, 15, 0, 0, 0, 0, 0, 30, 1, 0, 24, 36, 35, 0, 0, 0, 0, 0, 0, 13, 0, 29, 31, 0, 0, 6, 0, 0, 0, 25, 11, 33, 9, 0, 0, 0
|11, 0, 6, 2, 17, 30, 14, 8, 4, 0, 16, 0, 36, 15, 0, 13, 0, 0, 25, 21, 28, 5, 0, 0, 35, 0, 0, 32, 1, 0, 10, 20, 26, 0, 0, 31
|25, 34, 0, 13, 0, 31, 0, 17, 0, 3, 0, 0, 14, 29, 0, 8, 0, 35, 2, 0, 20, 16, 30, 11, 0, 7, 0, 0, 32, 21, 23, 0, 27, 0, 0, 0
|0, 28, 0, 0, 0, 0, 13, 0, 0, 0, 0, 0, 0, 7, 32, 0, 2, 0, 0, 35, 24, 31, 0, 8, 0, 0, 0, 20, 27, 0, 25, 29, 12, 0, 0, 0
|20, 0, 35, 4, 16, 29, 0, 0, 2, 19, 0, 0, 0, 0, 0, 0, 22, 0, 0, 0, 0, 0, 0, 12, 3, 0, 33, 5, 17, 0, 26, 0, 15, 0, 0, 13
|0, 1, 21, 33, 0, 0, 0, 25, 14, 0, 0, 8, 30, 0, 0, 0, 0, 6, 0, 23, 13, 0, 0, 0, 24, 0, 29, 10, 35, 34, 2, 16, 0, 9, 31, 32
|12, 7, 2, 0, 0, 32, 0, 0, 36, 9, 5, 15, 0, 19, 0, 34, 0, 21, 0, 0, 0, 3, 6, 0, 11, 0, 0, 0, 0, 4, 0, 0, 30, 0, 17, 0
|5, 0, 0, 30, 11, 0, 0, 0, 0, 34, 0, 0, 4, 0, 0, 0, 0, 0, 0, 0, 21, 0, 17, 0, 0, 0, 0, 0, 0, 31, 0, 7, 0, 3, 0, 0
|0, 0, 0, 0, 0, 0, 35, 0, 3, 0, 0, 0, 0, 26, 36, 0, 0, 12, 0, 10, 0, 25, 14, 0, 17, 0, 1, 30, 0, 0, 5, 0, 21, 0, 15, 0
|32, 0, 18, 14, 0, 0, 0, 36, 20, 0, 0, 0, 6, 16, 0, 15, 23, 17, 0, 0, 0, 0, 0, 0, 25, 0, 11, 0, 29, 0, 31, 24, 35, 0, 0, 0
|34, 17, 0, 10, 12, 0, 0, 33, 0, 0, 8, 22, 0, 0, 0, 0, 0, 9, 26, 0, 0, 0, 2, 21, 16, 0, 28, 15, 0, 0, 0, 11, 29, 0, 30, 18
|4, 0, 8, 0, 13, 0, 24, 0, 15, 0, 28, 0, 5, 0, 0, 21, 0, 0, 0, 0, 16, 17, 35, 31, 7, 0, 23, 6, 26, 0, 32, 25, 2, 20, 22, 1
|0, 22, 26, 6, 5, 0, 0, 0, 18, 25, 0, 19, 0, 0, 0, 4, 0, 0, 11, 0, 0, 0, 0, 0, 2, 0, 35, 21, 8, 0, 0, 0, 7, 17, 0, 36
|0, 35, 0, 0, 29, 1, 0, 9, 0, 0, 17, 21, 2, 11, 0, 7, 0, 0, 0, 0, 8, 28, 20, 13, 0, 19, 0, 0, 36, 10, 3, 0, 0, 33, 0, 0|];