order = 6;
grid = [|0, 0, 4, 0, 0, 21, 10, 31, 0, 19, 0, 0, 0, 17, 0, 0, 0, 0, 29, 14, 6, 0, 34, 30, 0, 24, 15, 0, 0, 0, 32, 11, 13, 12, 0, 0
|11, 0, 32, 6, 0, 0, 0, 23, 0, 8, 0, 26, 28, 0, 18, 19, 0, 0, 0, 0, 0, 0, 20, 5, 2, 29, 33, 12, 0, 0, 34, 35, 0, 3, 16, 15
|0, 0, 16, 0, 0, 19, 0, 0, 21, 20, 28, 0, 0, 0, 34, 2, 11, 33, 7, 15, 0, 0, 0, 0, 0, 0, 0, 0, 9, 0, 25, 0, 30, 26, 29, 18
|0, 33, 24, 0, 17, 0, 3, 6, 12, 0, 22, 0, 0, 0, 30, 0, 31, 0, 35, 0, 0, 19, 0, 0, 0, 0, 0, 16, 32, 0, 0, 0, 2, 9, 10, 5
|0, 0, 29, 20, 0, 0, 0, 0, 5, 0, 0, 0, 25, 12, 24, 0, 35, 0, 0, 9, 1, 11, 33, 18, 17, 27, 30, 7, 8, 3, 6, 0, 0, 22, 0, 0
|0, 34, 12, 25, 0, 14, 1, 29, 11, 0, 0, 18, 5, 21, 6, 0, 15, 0, 0, 8, 0, 0, 27, 0, 0, 23, 0, 19, 0, 20, 31, 28, 7, 33, 17, 24
|0, 0, 26, 0, 6, 0, 0, 11, 7, 2, 0, 20, 19, 0, 0, 0, 14, 1, 0, 22, 27, 24, 0, 0, 23, 8, 29, 0, 0, 0, 0, 13, 0, 0, 0, 33
|0, 0, 3, 0, 0, 35, 9, 0, 0, 0, 0, 1, 0, 2, 4, 24, 0, 0, 17, 18, 23, 6, 0, 0, 0, 10, 0, 0, 5, 33, 0, 0, 0, 0, 30, 8
|0, 19, 21, 7, 0, 0, 13, 0, 22, 0, 0, 0, 0, 0, 0, 20, 27, 10, 0, 0, 0, 34, 8, 14, 1, 0, 0, 0, 0, 12, 18, 24, 36, 0, 0, 32
|0, 0, 0, 0, 10, 0, 19, 36, 17, 32, 14, 29, 6, 0, 15, 0, 0, 28, 16, 0, 0, 0, 0, 25, 0, 0, 24, 34, 0, 0, 35, 26, 3, 27, 0, 0
|0, 32, 0, 0, 8, 0, 4, 30, 24, 28, 10, 0, 18, 9, 33, 17, 0, 34, 21, 0, 13, 0, 0, 20, 19, 16, 7, 0, 22, 27, 2, 5, 29, 0, 25, 0
|2, 16, 0, 34, 0, 0, 6, 0, 0, 18, 0, 0, 13, 0, 0, 0, 22, 0, 0, 0, 0, 0, 29, 3, 0, 35, 0, 0, 15, 4, 21, 20, 19, 14, 0, 0
|23, 0, 33, 0, 34, 0, 0, 7, 18, 13, 0, 12, 0, 27, 0, 21, 24, 0, 0, 1, 28, 4, 26, 11, 6, 0, 0, 0, 0, 0, 16, 0, 9, 0, 0, 3
|26, 0, 14, 32, 0, 3, 0, 0, 35, 36, 0, 28, 10, 22, 0, 15, 0, 25, 0, 33, 0, 0, 0, 23, 9, 34, 11, 18, 0, 30, 0, 0, 0, 21, 5, 1
|20, 0, 35, 0, 0, 0, 0, 0, 1, 0, 29, 0, 0, 0, 0, 28, 19, 17, 0, 10, 18, 0, 0, 0, 3, 12, 0, 0, 0, 0, 33, 25, 34, 24, 0, 14
|0, 25, 0, 24, 0, 27, 0, 0, 0, 4, 0, 0, 0, 0, 14, 9, 0, 29, 34, 0, 8, 0, 30, 12, 0, 33, 28, 0, 1, 32, 0, 0, 23, 2, 22, 26
|1, 0, 0, 0, 19, 0, 0, 0, 26, 0, 0, 0, 33, 6, 31, 16, 0, 20, 0, 3, 32, 22, 0, 0, 0, 15, 0, 23, 0, 10, 28, 0, 18, 0, 0, 0
|29, 0, 0, 0, 22, 0, 33, 2, 16, 0, 0, 21, 0, 34, 23, 18, 4, 3, 0, 0, 14, 31, 0, 36, 0, 26, 5, 0, 0, 17, 19, 12, 0, 0, 11, 0
|15, 35, 0, 0, 0, 12, 0, 0, 0, 0, 0, 9, 0, 10, 17, 36, 0, 5, 11, 34, 24, 23, 0, 8, 0, 22, 2, 0, 0, 6, 7, 4, 0, 0, 0, 29
|19, 24, 22, 13, 9, 0, 0, 0, 23, 34, 0, 0, 29, 0, 0, 14, 21, 4, 5, 17, 31, 16, 1, 6, 0, 7, 3, 36, 33, 0, 0, 2, 28, 0, 0, 10
|0, 21, 27, 0, 29, 0, 26, 18, 0, 22, 0, 36, 3, 32, 0, 0, 0, 19, 0, 0, 9, 35, 13, 0, 15, 0, 0, 4, 0, 14, 0, 34, 0, 0, 33, 0
|0, 23, 10, 0, 3, 2, 25, 0, 0, 29, 19, 0, 16, 28, 9, 0, 0, 12, 32, 0, 0, 0, 22, 0, 20, 0, 0, 35, 0, 0, 24, 14, 21, 15, 0, 27
|0, 1, 36, 26, 33, 0, 12, 0, 2, 6, 4, 7, 24, 0, 11, 0, 18, 31, 10, 20, 19, 0, 0, 0, 0, 0, 0, 0, 0, 0, 3, 23, 0, 0, 0, 22
|5, 0, 7, 31, 0, 30, 0, 0, 0, 0, 0, 3, 2, 0, 0, 13, 0, 35, 0, 29, 4, 0, 28, 0, 34, 0, 10, 21, 19, 23, 0, 0, 0, 0, 0, 0
|0, 3, 34, 0, 11, 0, 31, 26, 0, 0, 18, 16, 0, 29, 0, 12, 10, 27, 30, 0, 0, 33, 0, 35, 8, 32, 0, 15, 7, 2, 0, 0, 0, 0, 0, 0
|0, 0, 19, 27, 28, 36, 0, 13, 0, 21, 24, 15, 9, 25, 0, 8, 0, 0, 22, 0, 17, 0, 6, 0, 0, 0, 0, 5, 0, 11, 0, 18, 0, 0, 0, 2
|0, 9, 20, 0, 21, 0, 0, 19, 0, 27, 0, 22, 0, 14, 0, 0, 0, 36, 0, 11, 0, 2, 16, 0, 0, 0, 17, 0, 0, 0, 0, 32, 0, 6, 15, 34
|0, 0, 0, 0, 12, 0, 0, 0, 33, 5, 34, 0, 4, 18, 28, 22, 0, 0, 0, 23, 15, 13, 0, 0, 27, 0, 21, 0, 3, 36, 17, 0, 11, 19, 31, 0
|18, 0, 5, 0, 2, 32, 28, 0, 0, 0, 0, 10, 17, 23, 0, 6, 0, 0, 12, 0, 20, 8, 0, 34, 0, 0, 31, 0, 26, 0, 22, 36, 0, 0, 0, 0
|0, 31, 17, 0, 0, 24, 20, 0, 6, 0, 0, 0, 15, 0, 13, 0, 34, 2, 0, 0, 26, 27, 0, 10, 0, 9, 14, 29, 0, 35, 0, 0, 8, 5, 3, 0
|36, 14, 2, 5, 0, 0, 17, 35, 0, 12, 0, 13, 34, 0, 0, 0, 29, 0, 0, 0, 0, 20, 0, 0, 21, 0, 26, 0, 0, 28, 30, 0, 25, 32, 18, 0
|0, 0, 0, 8, 0, 16, 0, 10, 0, 33, 0, 34, 0, 19, 1, 0, 0, 0, 26, 6, 25, 0, 0, 17, 11, 0, 27, 9, 0, 31, 0, 0, 0, 0, 0, 35
|0, 27, 0, 0, 0, 18, 0, 0, 0, 0, 1, 6, 22, 13, 0, 0, 0, 11, 0, 0, 0, 9, 0, 0, 33, 0, 20, 25, 2, 15, 0, 0, 0, 28, 21, 31
|13, 10, 0, 0, 7, 33, 29, 0, 0, 0, 0, 11, 0, 16, 0, 0, 25, 18, 1, 0, 35, 0, 0, 0, 0, 4, 0, 30, 34, 19, 27, 0, 0, 0, 0, 12
|4, 0, 0, 0, 26, 34, 0, 15, 0, 0, 0, 8, 7, 24, 0, 5, 0, 0, 0, 0, 22, 0, 0, 21, 35, 3, 13, 1, 0, 18, 9, 16, 0, 36, 0, 11
|0, 0, 28, 0, 35, 25, 0, 0, 3, 0, 0, 4, 12, 0, 0, 31, 2, 15, 13, 30, 16, 0, 0, 0, 0, 0, 0, 0, 17, 0, 0, 0, 6, 34, 26, 19|];