order = 6;
grid = [|16, 14, 28, 27, 23, 0, 35, 0, 20, 4, 0, 30, 9, 21, 13, 0, 22, 11, 6, 0, 0, 1, 0, 18, 0, 0, 10, 19, 0, 0, 0, 0, 0, 5, 0, 15
|0, 0, 0, 35, 0, 8, 0, 13, 0, 0, 0, 0, 0, 0, 0, 4, 0, 0, 2, 0, 29, 15, 0, 32, 0, 21, 0, 14, 3, 0, 0, 23, 0, 30, 24, 27
|25, 0, 18, 1, 29, 6, 0, 28, 9, 0, 31, 32, 33, 24, 0, 0, 14, 19, 0, 35, 26, 30, 0, 0, 0, 0, 0, 0, 15, 13, 0, 0, 0, 0, 0, 4
|33, 3, 10, 24, 0, 26, 34, 0, 25, 17, 0, 0, 16, 12, 0, 0, 0, 0, 27, 0, 0, 13, 36, 0, 18, 0, 30, 9, 28, 0, 0, 0, 0, 0, 22, 0
|0, 9, 4, 0, 2, 0, 0, 23, 24, 0, 3, 0, 35, 27, 25, 0, 0, 30, 10, 20, 0, 33, 16, 22, 11, 0, 0, 0, 31, 8, 18, 19, 6, 0, 0, 0
|11, 0, 0, 0, 36, 34, 18, 22, 27, 16, 0, 21, 0, 0, 2, 26, 10, 0, 0, 0, 0, 0, 0, 0, 0, 0, 0, 0, 12, 0, 9, 0, 0, 8, 0, 1
|34, 0, 13, 9, 20, 2, 32, 0, 3, 0, 33, 18, 12, 0, 0, 0, 0, 22, 17, 27, 28, 0, 0, 24, 19, 6, 0, 31, 35, 0, 4, 11, 0, 21, 0, 0
|0, 0, 0, 0, 0, 29, 31, 0, 7, 1, 15, 0, 8, 32, 0, 20, 35, 21, 0, 3, 33, 36, 0, 19, 26, 0, 2, 0, 0, 0, 0, 16, 0, 0, 30, 0
|0, 0, 8, 0, 0, 0, 6, 25, 0, 0, 0, 0, 0, 17, 0, 1, 30, 16, 0, 0, 0, 0, 7, 23, 9, 0, 22, 0, 0, 0, 0, 5, 14, 29, 0, 24
|0, 0, 17, 15, 7, 0, 0, 5, 0, 29, 19, 8, 0, 0, 0, 10, 0, 27, 0, 0, 31, 0, 0, 0, 0, 11, 34, 0, 0, 21, 0, 9, 22, 0, 20, 0
|6, 0, 0, 23, 3, 10, 20, 0, 21, 11, 17, 0, 29, 18, 0, 0, 0, 13, 30, 26, 0, 0, 0, 5, 0, 25, 27, 0, 14, 0, 15, 32, 0, 35, 8, 0
|19, 0, 0, 0, 0, 25, 10, 0, 0, 0, 0, 0, 0, 11, 0, 0, 0, 3, 0, 0, 0, 9, 0, 0, 0, 0, 1, 0, 0, 0, 17, 6, 2, 33, 0, 0
|1, 23, 0, 2, 0, 5, 0, 6, 14, 34, 0, 36, 0, 10, 0, 32, 0, 8, 19, 28, 24, 12, 0, 31, 0, 13, 9, 0, 22, 3, 0, 25, 0, 7, 33, 16
|0, 0, 0, 8, 25, 0, 24, 0, 0, 0, 1, 23, 27, 13, 0, 0, 36, 6, 0, 0, 0, 14, 0, 0, 30, 19, 0, 29, 5, 16, 0, 0, 3, 17, 0, 20
|0, 0, 19, 0, 0, 28, 0, 26, 0, 25, 22, 0, 0, 4, 0, 33, 3, 0, 0, 16, 2, 0, 18, 11, 0, 14, 0, 0, 1, 0, 0, 30, 32, 24, 0, 0
|0, 0, 24, 12, 15, 27, 0, 0, 29, 21, 35, 0, 5, 0, 0, 25, 7, 23, 9, 6, 36, 3, 0, 4, 0, 0, 0, 0, 2, 18, 0, 0, 0, 0, 19, 0
|0, 33, 20, 0, 0, 30, 8, 0, 28, 31, 27, 5, 2, 1, 0, 16, 19, 24, 0, 0, 10, 34, 0, 17, 21, 35, 36, 0, 0, 0, 13, 26, 15, 12, 18, 9
|22, 0, 26, 0, 0, 32, 0, 0, 2, 0, 0, 15, 0, 28, 29, 18, 12, 17, 0, 25, 13, 35, 0, 1, 0, 0, 24, 11, 33, 0, 10, 0, 36, 27, 23, 0
|24, 20, 21, 14, 0, 0, 0, 18, 0, 0, 34, 27, 10, 31, 16, 28, 8, 0, 26, 4, 0, 23, 11, 0, 0, 1, 7, 3, 0, 29, 0, 15, 9, 0, 0, 0
|0, 34, 0, 0, 26, 17, 0, 1, 19, 0, 25, 0, 0, 33, 0, 6, 0, 20, 0, 0, 0, 0, 0, 27, 22, 28, 0, 8, 4, 0, 0, 0, 30, 23, 11, 10
|0, 15, 36, 0, 0, 0, 16, 0, 31, 23, 0, 0, 0, 0, 7, 27, 13, 35, 0, 14, 34, 19, 28, 6, 20, 9, 0, 2, 0, 24, 8, 22, 0, 0, 0, 0
|2, 0, 1, 25, 30, 0, 14, 0, 17, 35, 32, 0, 0, 0, 0, 0, 0, 4, 0, 12, 9, 0, 29, 33, 0, 0, 0, 0, 27, 10, 36, 0, 18, 20, 13, 0
|35, 27, 11, 6, 0, 13, 29, 0, 0, 15, 0, 0, 1, 30, 0, 14, 0, 0, 0, 32, 20, 8, 3, 10, 0, 18, 0, 0, 0, 0, 0, 0, 7, 34, 0, 0
|0, 4, 0, 10, 0, 18, 0, 0, 5, 0, 20, 11, 3, 0, 0, 36, 0, 0, 0, 2, 0, 25, 0, 0, 12, 0, 26, 30, 0, 32, 0, 27, 24, 19, 0, 0
|8, 0, 0, 0, 21, 0, 0, 17, 1, 30, 0, 25, 0, 9, 32, 11, 5, 33, 0, 0, 0, 7, 0, 0, 31, 0, 35, 0, 0, 0, 3, 18, 0, 0, 0, 0
|12, 10, 25, 0, 34, 0, 0, 0, 16, 6, 8, 29, 22, 0, 0, 35, 17, 0, 0, 24, 30, 27, 0, 26, 28, 0, 32, 0, 0, 0, 0, 33, 31, 0, 0, 11
|0, 32, 15, 0, 27, 0, 0, 10, 0, 0, 26, 0, 0, 23, 0, 0, 28, 29, 0, 0, 1, 31, 0, 0, 0, 16, 3, 18, 9, 0, 12, 0, 0, 36, 6, 0
|29, 0, 14, 0, 0, 1, 5, 19, 32, 2, 23, 0, 20, 0, 21, 0, 0, 0, 4, 0, 0, 0, 0, 12, 8, 0, 0, 0, 0, 0, 24, 10, 0, 13, 0, 28
|9, 28, 6, 33, 5, 11, 0, 0, 18, 20, 7, 0, 0, 0, 0, 0, 2, 26, 16, 0, 0, 0, 0, 0, 0, 0, 0, 13, 0, 30, 32, 8, 35, 0, 27, 25
|0, 2, 0, 0, 13, 24, 0, 0, 0, 27, 0, 0, 19, 0, 0, 12, 0, 1, 0, 29, 0, 18, 0, 0, 10, 0, 0, 0, 25, 22, 0, 7, 26, 0, 0, 0
|0, 11, 29, 19, 0, 0, 0, 0, 23, 33, 0, 17, 24, 35, 0, 0, 0, 15, 25, 13, 0, 10, 0, 0, 3, 22, 0, 0, 0, 5, 34, 0, 0, 0, 0, 26
|15, 12, 9, 0, 1, 0, 0, 31, 34, 0, 14, 0, 11, 0, 0, 0, 0, 10, 0, 36, 0, 5, 2, 8, 0, 27, 0, 0, 0, 35, 22, 0, 0, 16, 0, 0
|20, 35, 5, 32, 0, 36, 0, 2, 0, 0, 16, 0, 0, 0, 0, 21, 18, 0, 0, 0, 0, 28, 0, 29, 0, 0, 0, 1, 0, 9, 11, 0, 0, 0, 0, 0
|30, 0, 0, 0, 8, 14, 27, 29, 0, 0, 0, 20, 23, 25, 22, 0, 0, 0, 0, 17, 21, 26, 0, 35, 0, 0, 13, 15, 0, 0, 0, 0, 0, 0, 9, 0
|0, 0, 2, 0, 31, 3, 0, 9, 8, 0, 0, 0, 36, 0, 1, 0, 20, 0, 0, 0, 32, 0, 14, 0, 0, 0, 11, 21, 0, 28, 19, 29, 0, 10, 0, 0
|13, 26, 27, 0, 22, 23, 0, 35, 0, 0, 0, 0, 0, 0, 30, 0, 29, 14, 0, 19, 7, 0, 33, 0, 0, 31, 18, 0, 0, 0, 0, 0, 25, 0, 0, 8|];