order = 6;
grid = [|0, 0, 2, 17, 27, 18, 15, 28, 13, 8, 6, 0, 16, 5, 0, 29, 0, 35, 0, 25, 0, 0, 0, 0, 4, 7, 24, 0, 0, 33, 1, 0, 12, 30, 0, 11
|0, 0, 0, 0, 0, 0, 0, 0, 0, 34, 0, 0, 12, 17, 0, 24, 0, 23, 0, 16, 32, 3, 2, 0, 0, 0, 19, 0, 26, 5, 20, 0, 0, 0, 13, 28
|0, 5, 0, 0, 34, 8, 16, 0, 4, 0, 0, 35, 0, 2, 36, 0, 14, 33, 0, 11, 17, 28, 0, 29, 10, 12, 27, 0, 13, 15, 3, 0, 23, 0, 24, 18
|15, 26, 0, 0, 0, 28, 0, 0, 36, 0, 0, 0, 8, 7, 0, 0, 0, 0, 1, 0, 0, 34, 0, 0, 6, 0, 29, 0, 14, 11, 0, 0, 0, 0, 0, 0
|20, 23, 31, 13, 11, 7, 14, 12, 0, 21, 17, 24, 0, 0, 28, 22, 0, 0, 0, 9, 0, 19, 0, 0, 2, 0, 16, 1, 0, 0, 0, 0, 36, 0, 10, 0
|29, 24, 0, 0, 16, 0, 0, 23, 0, 0, 0, 26, 0, 19, 0, 25, 0, 30, 0, 0, 20, 22, 0, 0, 28, 0, 31, 0, 32, 0, 0, 7, 0, 0, 0, 15
|0, 34, 4, 31, 21, 0, 0, 0, 24, 22, 0, 0, 0, 0, 0, 0, 7, 5, 35, 30, 0, 0, 0, 28, 13, 0, 0, 0, 15, 14, 10, 0, 29, 18, 0, 9
|0, 3, 0, 8, 0, 0, 0, 13, 10, 4, 0, 28, 0, 31, 9, 35, 23, 29, 5, 7, 0, 0, 22, 33, 0, 0, 0, 11, 19, 0, 0, 0, 0, 0, 0, 36
|35, 0, 0, 27, 25, 20, 0, 0, 0, 3, 0, 0, 24, 36, 0, 0, 12, 0, 0, 0, 0, 4, 8, 0, 0, 0, 0, 0, 31, 0, 0, 1, 30, 15, 0, 5
|0, 0, 0, 24, 0, 0, 0, 0, 0, 25, 21, 2, 22, 0, 4, 0, 15, 0, 0, 27, 0, 10, 9, 0, 0, 3, 17, 0, 0, 0, 0, 33, 13, 12, 35, 0
|10, 0, 36, 9, 13, 0, 30, 17, 0, 26, 5, 0, 32, 27, 0, 0, 28, 19, 14, 0, 21, 24, 23, 0, 0, 1, 25, 6, 0, 18, 16, 0, 8, 0, 0, 4
|33, 0, 0, 0, 0, 2, 6, 0, 27, 18, 36, 34, 0, 16, 0, 11, 0, 0, 3, 0, 0, 25, 0, 1, 8, 0, 0, 0, 10, 20, 0, 0, 7, 32, 26, 19
|27, 0, 0, 0, 0, 0, 2, 0, 1, 0, 0, 30, 0, 0, 0, 0, 19, 25, 0, 0, 28, 23, 34, 22, 32, 13, 14, 0, 33, 31, 9, 0, 0, 36, 4, 21
|17, 0, 0, 0, 0, 1, 0, 6, 15, 14, 0, 36, 28, 33, 0, 0, 31, 0, 4, 0, 0, 0, 24, 0, 20, 0, 0, 0, 0, 0, 0, 0, 35, 10, 0, 32
|34, 0, 0, 19, 4, 24, 27, 5, 28, 11, 25, 0, 0, 0, 32, 17, 0, 0, 20, 0, 26, 0, 0, 0, 18, 9, 0, 2, 12, 3, 0, 14, 16, 8, 0, 22
|26, 36, 3, 15, 0, 16, 0, 0, 22, 19, 0, 9, 35, 24, 23, 30, 0, 0, 32, 31, 0, 0, 33, 0, 11, 34, 10, 0, 8, 0, 0, 20, 0, 7, 0, 0
|8, 18, 7, 28, 22, 29, 0, 0, 16, 0, 32, 13, 0, 4, 21, 0, 2, 1, 12, 36, 9, 11, 10, 14, 0, 0, 0, 19, 0, 17, 0, 30, 26, 33, 0, 0
|25, 13, 32, 12, 0, 31, 23, 0, 0, 35, 10, 0, 0, 14, 8, 0, 0, 20, 16, 15, 19, 0, 0, 7, 0, 0, 30, 4, 0, 36, 0, 0, 3, 11, 0, 2
|32, 8, 0, 0, 28, 15, 0, 0, 9, 7, 0, 0, 33, 3, 18, 21, 5, 0, 0, 0, 4, 13, 26, 0, 27, 0, 6, 0, 17, 1, 0, 23, 10, 2, 14, 35
|22, 2, 1, 0, 19, 0, 0, 36, 8, 0, 0, 15, 0, 35, 25, 0, 24, 31, 0, 17, 0, 0, 0, 0, 0, 10, 21, 0, 0, 32, 6, 12, 0, 5, 9, 7
|0, 0, 0, 4, 10, 9, 25, 0, 0, 5, 0, 0, 26, 0, 34, 19, 0, 2, 0, 0, 23, 0, 0, 8, 7, 14, 12, 0, 0, 13, 18, 32, 20, 0, 15, 27
|23, 17, 34, 0, 31, 0, 0, 35, 0, 0, 14, 21, 0, 0, 6, 10, 0, 8, 9, 32, 0, 29, 0, 16, 0, 11, 4, 0, 2, 0, 26, 3, 0, 22, 0, 0
|0, 35, 20, 18, 0, 27, 0, 0, 31, 0, 0, 0, 15, 0, 0, 0, 13, 14, 24, 0, 0, 7, 0, 0, 0, 0, 8, 0, 0, 0, 4, 25, 17, 29, 0, 1
|0, 0, 0, 0, 36, 6, 32, 2, 0, 23, 4, 0, 30, 1, 0, 0, 0, 0, 0, 20, 18, 0, 3, 0, 0, 24, 33, 0, 0, 0, 0, 28, 19, 31, 0, 0
|0, 0, 0, 3, 0, 22, 13, 4, 33, 0, 27, 0, 0, 0, 5, 0, 0, 16, 29, 0, 0, 26, 17, 31, 30, 21, 20, 12, 11, 0, 0, 0, 0, 0, 19, 34
|0, 27, 0, 32, 0, 0, 10, 7, 2, 16, 12, 0, 0, 0, 0, 1, 35, 6, 0, 8, 13, 0, 11, 20, 14, 26, 34, 24, 0, 0, 0, 29, 0, 25, 21, 0
|0, 15, 23, 34, 0, 14, 0, 21, 0, 17, 26, 0, 10, 0, 0, 2, 0, 0, 0, 0, 0, 0, 25, 9, 3, 0, 13, 36, 0, 16, 0, 0, 0, 0, 0, 0
|2, 1, 13, 0, 8, 0, 31, 0, 29, 0, 35, 3, 17, 0, 24, 0, 0, 28, 10, 0, 0, 5, 0, 23, 0, 0, 0, 32, 0, 27, 22, 0, 18, 0, 33, 0
|19, 25, 28, 0, 0, 26, 0, 0, 0, 6, 0, 1, 23, 0, 7, 31, 0, 11, 21, 0, 0, 16, 0, 0, 33, 8, 15, 10, 0, 0, 0, 0, 0, 0, 3, 13
|30, 0, 0, 0, 0, 35, 22, 34, 0, 28, 18, 0, 13, 20, 26, 15, 4, 9, 0, 1, 3, 0, 32, 0, 31, 0, 0, 0, 0, 0, 0, 0, 14, 27, 0, 0
|18, 0, 30, 0, 0, 33, 17, 0, 20, 0, 0, 0, 0, 23, 0, 5, 8, 0, 0, 19, 0, 1, 0, 34, 9, 0, 36, 0, 0, 0, 0, 16, 21, 0, 7, 10
|0, 14, 0, 23, 0, 25, 0, 0, 34, 15, 0, 0, 19, 11, 0, 0, 0, 0, 31, 0, 2, 32, 0, 18, 35, 29, 28, 0, 4, 0, 0, 8, 1, 24, 20, 3
|4, 16, 0, 0, 7, 11, 36, 0, 0, 0, 30, 0, 2, 0, 35, 28, 1, 22, 8, 10, 14, 9, 0, 26, 17, 20, 0, 31, 0, 0, 29, 0, 0, 0, 18, 33
|28, 31, 26, 0, 17, 19, 9, 29, 0, 2, 23, 0, 21, 10, 0, 0, 34, 0, 11, 5, 0, 0, 0, 3, 22, 0, 18, 27, 0, 8, 25, 0, 0, 13, 30, 0
|0, 29, 0, 10, 0, 0, 0, 0, 7, 0, 33, 18, 25, 0, 0, 0, 9, 3, 28, 21, 0, 6, 4, 24, 0, 0, 0, 14, 23, 0, 15, 0, 0, 0, 0, 31
|0, 20, 8, 0, 0, 0, 35, 3, 19, 0, 28, 31, 0, 13, 0, 16, 0, 15, 25, 23, 0, 0, 0, 17, 12, 0, 0, 33, 34, 10, 0, 0, 0, 0, 0, 0|];