order = 6;
grid = [|0, 0, 0, 24, 0, 0, 25, 36, 16, 0, 33, 0, 0, 0, 0, 5, 0, 10, 31, 22, 23, 6, 0, 8, 7, 0, 35, 0, 0, 0, 26, 3, 0, 0, 0, 0
|0, 0, 31, 0, 22, 18, 0, 23, 0, 10, 5, 0, 1, 27, 19, 21, 0, 0, 14, 9, 15, 33, 7, 0, 2, 6, 24, 0, 11, 0, 28, 0, 0, 0, 0, 12
|36, 0, 9, 0, 10, 20, 18, 6, 35, 22, 26, 0, 24, 0, 11, 13, 0, 29, 0, 0, 27, 34, 0, 0, 0, 0, 23, 17, 0, 0, 25, 0, 0, 33, 16, 0
|2, 0, 0, 0, 6, 0, 0, 28, 17, 0, 11, 21, 36, 14, 20, 0, 8, 32, 24, 0, 13, 4, 0, 0, 0, 0, 1, 26, 0, 33, 0, 10, 0, 0, 0, 7
|19, 0, 28, 0, 4, 7, 0, 1, 0, 0, 0, 0, 31, 0, 0, 25, 22, 23, 0, 0, 21, 0, 36, 17, 0, 32, 10, 0, 15, 5, 0, 0, 0, 18, 34, 0
|33, 26, 0, 0, 3, 0, 0, 15, 0, 0, 8, 20, 7, 0, 30, 35, 4, 28, 29, 5, 10, 11, 1, 18, 0, 34, 25, 0, 36, 12, 21, 22, 0, 19, 17, 0
|0, 0, 0, 10, 0, 17, 0, 0, 12, 0, 0, 14, 34, 0, 0, 8, 13, 0, 9, 18, 0, 16, 21, 0, 0, 0, 0, 11, 0, 32, 0, 0, 0, 0, 23, 30
|0, 0, 0, 0, 24, 25, 0, 20, 11, 35, 19, 18, 33, 21, 0, 15, 0, 0, 3, 28, 8, 0, 0, 5, 0, 0, 0, 2, 23, 0, 1, 0, 9, 0, 10, 31
|30, 13, 11, 33, 9, 34, 10, 7, 0, 24, 0, 3, 0, 0, 28, 0, 1, 36, 6, 0, 0, 0, 0, 0, 27, 5, 0, 14, 0, 0, 0, 25, 0, 0, 2, 0
|31, 0, 0, 0, 0, 27, 0, 8, 25, 33, 16, 5, 10, 3, 0, 0, 0, 0, 0, 15, 0, 13, 2, 0, 0, 0, 0, 1, 0, 0, 0, 0, 0, 35, 7, 0
|0, 0, 0, 0, 2, 15, 0, 17, 0, 0, 28, 0, 11, 0, 0, 0, 0, 5, 7, 31, 0, 0, 27, 36, 0, 0, 0, 34, 8, 0, 0, 14, 0, 0, 0, 0
|8, 0, 16, 0, 5, 14, 34, 21, 0, 0, 2, 0, 0, 0, 0, 17, 0, 0, 35, 30, 4, 24, 0, 0, 18, 0, 28, 0, 0, 10, 0, 29, 0, 0, 11, 0
|14, 0, 32, 0, 0, 35, 23, 19, 0, 0, 9, 2, 21, 0, 0, 0, 24, 6, 16, 4, 0, 0, 3, 29, 0, 0, 0, 7, 0, 0, 33, 0, 0, 28, 12, 13
|0, 0, 26, 0, 0, 30, 0, 16, 34, 17, 0, 13, 0, 0, 4, 3, 5, 31, 0, 0, 0, 19, 33, 11, 0, 28, 0, 12, 14, 24, 10, 0, 0, 21, 36, 0
|0, 0, 1, 0, 12, 33, 0, 0, 0, 0, 22, 36, 30, 7, 0, 0, 0, 0, 28, 21, 0, 23, 0, 24, 6, 11, 0, 18, 34, 26, 0, 0, 3, 29, 8, 35
|27, 10, 4, 0, 17, 0, 0, 0, 30, 0, 0, 0, 14, 18, 0, 20, 33, 0, 8, 34, 0, 36, 22, 0, 32, 9, 0, 21, 13, 0, 0, 11, 19, 1, 0, 5
|21, 0, 6, 9, 29, 0, 5, 0, 0, 0, 0, 0, 0, 0, 0, 28, 0, 8, 0, 0, 35, 17, 0, 12, 33, 16, 31, 20, 0, 23, 0, 0, 25, 0, 22, 27
|0, 22, 0, 5, 31, 19, 28, 0, 0, 0, 0, 11, 0, 36, 13, 1, 12, 0, 10, 0, 9, 0, 30, 0, 0, 0, 3, 0, 29, 0, 0, 0, 0, 26, 0, 0
|0, 0, 27, 12, 0, 16, 0, 0, 28, 0, 0, 0, 0, 0, 0, 0, 20, 0, 0, 1, 19, 0, 0, 9, 11, 31, 0, 5, 0, 18, 0, 21, 29, 17, 0, 0
|24, 19, 0, 4, 18, 0, 7, 0, 5, 0, 23, 0, 3, 0, 0, 0, 0, 1, 27, 0, 32, 0, 15, 21, 17, 0, 36, 0, 0, 8, 14, 0, 0, 31, 0, 0
|22, 0, 29, 0, 8, 0, 1, 2, 0, 0, 17, 27, 0, 0, 7, 6, 25, 15, 34, 0, 0, 30, 26, 10, 20, 13, 0, 0, 16, 0, 11, 12, 0, 0, 18, 0
|0, 21, 2, 6, 20, 0, 0, 0, 0, 0, 0, 34, 26, 0, 0, 31, 0, 0, 33, 13, 0, 22, 0, 0, 0, 3, 12, 0, 0, 0, 8, 30, 0, 0, 0, 0
|26, 30, 7, 14, 0, 0, 0, 0, 20, 31, 0, 25, 17, 23, 18, 22, 9, 13, 0, 11, 24, 8, 0, 6, 0, 19, 27, 0, 0, 0, 36, 28, 0, 0, 5, 0
|0, 0, 0, 17, 0, 32, 19, 0, 0, 0, 18, 0, 0, 0, 0, 0, 28, 0, 23, 0, 0, 5, 0, 20, 29, 30, 26, 4, 0, 0, 0, 24, 34, 2, 25, 1
|0, 33, 23, 34, 0, 0, 0, 0, 0, 0, 0, 6, 22, 0, 14, 0, 0, 0, 21, 24, 0, 0, 11, 15, 0, 12, 0, 19, 1, 0, 29, 13, 20, 25, 31, 10
|6, 1, 18, 0, 0, 0, 0, 0, 24, 0, 0, 16, 32, 0, 3, 0, 10, 0, 26, 29, 0, 0, 8, 0, 0, 21, 0, 0, 7, 0, 15, 2, 0, 0, 30, 36
|0, 0, 20, 0, 0, 0, 0, 0, 2, 36, 0, 22, 0, 0, 5, 23, 0, 24, 0, 32, 12, 14, 0, 0, 30, 33, 0, 0, 31, 0, 19, 0, 16, 0, 26, 0
|0, 4, 0, 0, 0, 31, 33, 10, 8, 27, 20, 26, 0, 28, 29, 30, 0, 25, 22, 0, 7, 18, 0, 34, 3, 0, 0, 0, 0, 0, 0, 23, 21, 12, 0, 0
|32, 0, 0, 36, 16, 8, 0, 0, 0, 7, 0, 28, 12, 0, 21, 19, 0, 0, 2, 35, 0, 0, 0, 31, 0, 0, 4, 0, 0, 29, 24, 0, 5, 11, 33, 18
|12, 0, 0, 22, 0, 24, 15, 0, 18, 21, 30, 0, 6, 2, 31, 0, 0, 0, 0, 36, 16, 1, 0, 33, 10, 25, 0, 23, 5, 11, 34, 0, 0, 14, 4, 0
|0, 0, 0, 0, 0, 21, 0, 0, 0, 0, 6, 9, 28, 13, 0, 0, 0, 3, 0, 23, 2, 31, 0, 0, 0, 0, 7, 0, 0, 27, 18, 19, 0, 0, 35, 0
|0, 0, 0, 23, 34, 0, 0, 31, 4, 28, 0, 30, 0, 0, 32, 0, 21, 0, 15, 8, 20, 35, 0, 22, 0, 0, 0, 0, 18, 0, 3, 33, 24, 0, 0, 17
|0, 31, 0, 0, 30, 0, 0, 0, 27, 0, 0, 0, 0, 10, 25, 24, 0, 19, 0, 6, 0, 29, 0, 7, 0, 15, 34, 22, 0, 0, 32, 36, 1, 0, 0, 26
|3, 14, 19, 27, 0, 0, 21, 18, 29, 0, 13, 15, 0, 35, 0, 0, 0, 20, 0, 0, 26, 28, 0, 0, 0, 0, 0, 0, 0, 0, 12, 7, 0, 34, 0, 25
|29, 0, 0, 1, 13, 12, 35, 5, 10, 26, 0, 23, 16, 0, 0, 9, 0, 22, 0, 33, 34, 0, 18, 27, 4, 14, 11, 3, 20, 0, 31, 15, 0, 30, 21, 0
|18, 0, 0, 0, 0, 26, 0, 0, 0, 32, 36, 1, 0, 0, 0, 0, 0, 34, 5, 0, 3, 21, 0, 0, 0, 29, 0, 30, 0, 17, 0, 0, 0, 0, 6, 0|];