order = 6;
grid = [|36, 18, 8, 15, 0, 0, 0, 0, 0, 0, 13, 30, 26, 0, 9, 0, 11, 0, 35, 32, 7, 23, 0, 24, 0, 0, 31, 4, 3, 14, 17, 27, 29, 0, 5, 0
|34, 0, 23, 32, 0, 24, 29, 0, 36, 27, 0, 0, 3, 0, 0, 4, 0, 0, 0, 0, 30, 0, 11, 14, 33, 6, 22, 0, 0, 9, 1, 10, 26, 0, 2, 0
|1, 21, 0, 12, 0, 20, 0, 0, 0, 0, 0, 0, 23, 13, 2, 16, 7, 5, 0, 22, 29, 0, 0, 9, 0, 0, 19, 11, 0, 24, 0, 0, 3, 30, 34, 0
|0, 6, 0, 0, 0, 5, 14, 22, 0, 16, 0, 0, 21, 15, 35, 29, 0, 0, 17, 8, 0, 12, 25, 0, 0, 23, 26, 0, 0, 20, 0, 24, 13, 28, 0, 4
|0, 0, 35, 2, 13, 0, 21, 9, 0, 28, 0, 0, 24, 0, 0, 36, 31, 14, 0, 0, 26, 0, 0, 0, 17, 15, 30, 1, 7, 0, 0, 11, 0, 0, 32, 0
|4, 14, 0, 9, 0, 26, 0, 24, 35, 0, 0, 31, 0, 0, 33, 0, 17, 0, 0, 19, 0, 0, 0, 2, 29, 13, 34, 0, 0, 0, 0, 22, 0, 7, 0, 8
|0, 7, 26, 34, 0, 30, 25, 13, 0, 0, 9, 0, 11, 0, 29, 0, 14, 0, 0, 0, 0, 33, 0, 4, 5, 31, 0, 8, 12, 32, 0, 1, 2, 0, 10, 0
|25, 36, 29, 0, 0, 0, 0, 14, 34, 0, 0, 17, 9, 0, 0, 27, 0, 19, 20, 26, 13, 5, 2, 0, 21, 0, 0, 24, 0, 0, 8, 0, 16, 0, 7, 0
|19, 0, 0, 24, 0, 0, 0, 26, 16, 29, 11, 3, 10, 0, 21, 30, 0, 0, 7, 0, 1, 0, 23, 0, 13, 2, 0, 0, 36, 0, 0, 25, 0, 9, 27, 28
|0, 11, 13, 20, 18, 10, 31, 0, 0, 12, 0, 0, 6, 7, 25, 8, 0, 34, 27, 0, 9, 0, 19, 0, 0, 0, 0, 16, 0, 29, 26, 0, 30, 0, 21, 33
|0, 1, 0, 16, 0, 0, 7, 0, 0, 22, 24, 21, 5, 2, 36, 0, 26, 20, 10, 0, 0, 0, 0, 0, 25, 0, 27, 15, 9, 17, 0, 0, 4, 0, 23, 11
|17, 9, 0, 21, 2, 12, 10, 5, 15, 33, 8, 27, 13, 31, 16, 24, 23, 0, 18, 11, 0, 0, 32, 25, 0, 0, 0, 6, 26, 3, 36, 20, 34, 35, 0, 19
|18, 0, 0, 4, 0, 0, 0, 31, 0, 0, 3, 0, 22, 35, 0, 0, 10, 0, 0, 0, 0, 0, 8, 0, 0, 30, 0, 0, 32, 6, 0, 0, 17, 0, 0, 26
|29, 0, 10, 17, 32, 8, 0, 20, 0, 0, 0, 0, 0, 0, 0, 25, 28, 0, 0, 0, 0, 34, 6, 5, 0, 0, 0, 0, 0, 0, 27, 0, 0, 21, 0, 0
|6, 0, 0, 7, 20, 0, 0, 0, 21, 14, 0, 26, 19, 9, 0, 33, 2, 0, 1, 0, 0, 0, 28, 3, 36, 0, 0, 31, 24, 0, 4, 0, 22, 0, 0, 16
|0, 22, 0, 0, 1, 25, 9, 2, 28, 0, 0, 32, 0, 0, 5, 0, 0, 8, 0, 33, 4, 0, 14, 11, 0, 18, 21, 0, 0, 0, 0, 35, 0, 29, 30, 0
|0, 24, 34, 0, 5, 0, 22, 0, 0, 0, 16, 15, 0, 32, 3, 14, 13, 17, 26, 0, 21, 0, 7, 0, 20, 0, 8, 29, 23, 11, 0, 6, 1, 18, 25, 36
|0, 19, 3, 27, 0, 33, 35, 8, 0, 36, 0, 0, 16, 20, 11, 0, 0, 0, 0, 0, 22, 0, 0, 0, 15, 0, 0, 0, 0, 0, 0, 0, 0, 0, 0, 5
|14, 35, 0, 0, 0, 36, 30, 0, 22, 0, 27, 0, 32, 0, 0, 9, 1, 23, 0, 10, 31, 0, 0, 0, 34, 3, 0, 18, 5, 0, 11, 0, 0, 15, 17, 24
|10, 0, 0, 0, 21, 9, 0, 12, 0, 24, 0, 5, 0, 0, 19, 0, 15, 18, 25, 0, 35, 0, 0, 0, 31, 0, 4, 0, 0, 22, 0, 30, 0, 0, 0, 34
|0, 31, 32, 0, 25, 0, 0, 0, 13, 10, 33, 0, 17, 34, 0, 0, 16, 7, 11, 0, 0, 22, 9, 0, 0, 14, 0, 0, 0, 23, 0, 0, 35, 0, 18, 29
|0, 27, 4, 0, 0, 15, 17, 0, 0, 23, 18, 0, 30, 0, 24, 5, 0, 0, 0, 0, 0, 21, 36, 6, 0, 0, 20, 0, 19, 0, 16, 9, 0, 12, 0, 0
|23, 12, 5, 0, 24, 18, 0, 34, 0, 0, 26, 0, 4, 6, 27, 0, 0, 28, 14, 17, 0, 0, 0, 20, 11, 0, 33, 35, 0, 30, 0, 0, 32, 0, 31, 0
|20, 34, 16, 0, 0, 0, 0, 3, 0, 21, 32, 9, 35, 0, 13, 0, 25, 33, 12, 0, 0, 0, 0, 0, 0, 0, 29, 0, 28, 0, 0, 0, 0, 0, 0, 0
|26, 32, 28, 0, 36, 0, 0, 29, 10, 0, 22, 0, 15, 0, 23, 0, 19, 0, 24, 0, 0, 0, 5, 31, 0, 0, 25, 0, 0, 12, 18, 0, 21, 17, 9, 6
|24, 0, 0, 0, 0, 7, 26, 0, 0, 15, 0, 0, 0, 25, 6, 1, 0, 0, 3, 0, 36, 0, 17, 0, 0, 0, 10, 0, 0, 5, 13, 14, 20, 34, 0, 35
|11, 0, 20, 0, 0, 0, 0, 0, 0, 0, 0, 0, 0, 27, 14, 0, 0, 24, 0, 16, 33, 0, 29, 0, 26, 0, 15, 0, 0, 0, 0, 0, 19, 0, 0, 0
|0, 16, 14, 30, 34, 17, 0, 0, 9, 3, 5, 0, 33, 0, 28, 26, 0, 36, 21, 0, 0, 6, 15, 19, 0, 8, 32, 0, 4, 1, 0, 29, 7, 2, 0, 27
|9, 33, 0, 22, 15, 27, 0, 0, 0, 0, 0, 0, 0, 29, 10, 0, 5, 0, 34, 0, 0, 7, 0, 0, 24, 17, 3, 14, 6, 0, 0, 23, 8, 1, 16, 0
|3, 13, 18, 10, 0, 0, 0, 0, 8, 6, 35, 24, 7, 12, 0, 0, 34, 0, 0, 14, 0, 0, 0, 0, 0, 29, 36, 23, 0, 28, 0, 26, 0, 0, 15, 0
|0, 23, 6, 14, 0, 0, 0, 15, 0, 9, 21, 22, 0, 26, 0, 0, 33, 3, 13, 0, 27, 0, 0, 0, 18, 1, 0, 0, 25, 0, 0, 0, 28, 20, 8, 0
|2, 0, 0, 0, 0, 0, 8, 0, 17, 1, 0, 0, 0, 28, 32, 0, 0, 0, 23, 0, 5, 0, 0, 34, 0, 0, 12, 0, 13, 15, 14, 21, 0, 31, 3, 10
|0, 28, 0, 25, 27, 0, 3, 19, 0, 0, 6, 13, 0, 0, 0, 7, 9, 0, 33, 0, 0, 11, 0, 0, 0, 0, 17, 36, 0, 31, 30, 16, 0, 23, 26, 22
|0, 0, 19, 26, 30, 0, 0, 0, 33, 0, 0, 0, 14, 23, 0, 10, 22, 0, 0, 0, 0, 0, 0, 28, 0, 0, 0, 0, 0, 0, 34, 0, 0, 4, 0, 0
|15, 5, 0, 18, 0, 0, 0, 10, 0, 26, 0, 23, 1, 0, 0, 35, 0, 0, 8, 31, 0, 0, 3, 0, 0, 0, 0, 0, 0, 2, 0, 0, 0, 27, 11, 7
|7, 0, 21, 0, 11, 3, 0, 0, 32, 0, 0, 28, 25, 0, 0, 17, 0, 2, 4, 0, 0, 14, 0, 22, 23, 27, 0, 30, 0, 0, 0, 0, 0, 0, 0, 9|];