order = 6;
grid = [|0, 23, 34, 16, 0, 0, 0, 0, 0, 20, 0, 12, 0, 31, 0, 26, 0, 32, 0, 0, 24, 15, 33, 19, 7, 0, 0, 0, 0, 0, 9, 0, 18, 5, 22, 0
|0, 24, 0, 27, 11, 29, 31, 0, 0, 0, 0, 8, 17, 0, 0, 19, 0, 34, 6, 0, 0, 4, 28, 0, 15, 23, 0, 2, 0, 21, 3, 0, 26, 0, 0, 7
|0, 7, 0, 26, 0, 32, 15, 34, 0, 14, 13, 0, 30, 0, 23, 28, 0, 0, 0, 0, 17, 18, 3, 0, 6, 31, 0, 0, 0, 0, 0, 0, 0, 0, 0, 19
|0, 4, 0, 0, 1, 0, 21, 24, 0, 0, 3, 5, 8, 0, 33, 29, 13, 0, 0, 0, 0, 0, 7, 22, 30, 9, 0, 0, 0, 0, 35, 20, 0, 0, 31, 0
|0, 0, 0, 33, 6, 22, 0, 0, 0, 29, 30, 26, 0, 11, 0, 14, 0, 0, 0, 35, 31, 23, 0, 25, 20, 0, 0, 32, 0, 0, 28, 36, 0, 0, 0, 24
|14, 31, 0, 0, 35, 19, 1, 0, 0, 0, 0, 0, 0, 22, 0, 10, 0, 12, 0, 0, 13, 29, 20, 0, 26, 4, 0, 0, 34, 0, 0, 23, 2, 6, 30, 15
|22, 0, 26, 13, 0, 0, 29, 30, 23, 17, 0, 32, 0, 27, 0, 0, 0, 28, 0, 0, 12, 0, 21, 8, 35, 16, 34, 14, 33, 7, 0, 0, 9, 0, 24, 0
|31, 0, 27, 0, 28, 35, 26, 1, 0, 5, 16, 2, 34, 0, 0, 9, 25, 36, 0, 22, 20, 0, 0, 0, 29, 24, 0, 15, 32, 0, 7, 0, 0, 3, 23, 8
|0, 1, 30, 7, 0, 21, 33, 10, 0, 24, 0, 0, 14, 2, 11, 0, 0, 0, 0, 17, 0, 16, 32, 27, 19, 0, 0, 0, 0, 0, 0, 0, 0, 0, 0, 0
|0, 8, 0, 4, 2, 0, 14, 6, 0, 9, 7, 0, 0, 0, 0, 0, 5, 23, 0, 29, 0, 35, 0, 0, 0, 12, 30, 0, 1, 0, 22, 13, 0, 0, 21, 16
|0, 0, 0, 29, 0, 0, 3, 18, 20, 0, 0, 0, 0, 0, 0, 0, 0, 0, 7, 34, 30, 2, 9, 13, 27, 8, 28, 22, 0, 0, 0, 25, 32, 1, 0, 0
|34, 0, 3, 0, 16, 20, 4, 27, 15, 0, 0, 13, 7, 0, 17, 6, 29, 0, 19, 0, 0, 0, 0, 11, 5, 0, 0, 0, 9, 31, 14, 18, 0, 0, 0, 0
|5, 0, 0, 0, 14, 28, 0, 0, 13, 31, 0, 29, 32, 0, 3, 20, 9, 0, 16, 1, 0, 0, 2, 0, 4, 27, 0, 0, 0, 24, 12, 0, 0, 17, 0, 22
|23, 12, 0, 0, 17, 2, 0, 0, 0, 0, 27, 9, 0, 0, 0, 1, 0, 0, 0, 0, 0, 0, 25, 0, 0, 0, 32, 0, 0, 0, 0, 31, 0, 28, 15, 0
|0, 32, 0, 20, 3, 0, 0, 0, 0, 25, 0, 7, 0, 0, 0, 22, 12, 0, 0, 10, 33, 0, 0, 0, 0, 19, 0, 30, 0, 29, 16, 34, 5, 0, 0, 0
|0, 11, 0, 34, 31, 15, 0, 0, 18, 3, 0, 0, 24, 5, 14, 16, 33, 30, 12, 0, 0, 0, 13, 6, 0, 0, 0, 0, 25, 2, 0, 0, 0, 10, 4, 27
|29, 0, 21, 0, 0, 0, 0, 12, 14, 10, 0, 0, 4, 13, 7, 17, 23, 0, 26, 0, 22, 31, 27, 34, 0, 0, 35, 0, 0, 36, 8, 9, 0, 30, 0, 0
|27, 0, 0, 1, 0, 18, 0, 26, 0, 11, 20, 0, 0, 0, 8, 15, 34, 31, 0, 0, 9, 0, 0, 0, 0, 0, 17, 0, 23, 0, 36, 0, 24, 0, 0, 0
|13, 26, 16, 19, 0, 4, 17, 20, 0, 1, 0, 30, 36, 7, 0, 2, 0, 0, 18, 0, 0, 25, 10, 0, 0, 6, 23, 0, 24, 0, 0, 3, 8, 0, 0, 0
|25, 0, 0, 0, 0, 33, 24, 0, 27, 4, 26, 3, 0, 12, 0, 34, 22, 0, 0, 0, 32, 0, 0, 17, 8, 0, 0, 0, 29, 1, 0, 6, 0, 2, 35, 23
|0, 15, 22, 31, 5, 3, 7, 8, 9, 33, 32, 0, 0, 0, 0, 0, 35, 0, 13, 0, 21, 24, 0, 36, 11, 26, 0, 0, 0, 10, 34, 27, 0, 0, 16, 0
|7, 34, 0, 0, 29, 0, 19, 0, 35, 21, 0, 0, 0, 0, 16, 0, 0, 25, 0, 33, 11, 0, 0, 0, 0, 0, 0, 36, 0, 0, 18, 0, 20, 0, 26, 28
|2, 28, 18, 12, 0, 0, 0, 0, 10, 13, 31, 25, 5, 17, 26, 3, 0, 19, 15, 0, 8, 34, 0, 0, 33, 0, 0, 4, 0, 0, 29, 0, 22, 0, 1, 0
|0, 35, 0, 14, 0, 0, 0, 0, 5, 0, 36, 23, 9, 24, 0, 0, 0, 0, 27, 26, 2, 22, 0, 0, 0, 0, 0, 3, 0, 0, 0, 33, 0, 0, 0, 12
|0, 22, 0, 0, 0, 0, 0, 3, 0, 15, 29, 20, 23, 0, 0, 11, 0, 27, 9, 21, 18, 0, 0, 0, 0, 0, 10, 26, 8, 0, 2, 0, 0, 14, 5, 4
|32, 0, 28, 0, 8, 0, 25, 23, 31, 0, 1, 0, 12, 0, 22, 35, 4, 3, 11, 15, 0, 13, 26, 0, 0, 0, 27, 24, 0, 14, 0, 0, 36, 0, 0, 0
|10, 14, 0, 0, 0, 0, 0, 0, 19, 0, 4, 0, 0, 29, 0, 36, 18, 17, 33, 25, 0, 32, 5, 7, 0, 0, 11, 0, 0, 34, 31, 15, 0, 0, 0, 0
|0, 9, 0, 21, 0, 0, 0, 0, 0, 0, 14, 0, 0, 1, 0, 7, 8, 0, 0, 0, 0, 0, 0, 10, 0, 0, 31, 17, 0, 0, 20, 26, 0, 18, 11, 0
|0, 18, 19, 11, 0, 1, 0, 7, 26, 27, 0, 36, 0, 32, 9, 0, 0, 0, 0, 31, 14, 8, 22, 0, 0, 0, 0, 0, 0, 35, 21, 0, 25, 24, 33, 34
|33, 16, 2, 0, 34, 0, 0, 17, 0, 0, 0, 0, 26, 0, 0, 0, 0, 14, 35, 24, 3, 20, 0, 12, 36, 0, 0, 0, 0, 19, 23, 32, 1, 0, 29, 6
|0, 25, 0, 0, 9, 0, 0, 0, 3, 18, 33, 0, 13, 0, 0, 0, 0, 7, 0, 0, 16, 0, 36, 0, 0, 0, 0, 34, 21, 30, 0, 22, 0, 19, 20, 0
|0, 3, 20, 0, 0, 5, 0, 0, 12, 32, 21, 17, 0, 14, 4, 0, 0, 16, 10, 0, 34, 27, 15, 2, 31, 25, 36, 0, 0, 0, 1, 30, 0, 23, 7, 0
|15, 36, 0, 0, 0, 0, 0, 25, 16, 0, 0, 4, 33, 19, 0, 0, 30, 0, 22, 13, 5, 3, 0, 0, 24, 28, 0, 1, 6, 0, 0, 35, 21, 34, 0, 0
|0, 0, 8, 0, 10, 0, 0, 13, 0, 0, 19, 14, 31, 0, 1, 12, 0, 29, 32, 18, 6, 0, 23, 21, 0, 0, 15, 0, 22, 26, 0, 2, 0, 9, 3, 36
|0, 0, 35, 0, 0, 26, 0, 0, 0, 8, 2, 0, 22, 0, 0, 0, 0, 0, 0, 28, 7, 19, 31, 0, 14, 13, 0, 9, 0, 0, 4, 0, 0, 0, 32, 0
|0, 13, 0, 0, 18, 0, 0, 0, 0, 22, 6, 10, 3, 0, 0, 25, 21, 9, 0, 0, 0, 0, 0, 4, 0, 0, 7, 0, 27, 0, 0, 0, 0, 31, 0, 0|];