order = 6;
grid = [|30, 0, 0, 0, 0, 0, 0, 6, 0, 0, 0, 32, 36, 0, 0, 0, 15, 13, 7, 1, 10, 0, 0, 0, 0, 0, 0, 0, 17, 0, 11, 0, 31, 0, 33, 0
|0, 0, 32, 31, 0, 0, 34, 0, 12, 0, 0, 0, 0, 0, 9, 25, 22, 0, 0, 30, 0, 0, 18, 21, 0, 24, 0, 29, 0, 0, 35, 13, 26, 5, 14, 1
|0, 33, 0, 8, 27, 5, 0, 0, 0, 0, 3, 15, 0, 0, 0, 29, 1, 0, 14, 26, 0, 0, 2, 22, 0, 0, 0, 31, 0, 0, 34, 20, 7, 0, 0, 36
|3, 7, 21, 13, 0, 12, 0, 31, 0, 0, 23, 10, 28, 0, 35, 0, 0, 0, 16, 19, 36, 0, 33, 0, 6, 26, 4, 14, 1, 0, 18, 22, 0, 29, 0, 17
|19, 0, 14, 9, 0, 0, 1, 0, 2, 36, 0, 0, 0, 0, 0, 0, 26, 18, 0, 12, 6, 0, 0, 15, 22, 0, 0, 0, 0, 25, 0, 32, 30, 0, 4, 0
|17, 4, 0, 0, 36, 35, 0, 22, 26, 0, 0, 0, 0, 23, 0, 0, 0, 20, 13, 0, 5, 32, 0, 8, 30, 9, 11, 0, 15, 33, 28, 0, 0, 6, 27, 0
|13, 0, 0, 0, 0, 0, 12, 17, 0, 23, 0, 0, 0, 14, 0, 0, 21, 0, 0, 0, 28, 0, 30, 3, 27, 7, 0, 0, 19, 0, 9, 0, 0, 34, 18, 20
|0, 0, 7, 18, 0, 0, 32, 34, 10, 15, 0, 24, 31, 0, 0, 11, 0, 0, 5, 0, 1, 0, 17, 26, 0, 0, 0, 0, 0, 0, 0, 0, 0, 0, 35, 28
|0, 8, 0, 0, 5, 0, 0, 7, 21, 0, 0, 0, 12, 0, 0, 16, 0, 22, 33, 9, 0, 10, 0, 0, 0, 2, 34, 0, 0, 23, 36, 26, 19, 0, 0, 0
|2, 0, 9, 0, 12, 0, 0, 3, 29, 28, 0, 0, 23, 33, 24, 35, 19, 0, 22, 0, 0, 0, 0, 0, 26, 15, 20, 0, 0, 13, 7, 30, 0, 1, 32, 0
|0, 0, 3, 0, 32, 0, 0, 0, 0, 6, 0, 0, 0, 17, 0, 0, 0, 0, 0, 21, 12, 0, 0, 2, 0, 0, 0, 33, 24, 0, 25, 5, 4, 11, 22, 29
|0, 0, 0, 10, 0, 15, 0, 0, 33, 0, 0, 9, 0, 7, 28, 0, 0, 0, 6, 0, 19, 20, 0, 18, 29, 0, 0, 12, 0, 0, 0, 31, 21, 2, 17, 23
|0, 14, 0, 29, 0, 36, 16, 9, 27, 25, 0, 12, 0, 0, 0, 0, 5, 23, 1, 34, 0, 0, 3, 0, 0, 31, 18, 0, 22, 20, 0, 15, 0, 0, 13, 35
|0, 0, 27, 35, 9, 13, 5, 14, 0, 0, 0, 0, 0, 20, 0, 0, 29, 19, 31, 0, 11, 0, 4, 0, 12, 0, 0, 0, 0, 0, 2, 36, 0, 17, 0, 0
|33, 0, 0, 0, 24, 1, 21, 0, 0, 0, 0, 0, 16, 28, 17, 3, 18, 0, 0, 0, 15, 0, 0, 19, 14, 11, 0, 0, 0, 4, 30, 0, 0, 0, 20, 0
|7, 11, 0, 0, 19, 17, 0, 2, 0, 13, 8, 0, 34, 32, 0, 0, 0, 26, 0, 0, 0, 36, 0, 24, 5, 0, 0, 0, 0, 0, 27, 3, 1, 10, 0, 0
|34, 0, 0, 0, 0, 4, 0, 0, 20, 3, 0, 0, 22, 9, 11, 0, 0, 0, 0, 0, 0, 18, 29, 12, 28, 0, 17, 0, 0, 36, 8, 25, 0, 0, 0, 31
|0, 32, 5, 0, 22, 0, 33, 19, 17, 31, 0, 0, 15, 8, 36, 0, 0, 12, 26, 0, 27, 30, 10, 0, 0, 0, 0, 2, 34, 0, 0, 11, 0, 0, 0, 0
|0, 0, 0, 0, 18, 0, 17, 23, 7, 12, 0, 0, 0, 1, 8, 0, 31, 0, 10, 22, 33, 16, 26, 0, 0, 0, 0, 15, 0, 0, 0, 2, 0, 0, 28, 0
|0, 21, 25, 0, 0, 19, 22, 36, 0, 0, 0, 13, 0, 0, 30, 26, 0, 15, 0, 8, 18, 0, 0, 0, 0, 0, 24, 16, 29, 2, 0, 0, 0, 27, 0, 32
|8, 0, 10, 4, 0, 20, 26, 0, 9, 5, 31, 0, 0, 0, 3, 0, 0, 0, 0, 14, 0, 2, 6, 27, 11, 0, 1, 0, 36, 0, 0, 0, 0, 0, 0, 0
|0, 0, 0, 33, 17, 0, 0, 0, 0, 0, 32, 19, 29, 21, 34, 13, 23, 28, 36, 11, 7, 0, 15, 5, 0, 0, 0, 0, 20, 0, 0, 6, 24, 0, 10, 8
|0, 0, 24, 0, 0, 9, 0, 20, 11, 0, 1, 27, 4, 0, 6, 7, 10, 16, 30, 0, 0, 19, 0, 23, 0, 0, 0, 0, 8, 0, 22, 33, 0, 0, 0, 0
|1, 26, 0, 7, 0, 0, 30, 0, 0, 0, 0, 0, 0, 19, 25, 0, 27, 33, 35, 0, 21, 0, 0, 0, 0, 0, 0, 28, 0, 22, 0, 0, 9, 0, 36, 14
|29, 17, 0, 0, 0, 0, 36, 0, 0, 0, 12, 11, 0, 10, 0, 0, 0, 2, 0, 33, 0, 9, 0, 35, 0, 27, 30, 0, 0, 0, 0, 0, 6, 31, 0, 0
|0, 0, 35, 0, 31, 0, 0, 5, 0, 0, 0, 25, 0, 16, 7, 36, 0, 0, 29, 18, 0, 0, 0, 0, 15, 0, 0, 11, 0, 0, 12, 0, 0, 3, 0, 30
|0, 0, 30, 6, 0, 0, 0, 32, 35, 0, 0, 7, 0, 26, 0, 0, 0, 17, 8, 0, 0, 0, 13, 0, 0, 1, 0, 22, 28, 12, 10, 18, 0, 24, 29, 0
|14, 5, 18, 0, 0, 7, 15, 26, 23, 24, 0, 0, 0, 0, 0, 0, 3, 0, 0, 0, 0, 6, 32, 36, 0, 0, 21, 0, 10, 0, 0, 0, 0, 0, 9, 25
|0, 0, 0, 0, 0, 32, 0, 0, 22, 30, 10, 1, 0, 31, 14, 0, 24, 0, 0, 17, 0, 0, 0, 34, 0, 0, 0, 20, 0, 0, 0, 23, 5, 28, 11, 7
|10, 2, 0, 1, 8, 11, 0, 28, 14, 0, 0, 16, 30, 29, 22, 12, 33, 0, 23, 0, 0, 0, 0, 7, 18, 6, 0, 0, 0, 31, 0, 0, 32, 36, 0, 0
|31, 0, 0, 21, 25, 26, 19, 0, 34, 16, 0, 2, 0, 0, 0, 0, 11, 1, 0, 0, 0, 7, 14, 6, 0, 22, 0, 0, 12, 0, 0, 0, 36, 33, 0, 0
|32, 28, 19, 14, 3, 0, 29, 12, 0, 0, 0, 0, 10, 24, 0, 0, 0, 0, 0, 0, 0, 0, 8, 13, 20, 0, 0, 18, 0, 0, 0, 1, 0, 0, 25, 0
|18, 0, 20, 27, 0, 0, 0, 0, 24, 1, 14, 22, 9, 0, 0, 30, 6, 29, 3, 31, 0, 0, 0, 0, 19, 36, 0, 0, 4, 15, 16, 0, 0, 0, 0, 5
|0, 36, 0, 0, 0, 0, 31, 0, 0, 0, 0, 5, 0, 0, 0, 0, 7, 4, 11, 32, 0, 21, 0, 33, 1, 14, 0, 26, 3, 35, 19, 0, 0, 0, 23, 24
|0, 30, 0, 0, 7, 0, 0, 0, 0, 32, 13, 3, 0, 0, 26, 0, 36, 21, 0, 0, 9, 5, 35, 1, 24, 29, 0, 0, 11, 0, 0, 0, 20, 0, 31, 0
|5, 0, 29, 11, 1, 0, 23, 15, 0, 0, 0, 0, 0, 22, 33, 0, 17, 3, 0, 10, 0, 24, 36, 0, 13, 25, 0, 0, 0, 0, 4, 0, 0, 14, 0, 0|];