order = 6;
grid = [|0, 0, 0, 31, 9, 0, 11, 0, 0, 0, 27, 1, 15, 10, 21, 26, 32, 0, 0, 25, 0, 7, 33, 23, 0, 34, 4, 24, 35, 28, 5, 18, 0, 13, 0, 14
|0, 0, 0, 32, 24, 0, 26, 0, 12, 31, 2, 34, 8, 0, 0, 0, 29, 0, 14, 0, 0, 11, 22, 10, 0, 13, 0, 16, 21, 25, 33, 0, 0, 28, 0, 23
|0, 3, 0, 0, 14, 0, 0, 19, 0, 25, 5, 0, 31, 1, 20, 0, 28, 0, 12, 0, 0, 0, 6, 0, 0, 11, 0, 0, 18, 0, 0, 0, 0, 10, 26, 17
|11, 5, 28, 0, 0, 0, 18, 0, 0, 0, 0, 9, 0, 0, 0, 0, 16, 0, 0, 0, 13, 29, 20, 36, 31, 0, 32, 0, 30, 0, 0, 34, 0, 2, 0, 0
|0, 0, 34, 0, 33, 10, 0, 32, 0, 0, 0, 23, 0, 9, 0, 0, 0, 18, 0, 0, 0, 0, 31, 30, 3, 0, 15, 36, 0, 8, 0, 0, 0, 20, 24, 12
|15, 20, 4, 22, 0, 36, 0, 10, 0, 0, 0, 8, 0, 0, 0, 0, 0, 0, 32, 27, 0, 18, 9, 0, 0, 0, 0, 5, 29, 17, 0, 11, 31, 30, 16, 0
|12, 33, 23, 0, 0, 30, 0, 0, 0, 0, 0, 17, 10, 0, 22, 0, 21, 0, 0, 0, 4, 0, 1, 11, 0, 0, 0, 0, 0, 0, 0, 24, 0, 0, 0, 0
|0, 0, 0, 0, 17, 5, 21, 0, 18, 29, 15, 11, 0, 14, 24, 32, 0, 7, 0, 0, 0, 6, 36, 2, 35, 3, 25, 0, 23, 33, 0, 0, 26, 0, 0, 19
|0, 31, 0, 18, 0, 9, 0, 4, 0, 0, 10, 27, 0, 0, 0, 0, 33, 11, 5, 0, 0, 0, 0, 0, 0, 0, 0, 0, 0, 0, 2, 0, 8, 16, 0, 0
|0, 15, 35, 20, 0, 0, 25, 31, 33, 24, 9, 2, 0, 0, 13, 0, 34, 0, 29, 0, 3, 0, 0, 0, 0, 0, 28, 0, 14, 0, 0, 0, 18, 0, 0, 0
|19, 6, 14, 34, 0, 25, 0, 0, 0, 0, 20, 0, 0, 23, 0, 0, 1, 26, 0, 0, 10, 0, 16, 7, 0, 0, 0, 0, 0, 11, 17, 0, 0, 0, 3, 9
|0, 0, 0, 10, 0, 0, 30, 3, 23, 0, 32, 19, 4, 0, 29, 18, 2, 17, 24, 31, 8, 35, 14, 0, 9, 0, 0, 0, 6, 0, 28, 0, 0, 12, 0, 25
|3, 0, 0, 30, 0, 0, 0, 0, 9, 0, 4, 0, 0, 0, 25, 33, 0, 0, 0, 0, 24, 16, 0, 8, 0, 28, 0, 0, 19, 0, 20, 36, 13, 0, 0, 0
|17, 8, 0, 0, 0, 4, 10, 34, 0, 5, 16, 24, 23, 0, 30, 12, 0, 19, 0, 0, 29, 0, 32, 9, 25, 7, 11, 6, 26, 0, 35, 2, 0, 3, 15, 21
|0, 27, 0, 9, 0, 0, 20, 29, 0, 1, 0, 13, 7, 0, 32, 0, 0, 0, 0, 0, 0, 15, 0, 19, 0, 16, 22, 0, 0, 3, 0, 0, 0, 0, 25, 11
|20, 1, 26, 0, 0, 33, 28, 18, 0, 0, 21, 0, 6, 17, 10, 11, 8, 34, 7, 0, 14, 0, 25, 27, 0, 15, 29, 0, 0, 31, 0, 16, 0, 32, 9, 24
|25, 0, 31, 0, 6, 0, 32, 0, 0, 0, 0, 0, 9, 0, 0, 16, 0, 0, 0, 22, 36, 0, 0, 18, 21, 0, 0, 0, 24, 0, 0, 0, 14, 26, 34, 0
|0, 0, 7, 15, 19, 0, 0, 36, 0, 8, 22, 25, 28, 20, 0, 0, 0, 0, 0, 0, 0, 3, 10, 34, 0, 9, 0, 14, 0, 32, 0, 30, 0, 5, 0, 18
|0, 0, 10, 0, 0, 0, 9, 0, 0, 0, 19, 16, 1, 0, 0, 0, 20, 4, 26, 6, 12, 0, 15, 3, 0, 0, 0, 0, 0, 14, 0, 0, 0, 18, 0, 2
|0, 0, 27, 25, 30, 0, 0, 0, 0, 0, 18, 0, 0, 24, 0, 0, 17, 0, 36, 0, 0, 0, 0, 5, 0, 33, 10, 2, 12, 0, 0, 0, 0, 22, 21, 3
|0, 0, 19, 0, 36, 0, 23, 0, 0, 0, 0, 0, 35, 0, 0, 0, 15, 12, 0, 0, 20, 27, 18, 16, 0, 0, 6, 17, 0, 22, 26, 0, 0, 0, 28, 0
|33, 23, 20, 3, 0, 0, 0, 0, 32, 2, 0, 0, 19, 18, 0, 0, 0, 0, 0, 30, 0, 31, 0, 14, 13, 5, 0, 0, 0, 26, 0, 0, 4, 0, 7, 35
|0, 0, 0, 12, 16, 18, 0, 0, 0, 0, 36, 5, 0, 3, 6, 27, 31, 33, 13, 17, 11, 19, 2, 0, 0, 0, 0, 0, 0, 0, 0, 0, 0, 14, 0, 0
|0, 0, 13, 35, 8, 0, 3, 0, 0, 26, 0, 0, 0, 21, 28, 0, 0, 2, 0, 0, 34, 23, 24, 32, 0, 18, 0, 4, 9, 20, 11, 0, 5, 19, 0, 31
|8, 19, 0, 0, 0, 16, 24, 2, 0, 9, 0, 0, 0, 34, 0, 28, 0, 5, 22, 18, 31, 0, 0, 0, 0, 0, 0, 0, 25, 4, 15, 14, 30, 0, 0, 20
|35, 32, 11, 0, 0, 0, 0, 0, 15, 0, 0, 0, 0, 0, 14, 20, 4, 24, 0, 0, 0, 34, 0, 1, 0, 0, 5, 26, 13, 9, 0, 19, 10, 7, 0, 0
|0, 0, 15, 13, 34, 0, 0, 0, 0, 0, 0, 0, 30, 0, 0, 0, 0, 22, 0, 0, 0, 9, 8, 20, 10, 31, 0, 0, 2, 0, 1, 26, 24, 0, 35, 33
|27, 25, 0, 24, 18, 0, 34, 0, 0, 0, 0, 21, 0, 12, 0, 0, 0, 10, 0, 0, 5, 26, 11, 0, 0, 30, 0, 0, 0, 35, 0, 8, 9, 0, 2, 36
|0, 0, 0, 0, 28, 23, 31, 5, 0, 0, 0, 18, 17, 0, 1, 2, 0, 0, 35, 0, 25, 0, 19, 12, 15, 0, 24, 33, 0, 0, 34, 27, 22, 11, 0, 32
|0, 9, 22, 33, 0, 20, 0, 0, 0, 27, 26, 0, 32, 29, 18, 0, 13, 31, 0, 7, 23, 24, 4, 0, 0, 0, 0, 19, 0, 0, 3, 5, 0, 0, 0, 0
|0, 29, 0, 0, 0, 0, 1, 0, 27, 19, 0, 0, 24, 0, 0, 10, 0, 15, 23, 0, 0, 0, 0, 31, 0, 0, 0, 30, 0, 36, 13, 32, 28, 0, 0, 0
|0, 30, 0, 0, 32, 35, 2, 0, 0, 0, 0, 14, 0, 0, 0, 0, 0, 23, 0, 0, 18, 5, 0, 0, 0, 0, 0, 0, 0, 0, 10, 17, 6, 0, 0, 27
|0, 0, 0, 21, 0, 0, 0, 9, 16, 33, 13, 32, 0, 26, 0, 0, 0, 0, 17, 0, 0, 8, 0, 28, 6, 0, 3, 31, 0, 29, 7, 4, 0, 25, 0, 1
|0, 36, 0, 19, 0, 0, 5, 11, 0, 10, 30, 22, 34, 0, 17, 0, 0, 0, 0, 0, 0, 1, 0, 6, 18, 4, 0, 23, 0, 15, 9, 0, 0, 35, 33, 29
|9, 0, 0, 0, 0, 3, 29, 0, 0, 18, 34, 31, 25, 33, 8, 0, 0, 0, 15, 21, 0, 0, 7, 0, 0, 12, 35, 0, 0, 0, 0, 0, 16, 0, 0, 22
|0, 0, 0, 11, 15, 1, 12, 17, 0, 36, 28, 6, 5, 32, 4, 19, 0, 29, 0, 0, 0, 22, 13, 35, 0, 0, 0, 0, 0, 24, 0, 21, 23, 8, 31, 26|];