order = 6;
grid = [|15, 34, 1, 0, 18, 4, 0, 0, 22, 0, 16, 26, 14, 0, 25, 3, 0, 0, 9, 28, 31, 0, 6, 0, 0, 0, 24, 0, 0, 13, 0, 0, 0, 2, 30, 0
|7, 0, 0, 0, 0, 0, 25, 0, 0, 0, 0, 0, 21, 0, 0, 0, 18, 0, 29, 13, 35, 0, 30, 0, 34, 0, 0, 0, 2, 10, 0, 0, 3, 9, 0, 0
|24, 0, 21, 33, 26, 0, 30, 0, 8, 0, 0, 9, 35, 0, 0, 0, 0, 17, 0, 0, 19, 20, 0, 4, 0, 3, 0, 15, 0, 12, 14, 25, 34, 13, 0, 23
|0, 35, 0, 0, 25, 0, 0, 0, 0, 31, 5, 13, 0, 0, 0, 0, 0, 0, 23, 33, 12, 10, 0, 0, 0, 0, 0, 0, 0, 0, 6, 0, 0, 0, 0, 19
|0, 29, 28, 14, 23, 0, 10, 0, 20, 1, 18, 0, 0, 0, 0, 0, 12, 0, 0, 0, 7, 2, 25, 0, 0, 6, 0, 0, 21, 0, 4, 0, 24, 0, 32, 5
|13, 2, 36, 19, 12, 0, 3, 34, 0, 6, 4, 29, 0, 0, 32, 0, 0, 9, 22, 21, 0, 0, 26, 15, 0, 0, 0, 0, 25, 14, 0, 0, 8, 0, 10, 0
|17, 0, 0, 15, 20, 0, 32, 0, 31, 0, 9, 0, 7, 16, 35, 0, 0, 12, 0, 23, 0, 0, 0, 19, 0, 0, 0, 0, 27, 26, 11, 0, 30, 25, 5, 8
|0, 19, 0, 0, 0, 0, 0, 0, 33, 0, 0, 35, 0, 11, 29, 17, 0, 6, 30, 0, 0, 22, 0, 32, 20, 0, 0, 0, 0, 0, 15, 0, 28, 0, 24, 21
|0, 0, 0, 3, 22, 28, 20, 0, 0, 27, 24, 0, 0, 0, 15, 13, 5, 0, 0, 0, 0, 0, 11, 26, 12, 32, 0, 1, 10, 23, 35, 0, 0, 16, 9, 0
|0, 12, 0, 6, 7, 26, 0, 0, 0, 22, 25, 1, 0, 0, 0, 23, 3, 27, 0, 0, 0, 9, 0, 0, 0, 15, 0, 0, 5, 0, 0, 14, 0, 20, 18, 32
|0, 0, 2, 27, 0, 9, 28, 0, 23, 21, 0, 18, 0, 1, 0, 30, 0, 25, 16, 7, 0, 0, 0, 35, 0, 29, 0, 0, 0, 8, 0, 36, 0, 0, 6, 0
|0, 0, 16, 0, 35, 33, 0, 0, 34, 8, 0, 0, 0, 0, 31, 28, 0, 19, 2, 15, 3, 0, 0, 20, 0, 30, 17, 0, 0, 7, 0, 0, 1, 0, 0, 12
|0, 26, 0, 0, 0, 17, 0, 27, 28, 5, 0, 0, 20, 0, 19, 0, 0, 0, 0, 0, 11, 0, 3, 0, 24, 0, 0, 12, 0, 0, 13, 18, 10, 8, 34, 33
|0, 1, 23, 0, 29, 34, 0, 13, 0, 0, 0, 32, 0, 0, 0, 0, 8, 0, 0, 24, 0, 15, 10, 22, 28, 0, 25, 3, 0, 0, 7, 5, 0, 0, 19, 0
|0, 0, 11, 7, 0, 0, 35, 14, 19, 16, 23, 25, 0, 0, 0, 0, 0, 0, 0, 0, 0, 28, 31, 0, 0, 18, 6, 2, 9, 33, 0, 0, 15, 0, 0, 0
|0, 0, 12, 0, 0, 0, 8, 0, 24, 0, 33, 36, 0, 0, 13, 14, 2, 28, 0, 18, 0, 0, 7, 0, 0, 21, 15, 0, 0, 4, 0, 35, 23, 6, 11, 1
|0, 9, 0, 18, 0, 15, 11, 2, 1, 26, 22, 0, 0, 0, 7, 31, 0, 0, 0, 20, 0, 0, 19, 0, 23, 36, 0, 0, 13, 32, 0, 21, 25, 24, 17, 0
|0, 16, 20, 28, 0, 24, 18, 0, 12, 7, 29, 0, 23, 0, 11, 0, 0, 0, 0, 0, 0, 35, 1, 13, 19, 0, 27, 0, 17, 22, 9, 0, 2, 4, 0, 0
|0, 6, 0, 12, 0, 0, 13, 0, 25, 0, 17, 0, 11, 0, 0, 0, 7, 1, 0, 26, 0, 0, 0, 0, 14, 0, 32, 27, 8, 31, 3, 2, 19, 0, 23, 29
|36, 27, 19, 0, 0, 23, 0, 0, 0, 24, 0, 0, 12, 20, 2, 0, 25, 0, 11, 0, 0, 29, 0, 14, 1, 0, 5, 33, 15, 0, 0, 8, 6, 0, 0, 0
|0, 20, 0, 0, 2, 7, 31, 28, 0, 29, 0, 33, 9, 19, 0, 32, 17, 0, 24, 36, 8, 5, 0, 0, 0, 23, 0, 0, 0, 0, 0, 0, 0, 10, 1, 15
|26, 33, 9, 22, 0, 25, 2, 0, 36, 0, 0, 0, 5, 0, 0, 0, 31, 0, 7, 0, 0, 17, 0, 0, 0, 10, 16, 0, 29, 28, 0, 0, 32, 11, 0, 34
|29, 4, 0, 11, 0, 0, 0, 9, 6, 0, 0, 10, 0, 0, 27, 0, 0, 33, 3, 35, 2, 21, 0, 0, 25, 19, 13, 0, 0, 20, 0, 0, 36, 0, 22, 18
|8, 28, 30, 31, 21, 0, 0, 0, 3, 0, 12, 0, 0, 14, 10, 15, 34, 0, 0, 19, 13, 6, 33, 0, 2, 0, 22, 0, 11, 0, 0, 20, 0, 0, 35, 0
|30, 0, 24, 9, 0, 35, 6, 0, 13, 25, 0, 0, 0, 23, 36, 34, 29, 11, 0, 0, 0, 8, 0, 0, 15, 1, 0, 26, 0, 17, 0, 27, 20, 18, 0, 0
|1, 0, 0, 0, 0, 11, 0, 0, 0, 0, 0, 16, 0, 0, 0, 35, 0, 8, 20, 2, 0, 0, 34, 0, 0, 0, 0, 0, 0, 25, 0, 17, 29, 21, 15, 0
|14, 0, 0, 0, 0, 0, 0, 17, 0, 0, 0, 0, 24, 0, 0, 0, 0, 0, 0, 0, 33, 0, 35, 28, 5, 11, 0, 0, 20, 0, 0, 9, 0, 30, 2, 16
|0, 5, 0, 0, 0, 21, 0, 0, 0, 28, 26, 0, 0, 17, 1, 12, 0, 7, 13, 0, 9, 24, 0, 27, 0, 16, 0, 0, 36, 0, 0, 22, 11, 34, 14, 0
|0, 7, 0, 29, 0, 0, 0, 0, 27, 0, 0, 0, 19, 31, 28, 9, 14, 21, 36, 10, 17, 0, 0, 0, 0, 0, 0, 0, 35, 24, 26, 33, 0, 0, 0, 6
|0, 15, 0, 20, 17, 0, 1, 24, 0, 0, 19, 0, 0, 0, 0, 16, 6, 0, 0, 11, 4, 0, 0, 29, 0, 0, 14, 30, 0, 21, 0, 32, 7, 35, 0, 0
|0, 0, 0, 21, 0, 0, 0, 8, 14, 0, 0, 0, 0, 24, 0, 0, 0, 0, 0, 0, 0, 7, 17, 5, 9, 0, 0, 0, 0, 27, 16, 13, 0, 0, 12, 10
|20, 25, 0, 0, 36, 16, 17, 21, 5, 0, 0, 12, 0, 0, 0, 11, 15, 0, 0, 0, 0, 19, 2, 34, 0, 0, 0, 0, 0, 0, 8, 0, 14, 0, 27, 26
|0, 23, 7, 0, 3, 22, 29, 0, 9, 0, 1, 27, 0, 0, 0, 20, 0, 30, 18, 0, 28, 0, 13, 0, 0, 14, 0, 0, 0, 0, 0, 0, 35, 0, 36, 0
|0, 24, 26, 0, 10, 14, 34, 31, 7, 0, 32, 0, 13, 0, 0, 29, 36, 0, 27, 0, 23, 0, 0, 0, 0, 2, 11, 0, 4, 0, 18, 1, 22, 0, 33, 30
|35, 8, 0, 5, 0, 0, 15, 23, 16, 0, 0, 0, 3, 0, 0, 21, 28, 31, 0, 0, 0, 36, 0, 0, 13, 25, 0, 32, 12, 0, 17, 0, 0, 0, 0, 9
|0, 0, 0, 0, 9, 13, 22, 11, 10, 0, 6, 0, 26, 18, 0, 27, 19, 0, 14, 16, 0, 0, 24, 31, 0, 0, 0, 36, 7, 29, 25, 0, 21, 23, 20, 2|];