order = 6;
grid = [|27, 29, 21, 0, 0, 4, 0, 0, 0, 0, 0, 33, 3, 10, 0, 32, 0, 8, 19, 0, 0, 28, 2, 0, 0, 7, 0, 0, 0, 6, 18, 30, 14, 0, 0, 0
|0, 0, 0, 0, 8, 16, 22, 6, 35, 0, 0, 10, 27, 2, 0, 0, 0, 5, 23, 0, 18, 0, 0, 0, 0, 0, 33, 28, 14, 0, 0, 11, 17, 0, 0, 3
|0, 0, 0, 0, 5, 20, 0, 0, 9, 0, 32, 7, 0, 0, 29, 0, 0, 0, 0, 12, 34, 0, 4, 0, 26, 1, 0, 11, 13, 36, 24, 15, 33, 0, 0, 16
|35, 0, 0, 17, 19, 34, 0, 0, 0, 31, 0, 27, 11, 0, 21, 15, 0, 22, 6, 0, 5, 0, 0, 0, 8, 0, 0, 12, 16, 0, 29, 13, 2, 10, 26, 28
|11, 0, 24, 0, 33, 0, 0, 30, 0, 0, 0, 0, 0, 0, 0, 31, 12, 28, 0, 16, 0, 17, 35, 14, 0, 0, 15, 10, 0, 0, 20, 34, 0, 7, 0, 0
|0, 2, 6, 28, 0, 0, 19, 11, 0, 0, 0, 0, 0, 36, 14, 0, 0, 0, 0, 10, 27, 33, 22, 0, 0, 0, 0, 0, 29, 0, 32, 8, 21, 9, 5, 0
|15, 36, 32, 0, 34, 33, 0, 35, 23, 0, 25, 4, 0, 0, 0, 0, 19, 0, 29, 28, 0, 20, 27, 0, 17, 0, 0, 0, 0, 26, 0, 0, 0, 0, 21, 0
|0, 0, 0, 11, 0, 13, 6, 36, 14, 0, 0, 9, 0, 31, 22, 0, 35, 0, 0, 0, 0, 0, 0, 0, 0, 5, 0, 0, 32, 0, 0, 25, 0, 0, 0, 33
|0, 0, 35, 0, 14, 17, 0, 0, 30, 0, 0, 0, 20, 0, 0, 23, 34, 33, 0, 0, 15, 31, 0, 0, 29, 28, 0, 0, 21, 25, 0, 0, 8, 1, 16, 0
|7, 10, 0, 23, 0, 0, 0, 0, 27, 17, 2, 29, 0, 0, 0, 0, 0, 0, 33, 0, 0, 35, 0, 19, 0, 0, 0, 8, 0, 3, 0, 0, 12, 22, 36, 14
|0, 31, 0, 8, 0, 0, 33, 15, 16, 21, 20, 28, 0, 3, 13, 0, 17, 0, 34, 36, 0, 11, 0, 22, 24, 0, 0, 27, 10, 14, 5, 0, 0, 29, 2, 0
|0, 0, 28, 22, 0, 24, 8, 0, 0, 0, 10, 0, 0, 29, 0, 2, 0, 0, 25, 0, 16, 0, 0, 6, 20, 23, 0, 19, 12, 33, 0, 0, 0, 15, 17, 27
|29, 0, 0, 0, 10, 0, 1, 19, 6, 0, 15, 0, 2, 0, 28, 0, 22, 0, 0, 0, 21, 16, 0, 31, 11, 0, 32, 0, 0, 0, 23, 0, 34, 0, 35, 0
|0, 0, 0, 6, 0, 3, 17, 23, 0, 0, 33, 0, 0, 0, 5, 12, 29, 25, 0, 0, 0, 32, 10, 8, 35, 0, 20, 0, 1, 0, 27, 4, 15, 28, 31, 0
|18, 5, 0, 0, 0, 0, 0, 21, 0, 14, 0, 0, 0, 9, 15, 0, 0, 0, 0, 0, 28, 19, 0, 36, 0, 0, 13, 0, 0, 0, 11, 29, 0, 0, 0, 0
|0, 33, 0, 0, 32, 0, 28, 27, 0, 0, 0, 0, 0, 0, 10, 4, 31, 0, 26, 0, 0, 0, 5, 0, 6, 0, 0, 0, 0, 0, 0, 1, 13, 3, 7, 8
|36, 13, 0, 0, 0, 27, 34, 9, 0, 0, 31, 0, 0, 0, 0, 3, 20, 1, 0, 6, 33, 29, 25, 0, 28, 0, 0, 16, 24, 0, 10, 26, 0, 0, 0, 18
|0, 25, 0, 30, 0, 2, 4, 12, 0, 29, 3, 36, 8, 0, 0, 13, 26, 34, 0, 27, 0, 0, 15, 0, 23, 19, 0, 14, 33, 0, 0, 21, 0, 0, 0, 24
|0, 28, 34, 0, 25, 22, 0, 10, 0, 0, 0, 0, 1, 8, 0, 0, 0, 6, 0, 0, 31, 4, 23, 0, 0, 0, 0, 0, 17, 24, 0, 14, 29, 0, 0, 5
|0, 0, 0, 0, 16, 0, 35, 31, 22, 20, 17, 0, 7, 0, 36, 19, 0, 0, 0, 0, 6, 2, 9, 0, 0, 0, 0, 0, 30, 34, 33, 23, 0, 0, 0, 0
|0, 0, 18, 0, 3, 19, 36, 0, 0, 34, 1, 0, 0, 14, 0, 10, 0, 0, 17, 35, 0, 0, 0, 0, 0, 6, 0, 0, 0, 0, 8, 9, 0, 32, 12, 0
|0, 20, 0, 27, 0, 0, 25, 0, 24, 9, 29, 15, 0, 0, 17, 0, 13, 21, 14, 34, 32, 18, 0, 0, 0, 36, 3, 0, 19, 11, 22, 0, 28, 0, 6, 0
|33, 0, 14, 36, 0, 0, 0, 0, 28, 16, 0, 0, 24, 34, 23, 22, 2, 0, 0, 5, 0, 15, 0, 3, 18, 0, 0, 0, 31, 10, 19, 0, 0, 0, 0, 0
|13, 0, 7, 0, 9, 26, 23, 5, 18, 27, 14, 0, 0, 15, 0, 0, 33, 0, 24, 0, 11, 0, 0, 16, 0, 8, 0, 22, 20, 0, 35, 17, 30, 36, 0, 34
|23, 0, 0, 0, 15, 0, 18, 20, 0, 0, 0, 30, 12, 0, 0, 0, 0, 0, 2, 0, 0, 0, 0, 0, 0, 0, 0, 29, 7, 35, 1, 24, 9, 0, 0, 22
|9, 0, 0, 21, 0, 7, 31, 28, 0, 0, 0, 17, 35, 0, 0, 0, 0, 15, 0, 26, 0, 34, 32, 5, 0, 0, 14, 23, 3, 30, 0, 27, 18, 6, 29, 0
|24, 0, 0, 0, 0, 0, 5, 0, 2, 22, 27, 35, 25, 0, 34, 26, 1, 0, 15, 0, 36, 0, 33, 10, 12, 0, 6, 0, 0, 0, 28, 0, 3, 19, 0, 0
|0, 0, 8, 0, 0, 0, 0, 25, 0, 10, 0, 0, 0, 0, 0, 0, 32, 0, 0, 23, 4, 6, 0, 0, 0, 24, 17, 15, 0, 0, 0, 0, 35, 34, 11, 30
|0, 34, 0, 35, 4, 0, 0, 3, 0, 6, 0, 16, 0, 0, 0, 0, 0, 0, 0, 0, 0, 0, 0, 0, 0, 0, 0, 2, 0, 1, 31, 0, 0, 0, 23, 26
|0, 0, 1, 0, 36, 0, 9, 0, 33, 4, 0, 0, 18, 13, 6, 0, 0, 0, 35, 17, 0, 12, 24, 30, 25, 31, 22, 0, 8, 16, 0, 0, 0, 0, 0, 20
|0, 0, 0, 0, 0, 28, 0, 16, 0, 0, 0, 14, 0, 0, 0, 36, 0, 0, 0, 18, 12, 13, 6, 24, 1, 0, 0, 3, 0, 2, 0, 5, 27, 0, 0, 0
|25, 3, 33, 0, 13, 9, 11, 26, 0, 0, 24, 0, 0, 21, 0, 0, 10, 0, 5, 0, 0, 27, 7, 15, 0, 0, 8, 17, 0, 19, 0, 0, 0, 18, 30, 0
|17, 0, 0, 14, 24, 0, 0, 0, 0, 1, 0, 0, 0, 26, 0, 18, 15, 0, 8, 0, 10, 0, 0, 2, 0, 0, 0, 32, 0, 12, 0, 0, 0, 4, 0, 0
|4, 32, 0, 15, 0, 0, 0, 2, 0, 0, 0, 0, 9, 1, 33, 27, 0, 13, 0, 0, 0, 14, 17, 0, 21, 16, 24, 0, 0, 28, 0, 0, 0, 23, 0, 35
|0, 0, 2, 19, 6, 30, 27, 32, 17, 0, 0, 25, 0, 5, 0, 24, 0, 20, 0, 0, 0, 0, 0, 0, 0, 10, 11, 0, 0, 18, 0, 22, 0, 0, 0, 0
|0, 11, 36, 10, 35, 0, 29, 0, 0, 12, 0, 0, 0, 16, 0, 0, 8, 17, 4, 9, 0, 0, 0, 0, 0, 15, 23, 7, 27, 20, 14, 0, 1, 13, 24, 0|];