order = 6;
grid = [|0, 0, 0, 0, 0, 19, 11, 0, 6, 0, 0, 1, 15, 10, 21, 0, 0, 0, 8, 0, 17, 0, 33, 23, 2, 34, 0, 24, 35, 0, 0, 18, 36, 0, 0, 14
|0, 35, 0, 32, 0, 27, 26, 30, 12, 31, 0, 0, 0, 0, 7, 0, 0, 0, 0, 0, 0, 11, 0, 0, 19, 0, 20, 16, 21, 0, 0, 9, 0, 28, 1, 23
|23, 3, 16, 0, 0, 8, 13, 19, 0, 0, 5, 29, 31, 0, 0, 0, 0, 0, 0, 0, 35, 0, 6, 0, 22, 0, 0, 9, 0, 0, 32, 15, 27, 0, 0, 0
|0, 5, 0, 0, 0, 0, 18, 0, 0, 0, 0, 9, 0, 22, 33, 0, 16, 0, 3, 19, 0, 29, 20, 0, 0, 0, 0, 0, 30, 23, 21, 34, 7, 0, 0, 4
|21, 0, 34, 0, 0, 0, 4, 32, 22, 17, 7, 23, 0, 0, 19, 5, 0, 18, 0, 26, 0, 2, 31, 30, 0, 0, 15, 36, 27, 0, 25, 0, 0, 20, 24, 0
|15, 0, 4, 22, 0, 36, 33, 0, 0, 0, 0, 8, 2, 0, 34, 13, 0, 0, 32, 0, 1, 0, 0, 24, 0, 0, 0, 5, 29, 17, 0, 11, 0, 0, 0, 0
|12, 0, 23, 27, 0, 0, 16, 0, 8, 0, 0, 17, 10, 25, 0, 31, 0, 9, 0, 20, 4, 0, 0, 11, 0, 2, 0, 0, 7, 0, 29, 24, 0, 36, 32, 15
|0, 0, 8, 28, 17, 0, 0, 0, 18, 29, 0, 0, 20, 0, 0, 32, 0, 7, 0, 0, 0, 6, 36, 2, 35, 3, 25, 10, 0, 0, 4, 0, 0, 1, 30, 0
|32, 31, 24, 18, 29, 9, 0, 0, 1, 0, 10, 27, 36, 0, 0, 0, 0, 0, 0, 0, 0, 30, 0, 0, 0, 0, 19, 22, 17, 12, 2, 6, 0, 16, 0, 34
|36, 15, 0, 0, 4, 0, 0, 31, 33, 24, 0, 2, 16, 0, 0, 0, 0, 6, 29, 0, 3, 17, 26, 22, 0, 0, 0, 21, 14, 30, 23, 7, 18, 0, 0, 10
|0, 0, 14, 34, 0, 25, 0, 0, 5, 0, 20, 0, 0, 23, 35, 0, 0, 26, 18, 15, 10, 0, 0, 7, 0, 0, 0, 8, 0, 11, 0, 13, 0, 33, 3, 0
|1, 7, 21, 10, 0, 0, 30, 0, 23, 34, 0, 0, 0, 0, 29, 0, 0, 0, 24, 0, 8, 0, 0, 33, 9, 27, 36, 0, 6, 16, 0, 0, 11, 12, 0, 25
|0, 0, 0, 0, 35, 12, 6, 0, 0, 0, 0, 26, 22, 2, 0, 0, 0, 0, 0, 0, 0, 16, 5, 8, 23, 0, 0, 0, 0, 27, 0, 36, 13, 31, 29, 7
|17, 0, 36, 14, 22, 4, 0, 34, 31, 0, 16, 0, 0, 13, 30, 0, 27, 0, 0, 0, 29, 20, 32, 0, 25, 7, 11, 6, 26, 18, 0, 0, 0, 3, 0, 0
|28, 0, 18, 9, 0, 0, 0, 0, 2, 0, 17, 13, 7, 4, 32, 0, 0, 14, 31, 35, 26, 0, 0, 19, 0, 0, 22, 0, 0, 3, 0, 0, 0, 0, 25, 11
|20, 1, 26, 0, 5, 33, 28, 18, 0, 0, 0, 0, 6, 17, 0, 11, 0, 34, 0, 0, 14, 0, 25, 0, 4, 0, 0, 0, 0, 31, 22, 0, 19, 32, 9, 24
|0, 0, 0, 0, 6, 2, 32, 33, 0, 0, 0, 12, 9, 15, 0, 16, 0, 1, 4, 0, 0, 0, 17, 0, 21, 35, 30, 20, 24, 0, 27, 0, 14, 0, 34, 8
|13, 0, 0, 0, 19, 24, 0, 0, 11, 0, 22, 0, 0, 20, 0, 0, 0, 0, 21, 23, 6, 0, 10, 34, 33, 9, 0, 14, 1, 32, 0, 30, 0, 5, 0, 18
|29, 0, 0, 7, 11, 0, 9, 0, 0, 0, 0, 0, 0, 0, 0, 0, 20, 0, 0, 6, 12, 0, 15, 3, 0, 0, 0, 0, 31, 14, 0, 23, 0, 0, 0, 0
|14, 0, 0, 0, 0, 31, 0, 6, 0, 0, 0, 0, 13, 24, 0, 23, 0, 0, 0, 0, 0, 4, 35, 0, 28, 0, 10, 2, 12, 0, 16, 0, 0, 0, 21, 3
|24, 2, 0, 0, 0, 0, 23, 0, 0, 4, 31, 0, 35, 30, 11, 0, 15, 12, 0, 0, 20, 0, 0, 16, 0, 21, 0, 17, 0, 22, 26, 0, 34, 9, 0, 0
|0, 23, 0, 3, 1, 21, 0, 27, 0, 0, 0, 15, 19, 18, 0, 34, 10, 0, 0, 0, 0, 31, 0, 14, 0, 5, 8, 0, 11, 26, 24, 0, 4, 0, 0, 35
|22, 0, 9, 0, 16, 18, 0, 0, 29, 0, 0, 0, 26, 0, 6, 0, 0, 33, 13, 17, 11, 0, 0, 0, 0, 23, 0, 0, 0, 0, 0, 0, 20, 14, 10, 30
|0, 17, 13, 35, 0, 0, 0, 0, 30, 0, 0, 10, 0, 0, 28, 0, 14, 2, 0, 0, 34, 23, 24, 0, 0, 18, 0, 0, 9, 20, 11, 12, 5, 19, 0, 0
|8, 19, 0, 6, 10, 16, 24, 0, 13, 9, 1, 0, 11, 0, 0, 0, 0, 5, 0, 0, 31, 0, 29, 17, 0, 32, 0, 0, 0, 4, 0, 0, 30, 0, 0, 20
|0, 0, 11, 36, 31, 29, 0, 0, 0, 23, 25, 0, 3, 27, 14, 20, 4, 24, 0, 0, 0, 34, 0, 1, 0, 17, 0, 0, 0, 9, 18, 19, 10, 7, 12, 28
|5, 0, 0, 13, 0, 0, 0, 0, 0, 0, 11, 4, 30, 36, 0, 6, 25, 22, 27, 0, 0, 9, 8, 0, 10, 31, 18, 3, 2, 21, 1, 0, 24, 0, 35, 33
|0, 25, 1, 0, 0, 7, 0, 0, 17, 0, 0, 0, 0, 0, 16, 15, 19, 0, 28, 3, 5, 26, 11, 13, 0, 0, 0, 0, 0, 35, 0, 0, 9, 0, 2, 0
|0, 0, 0, 4, 28, 23, 31, 5, 3, 16, 29, 0, 17, 7, 1, 2, 0, 0, 0, 10, 25, 14, 0, 12, 15, 36, 0, 33, 20, 0, 34, 27, 0, 0, 13, 0
|0, 9, 22, 33, 12, 20, 0, 35, 0, 0, 26, 36, 32, 0, 18, 0, 0, 31, 0, 7, 23, 24, 0, 15, 11, 0, 34, 0, 28, 0, 0, 5, 0, 0, 6, 0
|7, 0, 0, 0, 0, 14, 0, 21, 0, 19, 0, 35, 24, 0, 0, 0, 0, 0, 0, 4, 0, 25, 3, 31, 0, 22, 26, 30, 0, 36, 13, 32, 0, 34, 0, 0
|4, 30, 0, 0, 32, 35, 2, 7, 26, 3, 0, 0, 21, 0, 12, 9, 0, 23, 11, 36, 18, 5, 34, 0, 20, 25, 0, 28, 16, 13, 0, 17, 0, 15, 0, 27
|0, 0, 5, 0, 23, 22, 15, 0, 0, 0, 0, 32, 0, 0, 27, 0, 0, 0, 17, 0, 0, 8, 12, 0, 6, 0, 3, 31, 0, 0, 7, 0, 0, 25, 11, 0
|0, 0, 2, 19, 26, 0, 5, 0, 0, 10, 30, 22, 0, 0, 17, 0, 0, 28, 20, 24, 0, 1, 27, 6, 18, 4, 21, 23, 0, 15, 9, 0, 0, 35, 0, 0
|9, 28, 6, 0, 27, 0, 0, 23, 4, 18, 0, 31, 0, 0, 0, 0, 0, 13, 15, 0, 19, 0, 7, 0, 0, 12, 0, 0, 0, 0, 14, 0, 0, 0, 36, 0
|0, 18, 0, 0, 15, 1, 12, 17, 20, 0, 28, 0, 0, 32, 0, 19, 3, 0, 0, 16, 33, 0, 0, 0, 27, 14, 9, 7, 34, 24, 0, 0, 0, 0, 0, 0|];