order = 9;
grid = [|0, 0, 0, 81, 0, 66, 0, 0, 43, 22, 32, 0, 0, 0, 0, 0, 0, 0, 0, 0, 0, 0, 0, 0, 0, 0, 0, 0, 9, 2, 0, 0, 0, 0, 0, 0, 0, 0, 13, 0, 0, 36, 0, 70, 42, 0, 0, 0, 75, 0, 58, 0, 19, 0, 80, 0, 50, 0, 18, 62, 0, 0, 0, 0, 0, 0, 0, 10, 0, 0, 27, 0, 0, 63, 0, 0, 0, 0, 0, 0, 64
|0, 0, 1, 0, 0, 72, 0, 16, 47, 0, 0, 0, 0, 0, 19, 0, 70, 0, 0, 0, 25, 0, 0, 0, 3, 0, 7, 10, 0, 0, 0, 56, 0, 0, 0, 0, 0, 37, 0, 0, 0, 0, 39, 0, 0, 41, 0, 0, 0, 61, 0, 0, 15, 6, 0, 30, 0, 0, 0, 0, 0, 0, 0, 0, 2, 43, 66, 0, 0, 0, 0, 0, 0, 0, 0, 79, 0, 0, 0, 5, 51
|80, 0, 0, 19, 0, 0, 0, 0, 0, 0, 0, 0, 0, 0, 0, 0, 47, 0, 17, 0, 0, 0, 46, 13, 77, 0, 0, 0, 39, 12, 0, 0, 0, 54, 0, 0, 0, 0, 0, 0, 0, 0, 0, 0, 56, 0, 0, 25, 0, 0, 0, 0, 0, 0, 0, 72, 64, 0, 0, 63, 0, 68, 0, 0, 15, 0, 0, 0, 0, 0, 41, 0, 0, 0, 0, 0, 57, 0, 1, 75, 0
|0, 0, 30, 0, 0, 6, 0, 0, 0, 0, 0, 0, 0, 18, 0, 0, 0, 0, 0, 0, 0, 0, 0, 43, 0, 0, 0, 0, 0, 7, 0, 79, 0, 32, 0, 0, 8, 0, 0, 0, 0, 0, 0, 0, 0, 0, 60, 72, 55, 0, 0, 0, 0, 0, 0, 13, 57, 0, 0, 0, 29, 0, 0, 0, 0, 0, 0, 0, 80, 0, 0, 0, 0, 0, 53, 0, 0, 59, 0, 0, 50
|0, 0, 0, 0, 0, 0, 0, 0, 0, 77, 0, 0, 48, 16, 45, 0, 0, 0, 0, 0, 41, 42, 65, 59, 0, 0, 0, 0, 0, 0, 0, 0, 0, 49, 8, 72, 0, 0, 0, 0, 0, 0, 0, 0, 0, 0, 0, 0, 0, 0, 0, 0, 12, 0, 0, 0, 0, 0, 66, 0, 0, 0, 0, 57, 0, 0, 0, 51, 37, 0, 0, 0, 0, 0, 0, 33, 0, 0, 0, 0, 0
|39, 0, 0, 0, 0, 0, 18, 10, 0, 0, 0, 63, 6, 0, 0, 0, 58, 0, 0, 0, 28, 80, 74, 0, 0, 20, 0, 0, 0, 59, 0, 0, 0, 78, 0, 24, 0, 0, 31, 72, 0, 51, 0, 0, 0, 0, 0, 67, 0, 21, 0, 29, 0, 0, 0, 9, 0, 0, 0, 0, 8, 25, 26, 1, 0, 0, 47, 0, 54, 46, 0, 0, 70, 0, 0, 0, 30, 0, 0, 0, 0
|0, 46, 41, 28, 0, 56, 55, 11, 0, 0, 0, 0, 0, 0, 0, 39, 0, 0, 0, 0, 0, 0, 0, 36, 0, 0, 14, 47, 0, 22, 0, 70, 27, 0, 0, 0, 0, 0, 0, 35, 0, 0, 0, 0, 0, 0, 63, 0, 0, 0, 0, 0, 0, 0, 0, 0, 0, 0, 0, 0, 0, 0, 0, 0, 13, 52, 0, 0, 0, 0, 0, 0, 0, 18, 0, 72, 0, 0, 10, 45, 0
|0, 0, 0, 0, 0, 0, 70, 15, 32, 0, 0, 0, 0, 74, 0, 0, 0, 0, 2, 0, 0, 0, 39, 0, 0, 44, 57, 0, 1, 0, 0, 0, 0, 0, 0, 0, 63, 0, 0, 10, 0, 53, 0, 20, 77, 0, 0, 0, 0, 0, 0, 0, 0, 0, 0, 24, 0, 0, 0, 0, 0, 41, 61, 0, 0, 0, 0, 0, 0, 28, 0, 0, 17, 0, 0, 60, 67, 0, 0, 0, 0
|48, 0, 51, 0, 0, 2, 0, 0, 0, 0, 0, 0, 0, 0, 0, 0, 75, 0, 0, 0, 0, 0, 0, 0, 73, 0, 45, 17, 0, 0, 41, 42, 0, 0, 0, 63, 0, 4, 0, 0, 0, 0, 0, 0, 0, 0, 0, 0, 0, 0, 0, 0, 0, 0, 0, 0, 0, 0, 1, 0, 0, 49, 0, 20, 0, 0, 69, 0, 24, 0, 0, 0, 0, 0, 0, 0, 22, 77, 0, 0, 0
|0, 40, 36, 0, 48, 0, 0, 0, 0, 0, 0, 0, 0, 0, 61, 0, 0, 52, 0, 70, 0, 0, 0, 0, 0, 0, 0, 0, 66, 19, 0, 0, 0, 0, 0, 0, 0, 0, 43, 0, 0, 0, 0, 0, 0, 0, 0, 0, 0, 27, 0, 12, 51, 0, 39, 8, 38, 0, 0, 56, 0, 0, 55, 0, 78, 0, 0, 79, 0, 0, 0, 0, 53, 0, 0, 64, 0, 0, 0, 0, 0
|16, 0, 0, 0, 0, 0, 0, 0, 8, 0, 0, 0, 0, 0, 0, 0, 0, 0, 0, 33, 13, 0, 0, 0, 0, 6, 44, 0, 0, 39, 48, 0, 0, 0, 14, 0, 0, 0, 46, 0, 55, 0, 0, 0, 0, 0, 0, 36, 0, 50, 0, 21, 0, 0, 69, 0, 0, 72, 0, 0, 0, 4, 0, 0, 0, 60, 3, 0, 0, 0, 0, 0, 75, 0, 51, 0, 0, 0, 0, 0, 0
|68, 0, 9, 0, 0, 79, 13, 0, 0, 0, 0, 67, 0, 35, 0, 0, 0, 69, 0, 0, 0, 36, 0, 64, 0, 61, 0, 0, 0, 41, 0, 54, 0, 0, 0, 5, 0, 0, 0, 0, 0, 0, 10, 0, 0, 0, 0, 62, 33, 0, 0, 0, 22, 80, 0, 0, 49, 25, 26, 0, 30, 0, 0, 0, 19, 46, 0, 0, 0, 42, 0, 0, 0, 16, 24, 0, 0, 8, 0, 48, 0
|0, 0, 0, 22, 0, 0, 0, 0, 3, 0, 0, 0, 41, 14, 0, 72, 0, 0, 0, 0, 75, 0, 0, 18, 0, 0, 56, 0, 0, 62, 0, 0, 0, 0, 0, 0, 29, 27, 0, 34, 39, 0, 0, 0, 0, 0, 0, 0, 30, 0, 0, 0, 0, 0, 0, 0, 0, 0, 32, 21, 0, 51, 0, 0, 0, 64, 0, 0, 13, 0, 0, 0, 0, 0, 0, 0, 40, 67, 0, 9, 0
|0, 0, 60, 55, 0, 0, 21, 0, 0, 56, 0, 0, 0, 37, 0, 0, 0, 0, 10, 0, 59, 0, 40, 0, 5, 0, 3, 77, 0, 0, 0, 0, 0, 0, 0, 0, 0, 0, 0, 33, 0, 0, 0, 0, 0, 0, 72, 63, 0, 53, 0, 0, 0, 0, 76, 0, 29, 0, 0, 81, 0, 74, 0, 30, 41, 0, 0, 0, 67, 11, 0, 0, 0, 0, 31, 52, 43, 45, 25, 0, 0
|0, 0, 0, 0, 0, 0, 0, 0, 0, 0, 73, 0, 39, 53, 0, 0, 0, 49, 0, 0, 0, 0, 0, 0, 57, 0, 31, 55, 30, 0, 0, 21, 0, 0, 0, 0, 0, 71, 41, 0, 0, 0, 0, 0, 0, 0, 69, 0, 0, 0, 0, 14, 65, 0, 0, 23, 0, 0, 78, 0, 0, 0, 0, 0, 0, 2, 0, 0, 25, 0, 54, 0, 46, 0, 0, 0, 4, 0, 36, 0, 0
|50, 0, 0, 0, 0, 64, 0, 0, 6, 48, 19, 0, 0, 30, 0, 4, 0, 0, 49, 0, 0, 0, 0, 34, 0, 0, 35, 0, 0, 0, 15, 0, 0, 52, 46, 0, 0, 0, 26, 36, 0, 5, 0, 0, 73, 0, 0, 0, 0, 0, 24, 70, 0, 29, 0, 0, 0, 0, 0, 54, 0, 0, 0, 0, 0, 0, 0, 0, 0, 81, 0, 0, 74, 59, 0, 0, 0, 0, 0, 0, 0
|0, 0, 0, 80, 45, 0, 0, 0, 0, 0, 0, 33, 0, 0, 0, 60, 29, 0, 0, 69, 0, 43, 2, 0, 0, 79, 0, 0, 0, 0, 0, 0, 0, 0, 0, 0, 32, 0, 0, 0, 0, 0, 0, 0, 0, 28, 73, 10, 40, 0, 37, 0, 0, 0, 0, 0, 0, 0, 0, 1, 50, 0, 35, 59, 55, 0, 0, 0, 0, 0, 0, 0, 0, 27, 0, 77, 42, 0, 63, 0, 0
|74, 0, 0, 0, 0, 12, 0, 0, 69, 0, 0, 0, 0, 0, 0, 0, 0, 79, 0, 0, 0, 0, 0, 0, 30, 0, 0, 0, 0, 0, 27, 0, 0, 42, 25, 0, 0, 0, 0, 0, 0, 64, 0, 0, 0, 81, 48, 46, 0, 8, 52, 0, 0, 0, 33, 0, 0, 0, 0, 36, 0, 0, 19, 0, 0, 35, 0, 77, 0, 45, 0, 0, 0, 0, 78, 0, 0, 11, 0, 0, 0
|0, 0, 0, 40, 0, 0, 0, 0, 15, 67, 41, 0, 31, 0, 0, 70, 50, 0, 0, 0, 0, 0, 60, 0, 0, 0, 0, 0, 0, 0, 17, 0, 0, 0, 0, 0, 19, 0, 0, 81, 0, 0, 0, 0, 35, 0, 0, 77, 0, 0, 72, 0, 0, 55, 0, 0, 23, 0, 0, 0, 0, 0, 0, 0, 0, 75, 53, 0, 0, 76, 0, 0, 0, 42, 0, 39, 0, 0, 0, 33, 9
|0, 0, 0, 0, 0, 0, 0, 66, 0, 0, 0, 0, 0, 0, 0, 0, 0, 0, 0, 0, 0, 0, 0, 0, 0, 1, 13, 0, 0, 0, 0, 0, 0, 0, 73, 29, 0, 0, 0, 0, 0, 0, 56, 0, 0, 0, 0, 60, 0, 0, 0, 0, 64, 0, 0, 0, 0, 0, 44, 0, 0, 0, 0, 0, 0, 0, 0, 0, 0, 24, 0, 0, 67, 0, 0, 0, 0, 0, 0, 7, 0
|0, 0, 0, 64, 51, 0, 0, 0, 0, 0, 15, 0, 0, 0, 0, 0, 0, 0, 0, 0, 0, 0, 0, 2, 0, 54, 0, 0, 0, 0, 0, 0, 30, 0, 0, 23, 0, 0, 0, 7, 0, 0, 59, 1, 0, 0, 0, 0, 0, 0, 0, 0, 0, 0, 11, 74, 0, 0, 0, 8, 0, 0, 0, 0, 0, 0, 0, 0, 68, 17, 0, 0, 0, 0, 0, 0, 0, 0, 0, 62, 0
|0, 19, 0, 29, 0, 0, 0, 42, 0, 0, 0, 0, 0, 0, 0, 52, 0, 14, 27, 0, 0, 0, 63, 0, 10, 0, 0, 0, 15, 0, 0, 0, 0, 13, 0, 43, 0, 0, 0, 0, 0, 0, 18, 0, 0, 0, 28, 0, 0, 0, 33, 8, 0, 0, 0, 0, 66, 0, 7, 3, 0, 46, 0, 0, 47, 0, 0, 0, 58, 0, 0, 0, 0, 0, 0, 76, 0, 0, 0, 68, 0
|41, 81, 0, 0, 14, 9, 0, 0, 17, 0, 0, 0, 0, 0, 0, 28, 74, 25, 0, 65, 0, 0, 0, 0, 0, 0, 0, 48, 0, 0, 0, 0, 58, 44, 37, 8, 67, 0, 0, 0, 68, 0, 0, 0, 0, 0, 0, 0, 71, 0, 0, 0, 0, 57, 0, 45, 0, 59, 0, 0, 0, 29, 0, 0, 23, 0, 0, 0, 0, 32, 0, 0, 51, 0, 0, 0, 52, 4, 38, 40, 0
|0, 0, 6, 44, 0, 0, 0, 25, 0, 0, 0, 0, 0, 29, 64, 0, 0, 21, 0, 23, 15, 0, 37, 0, 0, 0, 0, 0, 0, 0, 0, 0, 0, 0, 0, 0, 61, 36, 71, 0, 0, 0, 0, 53, 0, 0, 0, 0, 0, 0, 0, 0, 0, 0, 20, 0, 26, 0, 0, 0, 0, 0, 0, 0, 0, 0, 41, 0, 0, 0, 0, 8, 81, 80, 0, 48, 0, 3, 0, 0, 73
|1, 32, 0, 0, 77, 0, 0, 0, 0, 0, 16, 0, 0, 68, 55, 0, 37, 0, 0, 0, 0, 59, 0, 41, 0, 0, 0, 27, 42, 0, 0, 74, 0, 0, 71, 0, 0, 0, 0, 69, 0, 0, 0, 0, 0, 0, 14, 0, 0, 31, 12, 0, 38, 0, 0, 0, 0, 19, 0, 0, 0, 0, 0, 78, 0, 0, 0, 18, 0, 20, 70, 0, 0, 0, 13, 8, 0, 0, 0, 0, 0
|0, 0, 0, 0, 56, 0, 0, 58, 0, 0, 0, 0, 0, 0, 0, 0, 0, 0, 0, 0, 0, 0, 0, 0, 68, 49, 0, 0, 0, 36, 14, 0, 0, 0, 52, 0, 0, 0, 0, 0, 45, 0, 8, 0, 0, 0, 0, 15, 0, 0, 0, 41, 0, 0, 0, 0, 17, 0, 0, 0, 0, 21, 0, 16, 0, 0, 0, 0, 0, 0, 1, 0, 0, 0, 25, 53, 0, 0, 0, 20, 0
|71, 68, 0, 0, 8, 0, 23, 0, 0, 0, 0, 48, 19, 0, 0, 0, 0, 75, 0, 0, 0, 35, 0, 0, 39, 17, 77, 0, 0, 20, 0, 0, 0, 41, 67, 0, 0, 55, 57, 0, 0, 62, 0, 6, 0, 78, 0, 0, 0, 0, 0, 0, 0, 56, 0, 0, 0, 0, 0, 0, 0, 34, 51, 0, 26, 0, 0, 0, 0, 0, 11, 0, 0, 0, 0, 0, 0, 60, 0, 30, 0
|19, 0, 34, 4, 0, 0, 0, 72, 63, 0, 0, 54, 0, 0, 0, 30, 0, 81, 0, 73, 77, 33, 0, 0, 0, 0, 0, 0, 27, 0, 0, 61, 0, 0, 0, 0, 2, 0, 75, 41, 15, 0, 0, 0, 58, 0, 0, 0, 0, 0, 0, 0, 0, 59, 22, 0, 0, 0, 0, 0, 0, 0, 0, 0, 29, 7, 16, 14, 35, 78, 52, 0, 0, 0, 0, 0, 23, 0, 0, 0, 70
|35, 0, 0, 0, 0, 43, 0, 0, 0, 0, 0, 32, 60, 55, 26, 69, 53, 62, 41, 46, 0, 11, 0, 0, 51, 0, 23, 0, 0, 0, 78, 0, 19, 0, 0, 0, 0, 0, 45, 0, 64, 0, 0, 50, 0, 0, 81, 0, 0, 0, 0, 34, 0, 0, 44, 0, 0, 56, 0, 17, 59, 0, 0, 25, 0, 0, 0, 0, 0, 15, 0, 33, 0, 2, 75, 0, 0, 0, 0, 0, 0
|69, 0, 0, 0, 0, 11, 0, 6, 0, 61, 0, 0, 45, 0, 13, 0, 0, 0, 0, 0, 0, 0, 0, 0, 31, 4, 0, 0, 0, 0, 53, 0, 0, 0, 0, 0, 0, 0, 0, 0, 0, 0, 0, 0, 0, 0, 18, 71, 67, 0, 0, 0, 0, 0, 34, 0, 0, 0, 50, 73, 3, 0, 0, 0, 80, 0, 44, 24, 30, 0, 0, 21, 0, 0, 0, 28, 0, 0, 35, 63, 0
|73, 0, 0, 0, 0, 24, 7, 0, 0, 0, 0, 0, 59, 0, 0, 0, 0, 0, 0, 0, 0, 0, 0, 0, 15, 0, 0, 0, 0, 0, 0, 0, 0, 36, 68, 38, 76, 0, 0, 62, 0, 0, 0, 0, 54, 0, 45, 0, 0, 0, 41, 0, 0, 0, 0, 0, 2, 5, 0, 0, 0, 0, 58, 0, 11, 0, 0, 66, 0, 0, 0, 0, 29, 0, 0, 9, 0, 0, 0, 60, 0
|15, 0, 0, 0, 0, 0, 0, 0, 0, 0, 0, 0, 0, 0, 0, 0, 0, 0, 0, 72, 49, 0, 7, 0, 0, 0, 36, 5, 69, 8, 25, 37, 77, 0, 0, 0, 0, 0, 59, 0, 74, 73, 0, 0, 65, 0, 0, 0, 60, 29, 0, 0, 0, 0, 0, 0, 35, 0, 0, 27, 16, 0, 0, 0, 0, 26, 0, 61, 0, 55, 0, 0, 0, 0, 0, 30, 0, 0, 0, 0, 0
|0, 36, 50, 5, 0, 30, 8, 0, 0, 34, 0, 0, 0, 0, 47, 0, 0, 0, 0, 0, 68, 0, 0, 0, 0, 24, 0, 0, 62, 0, 2, 0, 0, 0, 0, 0, 52, 0, 12, 16, 0, 0, 0, 0, 0, 0, 20, 33, 21, 0, 0, 46, 0, 0, 0, 0, 63, 0, 0, 11, 7, 76, 0, 39, 32, 77, 0, 0, 0, 0, 0, 0, 72, 53, 4, 0, 59, 0, 0, 0, 0
|32, 58, 0, 0, 0, 0, 56, 0, 0, 39, 0, 0, 0, 0, 73, 0, 0, 0, 34, 0, 0, 0, 76, 0, 0, 0, 0, 0, 0, 0, 16, 0, 0, 71, 0, 0, 55, 0, 0, 37, 0, 0, 0, 0, 21, 0, 10, 0, 0, 22, 0, 0, 0, 0, 72, 0, 20, 0, 30, 0, 0, 6, 45, 41, 9, 0, 0, 23, 70, 79, 4, 13, 0, 7, 0, 0, 0, 0, 0, 0, 0
|0, 29, 0, 0, 0, 21, 0, 0, 22, 0, 0, 17, 0, 0, 0, 48, 0, 0, 69, 0, 0, 0, 0, 0, 19, 0, 0, 20, 0, 0, 45, 0, 40, 0, 0, 0, 0, 56, 11, 77, 0, 0, 0, 0, 0, 0, 0, 0, 0, 16, 0, 0, 0, 61, 28, 0, 0, 0, 0, 13, 0, 0, 0, 0, 27, 0, 0, 12, 0, 0, 0, 0, 0, 25, 0, 0, 0, 0, 0, 0, 0
|17, 0, 31, 0, 0, 0, 0, 0, 61, 79, 8, 0, 0, 0, 0, 0, 0, 0, 78, 0, 0, 0, 30, 0, 0, 0, 37, 59, 33, 0, 0, 0, 67, 0, 0, 0, 0, 0, 0, 0, 0, 0, 69, 0, 34, 0, 0, 70, 0, 0, 0, 2, 0, 0, 0, 29, 43, 0, 52, 0, 47, 0, 0, 73, 0, 0, 0, 53, 0, 0, 0, 20, 38, 0, 0, 71, 0, 0, 6, 0, 76
|0, 0, 0, 0, 23, 0, 0, 0, 0, 0, 0, 0, 0, 0, 58, 0, 0, 66, 52, 0, 0, 0, 15, 0, 49, 67, 0, 0, 0, 0, 0, 8, 0, 0, 0, 0, 10, 0, 0, 0, 0, 2, 81, 0, 53, 60, 12, 0, 0, 0, 0, 24, 0, 0, 0, 0, 62, 0, 46, 4, 0, 65, 0, 0, 0, 0, 71, 0, 43, 0, 0, 0, 0, 0, 47, 0, 0, 0, 44, 0, 0
|79, 0, 24, 0, 59, 0, 0, 0, 0, 0, 0, 0, 18, 0, 0, 0, 0, 0, 0, 16, 56, 81, 0, 0, 0, 0, 8, 0, 50, 0, 0, 53, 0, 0, 0, 0, 0, 0, 0, 20, 60, 0, 45, 73, 0, 0, 0, 52, 0, 0, 0, 0, 74, 0, 40, 0, 72, 0, 0, 64, 0, 0, 0, 51, 0, 22, 0, 29, 0, 63, 6, 0, 0, 10, 0, 78, 0, 0, 11, 70, 0
|0, 0, 0, 50, 63, 0, 0, 0, 0, 0, 0, 0, 0, 0, 10, 0, 0, 43, 0, 0, 47, 12, 0, 0, 0, 0, 61, 52, 0, 0, 31, 0, 73, 64, 0, 4, 0, 0, 0, 78, 0, 19, 0, 0, 51, 0, 36, 0, 0, 0, 0, 0, 0, 41, 3, 69, 0, 11, 0, 0, 0, 0, 0, 0, 0, 72, 0, 0, 0, 0, 0, 0, 80, 0, 0, 27, 26, 0, 0, 29, 0
|0, 0, 4, 0, 0, 77, 76, 0, 0, 47, 39, 0, 0, 48, 23, 0, 0, 0, 0, 0, 0, 50, 0, 9, 0, 0, 0, 0, 0, 0, 0, 0, 36, 0, 18, 0, 0, 0, 0, 28, 33, 0, 0, 0, 0, 69, 0, 0, 10, 0, 0, 0, 0, 0, 0, 6, 0, 0, 0, 0, 0, 54, 0, 0, 0, 0, 0, 0, 0, 70, 0, 0, 0, 51, 0, 38, 41, 0, 0, 2, 0
|11, 0, 0, 14, 0, 0, 0, 71, 0, 0, 0, 0, 63, 0, 22, 0, 0, 0, 0, 0, 0, 20, 0, 0, 0, 31, 64, 0, 0, 67, 0, 0, 38, 9, 0, 0, 21, 66, 36, 0, 0, 0, 0, 0, 0, 0, 0, 0, 53, 0, 0, 0, 0, 0, 0, 0, 51, 0, 33, 0, 0, 0, 0, 0, 0, 1, 0, 0, 0, 0, 0, 26, 16, 0, 0, 25, 72, 23, 0, 0, 0
|0, 0, 72, 0, 35, 20, 0, 0, 0, 4, 0, 0, 0, 49, 0, 0, 0, 16, 0, 68, 43, 27, 5, 0, 0, 0, 0, 0, 28, 0, 0, 0, 0, 0, 1, 39, 0, 0, 0, 48, 0, 0, 6, 0, 0, 0, 77, 0, 0, 70, 0, 13, 33, 0, 0, 0, 0, 0, 0, 0, 19, 0, 29, 14, 0, 21, 60, 78, 0, 0, 0, 0, 0, 0, 0, 40, 36, 0, 0, 34, 0
|0, 0, 0, 2, 7, 0, 0, 29, 0, 0, 3, 0, 0, 81, 67, 50, 68, 0, 0, 0, 0, 13, 0, 0, 0, 76, 0, 0, 0, 0, 0, 60, 66, 0, 0, 0, 0, 0, 0, 0, 0, 0, 0, 0, 0, 0, 0, 0, 80, 34, 0, 0, 31, 23, 63, 0, 0, 0, 0, 0, 0, 15, 48, 36, 0, 0, 0, 0, 0, 41, 0, 0, 0, 0, 0, 4, 0, 0, 0, 0, 18
|47, 0, 61, 0, 0, 0, 0, 0, 81, 0, 0, 70, 36, 7, 0, 0, 0, 19, 0, 0, 0, 0, 71, 26, 54, 0, 0, 6, 55, 80, 33, 10, 0, 0, 0, 0, 0, 0, 0, 0, 11, 0, 0, 0, 0, 0, 0, 22, 0, 14, 0, 0, 0, 0, 0, 0, 0, 0, 0, 0, 0, 0, 0, 44, 0, 57, 0, 0, 0, 0, 0, 0, 31, 0, 28, 0, 1, 64, 0, 0, 0
|66, 74, 68, 56, 18, 0, 0, 0, 0, 0, 0, 0, 0, 75, 0, 0, 59, 0, 0, 0, 0, 70, 0, 57, 0, 0, 6, 0, 0, 0, 0, 0, 35, 0, 0, 46, 0, 22, 0, 14, 0, 29, 0, 0, 0, 25, 0, 49, 0, 0, 0, 0, 0, 0, 0, 0, 0, 0, 20, 0, 0, 0, 0, 0, 0, 0, 0, 32, 8, 0, 28, 23, 0, 0, 0, 0, 0, 9, 0, 0, 0
|65, 0, 0, 0, 0, 0, 0, 0, 0, 0, 46, 0, 0, 0, 32, 0, 0, 48, 0, 0, 66, 0, 0, 0, 0, 78, 0, 0, 0, 0, 58, 0, 0, 0, 0, 0, 71, 0, 0, 0, 0, 11, 0, 0, 0, 0, 0, 0, 0, 0, 0, 0, 0, 0, 0, 0, 0, 0, 16, 28, 0, 31, 0, 27, 50, 0, 54, 5, 14, 0, 37, 0, 0, 0, 26, 0, 0, 0, 0, 0, 53
|0, 0, 0, 8, 0, 0, 0, 0, 0, 0, 0, 0, 0, 3, 0, 0, 12, 54, 0, 0, 18, 0, 0, 0, 0, 77, 71, 0, 24, 0, 0, 0, 0, 1, 0, 0, 0, 0, 79, 0, 27, 0, 0, 0, 28, 0, 0, 61, 0, 0, 49, 0, 32, 0, 0, 0, 0, 0, 0, 0, 0, 0, 33, 0, 0, 0, 0, 38, 53, 0, 0, 0, 0, 0, 0, 0, 0, 0, 0, 0, 0
|0, 30, 0, 0, 0, 0, 0, 59, 0, 24, 0, 0, 56, 0, 0, 0, 0, 0, 0, 15, 0, 0, 0, 47, 46, 0, 0, 41, 0, 79, 0, 0, 69, 45, 0, 0, 37, 0, 0, 68, 0, 0, 2, 0, 0, 0, 23, 0, 0, 0, 0, 0, 43, 22, 66, 64, 61, 27, 29, 0, 0, 0, 4, 0, 44, 0, 0, 49, 60, 0, 26, 0, 0, 40, 0, 0, 0, 0, 18, 0, 0
|0, 0, 0, 17, 0, 0, 3, 0, 0, 0, 6, 0, 0, 0, 0, 0, 69, 0, 0, 0, 0, 49, 20, 0, 0, 0, 0, 0, 73, 0, 76, 0, 0, 0, 0, 22, 0, 0, 0, 0, 0, 0, 0, 0, 0, 9, 0, 0, 0, 0, 0, 10, 0, 0, 0, 0, 0, 0, 51, 0, 0, 13, 24, 0, 0, 0, 0, 42, 45, 0, 0, 0, 0, 0, 0, 31, 0, 0, 0, 37, 0
|0, 0, 43, 75, 80, 0, 0, 0, 0, 0, 30, 49, 0, 0, 0, 78, 0, 0, 0, 0, 0, 74, 0, 0, 13, 0, 81, 0, 0, 44, 0, 0, 0, 0, 62, 20, 0, 0, 58, 0, 25, 69, 0, 0, 0, 0, 0, 73, 0, 11, 0, 0, 0, 48, 0, 0, 0, 0, 0, 0, 0, 0, 0, 0, 0, 0, 0, 40, 39, 0, 0, 0, 0, 0, 41, 0, 0, 0, 0, 0, 0
|23, 0, 37, 47, 9, 0, 11, 0, 74, 76, 36, 0, 0, 0, 0, 31, 18, 0, 30, 0, 0, 0, 0, 0, 0, 0, 0, 46, 10, 0, 0, 0, 0, 8, 0, 0, 0, 0, 0, 0, 0, 0, 0, 0, 0, 0, 0, 0, 0, 0, 75, 0, 0, 0, 49, 0, 0, 0, 72, 0, 60, 32, 68, 0, 12, 0, 0, 0, 0, 0, 0, 0, 0, 0, 0, 0, 0, 0, 70, 61, 0
|61, 0, 0, 0, 0, 0, 0, 0, 48, 0, 0, 0, 0, 0, 0, 33, 16, 0, 0, 0, 24, 60, 56, 0, 0, 0, 0, 0, 0, 0, 37, 0, 59, 0, 0, 0, 0, 0, 0, 8, 0, 41, 0, 18, 0, 0, 30, 0, 0, 0, 31, 0, 0, 13, 0, 0, 0, 0, 0, 0, 0, 0, 0, 0, 0, 0, 23, 72, 62, 0, 0, 0, 0, 0, 0, 42, 0, 0, 0, 57, 0
|0, 0, 0, 0, 27, 36, 0, 0, 0, 65, 0, 0, 0, 0, 81, 0, 0, 55, 0, 0, 0, 0, 52, 37, 0, 0, 0, 0, 5, 0, 0, 0, 63, 0, 0, 54, 56, 0, 50, 0, 0, 23, 0, 62, 10, 0, 0, 0, 0, 0, 44, 0, 0, 0, 53, 0, 0, 35, 0, 0, 0, 48, 0, 0, 64, 0, 20, 0, 0, 0, 0, 0, 0, 68, 0, 0, 0, 0, 30, 8, 0
|0, 57, 0, 0, 0, 0, 0, 0, 46, 0, 4, 51, 17, 80, 5, 0, 26, 72, 36, 0, 0, 0, 38, 0, 0, 0, 0, 0, 0, 0, 0, 0, 0, 0, 0, 0, 20, 24, 48, 55, 0, 59, 0, 0, 60, 0, 0, 0, 0, 0, 0, 28, 0, 0, 77, 3, 0, 0, 0, 0, 0, 8, 0, 68, 0, 0, 0, 0, 22, 61, 0, 0, 32, 23, 0, 6, 0, 0, 0, 71, 0
|0, 2, 75, 0, 47, 78, 0, 0, 0, 5, 45, 0, 0, 0, 0, 0, 19, 0, 0, 57, 0, 0, 43, 0, 0, 65, 11, 0, 0, 27, 29, 0, 0, 6, 0, 0, 0, 0, 0, 0, 0, 81, 0, 17, 0, 0, 0, 0, 0, 0, 0, 0, 0, 0, 56, 0, 36, 0, 0, 0, 32, 9, 0, 49, 18, 54, 0, 0, 0, 34, 0, 74, 0, 0, 73, 0, 0, 15, 0, 0, 12
|72, 0, 0, 46, 0, 0, 0, 0, 0, 0, 0, 37, 21, 0, 69, 74, 65, 0, 0, 0, 60, 0, 0, 0, 0, 0, 0, 0, 0, 0, 0, 39, 62, 15, 9, 0, 0, 0, 0, 0, 0, 0, 0, 0, 0, 0, 0, 0, 59, 0, 43, 0, 75, 0, 0, 0, 73, 0, 0, 33, 0, 0, 70, 0, 0, 17, 0, 0, 5, 64, 0, 0, 0, 13, 61, 55, 0, 0, 0, 0, 0
|0, 79, 0, 0, 0, 38, 0, 19, 0, 0, 25, 11, 68, 0, 0, 0, 49, 0, 0, 0, 0, 0, 67, 0, 0, 0, 0, 33, 53, 45, 0, 0, 14, 0, 0, 0, 0, 0, 60, 0, 50, 0, 0, 0, 0, 0, 0, 34, 0, 47, 0, 0, 13, 0, 0, 0, 0, 0, 0, 0, 0, 0, 0, 7, 0, 0, 0, 55, 42, 0, 0, 29, 4, 54, 0, 0, 0, 0, 0, 31, 80
|33, 0, 55, 0, 0, 0, 74, 0, 35, 0, 0, 0, 8, 0, 51, 0, 0, 30, 0, 0, 0, 0, 0, 0, 0, 0, 0, 0, 68, 78, 20, 0, 0, 0, 0, 71, 36, 0, 2, 5, 0, 0, 0, 0, 19, 0, 32, 0, 0, 0, 17, 0, 0, 0, 0, 28, 65, 52, 58, 0, 75, 0, 0, 0, 0, 0, 0, 0, 40, 0, 0, 0, 49, 0, 0, 22, 63, 0, 0, 0, 0
|0, 0, 14, 0, 0, 26, 0, 0, 29, 0, 0, 0, 0, 0, 4, 0, 0, 0, 39, 0, 0, 0, 0, 0, 0, 0, 0, 76, 60, 23, 0, 0, 0, 0, 0, 0, 0, 73, 0, 0, 0, 0, 0, 51, 0, 0, 0, 0, 16, 44, 0, 0, 0, 0, 0, 0, 0, 0, 80, 0, 0, 0, 0, 0, 0, 0, 0, 71, 0, 53, 77, 0, 0, 0, 0, 0, 0, 0, 0, 0, 0
|0, 39, 0, 0, 0, 0, 27, 21, 0, 0, 0, 10, 16, 0, 0, 0, 0, 0, 0, 5, 0, 0, 0, 49, 0, 0, 0, 36, 0, 0, 0, 47, 0, 0, 0, 0, 0, 0, 0, 0, 0, 0, 48, 0, 78, 0, 8, 79, 25, 0, 0, 0, 0, 0, 0, 0, 12, 0, 0, 0, 0, 0, 0, 0, 60, 0, 68, 0, 0, 0, 0, 56, 9, 0, 0, 0, 29, 0, 0, 0, 0
|0, 43, 15, 0, 32, 0, 17, 0, 0, 0, 26, 22, 0, 0, 78, 71, 55, 0, 0, 0, 9, 69, 0, 0, 0, 13, 0, 54, 0, 0, 80, 0, 2, 18, 0, 0, 53, 0, 0, 0, 0, 4, 23, 0, 0, 11, 0, 0, 0, 0, 5, 0, 0, 0, 29, 81, 0, 0, 27, 77, 0, 0, 0, 0, 0, 3, 39, 0, 0, 0, 0, 0, 0, 0, 0, 0, 0, 0, 51, 65, 0
|58, 0, 0, 0, 0, 0, 0, 0, 0, 0, 48, 73, 24, 39, 0, 53, 0, 0, 0, 0, 0, 7, 0, 0, 0, 50, 0, 0, 40, 0, 0, 26, 79, 0, 5, 0, 3, 0, 0, 0, 0, 0, 33, 0, 0, 0, 0, 0, 0, 49, 0, 0, 1, 12, 0, 0, 0, 55, 23, 0, 0, 0, 0, 10, 25, 0, 52, 0, 6, 0, 0, 0, 30, 0, 0, 0, 18, 0, 20, 0, 0
|0, 0, 0, 0, 24, 53, 68, 31, 54, 0, 40, 0, 0, 0, 0, 66, 0, 0, 12, 36, 46, 64, 75, 0, 0, 0, 0, 67, 81, 0, 0, 35, 0, 25, 0, 0, 49, 0, 0, 45, 0, 0, 0, 0, 0, 29, 0, 0, 0, 71, 0, 0, 27, 0, 8, 0, 0, 0, 0, 0, 5, 0, 0, 0, 0, 28, 0, 0, 0, 0, 0, 0, 77, 0, 0, 0, 0, 34, 42, 0, 39
|0, 0, 0, 63, 0, 27, 0, 0, 18, 0, 0, 0, 2, 45, 1, 75, 46, 0, 51, 0, 53, 0, 0, 0, 0, 0, 0, 0, 0, 70, 67, 0, 0, 0, 0, 0, 0, 0, 0, 0, 0, 0, 0, 0, 0, 10, 0, 0, 0, 0, 0, 0, 0, 71, 43, 0, 0, 0, 0, 0, 0, 0, 38, 0, 0, 0, 0, 36, 0, 0, 25, 0, 0, 52, 0, 0, 0, 17, 0, 55, 4
|0, 0, 79, 0, 0, 25, 0, 0, 7, 0, 51, 3, 0, 22, 0, 20, 0, 0, 0, 0, 0, 0, 0, 0, 0, 68, 2, 49, 43, 73, 13, 0, 0, 0, 0, 0, 0, 0, 0, 0, 0, 0, 0, 63, 0, 0, 11, 4, 0, 0, 74, 0, 0, 0, 18, 0, 0, 26, 0, 0, 0, 0, 0, 61, 0, 32, 0, 0, 0, 39, 0, 77, 0, 19, 5, 0, 28, 30, 0, 0, 0
|0, 0, 17, 26, 0, 0, 0, 48, 72, 0, 0, 0, 35, 0, 0, 76, 0, 0, 0, 0, 0, 0, 0, 0, 0, 0, 0, 0, 0, 0, 18, 0, 24, 23, 0, 15, 0, 8, 53, 0, 0, 0, 13, 0, 0, 0, 0, 55, 0, 59, 0, 77, 0, 0, 0, 0, 7, 0, 0, 0, 0, 0, 49, 63, 0, 0, 29, 0, 0, 16, 0, 0, 0, 0, 0, 0, 61, 0, 0, 0, 0
|45, 0, 0, 0, 0, 0, 0, 49, 0, 0, 66, 34, 25, 70, 0, 0, 62, 68, 0, 0, 0, 0, 72, 0, 20, 19, 0, 4, 0, 0, 64, 0, 71, 0, 0, 0, 0, 65, 0, 0, 52, 0, 0, 0, 15, 37, 0, 23, 0, 0, 0, 0, 0, 0, 0, 0, 0, 67, 0, 29, 0, 0, 60, 0, 0, 0, 0, 0, 0, 0, 0, 0, 0, 0, 18, 0, 53, 31, 0, 0, 0
|0, 31, 19, 0, 0, 0, 0, 39, 34, 0, 0, 0, 0, 44, 0, 59, 0, 24, 0, 0, 76, 0, 58, 62, 41, 0, 46, 0, 0, 0, 0, 52, 0, 0, 0, 0, 11, 28, 1, 80, 0, 0, 0, 4, 0, 0, 0, 26, 0, 0, 0, 18, 17, 0, 45, 0, 0, 61, 63, 66, 0, 0, 21, 0, 81, 0, 0, 70, 0, 0, 10, 0, 50, 0, 0, 47, 0, 0, 32, 13, 56
|0, 12, 0, 0, 52, 0, 0, 0, 0, 9, 0, 72, 0, 0, 17, 0, 0, 42, 0, 0, 73, 0, 0, 0, 0, 0, 0, 29, 0, 25, 39, 0, 32, 0, 0, 0, 0, 0, 0, 0, 0, 0, 60, 7, 22, 61, 0, 0, 6, 5, 8, 19, 0, 0, 0, 0, 56, 0, 0, 0, 0, 27, 53, 0, 0, 0, 78, 0, 2, 0, 0, 0, 0, 0, 0, 0, 0, 10, 34, 0, 49
|43, 60, 0, 0, 0, 0, 0, 0, 0, 0, 0, 58, 0, 0, 0, 0, 0, 0, 64, 77, 0, 0, 0, 0, 0, 0, 59, 0, 34, 0, 0, 2, 0, 0, 0, 56, 51, 0, 44, 0, 62, 0, 0, 12, 79, 0, 31, 13, 0, 66, 76, 0, 48, 0, 55, 41, 0, 22, 0, 0, 0, 0, 0, 0, 65, 0, 0, 46, 18, 52, 0, 4, 0, 0, 0, 0, 0, 0, 0, 0, 0
|0, 35, 58, 0, 2, 67, 46, 23, 0, 0, 0, 0, 0, 40, 0, 0, 0, 0, 0, 0, 0, 0, 61, 0, 69, 0, 0, 0, 48, 0, 0, 0, 33, 0, 0, 53, 31, 54, 0, 64, 56, 0, 20, 0, 0, 0, 0, 0, 0, 0, 21, 0, 41, 0, 0, 0, 28, 24, 0, 0, 0, 80, 6, 0, 34, 0, 0, 0, 0, 0, 0, 0, 60, 0, 0, 0, 81, 7, 0, 0, 0
|0, 0, 33, 0, 0, 75, 0, 0, 0, 0, 0, 0, 0, 56, 0, 41, 0, 0, 0, 0, 0, 0, 0, 10, 0, 0, 0, 0, 0, 0, 22, 0, 0, 0, 36, 62, 0, 0, 0, 0, 34, 6, 35, 0, 0, 0, 0, 68, 0, 0, 0, 0, 60, 49, 0, 0, 0, 39, 73, 0, 31, 0, 81, 0, 0, 59, 0, 19, 0, 40, 0, 0, 0, 0, 0, 0, 0, 0, 0, 0, 0
|0, 0, 0, 0, 0, 0, 0, 0, 0, 68, 0, 0, 0, 0, 30, 0, 0, 0, 74, 0, 0, 0, 0, 53, 0, 0, 0, 73, 0, 0, 54, 0, 0, 0, 23, 0, 7, 0, 0, 0, 9, 0, 0, 0, 0, 0, 0, 0, 0, 0, 0, 0, 0, 0, 0, 33, 69, 0, 3, 0, 0, 36, 65, 0, 63, 0, 45, 0, 0, 0, 0, 0, 0, 0, 0, 0, 0, 0, 0, 0, 48
|7, 0, 0, 0, 66, 0, 0, 0, 0, 0, 0, 0, 76, 0, 0, 23, 0, 0, 0, 0, 0, 0, 0, 0, 67, 0, 0, 0, 0, 0, 0, 14, 0, 0, 0, 0, 72, 0, 0, 0, 0, 0, 0, 0, 30, 0, 0, 0, 0, 0, 0, 31, 0, 0, 0, 0, 0, 0, 0, 0, 0, 0, 0, 0, 49, 0, 65, 44, 0, 0, 0, 0, 0, 9, 55, 0, 0, 0, 0, 0, 0
|0, 0, 0, 0, 0, 10, 0, 0, 30, 46, 33, 0, 0, 0, 0, 0, 0, 0, 13, 0, 0, 0, 0, 0, 0, 3, 38, 0, 52, 0, 0, 0, 0, 0, 0, 0, 0, 58, 0, 0, 0, 0, 0, 36, 23, 0, 0, 0, 0, 0, 0, 78, 76, 0, 0, 47, 0, 0, 0, 0, 25, 63, 0, 0, 0, 0, 42, 15, 0, 0, 0, 43, 71, 0, 6, 0, 0, 0, 0, 0, 0
|0, 0, 65, 58, 29, 0, 0, 0, 0, 0, 0, 0, 0, 19, 0, 12, 0, 0, 0, 0, 0, 0, 0, 0, 0, 0, 0, 0, 79, 0, 0, 0, 68, 0, 0, 44, 0, 49, 0, 0, 0, 74, 0, 0, 0, 0, 0, 0, 52, 40, 0, 0, 0, 50, 0, 0, 0, 0, 0, 0, 0, 0, 0, 0, 0, 0, 0, 0, 0, 0, 0, 0, 0, 33, 60, 0, 0, 0, 0, 28, 0
|63, 0, 74, 67, 68, 17, 0, 0, 0, 0, 49, 0, 0, 0, 0, 0, 0, 0, 0, 30, 0, 2, 0, 0, 0, 0, 0, 0, 37, 0, 24, 18, 13, 0, 0, 42, 40, 26, 0, 0, 0, 0, 3, 0, 0, 79, 0, 0, 0, 33, 25, 48, 0, 0, 50, 0, 0, 0, 28, 78, 39, 0, 23, 77, 0, 0, 0, 0, 0, 0, 0, 0, 0, 0, 0, 0, 0, 0, 0, 0, 0
|0, 76, 42, 0, 12, 0, 0, 0, 0, 0, 0, 29, 0, 0, 0, 0, 0, 0, 0, 0, 0, 0, 0, 0, 44, 0, 41, 0, 0, 0, 0, 7, 0, 0, 0, 0, 0, 0, 0, 0, 0, 0, 0, 59, 0, 0, 0, 0, 0, 20, 11, 0, 0, 0, 10, 0, 16, 0, 0, 0, 0, 0, 0, 0, 52, 0, 0, 9, 0, 0, 0, 0, 0, 0, 0, 18, 0, 0, 0, 0, 0
|0, 0, 0, 0, 0, 54, 0, 0, 0, 28, 69, 0, 0, 0, 7, 45, 0, 0, 20, 63, 65, 0, 0, 0, 61, 0, 0, 0, 78, 66, 0, 0, 17, 33, 53, 0, 18, 0, 0, 0, 0, 0, 0, 0, 43, 34, 0, 0, 0, 0, 0, 0, 49, 0, 14, 0, 44, 0, 48, 0, 26, 30, 22, 0, 74, 0, 55, 0, 32, 0, 0, 0, 0, 0, 0, 0, 0, 27, 0, 0, 42
|0, 13, 0, 0, 36, 0, 0, 0, 1, 0, 0, 24, 0, 11, 0, 0, 72, 0, 0, 0, 0, 52, 33, 0, 0, 0, 47, 0, 0, 0, 0, 45, 0, 0, 28, 0, 0, 53, 73, 0, 37, 0, 0, 0, 0, 43, 0, 29, 0, 32, 0, 57, 0, 9, 0, 0, 0, 0, 0, 19, 18, 7, 54, 8, 0, 25, 0, 20, 78, 0, 0, 60, 0, 0, 0, 0, 0, 0, 0, 0, 0
|0, 0, 0, 0, 79, 0, 0, 0, 0, 0, 0, 0, 0, 0, 66, 1, 0, 73, 9, 0, 50, 8, 48, 0, 0, 0, 0, 0, 0, 0, 0, 0, 49, 43, 0, 3, 68, 46, 0, 42, 0, 0, 0, 34, 63, 0, 0, 0, 44, 0, 0, 0, 80, 0, 0, 76, 0, 0, 0, 0, 72, 0, 0, 28, 0, 29, 18, 0, 26, 0, 0, 0, 47, 0, 0, 32, 35, 62, 0, 54, 21|];