order = 9;
grid = [|0, 50, 0, 0, 0, 0, 0, 0, 0, 0, 0, 0, 26, 0, 8, 0, 0, 70, 0, 0, 23, 0, 0, 31, 0, 0, 0, 75, 16, 0, 67, 0, 0, 0, 61, 0, 0, 0, 0, 69, 59, 72, 0, 47, 0, 0, 0, 13, 0, 0, 37, 0, 63, 0, 0, 0, 5, 0, 0, 7, 51, 0, 0, 21, 10, 0, 0, 0, 0, 73, 0, 0, 0, 0, 64, 0, 0, 0, 0, 0, 14
|0, 0, 6, 51, 0, 16, 79, 0, 0, 44, 0, 17, 0, 0, 50, 0, 53, 0, 40, 33, 49, 76, 0, 11, 0, 0, 0, 0, 1, 28, 0, 0, 73, 0, 0, 4, 0, 0, 0, 0, 0, 0, 0, 0, 0, 0, 0, 0, 7, 66, 0, 68, 34, 43, 0, 0, 0, 0, 15, 74, 0, 0, 0, 0, 0, 0, 0, 0, 0, 32, 0, 45, 52, 59, 0, 0, 0, 5, 0, 0, 58
|0, 0, 23, 0, 0, 0, 0, 46, 0, 0, 0, 7, 59, 0, 0, 0, 0, 0, 14, 0, 0, 69, 0, 0, 0, 19, 0, 0, 0, 0, 0, 0, 0, 0, 0, 11, 61, 8, 65, 74, 0, 0, 0, 0, 0, 3, 0, 0, 0, 0, 0, 0, 0, 0, 0, 0, 0, 0, 44, 0, 18, 0, 0, 52, 0, 0, 0, 0, 0, 0, 0, 0, 0, 30, 0, 0, 0, 21, 0, 0, 0
|0, 1, 0, 8, 0, 0, 0, 0, 0, 34, 0, 45, 0, 0, 0, 0, 61, 68, 57, 0, 0, 39, 0, 0, 56, 30, 0, 0, 0, 37, 27, 54, 0, 0, 0, 42, 7, 0, 0, 0, 29, 0, 0, 0, 0, 0, 72, 0, 35, 6, 0, 0, 78, 11, 0, 0, 13, 0, 0, 0, 36, 0, 48, 0, 51, 50, 0, 33, 0, 0, 0, 0, 77, 80, 0, 0, 15, 0, 0, 0, 0
|0, 0, 0, 0, 0, 2, 0, 0, 0, 0, 0, 0, 0, 0, 0, 0, 51, 0, 0, 0, 0, 0, 0, 0, 0, 0, 0, 0, 0, 0, 0, 0, 0, 0, 0, 0, 0, 15, 0, 0, 0, 49, 0, 68, 35, 0, 0, 46, 54, 65, 0, 0, 0, 0, 0, 24, 0, 37, 0, 0, 0, 6, 34, 0, 0, 0, 38, 0, 0, 0, 0, 0, 27, 0, 0, 39, 31, 50, 28, 25, 9
|0, 0, 0, 0, 62, 0, 0, 9, 0, 30, 0, 27, 0, 0, 63, 2, 0, 0, 0, 0, 43, 0, 0, 66, 0, 0, 0, 53, 0, 0, 68, 0, 57, 0, 6, 5, 0, 0, 20, 0, 0, 0, 0, 0, 0, 0, 0, 44, 0, 39, 0, 0, 0, 0, 0, 0, 0, 0, 0, 61, 21, 0, 38, 0, 0, 81, 0, 0, 0, 0, 0, 0, 0, 10, 0, 0, 0, 54, 0, 4, 72
|0, 0, 0, 0, 27, 0, 0, 0, 43, 0, 21, 0, 0, 0, 0, 0, 0, 0, 0, 59, 25, 70, 0, 61, 0, 0, 0, 69, 0, 0, 45, 0, 10, 0, 65, 3, 0, 0, 0, 0, 0, 0, 0, 32, 0, 0, 0, 0, 0, 56, 36, 0, 0, 0, 64, 0, 67, 0, 0, 75, 0, 0, 0, 0, 80, 0, 0, 0, 0, 9, 0, 0, 8, 0, 0, 0, 34, 1, 0, 81, 0
|0, 0, 0, 24, 21, 37, 0, 0, 0, 80, 42, 0, 0, 0, 0, 0, 0, 0, 0, 0, 74, 6, 7, 0, 0, 0, 0, 0, 19, 0, 0, 48, 0, 0, 0, 0, 0, 0, 45, 9, 0, 0, 1, 0, 0, 0, 73, 0, 8, 0, 0, 0, 50, 0, 0, 0, 31, 0, 0, 23, 76, 4, 0, 0, 0, 0, 0, 0, 2, 79, 0, 0, 0, 0, 0, 13, 0, 0, 0, 35, 20
|0, 28, 0, 64, 33, 36, 0, 0, 0, 0, 0, 0, 0, 4, 0, 0, 20, 0, 0, 21, 0, 0, 0, 0, 0, 0, 0, 0, 41, 0, 0, 0, 63, 0, 0, 0, 0, 0, 0, 0, 16, 0, 0, 0, 78, 0, 0, 30, 0, 0, 53, 81, 9, 0, 79, 0, 58, 73, 0, 25, 0, 0, 0, 0, 0, 0, 0, 74, 0, 0, 0, 0, 0, 0, 0, 0, 0, 0, 0, 3, 0
|0, 69, 53, 0, 0, 0, 0, 14, 2, 0, 0, 5, 78, 0, 65, 0, 0, 0, 0, 0, 0, 13, 0, 0, 0, 0, 0, 48, 62, 0, 0, 0, 0, 0, 0, 0, 0, 34, 59, 33, 0, 27, 0, 0, 0, 0, 80, 0, 0, 0, 0, 0, 0, 0, 0, 0, 22, 0, 0, 40, 0, 0, 0, 0, 0, 9, 0, 0, 41, 10, 72, 0, 0, 0, 71, 0, 0, 26, 0, 24, 0
|0, 3, 0, 10, 0, 57, 0, 75, 0, 0, 0, 0, 0, 48, 0, 0, 0, 0, 47, 0, 0, 0, 0, 35, 0, 0, 73, 0, 68, 0, 0, 0, 0, 18, 0, 51, 40, 0, 5, 0, 0, 0, 46, 0, 50, 0, 0, 0, 0, 71, 77, 56, 0, 0, 0, 7, 49, 0, 0, 0, 0, 36, 70, 38, 44, 0, 24, 53, 30, 0, 0, 0, 79, 22, 0, 0, 39, 0, 0, 0, 4
|0, 0, 0, 9, 58, 0, 43, 0, 0, 0, 0, 0, 0, 8, 0, 20, 0, 0, 12, 0, 0, 71, 0, 0, 0, 0, 0, 21, 0, 73, 64, 81, 0, 0, 44, 0, 0, 0, 18, 0, 0, 0, 54, 0, 0, 0, 0, 35, 10, 79, 0, 0, 59, 0, 2, 0, 19, 0, 0, 0, 0, 0, 0, 0, 0, 0, 0, 0, 65, 0, 0, 55, 0, 0, 0, 30, 0, 0, 27, 0, 0
|0, 26, 0, 0, 64, 0, 0, 0, 0, 41, 0, 0, 0, 0, 0, 0, 36, 0, 0, 0, 0, 0, 72, 5, 0, 79, 27, 0, 80, 0, 49, 14, 0, 16, 0, 0, 0, 78, 2, 15, 0, 51, 0, 0, 0, 0, 75, 0, 67, 0, 47, 0, 0, 0, 0, 58, 77, 0, 0, 0, 3, 0, 12, 0, 0, 23, 0, 76, 0, 0, 70, 0, 0, 0, 0, 61, 55, 0, 0, 0, 0
|0, 0, 0, 0, 0, 0, 0, 0, 62, 59, 0, 35, 0, 0, 0, 0, 50, 0, 0, 0, 41, 57, 0, 0, 0, 0, 42, 0, 0, 0, 0, 17, 13, 0, 0, 52, 26, 0, 0, 79, 0, 0, 60, 0, 0, 0, 44, 0, 0, 0, 24, 0, 0, 0, 0, 0, 0, 0, 0, 8, 33, 9, 0, 16, 0, 34, 1, 0, 0, 0, 0, 0, 0, 20, 54, 0, 0, 0, 0, 0, 0
|0, 29, 0, 0, 0, 0, 59, 37, 0, 10, 67, 0, 0, 76, 0, 0, 0, 0, 0, 70, 11, 0, 0, 51, 0, 74, 0, 0, 0, 0, 38, 0, 0, 0, 0, 0, 71, 0, 0, 0, 19, 52, 0, 0, 0, 0, 0, 0, 61, 0, 0, 32, 0, 0, 65, 0, 0, 0, 0, 0, 48, 0, 0, 0, 18, 0, 0, 43, 0, 0, 0, 0, 0, 0, 49, 0, 0, 0, 0, 0, 0
|0, 12, 79, 67, 36, 0, 0, 65, 0, 69, 0, 44, 0, 0, 0, 0, 0, 0, 31, 0, 46, 0, 0, 6, 0, 50, 26, 77, 58, 74, 0, 0, 71, 0, 0, 39, 0, 0, 0, 10, 0, 0, 0, 0, 0, 0, 34, 0, 17, 63, 0, 0, 0, 0, 45, 0, 75, 28, 0, 0, 13, 0, 56, 14, 68, 0, 0, 80, 0, 0, 66, 11, 42, 0, 0, 0, 8, 0, 0, 7, 0
|0, 74, 0, 0, 81, 0, 0, 0, 45, 63, 77, 0, 30, 0, 34, 0, 0, 0, 0, 14, 18, 0, 0, 0, 0, 0, 0, 31, 67, 0, 0, 0, 0, 0, 0, 0, 49, 0, 0, 0, 0, 21, 4, 65, 0, 11, 0, 48, 0, 0, 22, 6, 0, 0, 0, 0, 0, 10, 0, 0, 0, 0, 0, 0, 61, 0, 0, 13, 26, 58, 69, 0, 0, 2, 0, 0, 0, 0, 0, 0, 0
|25, 0, 0, 0, 0, 0, 0, 0, 35, 3, 0, 0, 0, 64, 0, 58, 16, 0, 10, 0, 0, 0, 0, 20, 0, 0, 0, 0, 0, 0, 61, 0, 79, 72, 0, 53, 0, 0, 28, 0, 0, 0, 0, 0, 0, 0, 0, 0, 13, 0, 55, 0, 0, 0, 68, 66, 0, 0, 0, 0, 0, 0, 62, 0, 0, 0, 0, 0, 32, 0, 71, 0, 0, 0, 0, 0, 0, 0, 0, 0, 21
|0, 0, 0, 0, 2, 0, 0, 0, 33, 0, 0, 31, 0, 22, 0, 0, 0, 16, 0, 0, 3, 0, 0, 0, 74, 0, 0, 0, 0, 0, 0, 71, 0, 10, 0, 0, 0, 52, 0, 81, 0, 0, 0, 45, 0, 0, 0, 0, 0, 0, 0, 0, 48, 0, 0, 0, 0, 0, 0, 0, 0, 13, 0, 0, 0, 0, 55, 9, 0, 0, 23, 0, 0, 56, 36, 0, 0, 40, 0, 0, 0
|0, 31, 26, 74, 0, 0, 0, 16, 4, 0, 0, 0, 72, 35, 0, 0, 7, 0, 0, 0, 0, 0, 15, 65, 0, 0, 0, 0, 75, 34, 20, 0, 1, 0, 0, 0, 0, 0, 0, 0, 0, 0, 0, 0, 0, 0, 45, 67, 69, 9, 0, 0, 0, 0, 0, 0, 53, 52, 59, 71, 0, 51, 0, 48, 0, 0, 0, 61, 0, 12, 0, 0, 0, 0, 37, 0, 0, 0, 0, 0, 0
|36, 0, 0, 0, 0, 20, 0, 0, 52, 0, 0, 18, 45, 0, 0, 0, 59, 0, 72, 34, 78, 0, 66, 0, 0, 0, 21, 0, 0, 0, 0, 0, 0, 0, 0, 0, 8, 0, 0, 14, 41, 0, 9, 0, 0, 0, 0, 0, 0, 35, 65, 0, 0, 0, 0, 0, 38, 0, 75, 0, 0, 0, 0, 0, 0, 0, 0, 0, 0, 0, 0, 0, 0, 0, 50, 0, 0, 0, 53, 0, 3
|0, 0, 0, 0, 45, 0, 0, 0, 0, 24, 0, 42, 0, 0, 0, 0, 65, 0, 71, 64, 10, 77, 0, 0, 39, 0, 17, 66, 63, 22, 9, 57, 0, 0, 0, 0, 0, 70, 0, 0, 53, 0, 0, 0, 44, 40, 0, 31, 0, 0, 43, 0, 0, 0, 0, 0, 0, 0, 41, 0, 0, 1, 0, 0, 78, 0, 0, 0, 81, 0, 56, 0, 13, 0, 72, 8, 0, 0, 0, 0, 0
|0, 0, 19, 27, 0, 43, 0, 0, 13, 46, 37, 0, 40, 0, 0, 0, 60, 0, 0, 0, 0, 0, 0, 62, 0, 0, 0, 0, 44, 26, 0, 0, 0, 73, 0, 0, 11, 7, 6, 71, 0, 12, 0, 0, 3, 0, 0, 0, 49, 0, 14, 0, 0, 0, 0, 48, 0, 36, 0, 0, 0, 0, 0, 22, 59, 74, 0, 20, 0, 0, 0, 0, 0, 0, 30, 0, 0, 0, 69, 0, 0
|0, 0, 0, 7, 0, 62, 0, 0, 0, 0, 0, 0, 0, 0, 13, 79, 0, 64, 53, 0, 0, 0, 57, 0, 0, 0, 35, 14, 0, 0, 0, 30, 0, 0, 28, 0, 0, 0, 46, 0, 0, 0, 0, 63, 0, 0, 19, 0, 0, 75, 0, 0, 0, 0, 0, 0, 0, 0, 0, 0, 0, 10, 0, 0, 0, 0, 0, 0, 0, 0, 0, 65, 0, 0, 0, 0, 9, 0, 0, 0, 0
|14, 0, 0, 0, 40, 0, 0, 0, 0, 5, 36, 0, 0, 9, 0, 0, 0, 0, 0, 63, 0, 0, 0, 0, 69, 0, 0, 0, 0, 0, 0, 0, 0, 0, 0, 0, 72, 0, 0, 0, 30, 0, 0, 0, 0, 0, 41, 10, 20, 0, 0, 0, 0, 23, 0, 0, 0, 0, 4, 56, 0, 68, 47, 0, 2, 24, 0, 35, 45, 0, 0, 7, 0, 51, 0, 64, 0, 0, 0, 0, 67
|51, 78, 0, 57, 0, 0, 0, 0, 0, 0, 0, 0, 0, 0, 0, 0, 10, 0, 0, 0, 0, 29, 0, 0, 0, 0, 31, 0, 4, 0, 19, 42, 0, 0, 0, 0, 39, 0, 0, 0, 0, 0, 0, 0, 0, 0, 0, 0, 26, 74, 0, 0, 55, 0, 0, 0, 0, 0, 6, 0, 72, 14, 0, 0, 0, 49, 0, 0, 0, 0, 38, 0, 24, 0, 0, 0, 0, 0, 1, 48, 0
|0, 0, 0, 72, 59, 0, 0, 0, 44, 0, 0, 47, 0, 0, 0, 0, 15, 29, 0, 0, 60, 0, 36, 0, 0, 0, 0, 0, 0, 0, 81, 0, 0, 0, 38, 0, 0, 0, 0, 54, 0, 50, 65, 2, 0, 0, 0, 0, 0, 12, 0, 0, 0, 0, 0, 43, 0, 33, 0, 70, 49, 0, 80, 0, 40, 0, 30, 0, 57, 0, 0, 0, 0, 0, 0, 14, 23, 0, 0, 11, 7
|0, 0, 0, 0, 0, 0, 0, 42, 21, 14, 0, 49, 23, 0, 64, 0, 0, 0, 0, 0, 0, 0, 62, 0, 0, 41, 11, 74, 0, 18, 31, 28, 0, 0, 0, 0, 0, 0, 72, 0, 0, 0, 0, 0, 0, 0, 0, 0, 0, 0, 0, 0, 0, 36, 0, 75, 24, 0, 0, 69, 0, 37, 0, 0, 0, 0, 0, 0, 0, 0, 0, 0, 39, 0, 34, 78, 0, 63, 0, 0, 2
|1, 0, 0, 0, 74, 0, 0, 0, 0, 0, 0, 0, 0, 32, 0, 0, 0, 0, 0, 0, 0, 0, 0, 19, 72, 0, 58, 79, 0, 48, 0, 53, 0, 24, 0, 0, 0, 0, 0, 0, 12, 22, 0, 0, 34, 18, 0, 0, 0, 43, 6, 75, 8, 0, 0, 0, 0, 41, 0, 0, 0, 0, 0, 0, 0, 0, 0, 14, 0, 61, 0, 0, 51, 69, 0, 45, 20, 0, 0, 0, 0
|0, 0, 0, 0, 0, 68, 0, 0, 0, 0, 39, 0, 13, 0, 0, 0, 0, 0, 0, 0, 0, 0, 0, 0, 18, 0, 0, 0, 37, 0, 4, 0, 52, 0, 0, 0, 0, 0, 19, 0, 0, 11, 17, 0, 0, 0, 0, 47, 0, 40, 0, 0, 0, 0, 23, 59, 50, 3, 0, 78, 0, 0, 0, 0, 0, 0, 26, 57, 0, 48, 0, 0, 0, 0, 65, 31, 0, 0, 0, 0, 0
|0, 73, 0, 0, 0, 0, 0, 0, 0, 0, 54, 29, 0, 0, 0, 0, 0, 0, 23, 20, 0, 0, 0, 0, 0, 0, 46, 0, 0, 0, 0, 0, 61, 0, 0, 0, 66, 0, 56, 0, 0, 69, 0, 67, 79, 10, 0, 0, 0, 0, 0, 0, 0, 0, 0, 0, 0, 31, 0, 0, 6, 0, 0, 32, 19, 0, 0, 45, 0, 0, 0, 0, 9, 0, 0, 0, 18, 0, 0, 0, 0
|0, 22, 0, 0, 76, 80, 0, 36, 0, 19, 18, 10, 46, 78, 11, 0, 0, 9, 0, 0, 0, 0, 0, 13, 81, 12, 37, 0, 0, 0, 0, 0, 40, 0, 62, 16, 0, 0, 0, 2, 0, 75, 71, 0, 0, 56, 0, 0, 74, 0, 69, 0, 0, 0, 0, 0, 0, 5, 0, 0, 0, 0, 0, 0, 0, 0, 73, 6, 0, 0, 33, 0, 0, 44, 38, 0, 0, 0, 0, 0, 48
|0, 0, 0, 71, 0, 38, 0, 0, 23, 16, 41, 0, 0, 31, 22, 0, 37, 0, 0, 0, 0, 0, 0, 0, 0, 0, 0, 54, 0, 57, 39, 0, 0, 0, 0, 0, 0, 0, 0, 58, 0, 6, 0, 0, 28, 0, 0, 73, 11, 0, 0, 0, 0, 76, 0, 0, 0, 0, 0, 0, 0, 0, 0, 0, 0, 0, 0, 0, 0, 0, 0, 62, 0, 36, 55, 0, 77, 74, 0, 17, 0
|15, 0, 0, 0, 0, 0, 0, 0, 5, 0, 0, 0, 0, 0, 59, 0, 0, 0, 0, 0, 0, 0, 50, 79, 0, 0, 0, 0, 0, 0, 0, 0, 0, 69, 0, 0, 0, 0, 0, 0, 73, 0, 0, 0, 23, 0, 35, 0, 30, 45, 17, 9, 0, 0, 44, 0, 0, 0, 0, 0, 0, 55, 0, 74, 0, 0, 0, 0, 0, 0, 0, 0, 56, 0, 0, 49, 0, 0, 0, 0, 0
|0, 49, 18, 0, 43, 0, 0, 72, 0, 0, 0, 0, 0, 63, 0, 36, 0, 42, 0, 71, 0, 0, 0, 53, 0, 0, 0, 0, 8, 0, 0, 0, 0, 0, 0, 0, 59, 0, 0, 0, 65, 0, 0, 0, 0, 0, 57, 16, 0, 0, 0, 0, 38, 0, 61, 60, 0, 0, 0, 0, 0, 2, 0, 50, 0, 0, 0, 0, 0, 0, 0, 0, 0, 40, 0, 1, 0, 0, 64, 28, 19
|0, 0, 0, 62, 3, 0, 0, 34, 79, 0, 0, 0, 0, 0, 0, 72, 0, 20, 0, 28, 0, 0, 0, 73, 0, 0, 0, 0, 0, 0, 46, 0, 0, 0, 49, 0, 0, 0, 0, 0, 8, 0, 0, 0, 0, 0, 0, 63, 0, 0, 0, 77, 0, 0, 48, 0, 11, 0, 0, 0, 0, 0, 0, 7, 1, 0, 0, 81, 68, 0, 0, 56, 0, 0, 0, 5, 0, 0, 41, 0, 0
|0, 0, 0, 0, 0, 0, 7, 0, 1, 0, 0, 0, 79, 0, 0, 0, 0, 0, 0, 0, 0, 0, 0, 10, 0, 0, 14, 0, 0, 0, 0, 49, 0, 0, 54, 65, 9, 0, 0, 0, 0, 60, 0, 0, 0, 0, 39, 5, 0, 0, 0, 0, 0, 0, 0, 0, 0, 0, 63, 0, 0, 44, 0, 0, 0, 11, 0, 75, 80, 3, 41, 0, 78, 0, 2, 0, 0, 0, 0, 0, 16
|18, 0, 0, 0, 51, 69, 2, 31, 0, 68, 0, 0, 0, 0, 67, 0, 0, 0, 0, 0, 26, 0, 0, 0, 0, 60, 15, 0, 61, 1, 0, 0, 0, 0, 0, 0, 29, 0, 0, 0, 52, 0, 0, 0, 12, 0, 55, 0, 0, 48, 41, 0, 79, 0, 0, 0, 56, 0, 28, 0, 0, 0, 0, 0, 0, 0, 45, 0, 0, 0, 8, 0, 0, 0, 0, 0, 0, 34, 74, 0, 5
|0, 0, 0, 0, 0, 60, 0, 0, 0, 0, 35, 39, 6, 0, 37, 0, 0, 0, 0, 0, 12, 0, 0, 81, 0, 0, 0, 0, 0, 0, 0, 5, 0, 26, 0, 0, 45, 0, 0, 0, 0, 0, 0, 0, 0, 0, 13, 0, 0, 0, 80, 31, 57, 47, 20, 0, 0, 51, 0, 0, 0, 0, 0, 44, 0, 0, 0, 0, 0, 0, 54, 9, 36, 0, 0, 0, 0, 0, 0, 0, 0
|0, 0, 0, 0, 0, 0, 0, 58, 0, 0, 0, 0, 42, 0, 9, 0, 0, 0, 0, 0, 0, 0, 0, 34, 0, 0, 0, 24, 0, 4, 0, 0, 0, 7, 0, 0, 0, 81, 0, 0, 0, 0, 43, 0, 6, 45, 0, 0, 0, 0, 0, 33, 71, 10, 31, 0, 0, 0, 0, 18, 78, 0, 0, 0, 67, 32, 66, 64, 38, 0, 0, 0, 48, 0, 0, 44, 0, 47, 0, 0, 0
|0, 0, 0, 0, 0, 0, 73, 0, 54, 0, 0, 36, 0, 0, 4, 0, 47, 51, 0, 16, 0, 0, 0, 70, 67, 0, 49, 32, 0, 0, 0, 0, 81, 0, 0, 0, 0, 0, 1, 0, 0, 0, 0, 8, 0, 0, 0, 0, 0, 0, 0, 19, 0, 52, 80, 0, 0, 12, 0, 6, 0, 0, 0, 0, 0, 0, 0, 0, 0, 0, 22, 0, 7, 0, 0, 0, 68, 0, 0, 0, 0
|11, 0, 0, 45, 0, 0, 0, 77, 9, 0, 0, 0, 0, 65, 53, 0, 0, 0, 68, 56, 0, 0, 18, 0, 0, 0, 0, 0, 0, 0, 0, 0, 51, 28, 0, 80, 0, 33, 0, 0, 0, 0, 0, 0, 0, 0, 0, 49, 0, 0, 67, 0, 0, 24, 0, 0, 52, 13, 3, 0, 0, 0, 0, 70, 0, 0, 0, 19, 0, 0, 0, 57, 0, 0, 6, 20, 58, 0, 0, 0, 61
|0, 0, 0, 40, 80, 0, 0, 0, 56, 0, 0, 0, 54, 0, 0, 0, 0, 0, 0, 0, 0, 0, 63, 0, 0, 0, 0, 20, 0, 0, 60, 0, 0, 0, 0, 0, 23, 41, 0, 11, 0, 0, 0, 0, 0, 0, 0, 77, 0, 76, 0, 0, 0, 0, 0, 0, 0, 0, 0, 0, 68, 0, 73, 0, 46, 0, 0, 15, 0, 0, 12, 0, 62, 37, 1, 0, 0, 9, 0, 71, 35
|43, 0, 20, 0, 0, 0, 0, 0, 0, 0, 0, 52, 0, 0, 26, 0, 0, 0, 66, 74, 0, 0, 0, 0, 0, 0, 3, 0, 35, 77, 0, 0, 68, 0, 17, 41, 0, 0, 0, 0, 79, 5, 0, 0, 46, 0, 8, 0, 0, 0, 0, 0, 0, 65, 49, 47, 0, 0, 0, 0, 0, 0, 0, 0, 7, 0, 0, 0, 0, 0, 0, 2, 0, 32, 0, 0, 57, 0, 23, 0, 27
|0, 38, 0, 0, 0, 4, 0, 0, 0, 0, 0, 0, 0, 43, 12, 0, 0, 0, 0, 0, 71, 0, 0, 40, 0, 0, 0, 0, 0, 0, 0, 0, 0, 0, 9, 0, 0, 0, 0, 0, 0, 0, 64, 44, 0, 68, 46, 0, 2, 0, 0, 36, 0, 7, 0, 0, 0, 0, 37, 0, 0, 0, 17, 61, 0, 48, 0, 47, 0, 0, 6, 74, 0, 0, 0, 0, 0, 0, 0, 0, 0
|0, 0, 0, 0, 0, 58, 0, 55, 7, 36, 0, 0, 34, 0, 21, 22, 0, 67, 0, 0, 72, 0, 0, 27, 54, 62, 0, 0, 0, 30, 0, 0, 0, 0, 0, 0, 0, 0, 0, 0, 13, 48, 0, 40, 0, 0, 2, 0, 0, 0, 0, 37, 0, 14, 0, 0, 23, 0, 35, 50, 0, 0, 69, 39, 0, 65, 41, 12, 0, 0, 24, 0, 0, 17, 0, 0, 0, 0, 0, 0, 0
|57, 33, 71, 41, 0, 0, 0, 63, 0, 31, 0, 0, 0, 0, 42, 0, 0, 0, 0, 0, 28, 0, 43, 0, 29, 0, 2, 39, 47, 0, 0, 0, 66, 0, 0, 0, 0, 0, 0, 26, 0, 3, 0, 0, 0, 13, 60, 0, 0, 22, 0, 0, 0, 0, 18, 0, 73, 8, 0, 0, 0, 70, 0, 0, 0, 0, 0, 48, 0, 0, 34, 0, 44, 21, 0, 0, 52, 0, 9, 0, 80
|0, 8, 0, 61, 29, 77, 12, 62, 0, 0, 0, 0, 0, 0, 0, 0, 0, 0, 67, 0, 0, 0, 0, 0, 0, 35, 25, 0, 0, 0, 0, 70, 0, 0, 42, 0, 37, 56, 0, 0, 0, 0, 0, 72, 30, 0, 65, 0, 9, 3, 39, 0, 0, 0, 0, 0, 0, 0, 0, 0, 45, 58, 0, 0, 0, 0, 2, 38, 0, 0, 0, 0, 0, 6, 0, 0, 0, 7, 0, 0, 1
|0, 34, 0, 76, 0, 18, 0, 0, 19, 0, 0, 71, 0, 0, 0, 0, 0, 0, 0, 75, 0, 37, 0, 0, 42, 0, 66, 0, 12, 0, 54, 0, 0, 0, 0, 0, 24, 0, 73, 0, 0, 0, 7, 0, 45, 27, 0, 0, 0, 0, 0, 0, 0, 0, 11, 0, 0, 48, 5, 0, 0, 31, 0, 0, 0, 0, 0, 36, 0, 0, 62, 0, 25, 23, 35, 0, 0, 0, 40, 0, 22
|2, 5, 0, 0, 67, 0, 81, 20, 0, 0, 0, 60, 73, 0, 41, 23, 69, 6, 74, 0, 61, 0, 8, 46, 0, 45, 78, 65, 15, 0, 63, 62, 0, 0, 0, 0, 43, 0, 39, 16, 51, 0, 27, 76, 0, 24, 0, 71, 0, 0, 0, 0, 0, 0, 13, 22, 0, 54, 17, 59, 19, 30, 0, 0, 0, 26, 0, 0, 40, 0, 0, 0, 0, 0, 0, 0, 0, 0, 0, 0, 0
|26, 0, 0, 0, 0, 0, 0, 0, 0, 0, 0, 0, 27, 0, 0, 25, 55, 76, 44, 0, 0, 30, 0, 0, 0, 70, 0, 0, 0, 2, 0, 0, 0, 0, 0, 0, 0, 49, 0, 0, 0, 80, 67, 0, 0, 0, 0, 0, 0, 0, 0, 0, 0, 51, 0, 0, 62, 0, 0, 0, 61, 0, 71, 0, 0, 0, 0, 0, 0, 72, 0, 0, 57, 68, 0, 0, 0, 0, 8, 0, 24
|0, 27, 22, 0, 0, 0, 0, 0, 0, 29, 26, 0, 8, 0, 28, 0, 0, 0, 73, 0, 0, 0, 0, 0, 0, 0, 0, 0, 0, 0, 18, 6, 0, 44, 0, 0, 0, 0, 0, 0, 0, 0, 0, 0, 61, 0, 70, 0, 0, 0, 0, 0, 0, 0, 52, 12, 0, 0, 0, 47, 65, 32, 36, 0, 9, 0, 0, 0, 78, 0, 0, 0, 0, 54, 0, 58, 30, 0, 0, 16, 69
|0, 72, 0, 36, 60, 42, 0, 30, 70, 2, 79, 48, 14, 0, 58, 0, 11, 57, 6, 0, 0, 0, 0, 0, 76, 52, 0, 0, 40, 41, 0, 0, 0, 0, 0, 50, 0, 0, 0, 0, 0, 71, 77, 0, 0, 0, 0, 0, 0, 0, 0, 47, 73, 66, 46, 68, 0, 0, 0, 0, 0, 0, 9, 0, 37, 21, 8, 0, 0, 0, 0, 0, 0, 49, 0, 0, 0, 62, 0, 53, 0
|0, 39, 0, 0, 23, 0, 51, 0, 0, 0, 0, 0, 0, 0, 0, 0, 0, 0, 0, 58, 0, 18, 55, 0, 0, 0, 0, 0, 57, 0, 22, 0, 0, 0, 0, 0, 0, 0, 68, 0, 33, 17, 32, 69, 65, 0, 0, 0, 0, 30, 0, 45, 0, 0, 56, 38, 1, 0, 0, 0, 66, 0, 25, 0, 0, 0, 6, 0, 71, 0, 0, 0, 37, 0, 0, 0, 42, 0, 0, 0, 0
|0, 0, 0, 0, 0, 0, 0, 0, 0, 0, 0, 0, 0, 0, 0, 0, 0, 0, 0, 0, 0, 0, 79, 0, 50, 0, 0, 0, 0, 0, 56, 20, 62, 0, 0, 0, 0, 0, 0, 0, 0, 54, 0, 0, 0, 0, 0, 59, 0, 0, 0, 0, 0, 1, 0, 0, 0, 0, 73, 3, 0, 46, 24, 0, 0, 0, 0, 18, 0, 0, 0, 51, 0, 25, 0, 0, 0, 0, 67, 0, 0
|65, 0, 47, 33, 0, 0, 0, 0, 0, 0, 23, 0, 0, 60, 0, 0, 73, 0, 0, 0, 0, 0, 0, 0, 0, 29, 0, 0, 0, 50, 0, 0, 53, 0, 0, 0, 0, 0, 0, 0, 0, 0, 44, 0, 0, 0, 36, 0, 0, 0, 0, 0, 0, 0, 0, 0, 0, 0, 0, 0, 5, 0, 49, 79, 13, 0, 0, 0, 66, 37, 0, 0, 0, 0, 0, 0, 17, 78, 16, 0, 0
|31, 0, 2, 0, 77, 59, 0, 0, 0, 0, 27, 0, 0, 18, 55, 0, 0, 47, 0, 3, 73, 0, 0, 0, 0, 1, 0, 0, 9, 0, 0, 35, 17, 0, 0, 43, 0, 71, 50, 0, 0, 61, 16, 21, 40, 0, 0, 0, 0, 0, 0, 0, 0, 78, 0, 0, 68, 11, 14, 0, 0, 0, 0, 0, 0, 0, 0, 0, 0, 0, 20, 0, 0, 0, 0, 0, 0, 0, 0, 0, 0
|64, 0, 0, 0, 0, 0, 0, 0, 0, 0, 71, 69, 0, 0, 0, 67, 0, 78, 58, 0, 62, 0, 0, 7, 0, 57, 0, 0, 0, 0, 51, 0, 44, 0, 0, 0, 38, 0, 0, 0, 80, 0, 0, 0, 0, 37, 0, 0, 16, 0, 0, 30, 0, 0, 47, 0, 65, 0, 61, 0, 0, 50, 10, 0, 0, 40, 0, 0, 42, 15, 0, 0, 0, 1, 0, 0, 11, 0, 0, 72, 0
|0, 24, 0, 0, 0, 0, 0, 0, 0, 0, 0, 0, 3, 0, 0, 0, 0, 19, 30, 0, 0, 0, 0, 0, 0, 0, 0, 0, 0, 0, 0, 0, 48, 0, 0, 0, 0, 0, 0, 66, 0, 0, 0, 0, 11, 61, 5, 0, 65, 0, 0, 0, 42, 53, 0, 0, 0, 77, 0, 0, 23, 12, 0, 29, 0, 0, 0, 58, 69, 0, 4, 0, 47, 0, 8, 37, 0, 0, 13, 79, 0
|0, 0, 0, 0, 79, 0, 0, 44, 0, 0, 12, 0, 0, 51, 45, 0, 0, 0, 0, 0, 0, 72, 53, 41, 16, 11, 4, 18, 34, 0, 0, 0, 0, 0, 0, 0, 10, 0, 0, 0, 0, 77, 68, 0, 0, 0, 67, 0, 0, 0, 0, 55, 0, 0, 33, 0, 0, 0, 0, 0, 0, 0, 0, 0, 60, 1, 0, 0, 0, 0, 0, 0, 14, 0, 0, 23, 59, 0, 0, 0, 31
|0, 0, 0, 0, 0, 51, 0, 43, 0, 0, 0, 54, 31, 14, 0, 0, 0, 0, 18, 0, 67, 0, 0, 0, 60, 25, 0, 0, 0, 0, 0, 0, 0, 0, 0, 66, 0, 0, 0, 64, 0, 0, 0, 0, 0, 0, 0, 19, 0, 0, 0, 0, 44, 0, 71, 36, 0, 0, 0, 0, 20, 0, 26, 0, 22, 0, 0, 0, 0, 0, 0, 0, 0, 45, 0, 53, 0, 52, 0, 38, 0
|0, 0, 0, 32, 0, 0, 78, 25, 0, 0, 0, 0, 0, 0, 0, 0, 0, 59, 0, 0, 0, 0, 0, 0, 21, 0, 0, 6, 11, 0, 0, 0, 19, 0, 0, 0, 0, 0, 0, 49, 20, 37, 0, 0, 0, 0, 0, 0, 0, 0, 0, 27, 0, 0, 0, 0, 0, 57, 0, 0, 0, 35, 44, 0, 0, 0, 0, 8, 55, 0, 30, 0, 0, 0, 0, 0, 66, 0, 2, 0, 0
|0, 0, 0, 0, 0, 0, 0, 0, 0, 9, 20, 0, 43, 0, 80, 0, 0, 26, 32, 0, 0, 0, 0, 0, 10, 0, 0, 15, 69, 0, 0, 0, 0, 0, 0, 0, 0, 0, 0, 0, 0, 0, 0, 0, 0, 0, 0, 0, 0, 0, 0, 0, 0, 0, 75, 0, 0, 0, 0, 0, 7, 0, 0, 0, 41, 0, 11, 0, 61, 0, 0, 0, 0, 0, 0, 0, 0, 0, 0, 0, 0
|0, 56, 45, 0, 42, 0, 0, 0, 0, 78, 0, 0, 0, 0, 62, 0, 1, 0, 50, 0, 54, 0, 0, 55, 0, 0, 70, 26, 7, 0, 43, 0, 36, 13, 0, 47, 0, 0, 8, 77, 0, 76, 0, 37, 0, 0, 69, 0, 0, 23, 0, 0, 0, 25, 0, 0, 0, 0, 0, 0, 0, 81, 0, 0, 75, 0, 39, 0, 0, 46, 0, 0, 0, 0, 5, 0, 0, 38, 0, 32, 44
|49, 0, 0, 70, 72, 0, 0, 0, 0, 7, 0, 0, 0, 58, 0, 0, 71, 0, 26, 43, 0, 0, 74, 0, 0, 33, 0, 0, 0, 0, 0, 0, 42, 57, 0, 45, 4, 0, 0, 0, 0, 68, 0, 64, 10, 0, 0, 0, 0, 0, 0, 0, 22, 0, 0, 0, 0, 0, 0, 77, 62, 0, 0, 23, 0, 0, 0, 0, 0, 44, 0, 12, 29, 0, 13, 56, 0, 0, 0, 0, 0
|59, 32, 0, 29, 0, 64, 0, 26, 0, 0, 63, 21, 65, 15, 0, 0, 0, 0, 41, 0, 0, 0, 0, 28, 0, 0, 0, 80, 74, 0, 0, 18, 0, 61, 0, 49, 69, 0, 0, 0, 0, 0, 50, 0, 48, 0, 0, 0, 0, 68, 0, 0, 33, 42, 0, 0, 0, 14, 0, 58, 0, 3, 45, 0, 6, 0, 0, 24, 4, 0, 0, 53, 0, 0, 0, 0, 0, 8, 60, 0, 0
|74, 0, 0, 0, 25, 0, 22, 35, 0, 48, 0, 0, 51, 0, 0, 0, 49, 69, 0, 0, 0, 0, 0, 0, 0, 27, 0, 70, 0, 0, 0, 0, 0, 0, 0, 0, 0, 16, 0, 75, 42, 78, 0, 80, 0, 0, 0, 0, 0, 0, 0, 0, 13, 0, 0, 19, 0, 0, 71, 36, 0, 0, 0, 0, 0, 0, 37, 0, 14, 0, 0, 26, 0, 0, 0, 0, 0, 0, 24, 18, 0
|0, 0, 0, 0, 7, 0, 10, 0, 0, 0, 0, 28, 0, 0, 0, 41, 0, 53, 39, 0, 0, 0, 25, 0, 0, 0, 0, 0, 78, 75, 79, 0, 0, 0, 0, 0, 0, 0, 0, 0, 54, 0, 0, 0, 67, 4, 0, 0, 18, 77, 0, 0, 26, 0, 0, 0, 46, 0, 0, 33, 0, 0, 0, 9, 0, 0, 0, 0, 0, 0, 3, 0, 71, 0, 0, 62, 0, 6, 0, 0, 36
|0, 0, 0, 46, 0, 0, 0, 0, 0, 0, 0, 26, 56, 0, 0, 0, 52, 0, 17, 0, 0, 0, 0, 0, 0, 0, 18, 0, 0, 0, 0, 4, 0, 53, 3, 2, 0, 0, 0, 1, 0, 29, 0, 11, 0, 6, 0, 62, 0, 0, 0, 0, 19, 39, 0, 0, 60, 0, 0, 5, 0, 28, 22, 0, 0, 0, 0, 0, 0, 0, 80, 0, 0, 0, 0, 0, 33, 0, 0, 0, 0
|17, 43, 27, 0, 0, 0, 0, 0, 77, 0, 0, 24, 0, 0, 0, 34, 67, 10, 0, 0, 20, 0, 0, 0, 5, 0, 0, 0, 56, 9, 0, 0, 0, 14, 0, 0, 0, 55, 0, 0, 0, 26, 0, 0, 0, 46, 0, 0, 0, 49, 8, 0, 0, 0, 0, 0, 59, 15, 54, 0, 40, 0, 0, 0, 0, 0, 0, 0, 0, 0, 74, 41, 0, 0, 3, 0, 0, 0, 45, 70, 0
|79, 0, 0, 0, 53, 54, 0, 0, 0, 42, 0, 0, 33, 0, 0, 0, 18, 0, 62, 0, 0, 23, 0, 0, 0, 13, 0, 67, 0, 0, 0, 52, 21, 5, 0, 0, 51, 46, 0, 0, 34, 0, 0, 22, 43, 0, 0, 0, 0, 55, 0, 0, 2, 73, 0, 0, 10, 49, 0, 0, 0, 27, 0, 0, 0, 64, 71, 0, 1, 0, 0, 68, 19, 0, 0, 40, 0, 0, 0, 0, 78
|0, 0, 80, 0, 0, 0, 0, 0, 50, 0, 0, 0, 36, 75, 0, 31, 57, 0, 64, 0, 0, 0, 0, 0, 0, 4, 0, 0, 0, 59, 34, 0, 0, 40, 0, 38, 18, 53, 0, 23, 0, 79, 0, 0, 9, 0, 37, 76, 0, 0, 45, 0, 0, 0, 0, 0, 66, 7, 12, 0, 41, 20, 0, 0, 0, 0, 0, 0, 0, 0, 0, 35, 0, 0, 74, 0, 0, 67, 0, 42, 46
|0, 0, 0, 0, 0, 15, 0, 0, 0, 0, 0, 0, 0, 0, 0, 0, 41, 0, 48, 0, 0, 0, 64, 0, 0, 0, 0, 0, 45, 61, 0, 0, 0, 0, 0, 0, 65, 0, 0, 0, 0, 0, 0, 0, 0, 0, 76, 0, 0, 7, 0, 0, 0, 72, 0, 46, 0, 0, 0, 0, 0, 26, 63, 0, 58, 0, 0, 0, 0, 29, 55, 24, 49, 0, 0, 36, 0, 0, 0, 68, 34
|0, 0, 0, 0, 0, 0, 0, 5, 47, 38, 0, 22, 57, 34, 0, 0, 0, 0, 43, 0, 0, 58, 39, 0, 71, 67, 0, 0, 0, 0, 0, 12, 0, 0, 0, 0, 0, 0, 0, 0, 0, 46, 0, 18, 0, 8, 52, 0, 1, 29, 0, 0, 0, 13, 4, 0, 61, 0, 21, 0, 0, 0, 3, 53, 36, 0, 0, 0, 0, 0, 0, 0, 0, 0, 0, 0, 0, 0, 14, 0, 0
|42, 0, 69, 0, 0, 0, 0, 0, 0, 0, 0, 30, 0, 46, 51, 0, 0, 62, 45, 0, 0, 0, 0, 0, 0, 0, 44, 0, 0, 0, 70, 0, 28, 0, 73, 0, 0, 0, 0, 40, 0, 0, 39, 7, 0, 58, 0, 32, 41, 0, 0, 0, 0, 0, 0, 0, 0, 0, 0, 81, 0, 67, 0, 0, 0, 80, 16, 0, 34, 18, 0, 0, 0, 31, 0, 0, 22, 0, 0, 0, 53
|0, 0, 0, 26, 0, 0, 0, 0, 0, 0, 15, 0, 0, 0, 0, 0, 0, 0, 0, 0, 77, 4, 0, 2, 0, 32, 0, 56, 0, 0, 0, 0, 74, 0, 72, 0, 0, 0, 0, 0, 0, 0, 69, 0, 0, 0, 0, 43, 0, 0, 31, 57, 0, 0, 29, 0, 0, 0, 0, 0, 0, 48, 5, 46, 0, 45, 0, 22, 0, 0, 0, 0, 0, 0, 0, 0, 0, 0, 0, 13, 37
|0, 64, 0, 66, 0, 10, 0, 0, 0, 72, 0, 0, 19, 6, 74, 0, 0, 4, 0, 68, 0, 0, 5, 0, 12, 80, 0, 0, 0, 0, 71, 0, 2, 0, 0, 0, 0, 35, 36, 0, 45, 0, 0, 48, 0, 0, 0, 0, 77, 0, 0, 0, 0, 0, 0, 0, 0, 0, 0, 0, 0, 0, 0, 0, 0, 15, 0, 56, 0, 0, 75, 17, 0, 0, 39, 0, 0, 0, 54, 0, 0
|0, 0, 0, 2, 0, 29, 0, 67, 0, 81, 0, 0, 0, 0, 7, 0, 58, 0, 0, 0, 79, 0, 0, 57, 0, 0, 0, 62, 0, 0, 8, 0, 0, 0, 0, 0, 0, 0, 0, 0, 0, 59, 28, 38, 0, 0, 0, 0, 0, 0, 0, 0, 0, 0, 66, 0, 0, 0, 0, 0, 80, 0, 0, 60, 0, 0, 20, 0, 0, 0, 50, 10, 64, 0, 0, 0, 0, 35, 0, 0, 52
|0, 0, 31, 0, 0, 0, 0, 0, 0, 52, 0, 0, 0, 0, 0, 0, 0, 0, 0, 0, 0, 0, 0, 0, 19, 0, 0, 0, 0, 78, 0, 0, 0, 0, 0, 18, 0, 29, 9, 0, 0, 13, 0, 25, 0, 55, 56, 0, 0, 0, 81, 0, 0, 40, 0, 0, 0, 70, 0, 0, 71, 53, 0, 0, 0, 54, 0, 21, 0, 35, 0, 0, 0, 50, 0, 0, 38, 0, 66, 0, 0
|63, 0, 34, 56, 0, 0, 0, 74, 0, 0, 80, 0, 0, 0, 14, 43, 0, 18, 0, 0, 0, 15, 0, 0, 1, 8, 0, 0, 0, 0, 0, 40, 38, 0, 0, 0, 22, 23, 0, 0, 0, 0, 0, 0, 0, 39, 0, 0, 46, 0, 10, 0, 0, 0, 0, 0, 20, 24, 0, 30, 0, 62, 33, 0, 0, 0, 0, 0, 0, 0, 0, 47, 60, 0, 0, 4, 0, 42, 0, 0, 0
|12, 0, 0, 0, 0, 0, 0, 0, 53, 0, 0, 65, 0, 44, 0, 32, 0, 0, 0, 0, 0, 0, 0, 25, 78, 0, 0, 19, 5, 17, 77, 0, 0, 0, 0, 20, 0, 24, 0, 0, 0, 63, 0, 0, 64, 35, 0, 0, 0, 0, 0, 69, 0, 0, 42, 10, 0, 0, 0, 0, 0, 0, 0, 73, 0, 0, 0, 0, 0, 0, 2, 6, 0, 0, 0, 47, 0, 0, 0, 0, 0|];