order = 9;
grid = [|53, 0, 0, 0, 3, 0, 26, 0, 0, 79, 0, 27, 0, 0, 0, 31, 0, 0, 5, 0, 41, 0, 0, 4, 0, 0, 0, 73, 0, 0, 0, 0, 0, 0, 0, 0, 51, 29, 0, 0, 0, 0, 0, 0, 36, 17, 46, 0, 25, 40, 0, 28, 0, 0, 76, 0, 0, 16, 0, 0, 0, 0, 0, 71, 78, 0, 0, 0, 0, 0, 62, 72, 0, 0, 75, 60, 37, 0, 0, 0, 48
|7, 0, 0, 0, 0, 12, 31, 0, 0, 6, 16, 0, 0, 71, 0, 0, 0, 0, 67, 0, 0, 72, 0, 0, 29, 0, 0, 46, 0, 59, 51, 0, 0, 0, 32, 14, 0, 2, 0, 68, 8, 0, 0, 0, 37, 38, 22, 0, 0, 15, 0, 0, 76, 78, 0, 61, 0, 0, 40, 0, 0, 56, 49, 57, 0, 48, 30, 0, 25, 0, 0, 64, 0, 0, 0, 0, 0, 0, 13, 0, 0
|0, 9, 0, 0, 0, 0, 0, 0, 0, 0, 0, 23, 0, 70, 52, 0, 81, 0, 0, 0, 0, 34, 80, 0, 0, 0, 19, 28, 0, 0, 0, 22, 0, 0, 0, 0, 0, 57, 0, 0, 0, 0, 0, 0, 24, 0, 0, 72, 0, 0, 31, 0, 0, 44, 0, 29, 0, 0, 0, 0, 69, 50, 0, 0, 0, 76, 3, 26, 0, 0, 0, 39, 0, 0, 0, 0, 0, 0, 0, 0, 0
|0, 0, 0, 72, 11, 0, 0, 0, 0, 53, 0, 0, 0, 0, 0, 0, 0, 0, 77, 76, 0, 0, 0, 0, 0, 39, 28, 0, 0, 0, 0, 0, 0, 0, 0, 52, 42, 75, 0, 0, 14, 0, 0, 0, 0, 73, 0, 61, 0, 0, 0, 0, 0, 6, 0, 0, 0, 0, 0, 0, 81, 0, 0, 0, 0, 12, 0, 0, 0, 0, 0, 0, 0, 0, 1, 38, 24, 0, 0, 0, 0
|0, 36, 0, 0, 0, 0, 0, 47, 0, 0, 42, 12, 0, 0, 0, 72, 0, 0, 0, 0, 64, 0, 0, 43, 0, 0, 50, 0, 76, 0, 0, 0, 0, 0, 10, 0, 0, 5, 0, 44, 54, 0, 0, 48, 58, 0, 1, 11, 0, 0, 34, 0, 0, 66, 39, 0, 0, 73, 0, 0, 0, 0, 2, 0, 0, 79, 51, 0, 0, 0, 0, 0, 40, 19, 0, 0, 0, 0, 0, 0, 0
|0, 48, 0, 0, 22, 39, 0, 0, 0, 0, 47, 61, 64, 0, 0, 0, 0, 0, 0, 71, 33, 31, 38, 0, 0, 0, 75, 56, 0, 42, 5, 0, 11, 0, 41, 0, 0, 0, 0, 0, 0, 0, 0, 0, 0, 0, 30, 43, 0, 0, 26, 0, 0, 29, 0, 0, 0, 0, 0, 0, 0, 0, 28, 0, 54, 0, 0, 0, 0, 0, 19, 0, 0, 0, 0, 0, 0, 46, 0, 6, 0
|38, 0, 0, 0, 0, 0, 23, 61, 0, 0, 0, 0, 0, 0, 55, 0, 0, 0, 0, 0, 0, 0, 0, 0, 0, 0, 13, 0, 0, 3, 68, 0, 69, 0, 0, 0, 0, 0, 0, 0, 20, 56, 0, 0, 0, 0, 74, 0, 0, 0, 0, 0, 0, 39, 0, 0, 0, 0, 75, 48, 0, 0, 0, 0, 14, 0, 37, 0, 0, 0, 0, 0, 0, 0, 53, 0, 0, 0, 45, 0, 0
|0, 19, 21, 0, 0, 0, 0, 0, 0, 0, 0, 41, 74, 73, 18, 0, 0, 0, 0, 0, 0, 0, 25, 0, 79, 0, 0, 0, 0, 71, 0, 72, 0, 0, 0, 29, 61, 0, 31, 0, 0, 0, 0, 10, 6, 42, 12, 57, 0, 0, 0, 80, 0, 0, 63, 0, 62, 0, 5, 0, 0, 0, 0, 68, 38, 0, 0, 0, 34, 0, 0, 0, 11, 28, 0, 0, 0, 0, 0, 0, 0
|0, 10, 0, 0, 0, 0, 0, 37, 0, 30, 0, 38, 0, 0, 36, 9, 0, 0, 42, 47, 17, 20, 40, 0, 0, 53, 0, 25, 0, 0, 0, 0, 0, 0, 55, 0, 63, 0, 0, 0, 0, 27, 0, 80, 0, 0, 23, 4, 0, 0, 0, 0, 50, 51, 6, 0, 0, 0, 0, 0, 68, 0, 72, 0, 0, 28, 0, 0, 0, 0, 0, 45, 74, 26, 65, 0, 0, 0, 0, 0, 0
|0, 39, 0, 0, 4, 0, 10, 0, 54, 0, 0, 0, 0, 0, 0, 0, 0, 14, 0, 0, 0, 0, 0, 0, 15, 0, 0, 75, 0, 0, 0, 0, 0, 0, 37, 0, 8, 78, 0, 42, 0, 0, 0, 0, 0, 0, 0, 0, 13, 11, 0, 0, 0, 0, 74, 0, 0, 0, 0, 57, 62, 0, 0, 0, 33, 0, 0, 48, 0, 0, 1, 0, 21, 0, 61, 0, 0, 0, 0, 0, 0
|0, 0, 0, 47, 0, 73, 0, 0, 0, 0, 0, 0, 36, 0, 0, 0, 0, 0, 55, 79, 0, 0, 74, 42, 0, 0, 0, 32, 0, 0, 0, 0, 0, 41, 0, 71, 0, 0, 0, 53, 76, 75, 0, 26, 0, 0, 0, 0, 0, 33, 0, 0, 0, 61, 0, 0, 0, 25, 46, 0, 0, 0, 0, 19, 0, 0, 0, 12, 2, 52, 0, 44, 0, 0, 0, 0, 0, 78, 69, 0, 0
|8, 0, 6, 0, 0, 75, 0, 0, 0, 0, 0, 68, 0, 0, 0, 64, 0, 78, 33, 0, 0, 46, 0, 39, 0, 0, 0, 0, 38, 0, 0, 4, 15, 0, 0, 0, 41, 0, 60, 0, 0, 0, 0, 71, 0, 0, 35, 0, 0, 43, 53, 0, 0, 0, 0, 0, 0, 0, 0, 0, 0, 0, 0, 0, 0, 0, 0, 0, 62, 0, 0, 0, 0, 0, 0, 0, 0, 81, 30, 24, 0
|0, 0, 0, 0, 0, 0, 71, 0, 0, 0, 0, 0, 0, 0, 0, 0, 0, 0, 0, 0, 81, 0, 0, 0, 37, 68, 56, 0, 60, 0, 0, 0, 0, 0, 14, 7, 54, 38, 0, 0, 0, 5, 0, 0, 0, 0, 0, 27, 48, 0, 0, 0, 0, 0, 0, 0, 0, 0, 41, 0, 0, 0, 0, 0, 36, 0, 0, 0, 0, 35, 0, 0, 0, 0, 0, 25, 0, 0, 79, 0, 10
|81, 0, 0, 0, 0, 77, 0, 0, 0, 66, 0, 0, 0, 0, 0, 0, 19, 21, 0, 0, 0, 0, 0, 73, 0, 23, 0, 0, 0, 68, 25, 0, 0, 0, 0, 54, 79, 0, 0, 9, 0, 0, 0, 0, 48, 0, 0, 1, 0, 67, 0, 0, 0, 0, 0, 0, 0, 0, 0, 70, 0, 0, 0, 0, 0, 0, 31, 0, 0, 0, 0, 11, 33, 13, 0, 0, 46, 0, 0, 22, 0
|64, 0, 0, 0, 0, 0, 0, 72, 0, 0, 0, 0, 0, 0, 0, 40, 0, 0, 0, 0, 0, 18, 0, 8, 0, 47, 0, 0, 0, 0, 0, 0, 79, 0, 0, 0, 46, 25, 0, 0, 0, 0, 0, 0, 0, 0, 0, 24, 0, 0, 0, 0, 0, 0, 0, 0, 0, 0, 0, 0, 73, 0, 0, 10, 55, 0, 0, 0, 41, 0, 15, 0, 0, 0, 0, 0, 0, 19, 0, 0, 0
|0, 49, 0, 0, 0, 0, 45, 0, 0, 0, 0, 0, 53, 0, 0, 27, 0, 71, 13, 40, 0, 0, 12, 0, 0, 0, 41, 29, 0, 0, 0, 64, 0, 73, 0, 59, 0, 0, 0, 69, 43, 74, 0, 0, 0, 0, 0, 0, 0, 0, 0, 0, 0, 0, 0, 0, 77, 0, 0, 0, 54, 15, 0, 0, 22, 16, 38, 0, 0, 0, 0, 0, 0, 0, 20, 0, 0, 0, 70, 39, 0
|0, 57, 0, 0, 0, 2, 9, 0, 0, 0, 55, 31, 0, 69, 0, 0, 74, 10, 45, 0, 0, 0, 0, 60, 0, 0, 22, 62, 0, 21, 0, 34, 18, 0, 0, 0, 0, 0, 0, 0, 0, 0, 0, 0, 0, 0, 78, 0, 0, 38, 0, 0, 0, 0, 0, 0, 56, 0, 0, 0, 0, 0, 0, 0, 0, 0, 0, 0, 0, 0, 23, 0, 42, 58, 0, 0, 52, 0, 0, 0, 0
|0, 60, 0, 76, 0, 63, 52, 53, 0, 0, 29, 0, 0, 0, 0, 0, 48, 77, 0, 0, 78, 0, 0, 0, 21, 35, 0, 0, 10, 0, 0, 0, 0, 0, 0, 0, 0, 0, 0, 0, 0, 0, 23, 0, 0, 0, 39, 0, 8, 0, 46, 54, 0, 0, 0, 0, 0, 0, 38, 0, 0, 34, 0, 18, 0, 0, 0, 0, 40, 57, 0, 0, 0, 80, 0, 0, 67, 0, 0, 0, 9
|0, 0, 0, 0, 0, 0, 33, 19, 0, 10, 0, 0, 0, 0, 0, 44, 17, 0, 69, 43, 0, 0, 0, 0, 40, 0, 0, 0, 0, 56, 0, 0, 63, 51, 0, 15, 0, 0, 52, 20, 0, 0, 0, 0, 0, 0, 0, 0, 0, 0, 0, 0, 0, 0, 71, 0, 64, 0, 73, 25, 66, 0, 38, 0, 8, 0, 59, 0, 0, 0, 0, 0, 0, 0, 0, 0, 0, 79, 0, 0, 0
|76, 0, 0, 0, 0, 0, 0, 0, 0, 0, 0, 0, 0, 0, 0, 0, 0, 0, 18, 0, 0, 75, 0, 0, 0, 0, 38, 0, 0, 0, 0, 0, 0, 0, 0, 0, 0, 73, 0, 0, 0, 0, 0, 0, 0, 36, 49, 0, 0, 9, 0, 0, 0, 0, 0, 32, 0, 23, 0, 60, 0, 4, 0, 40, 0, 61, 72, 0, 0, 24, 0, 0, 0, 0, 0, 0, 0, 0, 0, 0, 0
|0, 29, 0, 0, 0, 0, 0, 0, 0, 0, 0, 0, 2, 0, 81, 0, 0, 72, 0, 0, 47, 0, 23, 0, 0, 0, 0, 0, 0, 0, 0, 0, 0, 0, 0, 0, 0, 0, 0, 21, 35, 0, 0, 0, 56, 0, 0, 74, 0, 13, 0, 20, 0, 43, 0, 0, 0, 0, 58, 0, 0, 42, 0, 38, 0, 0, 0, 0, 36, 0, 25, 0, 0, 0, 0, 0, 69, 0, 0, 0, 0
|0, 0, 0, 18, 0, 0, 0, 0, 0, 0, 0, 0, 0, 0, 0, 0, 0, 0, 0, 0, 15, 0, 58, 0, 0, 0, 0, 0, 59, 77, 44, 0, 0, 62, 0, 42, 0, 0, 0, 78, 17, 8, 0, 0, 47, 70, 0, 0, 0, 0, 0, 0, 0, 0, 0, 0, 0, 2, 0, 0, 39, 0, 0, 35, 45, 0, 52, 0, 3, 0, 9, 29, 0, 0, 0, 65, 0, 0, 0, 0, 0
|75, 53, 0, 20, 0, 0, 68, 64, 0, 0, 0, 0, 0, 0, 0, 0, 0, 0, 0, 0, 6, 0, 0, 0, 12, 59, 0, 78, 0, 57, 0, 0, 0, 0, 0, 38, 0, 0, 26, 0, 0, 0, 0, 0, 15, 62, 0, 0, 31, 48, 0, 61, 0, 0, 0, 0, 0, 74, 0, 0, 40, 0, 69, 0, 0, 0, 0, 0, 0, 0, 58, 0, 0, 0, 0, 0, 0, 0, 0, 0, 0
|0, 0, 0, 0, 0, 51, 81, 0, 73, 0, 43, 0, 0, 0, 4, 5, 0, 0, 0, 0, 0, 0, 0, 55, 0, 0, 0, 0, 0, 40, 18, 0, 54, 0, 0, 0, 0, 0, 0, 63, 0, 0, 0, 0, 39, 0, 0, 0, 66, 0, 0, 0, 0, 0, 0, 0, 0, 0, 0, 0, 0, 0, 0, 0, 0, 20, 0, 69, 0, 78, 79, 16, 0, 0, 0, 0, 56, 0, 0, 0, 0
|72, 14, 15, 0, 0, 0, 6, 34, 35, 40, 0, 0, 0, 0, 38, 68, 22, 16, 0, 0, 39, 0, 53, 0, 0, 37, 0, 0, 0, 69, 0, 0, 52, 0, 58, 1, 43, 0, 0, 0, 61, 71, 11, 0, 0, 47, 3, 0, 19, 0, 5, 79, 0, 25, 0, 21, 24, 0, 49, 0, 0, 0, 0, 0, 0, 0, 62, 0, 56, 0, 0, 0, 0, 0, 0, 2, 0, 0, 0, 0, 32
|0, 0, 0, 10, 0, 0, 40, 0, 46, 0, 50, 0, 12, 80, 0, 0, 11, 0, 0, 0, 36, 22, 0, 65, 0, 57, 0, 0, 0, 0, 0, 0, 67, 0, 0, 0, 0, 0, 0, 0, 0, 0, 0, 0, 0, 0, 0, 0, 55, 69, 23, 0, 35, 0, 0, 0, 0, 0, 0, 0, 51, 62, 0, 53, 0, 0, 17, 0, 0, 0, 14, 13, 0, 41, 0, 70, 0, 71, 0, 0, 0
|26, 0, 0, 27, 0, 0, 0, 0, 0, 0, 0, 0, 0, 0, 47, 55, 0, 70, 0, 0, 0, 0, 0, 0, 0, 0, 52, 0, 0, 2, 0, 32, 5, 0, 20, 0, 37, 0, 67, 0, 0, 45, 0, 81, 0, 0, 0, 0, 0, 0, 0, 0, 0, 0, 35, 0, 29, 0, 15, 3, 0, 43, 50, 0, 0, 31, 23, 0, 0, 0, 0, 75, 51, 0, 9, 0, 0, 0, 0, 0, 0
|0, 1, 0, 0, 0, 0, 0, 0, 0, 0, 37, 0, 0, 0, 66, 0, 0, 64, 53, 0, 0, 0, 0, 0, 19, 0, 0, 0, 0, 43, 27, 61, 78, 54, 0, 0, 55, 79, 0, 0, 0, 21, 69, 0, 0, 0, 0, 15, 0, 65, 0, 0, 80, 16, 0, 0, 0, 0, 6, 29, 0, 0, 9, 0, 60, 0, 18, 76, 0, 0, 0, 20, 0, 0, 0, 0, 38, 14, 0, 0, 0
|56, 0, 0, 54, 0, 0, 0, 28, 0, 0, 0, 0, 0, 0, 0, 12, 0, 0, 0, 0, 0, 0, 0, 0, 0, 3, 0, 0, 0, 75, 76, 0, 0, 0, 0, 0, 0, 61, 0, 0, 29, 0, 13, 0, 0, 0, 0, 60, 0, 0, 0, 81, 0, 0, 0, 0, 0, 14, 53, 16, 0, 0, 0, 0, 0, 0, 26, 0, 78, 17, 0, 6, 0, 27, 0, 42, 19, 0, 0, 0, 0
|49, 0, 0, 0, 0, 19, 0, 0, 0, 0, 24, 0, 0, 0, 0, 0, 0, 0, 51, 0, 0, 81, 0, 0, 70, 0, 0, 0, 0, 31, 66, 0, 0, 0, 0, 0, 0, 0, 20, 54, 0, 25, 0, 32, 0, 0, 11, 0, 0, 46, 78, 0, 0, 0, 43, 55, 0, 0, 0, 28, 0, 0, 0, 21, 2, 42, 0, 0, 0, 0, 0, 12, 0, 37, 36, 9, 0, 41, 0, 0, 0
|0, 7, 0, 0, 0, 0, 0, 0, 0, 52, 0, 0, 0, 19, 0, 0, 0, 0, 0, 49, 66, 38, 0, 0, 36, 0, 0, 0, 0, 22, 0, 0, 30, 68, 0, 0, 12, 0, 78, 0, 0, 26, 45, 0, 40, 67, 0, 0, 0, 72, 0, 0, 3, 42, 0, 0, 0, 0, 0, 0, 0, 0, 0, 43, 0, 0, 0, 0, 0, 0, 0, 0, 0, 75, 0, 31, 47, 0, 0, 0, 0
|0, 6, 0, 0, 0, 31, 0, 0, 0, 0, 0, 29, 0, 0, 0, 62, 14, 1, 37, 0, 0, 0, 0, 0, 25, 0, 0, 0, 0, 0, 0, 0, 45, 0, 73, 0, 0, 0, 0, 0, 27, 47, 0, 0, 42, 59, 0, 0, 2, 0, 0, 0, 69, 75, 0, 72, 0, 0, 0, 24, 0, 18, 0, 0, 0, 0, 0, 0, 0, 7, 0, 0, 39, 0, 66, 0, 0, 0, 0, 0, 0
|66, 0, 0, 36, 40, 0, 0, 0, 0, 0, 61, 0, 0, 0, 0, 0, 79, 65, 0, 80, 0, 0, 0, 71, 0, 0, 0, 0, 0, 0, 0, 17, 0, 0, 15, 0, 2, 0, 51, 0, 0, 22, 63, 0, 73, 0, 0, 32, 0, 0, 0, 0, 0, 0, 0, 81, 0, 0, 0, 0, 0, 23, 0, 27, 0, 38, 0, 0, 0, 62, 33, 67, 0, 0, 59, 0, 34, 0, 0, 0, 0
|44, 81, 52, 24, 0, 5, 0, 29, 0, 16, 0, 0, 47, 0, 25, 78, 0, 0, 0, 0, 32, 56, 0, 0, 60, 10, 0, 0, 0, 0, 0, 0, 0, 0, 0, 0, 0, 0, 0, 0, 0, 0, 0, 0, 65, 0, 0, 0, 0, 0, 0, 0, 0, 0, 0, 0, 0, 0, 0, 59, 0, 0, 0, 73, 69, 0, 46, 0, 0, 66, 0, 0, 0, 72, 0, 0, 0, 0, 0, 0, 57
|0, 0, 0, 0, 0, 70, 55, 62, 0, 0, 0, 42, 57, 0, 77, 0, 0, 0, 0, 0, 0, 48, 13, 0, 0, 0, 58, 0, 0, 0, 0, 60, 0, 0, 0, 67, 0, 15, 72, 43, 0, 0, 16, 0, 0, 71, 0, 0, 0, 6, 0, 64, 0, 0, 0, 66, 0, 0, 0, 0, 0, 0, 0, 0, 0, 0, 0, 50, 0, 0, 10, 0, 0, 0, 0, 12, 26, 0, 0, 30, 69
|16, 2, 4, 0, 0, 38, 15, 0, 0, 0, 22, 56, 3, 0, 0, 0, 0, 0, 0, 0, 0, 0, 76, 0, 0, 6, 0, 0, 0, 19, 0, 0, 0, 0, 62, 0, 0, 71, 0, 0, 0, 70, 0, 0, 0, 0, 55, 39, 0, 0, 0, 43, 53, 0, 37, 73, 0, 0, 0, 0, 0, 33, 0, 0, 0, 0, 0, 0, 0, 0, 0, 0, 0, 0, 29, 68, 0, 0, 0, 67, 13
|0, 0, 0, 0, 0, 0, 0, 0, 12, 54, 0, 0, 0, 0, 39, 3, 0, 0, 0, 0, 0, 0, 33, 38, 0, 17, 0, 0, 50, 0, 0, 36, 58, 0, 0, 0, 6, 0, 0, 0, 0, 72, 0, 0, 0, 0, 0, 0, 0, 0, 0, 0, 0, 0, 5, 31, 0, 0, 0, 0, 0, 20, 0, 0, 28, 0, 0, 0, 0, 51, 0, 0, 63, 0, 0, 0, 68, 0, 0, 0, 0
|39, 0, 0, 0, 42, 0, 0, 0, 0, 31, 17, 0, 0, 44, 0, 51, 68, 0, 0, 0, 77, 0, 0, 0, 0, 8, 0, 0, 0, 26, 0, 0, 0, 25, 0, 0, 0, 0, 0, 0, 0, 19, 75, 0, 0, 0, 0, 0, 0, 23, 0, 11, 0, 0, 0, 0, 0, 28, 0, 74, 0, 0, 34, 0, 0, 0, 0, 0, 22, 0, 66, 0, 0, 0, 0, 81, 0, 48, 0, 0, 0
|0, 0, 41, 0, 65, 0, 0, 0, 0, 0, 0, 53, 55, 27, 0, 0, 0, 7, 0, 16, 71, 0, 0, 0, 50, 0, 0, 20, 0, 0, 0, 75, 9, 0, 0, 0, 0, 30, 0, 0, 0, 0, 0, 0, 0, 0, 0, 45, 0, 0, 28, 0, 14, 0, 40, 69, 0, 51, 36, 68, 0, 0, 80, 0, 0, 62, 12, 54, 1, 0, 0, 0, 8, 0, 0, 0, 21, 0, 0, 0, 0
|0, 61, 0, 0, 35, 0, 0, 0, 0, 0, 0, 0, 0, 38, 0, 0, 13, 75, 0, 0, 58, 39, 0, 0, 0, 62, 0, 43, 0, 44, 0, 0, 0, 0, 17, 0, 23, 67, 80, 79, 0, 0, 0, 0, 0, 22, 68, 33, 0, 0, 0, 0, 8, 46, 0, 0, 0, 0, 0, 0, 0, 6, 30, 26, 27, 0, 0, 0, 47, 0, 0, 0, 0, 55, 0, 5, 0, 0, 0, 0, 0
|10, 26, 0, 0, 0, 23, 0, 0, 0, 0, 0, 0, 0, 0, 0, 0, 0, 0, 0, 45, 0, 2, 41, 0, 0, 19, 0, 0, 0, 67, 78, 0, 0, 18, 42, 0, 70, 0, 27, 0, 0, 0, 0, 0, 0, 0, 29, 0, 3, 0, 0, 0, 0, 0, 0, 0, 38, 48, 16, 0, 15, 64, 4, 55, 59, 0, 0, 31, 14, 46, 0, 0, 0, 0, 0, 0, 0, 0, 0, 47, 44
|0, 0, 63, 0, 25, 53, 2, 31, 0, 0, 15, 0, 0, 12, 0, 28, 0, 0, 0, 0, 0, 0, 0, 0, 9, 0, 0, 0, 0, 0, 0, 0, 0, 0, 0, 11, 78, 0, 0, 39, 0, 40, 0, 18, 0, 0, 0, 0, 0, 0, 0, 0, 0, 64, 0, 14, 0, 0, 0, 0, 0, 0, 0, 0, 0, 0, 0, 0, 35, 43, 67, 0, 0, 0, 0, 69, 62, 0, 0, 0, 0
|0, 0, 0, 0, 81, 0, 0, 0, 0, 78, 41, 0, 0, 0, 0, 0, 16, 0, 0, 0, 0, 0, 0, 0, 0, 0, 54, 38, 0, 0, 0, 0, 40, 0, 0, 0, 0, 0, 0, 50, 0, 0, 0, 0, 0, 0, 0, 0, 0, 0, 0, 49, 0, 34, 0, 0, 0, 0, 0, 79, 76, 0, 0, 0, 72, 71, 0, 0, 0, 36, 0, 15, 0, 0, 0, 11, 0, 0, 25, 1, 0
|0, 74, 0, 0, 0, 4, 0, 0, 18, 0, 0, 0, 40, 35, 0, 0, 0, 25, 0, 0, 0, 0, 0, 0, 5, 0, 0, 23, 0, 0, 0, 0, 0, 0, 52, 0, 21, 0, 0, 0, 71, 31, 29, 0, 64, 0, 0, 0, 0, 0, 54, 0, 48, 0, 0, 0, 37, 0, 0, 0, 0, 17, 81, 2, 3, 77, 0, 0, 0, 39, 0, 0, 32, 7, 50, 14, 0, 0, 0, 0, 34
|6, 0, 71, 0, 79, 0, 0, 0, 38, 74, 11, 0, 14, 0, 0, 0, 50, 0, 0, 23, 0, 49, 81, 0, 0, 25, 0, 0, 0, 64, 24, 0, 0, 76, 0, 0, 0, 0, 0, 17, 51, 0, 0, 0, 0, 0, 0, 0, 0, 0, 0, 0, 13, 0, 0, 0, 0, 0, 0, 0, 78, 0, 33, 0, 0, 0, 0, 40, 0, 0, 34, 0, 0, 0, 0, 27, 72, 0, 3, 0, 0
|0, 0, 0, 31, 13, 7, 0, 65, 0, 0, 0, 0, 0, 3, 68, 23, 0, 0, 0, 29, 0, 0, 0, 0, 74, 0, 0, 0, 0, 0, 73, 0, 0, 0, 0, 0, 0, 48, 0, 0, 0, 24, 0, 79, 17, 0, 0, 0, 38, 2, 0, 0, 0, 8, 0, 0, 0, 11, 35, 0, 0, 55, 0, 76, 0, 0, 0, 59, 4, 0, 0, 0, 0, 0, 0, 0, 0, 15, 5, 0, 18
|0, 45, 0, 0, 0, 24, 0, 0, 0, 0, 0, 0, 0, 0, 15, 0, 0, 43, 0, 0, 0, 52, 66, 80, 0, 0, 0, 0, 57, 0, 0, 0, 0, 0, 0, 0, 0, 0, 0, 40, 0, 0, 0, 0, 0, 6, 0, 81, 26, 58, 0, 30, 19, 0, 0, 0, 0, 0, 0, 0, 0, 0, 41, 50, 0, 0, 0, 0, 0, 34, 0, 0, 0, 0, 0, 0, 59, 0, 0, 9, 0
|19, 0, 50, 0, 0, 0, 28, 10, 23, 0, 0, 0, 0, 0, 0, 0, 29, 0, 0, 0, 0, 0, 45, 78, 0, 0, 48, 58, 77, 15, 56, 0, 0, 0, 0, 0, 0, 0, 0, 0, 26, 60, 0, 0, 0, 0, 0, 0, 0, 0, 70, 33, 40, 0, 81, 0, 71, 52, 0, 61, 2, 0, 62, 0, 0, 51, 13, 35, 0, 0, 0, 0, 0, 36, 0, 73, 0, 0, 12, 0, 37
|0, 0, 14, 0, 0, 34, 0, 0, 0, 0, 0, 26, 0, 0, 0, 0, 0, 0, 0, 0, 0, 0, 0, 0, 0, 0, 0, 0, 0, 0, 0, 0, 0, 0, 54, 24, 0, 0, 0, 0, 78, 57, 0, 0, 0, 0, 0, 0, 73, 0, 75, 0, 36, 0, 27, 0, 59, 0, 13, 0, 0, 0, 46, 0, 0, 0, 70, 22, 0, 0, 0, 0, 0, 0, 0, 0, 76, 29, 0, 0, 0
|0, 0, 33, 4, 0, 0, 78, 0, 0, 0, 0, 0, 0, 0, 0, 0, 0, 0, 0, 26, 0, 0, 0, 0, 81, 58, 0, 63, 0, 0, 0, 0, 46, 0, 0, 0, 0, 0, 0, 0, 0, 0, 0, 13, 0, 35, 0, 10, 0, 0, 48, 0, 0, 0, 0, 0, 0, 0, 0, 1, 0, 31, 3, 0, 0, 0, 73, 67, 0, 68, 0, 18, 0, 0, 60, 75, 51, 0, 24, 52, 0
|0, 0, 0, 0, 0, 48, 0, 0, 0, 0, 40, 0, 0, 0, 0, 0, 0, 0, 46, 0, 13, 0, 0, 41, 0, 0, 0, 0, 0, 8, 0, 0, 0, 3, 0, 0, 0, 19, 0, 0, 0, 0, 0, 0, 0, 0, 0, 0, 0, 0, 25, 0, 0, 0, 0, 33, 0, 0, 54, 0, 0, 0, 6, 0, 0, 0, 58, 0, 0, 0, 0, 37, 0, 17, 0, 0, 0, 38, 28, 0, 0
|0, 0, 0, 0, 30, 0, 0, 0, 81, 8, 0, 0, 0, 0, 0, 0, 0, 53, 0, 5, 0, 0, 0, 0, 38, 0, 0, 49, 0, 1, 0, 44, 0, 0, 0, 0, 0, 0, 0, 0, 0, 42, 33, 63, 23, 0, 0, 0, 0, 29, 0, 78, 0, 0, 36, 0, 0, 0, 0, 0, 0, 0, 0, 0, 74, 0, 66, 0, 0, 0, 11, 61, 0, 45, 58, 0, 0, 0, 0, 0, 47
|0, 0, 0, 0, 0, 0, 0, 0, 0, 0, 1, 18, 42, 0, 0, 19, 0, 0, 0, 33, 0, 0, 0, 36, 0, 0, 0, 0, 14, 80, 0, 0, 0, 0, 0, 0, 22, 0, 0, 0, 0, 0, 0, 0, 0, 55, 0, 0, 0, 0, 0, 0, 0, 74, 0, 5, 0, 0, 0, 0, 0, 53, 0, 0, 0, 0, 48, 0, 0, 0, 30, 0, 0, 0, 0, 32, 0, 0, 0, 0, 0
|0, 0, 0, 62, 0, 0, 0, 0, 0, 77, 0, 75, 0, 25, 0, 0, 30, 24, 22, 0, 4, 0, 0, 0, 3, 0, 0, 0, 0, 0, 72, 0, 0, 0, 59, 0, 10, 0, 68, 37, 0, 0, 5, 0, 0, 0, 0, 0, 0, 0, 0, 0, 79, 0, 0, 0, 0, 0, 48, 69, 0, 74, 0, 0, 0, 44, 0, 0, 29, 0, 0, 0, 0, 0, 0, 19, 71, 40, 0, 0, 0
|67, 0, 0, 0, 0, 20, 0, 0, 62, 0, 0, 76, 0, 0, 0, 0, 0, 0, 0, 0, 0, 41, 0, 13, 0, 0, 0, 57, 34, 25, 74, 0, 0, 0, 0, 53, 0, 77, 0, 0, 0, 0, 50, 0, 0, 0, 54, 19, 0, 0, 0, 0, 0, 70, 0, 0, 0, 0, 0, 0, 0, 0, 21, 0, 7, 0, 29, 16, 0, 0, 0, 0, 22, 0, 18, 56, 0, 4, 35, 66, 0
|0, 15, 19, 0, 0, 0, 0, 0, 45, 29, 0, 0, 26, 0, 72, 0, 0, 12, 0, 66, 0, 70, 69, 0, 0, 0, 35, 3, 0, 0, 0, 46, 2, 56, 0, 20, 0, 27, 5, 0, 0, 0, 0, 0, 0, 0, 0, 0, 0, 10, 44, 0, 68, 0, 17, 0, 0, 0, 0, 75, 0, 0, 43, 0, 0, 0, 0, 53, 0, 30, 41, 0, 47, 0, 0, 0, 32, 42, 0, 0, 62
|0, 32, 25, 0, 74, 0, 63, 0, 0, 68, 53, 0, 61, 0, 0, 0, 0, 0, 0, 0, 0, 6, 79, 56, 0, 0, 37, 0, 0, 0, 0, 8, 0, 0, 0, 0, 18, 0, 70, 0, 0, 66, 0, 0, 0, 75, 0, 21, 0, 28, 0, 57, 64, 15, 23, 0, 0, 54, 27, 0, 46, 0, 0, 0, 35, 73, 0, 14, 0, 0, 36, 0, 0, 30, 0, 0, 29, 0, 0, 0, 0
|0, 0, 0, 68, 0, 29, 0, 17, 30, 2, 62, 0, 15, 0, 0, 6, 0, 0, 0, 19, 53, 64, 0, 81, 0, 0, 0, 0, 44, 76, 0, 0, 0, 0, 0, 0, 0, 0, 0, 10, 34, 0, 0, 0, 0, 0, 0, 0, 0, 0, 0, 0, 0, 0, 0, 48, 69, 56, 0, 40, 0, 77, 0, 0, 0, 3, 78, 0, 0, 0, 0, 0, 0, 0, 14, 71, 0, 0, 0, 72, 26
|0, 0, 0, 2, 0, 0, 42, 35, 0, 0, 21, 0, 0, 0, 0, 43, 0, 0, 0, 0, 55, 44, 0, 0, 65, 0, 47, 0, 73, 50, 0, 0, 0, 0, 0, 0, 4, 54, 0, 0, 0, 23, 14, 56, 0, 0, 17, 0, 40, 80, 0, 38, 24, 53, 0, 70, 0, 39, 0, 0, 58, 0, 1, 0, 79, 68, 0, 0, 37, 0, 0, 0, 0, 0, 0, 0, 0, 0, 78, 0, 0
|0, 0, 0, 0, 0, 0, 13, 0, 0, 0, 0, 14, 38, 51, 0, 58, 0, 0, 0, 0, 24, 0, 0, 0, 0, 75, 9, 0, 0, 0, 0, 0, 36, 72, 0, 0, 0, 0, 61, 74, 0, 0, 0, 0, 0, 0, 0, 16, 30, 0, 0, 0, 29, 22, 7, 0, 6, 0, 28, 0, 0, 0, 31, 0, 0, 0, 0, 62, 0, 71, 50, 0, 0, 20, 0, 77, 0, 27, 11, 0, 0
|0, 72, 0, 48, 0, 44, 8, 0, 0, 33, 0, 0, 0, 0, 0, 74, 0, 0, 0, 0, 0, 0, 0, 20, 0, 0, 0, 1, 0, 0, 0, 24, 0, 19, 65, 26, 64, 32, 0, 0, 0, 0, 0, 0, 0, 0, 42, 0, 0, 0, 0, 0, 0, 0, 45, 0, 34, 0, 0, 0, 25, 79, 0, 0, 5, 0, 0, 0, 0, 0, 0, 56, 0, 0, 41, 0, 0, 0, 53, 0, 0
|0, 78, 60, 56, 6, 0, 11, 0, 0, 0, 0, 0, 0, 0, 23, 71, 70, 0, 0, 0, 8, 0, 0, 57, 58, 0, 0, 0, 0, 18, 0, 79, 55, 0, 0, 45, 44, 0, 0, 48, 0, 0, 0, 22, 0, 0, 5, 69, 0, 34, 0, 0, 0, 0, 0, 0, 53, 0, 0, 14, 0, 0, 66, 0, 43, 0, 25, 75, 0, 0, 2, 0, 0, 0, 0, 15, 0, 0, 51, 10, 0
|0, 0, 0, 0, 0, 52, 70, 0, 0, 0, 81, 0, 0, 1, 0, 0, 8, 0, 0, 0, 0, 0, 0, 0, 77, 0, 0, 0, 0, 0, 49, 0, 0, 0, 0, 0, 0, 0, 0, 0, 0, 0, 0, 0, 0, 0, 71, 0, 0, 0, 0, 59, 72, 0, 0, 0, 5, 0, 18, 0, 74, 68, 0, 0, 0, 0, 63, 0, 0, 0, 51, 0, 0, 0, 0, 40, 0, 0, 6, 0, 0
|0, 0, 0, 0, 0, 0, 0, 74, 0, 26, 68, 0, 0, 0, 0, 0, 0, 0, 0, 0, 79, 0, 0, 0, 41, 0, 0, 48, 5, 0, 0, 0, 0, 0, 39, 0, 0, 0, 0, 11, 15, 4, 72, 0, 0, 12, 73, 0, 76, 0, 0, 0, 25, 0, 0, 0, 0, 0, 0, 0, 0, 19, 8, 0, 0, 0, 20, 28, 46, 0, 0, 70, 0, 0, 0, 0, 0, 0, 16, 0, 0
|24, 76, 0, 0, 51, 32, 12, 0, 0, 0, 23, 0, 0, 0, 46, 0, 0, 42, 0, 0, 72, 0, 0, 0, 0, 0, 5, 14, 25, 0, 0, 26, 21, 2, 0, 17, 31, 0, 37, 0, 66, 43, 70, 0, 0, 0, 0, 22, 81, 0, 0, 0, 0, 0, 18, 0, 0, 6, 0, 0, 0, 0, 0, 0, 0, 0, 39, 0, 0, 0, 38, 19, 80, 69, 0, 0, 10, 0, 0, 27, 0
|0, 0, 0, 50, 28, 0, 0, 21, 0, 14, 69, 0, 0, 75, 12, 0, 80, 0, 0, 0, 0, 0, 0, 0, 0, 0, 0, 0, 0, 0, 0, 76, 0, 0, 0, 78, 0, 26, 56, 29, 62, 0, 0, 0, 9, 0, 77, 0, 15, 0, 39, 0, 0, 3, 42, 0, 0, 0, 0, 0, 5, 61, 0, 63, 73, 0, 24, 49, 0, 41, 17, 0, 0, 81, 22, 0, 0, 0, 0, 60, 0
|43, 0, 0, 25, 0, 59, 0, 0, 0, 64, 0, 34, 24, 0, 0, 10, 0, 0, 0, 0, 0, 33, 0, 0, 0, 0, 0, 0, 0, 0, 0, 0, 0, 23, 0, 0, 19, 0, 0, 0, 1, 78, 0, 0, 0, 21, 8, 0, 0, 0, 0, 5, 0, 0, 77, 0, 0, 0, 0, 0, 0, 0, 0, 0, 0, 58, 56, 0, 0, 0, 0, 0, 26, 0, 0, 0, 0, 0, 0, 0, 0
|0, 41, 0, 5, 44, 6, 0, 0, 0, 0, 0, 7, 0, 4, 0, 0, 0, 22, 0, 34, 0, 0, 0, 0, 54, 40, 0, 9, 0, 74, 0, 58, 66, 81, 30, 0, 67, 0, 0, 0, 0, 0, 0, 0, 0, 0, 0, 0, 28, 27, 43, 0, 0, 0, 0, 0, 0, 0, 0, 46, 0, 0, 24, 15, 0, 53, 0, 0, 0, 0, 71, 0, 0, 0, 68, 48, 11, 0, 0, 0, 0
|0, 11, 0, 0, 0, 42, 0, 0, 36, 0, 0, 0, 0, 0, 0, 0, 47, 0, 0, 0, 0, 0, 24, 64, 0, 38, 0, 0, 0, 0, 0, 50, 0, 0, 45, 0, 0, 0, 0, 0, 0, 16, 0, 6, 0, 0, 48, 0, 0, 4, 0, 0, 0, 0, 0, 0, 0, 15, 0, 39, 0, 44, 0, 0, 76, 0, 0, 0, 5, 0, 0, 0, 0, 0, 0, 66, 0, 9, 0, 0, 56
|23, 31, 0, 0, 0, 68, 0, 0, 0, 0, 0, 5, 0, 0, 33, 2, 0, 8, 25, 0, 0, 26, 60, 28, 0, 29, 0, 0, 0, 0, 0, 12, 0, 0, 0, 0, 0, 42, 0, 0, 0, 44, 0, 0, 71, 0, 0, 0, 0, 19, 14, 67, 41, 0, 0, 0, 0, 0, 0, 0, 27, 0, 0, 0, 0, 0, 0, 0, 79, 0, 0, 0, 0, 24, 0, 0, 0, 53, 0, 64, 45
|0, 4, 70, 0, 0, 0, 0, 0, 0, 41, 0, 0, 0, 0, 0, 0, 32, 55, 0, 11, 0, 66, 0, 0, 0, 0, 45, 0, 27, 6, 0, 31, 20, 71, 0, 0, 0, 65, 39, 0, 0, 0, 0, 0, 80, 23, 16, 17, 10, 0, 0, 0, 0, 69, 0, 34, 0, 0, 33, 0, 53, 0, 0, 0, 0, 0, 0, 0, 0, 0, 60, 8, 0, 0, 0, 0, 0, 0, 0, 0, 0
|73, 0, 53, 39, 0, 0, 0, 0, 0, 0, 66, 19, 0, 0, 0, 25, 15, 0, 0, 65, 0, 0, 0, 70, 0, 4, 0, 44, 0, 0, 0, 0, 0, 49, 29, 0, 0, 0, 0, 0, 5, 0, 0, 0, 0, 0, 0, 0, 0, 0, 0, 58, 0, 0, 0, 0, 0, 13, 20, 0, 0, 0, 52, 1, 0, 36, 0, 43, 0, 0, 0, 0, 0, 0, 0, 0, 33, 0, 67, 0, 0
|29, 0, 73, 0, 0, 72, 0, 0, 0, 36, 0, 78, 17, 65, 0, 0, 0, 0, 0, 0, 20, 0, 0, 0, 76, 0, 0, 0, 39, 0, 0, 0, 0, 0, 0, 0, 0, 0, 0, 0, 0, 0, 0, 0, 22, 0, 24, 0, 0, 0, 0, 68, 0, 0, 0, 0, 0, 0, 0, 54, 0, 0, 0, 0, 0, 33, 67, 42, 0, 0, 0, 0, 0, 0, 4, 0, 0, 18, 0, 0, 31
|0, 0, 0, 0, 0, 0, 0, 0, 0, 0, 0, 0, 10, 0, 20, 0, 75, 73, 0, 21, 0, 0, 0, 5, 0, 30, 0, 0, 0, 0, 54, 11, 29, 0, 0, 23, 68, 37, 62, 31, 0, 0, 0, 0, 0, 0, 0, 0, 0, 0, 0, 0, 81, 0, 0, 0, 19, 41, 0, 0, 0, 0, 0, 0, 0, 4, 0, 0, 60, 48, 0, 0, 0, 0, 0, 0, 0, 34, 0, 55, 0
|68, 0, 0, 0, 0, 0, 58, 49, 0, 0, 0, 0, 56, 0, 43, 79, 0, 0, 47, 0, 27, 29, 0, 0, 0, 0, 0, 0, 19, 0, 17, 21, 31, 61, 36, 18, 80, 7, 0, 0, 0, 0, 59, 0, 0, 48, 0, 0, 0, 0, 0, 0, 0, 0, 0, 74, 4, 76, 0, 0, 0, 0, 0, 66, 24, 0, 41, 0, 77, 0, 0, 0, 6, 0, 51, 0, 0, 0, 10, 0, 1
|0, 0, 0, 75, 9, 0, 16, 15, 1, 0, 0, 35, 8, 0, 32, 14, 0, 4, 0, 41, 0, 60, 0, 10, 0, 0, 0, 0, 0, 0, 0, 0, 0, 0, 0, 0, 53, 0, 0, 0, 30, 0, 0, 0, 63, 0, 51, 29, 0, 0, 38, 0, 0, 0, 0, 65, 36, 0, 0, 0, 48, 0, 37, 0, 18, 0, 0, 79, 73, 40, 0, 55, 0, 0, 81, 0, 0, 23, 0, 0, 0
|0, 0, 0, 19, 0, 0, 57, 0, 0, 0, 0, 21, 68, 0, 0, 0, 55, 0, 0, 38, 0, 0, 0, 0, 0, 22, 0, 27, 0, 0, 0, 0, 0, 0, 0, 0, 75, 0, 0, 0, 0, 0, 0, 0, 51, 0, 67, 42, 69, 0, 7, 0, 0, 0, 0, 23, 0, 40, 29, 0, 0, 0, 0, 62, 81, 52, 65, 36, 0, 56, 0, 17, 0, 0, 0, 0, 0, 0, 47, 0, 0
|30, 0, 0, 0, 0, 0, 0, 0, 63, 0, 0, 0, 0, 0, 7, 0, 0, 9, 0, 0, 0, 0, 32, 0, 0, 67, 70, 26, 22, 0, 0, 0, 74, 0, 81, 0, 0, 0, 0, 16, 0, 48, 12, 0, 0, 0, 79, 0, 60, 0, 0, 0, 37, 0, 0, 68, 0, 0, 43, 0, 6, 0, 59, 0, 20, 0, 28, 0, 76, 0, 0, 0, 0, 0, 0, 0, 0, 0, 0, 0, 53
|0, 0, 12, 3, 0, 0, 0, 46, 0, 0, 0, 0, 0, 0, 0, 0, 0, 0, 0, 28, 14, 0, 73, 0, 0, 50, 0, 15, 2, 0, 0, 0, 0, 0, 0, 0, 0, 0, 0, 0, 0, 34, 0, 36, 0, 0, 31, 0, 59, 0, 0, 4, 17, 0, 0, 0, 0, 0, 0, 0, 61, 0, 0, 0, 0, 0, 0, 0, 0, 32, 0, 0, 41, 0, 0, 43, 0, 0, 0, 0, 38
|0, 0, 0, 0, 0, 0, 0, 0, 0, 0, 0, 0, 69, 0, 80, 0, 0, 0, 0, 0, 0, 0, 0, 0, 0, 0, 0, 4, 79, 0, 50, 9, 0, 0, 0, 0, 0, 76, 0, 0, 0, 0, 0, 43, 78, 3, 14, 71, 0, 63, 0, 0, 0, 0, 0, 0, 0, 0, 0, 0, 0, 0, 0, 23, 12, 29, 0, 38, 27, 0, 0, 68, 0, 0, 0, 0, 0, 30, 0, 36, 0
|0, 0, 0, 33, 0, 0, 0, 51, 0, 15, 60, 0, 0, 23, 0, 0, 1, 0, 0, 0, 3, 0, 42, 0, 0, 0, 36, 10, 0, 0, 0, 0, 32, 46, 68, 0, 0, 0, 0, 0, 0, 0, 0, 0, 44, 0, 47, 80, 34, 0, 0, 2, 0, 40, 0, 0, 0, 0, 0, 52, 12, 0, 75, 49, 0, 54, 0, 19, 43, 0, 59, 0, 0, 0, 17, 0, 27, 0, 0, 0, 74|];