order = 9;
grid = [|0, 0, 0, 12, 50, 72, 0, 0, 0, 56, 39, 0, 0, 0, 0, 7, 0, 0, 0, 53, 8, 0, 0, 0, 0, 0, 0, 0, 0, 0, 21, 61, 0, 0, 0, 0, 0, 0, 0, 0, 0, 0, 4, 40, 2, 0, 18, 0, 0, 0, 0, 0, 48, 0, 74, 0, 35, 5, 0, 0, 0, 0, 0, 75, 0, 0, 0, 0, 0, 63, 76, 23, 0, 68, 55, 77, 0, 0, 0, 34, 0
|54, 51, 76, 60, 44, 0, 2, 0, 11, 0, 0, 0, 0, 0, 0, 0, 5, 0, 0, 77, 34, 0, 28, 32, 0, 73, 0, 59, 0, 0, 64, 8, 0, 0, 0, 0, 0, 0, 0, 0, 0, 68, 39, 74, 0, 0, 0, 0, 0, 0, 0, 0, 47, 0, 0, 0, 0, 0, 0, 52, 0, 0, 0, 0, 0, 0, 0, 72, 24, 0, 0, 0, 0, 0, 0, 79, 0, 0, 0, 0, 0
|0, 78, 0, 0, 0, 0, 0, 79, 0, 0, 0, 24, 0, 0, 0, 0, 0, 0, 0, 0, 46, 0, 0, 0, 0, 0, 60, 0, 0, 1, 0, 6, 2, 0, 0, 0, 75, 0, 0, 0, 0, 0, 0, 0, 0, 0, 0, 0, 45, 28, 22, 35, 0, 57, 0, 0, 0, 58, 0, 25, 64, 0, 67, 26, 39, 0, 0, 73, 17, 62, 0, 49, 0, 0, 0, 0, 0, 0, 0, 0, 0
|0, 59, 0, 0, 0, 16, 0, 0, 53, 0, 0, 0, 0, 0, 0, 12, 27, 0, 0, 0, 0, 0, 0, 39, 81, 0, 0, 0, 23, 0, 0, 0, 0, 0, 32, 42, 6, 0, 0, 0, 0, 0, 0, 0, 43, 0, 0, 0, 74, 0, 0, 0, 0, 72, 0, 0, 0, 0, 0, 0, 7, 60, 79, 0, 30, 78, 0, 0, 0, 0, 0, 0, 0, 63, 0, 1, 0, 0, 0, 0, 0
|0, 0, 0, 61, 0, 41, 0, 0, 0, 67, 31, 0, 0, 0, 0, 0, 0, 0, 0, 0, 15, 0, 21, 1, 70, 43, 0, 0, 0, 0, 0, 77, 4, 58, 55, 0, 0, 0, 79, 0, 46, 35, 0, 0, 0, 0, 52, 19, 0, 56, 0, 0, 0, 0, 0, 0, 0, 0, 0, 20, 36, 44, 0, 0, 51, 0, 0, 0, 0, 0, 0, 0, 0, 2, 0, 0, 0, 0, 73, 0, 10
|0, 65, 0, 38, 0, 0, 0, 0, 56, 0, 0, 71, 62, 0, 0, 0, 0, 0, 3, 0, 0, 0, 19, 0, 63, 75, 16, 24, 53, 0, 0, 0, 0, 81, 0, 0, 0, 0, 0, 0, 0, 0, 0, 0, 0, 4, 9, 15, 0, 61, 0, 10, 0, 80, 0, 0, 1, 39, 47, 22, 0, 0, 0, 0, 0, 0, 69, 35, 0, 0, 0, 79, 74, 0, 0, 0, 11, 0, 46, 0, 0
|68, 0, 81, 0, 39, 0, 0, 1, 18, 0, 26, 0, 51, 0, 2, 0, 0, 47, 0, 0, 20, 0, 0, 0, 0, 0, 0, 30, 0, 35, 0, 0, 0, 0, 0, 54, 0, 44, 71, 0, 0, 0, 0, 70, 0, 53, 0, 11, 0, 23, 0, 0, 0, 0, 4, 0, 0, 73, 0, 34, 0, 6, 0, 52, 0, 0, 48, 9, 0, 28, 36, 0, 0, 5, 0, 59, 0, 0, 45, 0, 0
|55, 0, 0, 0, 0, 0, 31, 0, 9, 0, 66, 79, 36, 49, 0, 0, 11, 60, 0, 0, 0, 0, 23, 42, 13, 76, 0, 0, 28, 0, 0, 75, 0, 0, 0, 0, 18, 0, 58, 12, 0, 0, 47, 0, 20, 0, 34, 67, 0, 0, 0, 0, 0, 0, 0, 0, 0, 16, 77, 0, 0, 0, 53, 0, 0, 0, 0, 0, 0, 0, 0, 1, 0, 0, 0, 0, 65, 0, 38, 0, 0
|28, 0, 0, 0, 0, 43, 0, 0, 0, 0, 0, 75, 3, 0, 0, 42, 0, 0, 0, 0, 56, 0, 0, 0, 71, 67, 0, 0, 0, 0, 78, 80, 16, 0, 20, 0, 0, 0, 1, 0, 0, 0, 0, 0, 32, 77, 31, 70, 0, 0, 0, 0, 0, 49, 12, 0, 0, 0, 10, 0, 0, 55, 0, 0, 0, 0, 57, 0, 74, 13, 33, 0, 0, 0, 0, 22, 0, 0, 14, 18, 0
|0, 0, 0, 0, 0, 0, 44, 0, 0, 0, 0, 0, 0, 0, 0, 0, 0, 0, 0, 0, 0, 0, 0, 0, 0, 0, 0, 0, 0, 0, 20, 34, 0, 0, 0, 38, 27, 0, 0, 0, 0, 0, 0, 0, 0, 0, 0, 0, 0, 35, 0, 0, 0, 67, 0, 0, 0, 0, 0, 4, 0, 0, 28, 0, 0, 36, 0, 0, 10, 0, 5, 0, 0, 0, 0, 0, 22, 0, 0, 0, 0
|0, 0, 29, 32, 0, 0, 0, 0, 4, 0, 25, 45, 0, 0, 0, 0, 0, 36, 0, 74, 35, 62, 0, 0, 52, 0, 0, 0, 0, 0, 0, 0, 27, 0, 39, 0, 0, 0, 0, 20, 0, 0, 2, 0, 0, 0, 0, 51, 18, 0, 3, 57, 0, 0, 0, 70, 0, 0, 0, 64, 0, 0, 0, 55, 12, 0, 0, 0, 0, 0, 0, 19, 0, 0, 0, 0, 0, 0, 0, 0, 0
|0, 39, 0, 0, 0, 0, 14, 0, 72, 43, 0, 20, 0, 0, 0, 0, 0, 40, 0, 0, 0, 0, 4, 0, 16, 0, 15, 0, 0, 61, 0, 0, 0, 66, 0, 63, 0, 0, 0, 42, 0, 0, 33, 0, 9, 0, 0, 0, 0, 0, 0, 52, 17, 0, 0, 0, 0, 0, 0, 19, 0, 18, 34, 28, 48, 31, 81, 0, 0, 0, 0, 0, 0, 0, 0, 0, 69, 0, 59, 0, 0
|0, 0, 0, 0, 0, 0, 0, 0, 0, 0, 35, 0, 41, 0, 0, 0, 0, 0, 0, 65, 45, 0, 0, 56, 0, 0, 12, 0, 0, 0, 0, 0, 0, 0, 10, 57, 0, 0, 0, 44, 0, 0, 0, 0, 38, 43, 0, 0, 0, 0, 0, 0, 0, 32, 0, 0, 59, 0, 0, 6, 9, 0, 0, 0, 0, 0, 0, 13, 0, 0, 21, 0, 80, 0, 66, 20, 0, 0, 0, 30, 0
|53, 0, 0, 0, 80, 0, 0, 0, 19, 0, 0, 0, 48, 0, 46, 58, 0, 44, 0, 0, 0, 28, 0, 0, 25, 0, 0, 4, 17, 41, 0, 0, 0, 0, 0, 0, 0, 14, 0, 71, 0, 47, 0, 0, 0, 12, 0, 0, 0, 33, 54, 0, 15, 0, 52, 24, 0, 0, 0, 0, 0, 0, 0, 0, 0, 0, 0, 0, 0, 0, 0, 0, 0, 0, 0, 0, 0, 0, 0, 0, 0
|0, 0, 0, 41, 0, 0, 0, 69, 28, 0, 0, 0, 0, 0, 12, 0, 0, 0, 0, 0, 0, 0, 0, 18, 20, 0, 0, 0, 60, 0, 48, 0, 58, 0, 0, 0, 5, 0, 0, 37, 8, 0, 0, 0, 30, 0, 0, 64, 0, 0, 0, 4, 0, 0, 36, 0, 0, 0, 21, 46, 0, 1, 0, 0, 0, 0, 15, 0, 0, 0, 3, 0, 0, 0, 49, 0, 0, 62, 0, 0, 0
|0, 0, 79, 17, 0, 0, 81, 0, 23, 34, 72, 57, 0, 0, 0, 0, 0, 0, 0, 32, 0, 10, 0, 0, 0, 0, 0, 37, 80, 0, 54, 0, 5, 64, 47, 0, 0, 0, 75, 77, 49, 0, 73, 0, 0, 0, 45, 16, 0, 0, 0, 44, 0, 0, 27, 0, 0, 0, 0, 39, 61, 50, 25, 7, 33, 67, 0, 24, 68, 56, 0, 0, 0, 26, 0, 15, 0, 0, 0, 42, 0
|45, 0, 0, 57, 0, 0, 0, 75, 0, 0, 62, 0, 0, 27, 0, 18, 52, 0, 0, 5, 54, 0, 0, 66, 0, 0, 59, 0, 78, 0, 0, 43, 0, 0, 0, 36, 0, 0, 61, 0, 0, 0, 0, 39, 0, 0, 40, 0, 80, 25, 0, 0, 0, 0, 0, 31, 17, 0, 0, 10, 0, 0, 35, 0, 0, 34, 0, 0, 0, 0, 51, 16, 12, 0, 0, 0, 0, 0, 64, 0, 0
|0, 0, 62, 34, 0, 12, 70, 25, 0, 7, 0, 56, 0, 66, 0, 0, 0, 0, 67, 0, 0, 39, 0, 51, 0, 0, 0, 2, 0, 33, 0, 0, 53, 0, 0, 0, 0, 0, 10, 0, 3, 81, 0, 0, 63, 0, 0, 0, 0, 0, 0, 0, 68, 0, 0, 0, 0, 47, 0, 42, 0, 49, 0, 0, 0, 0, 0, 29, 0, 0, 0, 0, 0, 71, 0, 0, 0, 0, 0, 0, 0
|33, 23, 0, 0, 0, 0, 65, 0, 0, 0, 0, 0, 0, 0, 39, 22, 74, 2, 0, 79, 77, 0, 0, 0, 0, 0, 0, 0, 0, 0, 76, 0, 36, 62, 0, 0, 0, 0, 0, 0, 11, 53, 0, 0, 0, 0, 0, 0, 0, 0, 0, 0, 0, 0, 0, 0, 0, 0, 29, 41, 0, 67, 0, 21, 31, 45, 30, 0, 0, 0, 0, 0, 0, 10, 0, 0, 0, 0, 0, 9, 0
|0, 0, 11, 0, 0, 0, 0, 0, 0, 61, 17, 4, 0, 46, 10, 0, 28, 0, 0, 0, 0, 0, 0, 0, 0, 49, 1, 22, 0, 43, 0, 0, 0, 0, 0, 0, 0, 20, 0, 27, 0, 0, 75, 73, 0, 32, 0, 0, 72, 0, 0, 0, 0, 37, 0, 57, 47, 44, 70, 0, 5, 0, 0, 64, 81, 51, 0, 0, 50, 53, 0, 0, 0, 0, 21, 39, 0, 63, 0, 0, 0
|78, 0, 21, 18, 0, 0, 40, 0, 0, 0, 0, 69, 0, 0, 70, 19, 3, 0, 55, 0, 0, 0, 0, 0, 0, 0, 0, 0, 0, 0, 0, 0, 0, 0, 0, 0, 0, 0, 12, 59, 0, 0, 46, 60, 0, 0, 58, 0, 10, 0, 0, 0, 0, 0, 2, 0, 0, 0, 0, 0, 0, 0, 0, 0, 0, 66, 0, 0, 41, 0, 0, 0, 0, 62, 0, 26, 0, 0, 0, 0, 29
|36, 0, 0, 46, 0, 0, 0, 5, 0, 62, 0, 65, 0, 38, 26, 0, 0, 0, 0, 0, 0, 0, 53, 0, 0, 0, 0, 64, 61, 60, 23, 66, 68, 74, 0, 0, 67, 51, 0, 0, 0, 77, 0, 0, 0, 0, 19, 0, 0, 0, 35, 0, 0, 30, 76, 0, 0, 0, 0, 0, 32, 0, 0, 0, 0, 79, 0, 37, 0, 0, 0, 0, 0, 0, 0, 0, 0, 0, 15, 0, 56
|6, 0, 0, 64, 0, 28, 0, 80, 0, 0, 73, 0, 12, 48, 0, 0, 81, 59, 0, 0, 0, 0, 0, 0, 60, 54, 0, 0, 50, 27, 26, 70, 0, 0, 0, 0, 65, 0, 0, 40, 0, 0, 0, 0, 0, 0, 62, 0, 76, 0, 0, 0, 0, 0, 0, 0, 0, 0, 0, 0, 0, 0, 0, 0, 0, 16, 10, 0, 0, 0, 0, 36, 0, 0, 0, 31, 37, 0, 0, 0, 0
|0, 0, 66, 0, 0, 0, 0, 61, 13, 37, 0, 0, 52, 80, 0, 0, 49, 0, 0, 0, 0, 0, 0, 0, 0, 0, 0, 0, 9, 0, 0, 20, 39, 0, 0, 0, 0, 41, 0, 0, 0, 63, 0, 0, 0, 0, 0, 0, 0, 68, 26, 0, 65, 0, 0, 0, 62, 36, 0, 0, 0, 59, 0, 74, 0, 0, 0, 0, 47, 0, 56, 0, 0, 64, 0, 0, 0, 23, 0, 0, 69
|0, 22, 26, 45, 0, 0, 0, 0, 30, 0, 0, 0, 0, 0, 0, 0, 21, 0, 0, 0, 0, 0, 0, 16, 32, 35, 0, 0, 0, 19, 0, 12, 77, 0, 49, 0, 0, 0, 64, 0, 0, 0, 0, 0, 4, 31, 0, 0, 0, 0, 0, 0, 0, 28, 0, 0, 75, 0, 0, 0, 0, 0, 0, 0, 0, 0, 0, 0, 0, 58, 62, 0, 0, 80, 0, 0, 48, 66, 0, 0, 0
|0, 0, 0, 0, 0, 0, 0, 20, 0, 41, 0, 0, 0, 32, 0, 0, 36, 0, 0, 28, 0, 0, 0, 0, 0, 50, 43, 0, 0, 0, 0, 0, 78, 0, 0, 0, 30, 0, 37, 0, 0, 0, 45, 0, 0, 0, 33, 0, 0, 0, 0, 59, 75, 0, 69, 0, 0, 0, 0, 8, 31, 0, 0, 13, 0, 0, 35, 0, 0, 19, 73, 0, 0, 0, 0, 0, 0, 24, 0, 0, 0
|47, 0, 0, 25, 0, 0, 0, 48, 0, 0, 0, 0, 16, 53, 31, 0, 71, 34, 0, 61, 0, 64, 80, 29, 0, 0, 0, 0, 58, 0, 0, 57, 0, 28, 0, 0, 0, 0, 0, 0, 0, 0, 0, 0, 0, 0, 0, 0, 40, 0, 0, 24, 0, 0, 0, 0, 0, 0, 0, 35, 0, 0, 0, 27, 0, 0, 0, 54, 55, 5, 12, 0, 0, 1, 14, 0, 36, 0, 3, 44, 0
|0, 0, 63, 0, 0, 0, 0, 28, 43, 30, 0, 0, 70, 0, 0, 0, 15, 23, 0, 16, 0, 44, 0, 0, 57, 29, 0, 0, 0, 0, 68, 27, 48, 0, 0, 0, 51, 32, 0, 1, 61, 5, 0, 24, 0, 75, 0, 0, 0, 0, 0, 0, 11, 0, 0, 0, 64, 45, 37, 0, 18, 35, 0, 58, 46, 72, 0, 0, 0, 0, 47, 56, 36, 0, 0, 0, 10, 0, 0, 71, 0
|0, 10, 0, 30, 0, 47, 0, 0, 50, 5, 0, 61, 0, 0, 0, 73, 0, 0, 0, 0, 0, 0, 0, 0, 0, 71, 0, 0, 16, 80, 0, 21, 81, 0, 0, 0, 0, 0, 60, 0, 0, 0, 0, 0, 0, 0, 0, 0, 0, 0, 62, 0, 0, 0, 0, 42, 33, 0, 67, 32, 0, 0, 51, 0, 0, 0, 29, 18, 27, 20, 0, 0, 0, 0, 0, 44, 0, 0, 0, 0, 65
|0, 0, 0, 0, 58, 0, 0, 0, 0, 0, 80, 0, 43, 0, 32, 0, 45, 64, 53, 8, 69, 0, 62, 0, 0, 33, 0, 79, 0, 50, 0, 0, 0, 0, 0, 0, 0, 49, 0, 0, 0, 0, 35, 0, 0, 13, 67, 0, 29, 51, 0, 28, 0, 0, 0, 0, 0, 34, 0, 0, 56, 0, 0, 0, 0, 26, 0, 0, 5, 0, 0, 0, 0, 48, 0, 0, 75, 0, 0, 0, 0
|29, 0, 0, 0, 0, 0, 0, 0, 0, 0, 0, 18, 0, 0, 0, 0, 50, 0, 0, 0, 49, 0, 0, 6, 75, 78, 0, 0, 0, 0, 0, 0, 44, 0, 0, 13, 0, 0, 0, 0, 47, 0, 0, 0, 0, 0, 0, 0, 71, 77, 0, 81, 0, 0, 30, 0, 0, 0, 0, 14, 0, 0, 0, 0, 0, 21, 0, 0, 0, 43, 0, 0, 0, 0, 0, 0, 0, 0, 0, 0, 0
|0, 0, 7, 0, 0, 0, 0, 0, 5, 0, 0, 0, 0, 74, 0, 0, 0, 0, 30, 0, 10, 0, 0, 73, 11, 0, 0, 0, 0, 0, 0, 78, 29, 0, 0, 0, 0, 25, 63, 0, 0, 33, 0, 0, 77, 0, 0, 0, 20, 0, 1, 0, 76, 0, 0, 81, 0, 0, 0, 0, 0, 0, 52, 0, 60, 0, 0, 0, 0, 75, 0, 17, 0, 61, 0, 8, 0, 51, 0, 0, 0
|0, 8, 0, 0, 0, 0, 0, 81, 0, 0, 0, 0, 0, 0, 0, 0, 56, 14, 35, 0, 51, 24, 0, 60, 0, 0, 0, 0, 0, 0, 58, 0, 0, 0, 0, 70, 0, 0, 0, 29, 50, 55, 0, 41, 0, 0, 0, 0, 0, 0, 38, 0, 72, 15, 61, 0, 0, 0, 0, 0, 76, 0, 0, 0, 0, 0, 0, 0, 42, 0, 0, 74, 0, 0, 0, 78, 0, 12, 9, 0, 0
|0, 0, 52, 0, 0, 0, 0, 39, 0, 0, 0, 0, 0, 0, 0, 53, 0, 25, 70, 0, 0, 61, 0, 0, 0, 0, 0, 60, 0, 0, 36, 32, 74, 0, 0, 0, 0, 0, 0, 0, 0, 0, 0, 0, 0, 0, 0, 0, 0, 2, 31, 16, 69, 0, 41, 0, 0, 0, 0, 0, 0, 0, 0, 0, 0, 0, 33, 3, 0, 0, 0, 0, 0, 0, 0, 0, 0, 19, 0, 37, 15
|0, 9, 0, 51, 0, 0, 26, 23, 0, 0, 0, 52, 0, 0, 0, 59, 0, 0, 0, 31, 0, 15, 0, 0, 74, 0, 0, 0, 0, 0, 0, 42, 0, 0, 0, 0, 0, 0, 0, 0, 0, 0, 0, 16, 0, 0, 0, 0, 0, 0, 0, 53, 0, 0, 73, 0, 0, 0, 54, 0, 0, 0, 0, 24, 0, 76, 0, 0, 0, 0, 13, 0, 0, 20, 47, 0, 0, 0, 0, 0, 0
|16, 0, 0, 73, 0, 0, 22, 0, 0, 0, 41, 35, 11, 44, 0, 31, 13, 66, 0, 0, 0, 0, 1, 0, 0, 0, 64, 0, 0, 0, 0, 0, 18, 47, 0, 0, 0, 0, 30, 36, 0, 0, 0, 0, 0, 0, 0, 0, 0, 0, 0, 0, 0, 0, 0, 60, 0, 0, 0, 71, 0, 24, 0, 51, 70, 0, 0, 0, 32, 0, 0, 39, 0, 77, 0, 29, 0, 0, 0, 0, 80
|25, 0, 0, 0, 0, 0, 0, 0, 0, 0, 0, 0, 0, 0, 0, 0, 0, 54, 39, 0, 0, 0, 0, 0, 0, 0, 0, 0, 0, 0, 0, 0, 0, 0, 0, 65, 0, 0, 34, 0, 0, 0, 60, 0, 0, 0, 57, 0, 0, 37, 0, 0, 42, 0, 0, 0, 55, 0, 0, 0, 0, 0, 0, 35, 0, 0, 64, 0, 0, 0, 0, 43, 0, 0, 0, 69, 14, 0, 0, 5, 0
|46, 0, 0, 0, 0, 0, 0, 0, 0, 17, 40, 0, 0, 36, 11, 0, 0, 0, 0, 0, 14, 0, 75, 0, 64, 0, 0, 0, 0, 0, 0, 0, 55, 0, 57, 21, 0, 0, 0, 0, 0, 0, 0, 0, 70, 0, 41, 12, 53, 0, 0, 51, 0, 0, 0, 0, 0, 0, 49, 0, 54, 0, 56, 37, 59, 13, 23, 0, 0, 0, 1, 0, 0, 0, 0, 33, 43, 0, 0, 74, 42
|38, 20, 0, 0, 0, 0, 0, 72, 65, 29, 15, 0, 44, 0, 0, 0, 0, 31, 0, 70, 0, 60, 48, 25, 0, 0, 77, 0, 0, 42, 0, 0, 37, 0, 0, 0, 0, 62, 0, 0, 63, 0, 0, 0, 33, 0, 0, 0, 19, 0, 0, 0, 22, 0, 0, 0, 2, 0, 27, 0, 0, 0, 0, 0, 0, 0, 0, 0, 0, 17, 0, 32, 0, 0, 0, 0, 0, 0, 0, 0, 0
|0, 0, 0, 0, 0, 13, 0, 0, 27, 0, 0, 0, 0, 0, 8, 75, 0, 56, 0, 0, 0, 0, 0, 0, 54, 65, 0, 0, 0, 0, 0, 0, 0, 0, 0, 0, 0, 0, 0, 0, 0, 10, 0, 0, 0, 0, 0, 0, 0, 64, 76, 0, 0, 0, 72, 0, 0, 62, 0, 0, 0, 0, 0, 0, 80, 0, 0, 0, 0, 26, 0, 0, 37, 0, 0, 0, 0, 15, 4, 0, 60
|57, 0, 69, 0, 0, 0, 0, 0, 0, 0, 43, 0, 0, 0, 0, 0, 59, 0, 0, 17, 0, 45, 9, 0, 0, 0, 0, 0, 0, 75, 1, 0, 0, 23, 44, 0, 79, 0, 80, 0, 39, 0, 58, 32, 0, 0, 13, 72, 0, 0, 27, 0, 0, 8, 24, 0, 3, 0, 6, 0, 0, 0, 61, 0, 16, 0, 0, 42, 0, 0, 0, 0, 78, 46, 30, 28, 0, 0, 0, 0, 0
|70, 0, 0, 0, 31, 78, 10, 0, 0, 0, 74, 0, 26, 0, 0, 0, 0, 0, 0, 33, 0, 0, 0, 0, 43, 0, 0, 0, 0, 0, 77, 0, 61, 27, 54, 79, 0, 0, 0, 0, 0, 0, 51, 0, 45, 0, 0, 0, 0, 0, 0, 0, 0, 0, 68, 0, 0, 60, 0, 0, 0, 0, 0, 0, 0, 0, 0, 0, 0, 29, 0, 0, 0, 0, 0, 0, 0, 0, 75, 63, 0
|0, 0, 0, 0, 0, 49, 0, 0, 0, 0, 20, 0, 63, 0, 80, 69, 0, 0, 28, 0, 0, 0, 68, 30, 0, 0, 67, 12, 0, 0, 0, 0, 0, 0, 35, 0, 0, 0, 0, 0, 0, 57, 0, 0, 0, 0, 0, 0, 0, 0, 0, 0, 0, 0, 0, 0, 0, 25, 0, 59, 0, 0, 0, 81, 0, 0, 75, 0, 0, 60, 45, 0, 73, 0, 0, 70, 0, 0, 39, 24, 0
|0, 66, 6, 0, 0, 30, 0, 0, 0, 0, 9, 0, 0, 35, 0, 0, 0, 1, 0, 0, 57, 0, 0, 0, 8, 0, 0, 0, 0, 0, 0, 0, 0, 60, 64, 0, 0, 36, 0, 17, 0, 0, 0, 0, 0, 0, 0, 58, 0, 0, 0, 68, 0, 77, 81, 45, 0, 0, 73, 0, 0, 39, 0, 20, 0, 0, 0, 28, 0, 0, 78, 14, 26, 0, 0, 0, 0, 0, 0, 0, 0
|0, 0, 39, 0, 73, 0, 21, 0, 0, 0, 0, 0, 0, 0, 45, 81, 0, 0, 0, 51, 40, 0, 0, 0, 0, 16, 0, 0, 0, 0, 0, 50, 46, 0, 0, 6, 29, 0, 0, 0, 0, 0, 0, 67, 0, 0, 0, 0, 0, 60, 0, 0, 0, 20, 0, 17, 10, 0, 0, 66, 30, 77, 0, 71, 0, 57, 0, 0, 0, 49, 0, 0, 0, 59, 0, 0, 0, 25, 11, 0, 1
|0, 71, 0, 36, 0, 0, 33, 29, 0, 40, 11, 0, 0, 0, 0, 0, 0, 27, 0, 0, 0, 0, 0, 0, 0, 1, 0, 0, 6, 0, 0, 13, 0, 0, 81, 0, 0, 52, 0, 0, 0, 0, 0, 0, 68, 0, 0, 0, 0, 0, 0, 64, 0, 0, 0, 39, 0, 0, 0, 0, 0, 0, 0, 4, 73, 0, 0, 0, 0, 0, 50, 69, 0, 0, 0, 0, 74, 10, 0, 76, 55
|18, 80, 0, 0, 70, 0, 0, 0, 0, 0, 63, 0, 0, 54, 0, 60, 62, 0, 0, 0, 0, 0, 0, 34, 26, 0, 50, 66, 0, 0, 16, 0, 0, 8, 40, 75, 0, 79, 0, 67, 0, 0, 31, 0, 0, 19, 0, 0, 58, 0, 73, 0, 0, 0, 0, 15, 0, 0, 23, 30, 11, 0, 47, 61, 13, 64, 0, 0, 46, 0, 77, 0, 0, 21, 0, 0, 0, 0, 0, 22, 0
|0, 0, 0, 0, 0, 0, 0, 53, 0, 0, 36, 0, 0, 34, 0, 0, 20, 0, 63, 0, 0, 0, 35, 0, 0, 0, 0, 0, 31, 0, 0, 0, 73, 41, 51, 76, 0, 80, 0, 10, 0, 30, 0, 0, 50, 0, 21, 57, 0, 0, 0, 29, 0, 0, 0, 79, 6, 0, 0, 0, 0, 0, 0, 0, 0, 0, 0, 0, 0, 0, 0, 75, 68, 60, 0, 0, 1, 0, 0, 0, 0
|75, 0, 43, 0, 0, 9, 0, 0, 20, 45, 58, 0, 53, 0, 0, 0, 0, 17, 7, 67, 0, 11, 0, 0, 0, 0, 0, 0, 0, 55, 0, 0, 0, 0, 0, 52, 0, 0, 0, 0, 0, 60, 0, 0, 0, 28, 0, 0, 63, 0, 0, 0, 0, 33, 0, 0, 0, 0, 0, 0, 0, 54, 41, 48, 0, 0, 0, 0, 0, 0, 79, 37, 0, 0, 0, 57, 0, 36, 0, 0, 0
|19, 0, 35, 22, 0, 0, 0, 55, 0, 0, 0, 0, 64, 0, 25, 0, 0, 0, 0, 0, 0, 0, 0, 0, 0, 0, 29, 0, 0, 0, 32, 0, 0, 50, 0, 0, 40, 0, 0, 46, 20, 0, 0, 3, 0, 60, 0, 0, 0, 48, 0, 23, 0, 0, 0, 0, 0, 0, 0, 0, 0, 0, 0, 0, 0, 33, 80, 1, 0, 0, 27, 0, 24, 0, 0, 0, 0, 0, 0, 77, 0
|30, 52, 0, 0, 0, 0, 37, 0, 0, 0, 0, 19, 32, 0, 66, 9, 0, 7, 0, 46, 0, 22, 73, 77, 0, 0, 0, 68, 59, 0, 0, 23, 57, 0, 0, 0, 55, 0, 0, 0, 0, 0, 0, 0, 0, 0, 20, 36, 0, 0, 0, 49, 0, 24, 42, 0, 0, 0, 0, 0, 0, 0, 0, 0, 0, 3, 0, 0, 67, 0, 15, 0, 0, 0, 0, 58, 0, 0, 50, 0, 13
|74, 0, 0, 39, 0, 0, 0, 38, 40, 0, 0, 0, 0, 0, 18, 0, 43, 42, 21, 0, 31, 0, 64, 45, 0, 0, 0, 0, 0, 0, 0, 0, 70, 0, 0, 0, 0, 0, 0, 0, 0, 0, 0, 0, 17, 0, 68, 0, 0, 0, 0, 0, 0, 0, 1, 0, 0, 0, 0, 0, 25, 27, 0, 0, 0, 58, 41, 0, 53, 0, 0, 0, 16, 0, 0, 11, 0, 0, 0, 28, 6
|0, 69, 0, 0, 54, 0, 0, 0, 51, 0, 0, 39, 79, 65, 0, 57, 1, 0, 0, 0, 0, 74, 24, 0, 0, 12, 0, 11, 0, 0, 37, 14, 0, 0, 7, 30, 0, 0, 0, 0, 0, 45, 0, 9, 0, 0, 0, 80, 16, 0, 8, 0, 0, 71, 77, 4, 76, 64, 0, 75, 0, 0, 20, 0, 0, 60, 0, 0, 0, 70, 0, 0, 0, 81, 0, 0, 0, 40, 0, 78, 0
|0, 0, 0, 0, 7, 17, 50, 0, 64, 8, 0, 0, 0, 0, 0, 0, 0, 0, 0, 0, 0, 55, 2, 0, 36, 0, 3, 0, 22, 71, 80, 0, 0, 20, 0, 47, 25, 0, 0, 0, 0, 0, 0, 59, 0, 81, 0, 0, 0, 0, 0, 0, 0, 0, 0, 0, 46, 0, 0, 16, 0, 0, 0, 0, 0, 0, 0, 74, 0, 78, 34, 11, 0, 0, 15, 42, 0, 0, 0, 0, 0
|0, 0, 0, 28, 0, 0, 0, 0, 25, 0, 4, 0, 0, 0, 0, 0, 0, 0, 0, 56, 0, 0, 0, 0, 0, 0, 34, 0, 35, 0, 11, 0, 0, 16, 66, 0, 0, 0, 29, 0, 0, 39, 0, 0, 0, 0, 0, 0, 61, 0, 0, 0, 0, 68, 10, 38, 0, 37, 22, 0, 0, 0, 0, 59, 0, 0, 0, 48, 62, 69, 0, 0, 77, 53, 0, 0, 20, 0, 0, 67, 0
|0, 72, 0, 31, 16, 0, 67, 0, 0, 0, 0, 0, 0, 0, 56, 0, 0, 0, 0, 58, 80, 23, 0, 62, 0, 0, 0, 0, 52, 37, 43, 40, 30, 0, 79, 0, 21, 35, 0, 0, 0, 20, 0, 0, 0, 0, 0, 63, 60, 5, 13, 0, 54, 0, 0, 25, 0, 0, 0, 0, 0, 0, 0, 0, 0, 0, 0, 78, 0, 0, 0, 0, 0, 0, 0, 17, 71, 0, 34, 36, 0
|0, 0, 0, 0, 0, 0, 0, 0, 0, 0, 1, 31, 0, 77, 0, 68, 0, 0, 0, 19, 0, 25, 0, 0, 0, 0, 0, 0, 4, 0, 0, 0, 0, 44, 48, 46, 0, 22, 0, 73, 0, 0, 66, 42, 0, 0, 28, 0, 0, 0, 0, 80, 0, 38, 0, 0, 71, 67, 16, 0, 0, 0, 0, 0, 0, 0, 0, 0, 0, 6, 0, 0, 0, 0, 0, 0, 0, 0, 0, 0, 0
|0, 0, 45, 0, 0, 75, 0, 0, 57, 0, 0, 0, 0, 0, 0, 52, 0, 0, 0, 0, 67, 37, 0, 44, 0, 0, 0, 0, 0, 73, 69, 58, 0, 0, 0, 50, 0, 70, 0, 0, 0, 0, 0, 11, 3, 0, 66, 0, 65, 0, 81, 0, 0, 0, 39, 77, 0, 0, 0, 0, 0, 0, 0, 0, 38, 0, 0, 0, 0, 18, 30, 10, 29, 0, 62, 6, 78, 0, 0, 27, 16
|0, 70, 0, 26, 29, 0, 0, 0, 8, 0, 0, 59, 10, 25, 48, 13, 0, 0, 0, 0, 0, 0, 0, 0, 0, 20, 0, 0, 0, 0, 0, 76, 0, 0, 0, 0, 19, 75, 0, 16, 0, 79, 38, 0, 37, 0, 0, 0, 0, 0, 0, 0, 0, 0, 0, 0, 0, 0, 0, 74, 0, 0, 0, 0, 42, 0, 72, 22, 0, 0, 40, 0, 0, 0, 0, 51, 0, 0, 0, 0, 0
|0, 0, 61, 6, 0, 0, 0, 0, 38, 0, 0, 46, 20, 0, 34, 0, 0, 0, 0, 0, 0, 0, 17, 0, 49, 48, 0, 7, 0, 0, 51, 53, 0, 29, 75, 0, 0, 0, 28, 0, 0, 74, 0, 0, 0, 0, 0, 0, 44, 0, 10, 0, 0, 78, 0, 0, 11, 0, 0, 0, 0, 0, 5, 1, 0, 0, 0, 0, 31, 0, 37, 0, 0, 0, 0, 0, 0, 0, 0, 0, 0
|0, 0, 0, 0, 0, 74, 0, 65, 0, 0, 0, 36, 0, 0, 0, 21, 0, 35, 18, 0, 1, 0, 0, 0, 68, 0, 78, 62, 0, 0, 0, 39, 0, 0, 0, 0, 0, 0, 0, 0, 0, 0, 0, 0, 0, 0, 0, 0, 0, 0, 56, 55, 0, 0, 23, 0, 0, 0, 0, 0, 0, 33, 0, 0, 0, 0, 0, 8, 0, 71, 0, 0, 0, 0, 10, 0, 0, 0, 0, 0, 30
|0, 0, 0, 0, 0, 56, 0, 0, 0, 0, 0, 0, 42, 62, 0, 0, 0, 0, 0, 0, 7, 0, 59, 0, 0, 2, 0, 0, 70, 0, 0, 0, 23, 0, 71, 0, 8, 30, 0, 0, 0, 67, 0, 0, 0, 0, 0, 0, 22, 0, 0, 0, 0, 0, 0, 0, 0, 80, 0, 0, 0, 34, 0, 0, 79, 0, 0, 41, 0, 12, 0, 0, 0, 9, 0, 0, 0, 0, 0, 50, 37
|0, 68, 27, 0, 62, 0, 0, 78, 0, 0, 0, 37, 75, 0, 7, 0, 76, 45, 0, 73, 0, 26, 0, 0, 53, 39, 0, 0, 0, 0, 0, 55, 0, 0, 0, 0, 0, 77, 0, 0, 0, 14, 0, 0, 0, 0, 0, 0, 0, 0, 0, 32, 0, 0, 0, 0, 0, 30, 12, 2, 0, 0, 0, 0, 57, 0, 49, 0, 21, 0, 0, 0, 0, 0, 0, 38, 46, 3, 0, 0, 59
|0, 0, 0, 0, 0, 23, 0, 0, 44, 0, 57, 0, 0, 0, 0, 0, 0, 0, 0, 0, 0, 0, 0, 0, 0, 0, 0, 0, 51, 38, 73, 1, 0, 0, 0, 0, 0, 48, 66, 0, 0, 0, 0, 0, 0, 0, 0, 0, 34, 62, 0, 0, 0, 0, 0, 52, 24, 0, 0, 0, 0, 0, 0, 11, 0, 74, 0, 61, 0, 0, 0, 0, 0, 0, 0, 76, 0, 0, 0, 0, 0
|35, 60, 0, 0, 0, 38, 0, 0, 1, 24, 0, 0, 0, 0, 9, 0, 44, 0, 0, 0, 0, 0, 0, 53, 0, 0, 80, 6, 0, 0, 57, 0, 0, 0, 16, 0, 0, 0, 33, 0, 0, 0, 65, 0, 81, 56, 0, 29, 21, 0, 0, 0, 0, 0, 0, 0, 37, 0, 0, 0, 0, 0, 0, 0, 49, 0, 73, 0, 0, 0, 26, 0, 0, 0, 0, 0, 0, 0, 0, 0, 0
|0, 62, 0, 0, 0, 6, 0, 0, 0, 73, 65, 0, 0, 0, 0, 0, 0, 13, 0, 0, 0, 1, 0, 0, 0, 0, 0, 0, 21, 0, 0, 0, 0, 0, 0, 64, 0, 50, 0, 0, 0, 0, 0, 0, 0, 0, 0, 0, 0, 0, 57, 0, 79, 0, 0, 0, 0, 0, 0, 0, 0, 36, 0, 0, 0, 0, 0, 0, 0, 0, 71, 0, 0, 69, 8, 0, 0, 78, 0, 0, 0
|76, 0, 0, 0, 0, 0, 56, 17, 0, 0, 0, 0, 0, 67, 0, 23, 0, 0, 0, 0, 0, 68, 36, 0, 2, 0, 5, 69, 0, 0, 72, 0, 0, 39, 0, 0, 0, 8, 0, 79, 14, 61, 0, 0, 0, 0, 0, 73, 49, 0, 19, 0, 0, 74, 0, 62, 0, 21, 78, 47, 0, 0, 0, 12, 0, 0, 0, 81, 0, 64, 0, 0, 0, 0, 0, 7, 3, 34, 0, 52, 0
|0, 0, 0, 0, 66, 0, 0, 18, 0, 0, 50, 10, 0, 26, 0, 72, 0, 0, 0, 0, 32, 0, 0, 0, 0, 0, 0, 0, 0, 0, 0, 56, 0, 0, 0, 0, 0, 0, 0, 0, 38, 0, 17, 19, 0, 0, 48, 0, 52, 0, 0, 8, 0, 0, 35, 2, 0, 0, 0, 0, 0, 11, 0, 34, 0, 0, 13, 43, 0, 0, 0, 0, 21, 0, 0, 0, 77, 37, 57, 0, 0
|0, 0, 67, 53, 0, 5, 0, 0, 0, 0, 33, 8, 18, 0, 0, 0, 54, 0, 0, 0, 0, 66, 0, 65, 21, 0, 0, 13, 0, 0, 0, 0, 0, 0, 0, 0, 34, 0, 36, 0, 0, 7, 0, 0, 0, 42, 0, 0, 0, 0, 0, 15, 0, 0, 0, 0, 29, 0, 0, 0, 0, 0, 0, 0, 0, 59, 0, 27, 0, 0, 9, 0, 0, 0, 0, 0, 81, 0, 35, 0, 0
|0, 0, 0, 70, 36, 0, 0, 0, 14, 27, 60, 0, 0, 0, 0, 0, 31, 75, 64, 0, 30, 0, 0, 0, 29, 0, 0, 0, 0, 0, 0, 0, 0, 0, 0, 0, 0, 2, 0, 28, 57, 0, 0, 0, 73, 0, 0, 23, 0, 32, 0, 0, 0, 58, 25, 0, 0, 0, 0, 0, 79, 0, 77, 0, 0, 0, 0, 0, 78, 0, 0, 51, 0, 0, 0, 67, 0, 0, 66, 0, 0
|0, 11, 0, 79, 49, 0, 0, 0, 59, 0, 0, 0, 0, 0, 4, 0, 0, 0, 0, 0, 0, 0, 43, 0, 0, 46, 8, 0, 41, 0, 0, 25, 0, 0, 27, 0, 0, 0, 0, 0, 71, 24, 0, 0, 0, 0, 0, 0, 0, 53, 18, 0, 0, 0, 0, 0, 0, 68, 0, 0, 0, 0, 0, 10, 35, 0, 0, 0, 0, 0, 0, 0, 19, 44, 0, 0, 0, 26, 63, 0, 0
|0, 26, 0, 0, 0, 0, 43, 0, 0, 0, 42, 0, 0, 12, 0, 34, 0, 0, 0, 0, 76, 0, 0, 0, 0, 52, 0, 0, 63, 0, 60, 0, 0, 9, 0, 0, 0, 0, 0, 74, 0, 0, 0, 6, 0, 0, 17, 54, 27, 0, 0, 0, 0, 0, 0, 10, 0, 0, 0, 0, 0, 0, 0, 0, 0, 0, 0, 0, 8, 0, 0, 0, 0, 16, 0, 0, 0, 38, 0, 0, 0
|0, 0, 8, 0, 0, 0, 0, 0, 49, 0, 0, 12, 29, 14, 59, 0, 0, 0, 0, 0, 0, 0, 0, 0, 0, 0, 0, 0, 0, 2, 46, 0, 0, 0, 0, 0, 0, 0, 0, 30, 40, 0, 74, 0, 0, 70, 0, 65, 0, 73, 0, 25, 0, 0, 60, 0, 0, 0, 0, 0, 0, 0, 0, 0, 0, 0, 0, 0, 0, 0, 0, 0, 71, 0, 0, 0, 0, 0, 0, 0, 0
|0, 19, 12, 0, 37, 32, 0, 0, 48, 0, 0, 0, 15, 0, 0, 0, 0, 55, 57, 54, 0, 65, 0, 11, 0, 0, 0, 0, 24, 66, 0, 0, 0, 0, 0, 0, 0, 0, 0, 0, 21, 0, 0, 14, 0, 67, 0, 35, 1, 0, 5, 0, 0, 0, 0, 49, 25, 0, 0, 0, 47, 0, 0, 0, 43, 71, 0, 0, 0, 0, 0, 0, 62, 8, 0, 0, 50, 30, 0, 45, 0
|0, 0, 0, 40, 9, 0, 0, 68, 0, 0, 46, 0, 0, 0, 0, 0, 0, 0, 0, 0, 75, 0, 0, 78, 0, 0, 14, 0, 0, 0, 56, 41, 69, 0, 73, 0, 0, 0, 0, 0, 0, 0, 0, 26, 0, 0, 0, 0, 15, 54, 0, 0, 0, 12, 0, 0, 0, 0, 0, 0, 43, 0, 0, 66, 0, 0, 0, 0, 0, 0, 0, 0, 11, 31, 65, 0, 0, 0, 27, 59, 0
|39, 0, 0, 0, 0, 0, 0, 0, 7, 0, 0, 0, 0, 70, 69, 8, 0, 0, 0, 60, 0, 0, 47, 35, 0, 0, 0, 0, 0, 0, 55, 0, 6, 0, 0, 0, 0, 0, 0, 0, 37, 0, 22, 0, 27, 14, 0, 0, 0, 0, 0, 0, 0, 0, 0, 66, 0, 2, 0, 0, 0, 3, 0, 0, 0, 0, 0, 34, 11, 15, 0, 57, 0, 0, 0, 0, 0, 0, 77, 0, 0
|0, 0, 0, 0, 0, 50, 0, 60, 41, 23, 0, 62, 0, 0, 0, 1, 35, 0, 0, 10, 48, 0, 0, 15, 0, 0, 0, 29, 0, 74, 0, 0, 0, 0, 0, 0, 0, 67, 78, 0, 0, 0, 0, 75, 51, 0, 27, 37, 43, 0, 59, 0, 0, 0, 0, 56, 7, 54, 0, 61, 69, 0, 0, 70, 26, 0, 77, 0, 0, 0, 49, 0, 0, 0, 0, 0, 40, 0, 0, 0, 0
|0, 0, 0, 69, 0, 0, 0, 22, 0, 0, 0, 0, 67, 0, 0, 0, 0, 0, 0, 12, 0, 0, 0, 0, 0, 0, 36, 40, 76, 0, 0, 0, 49, 0, 0, 0, 0, 0, 43, 0, 73, 34, 0, 23, 0, 29, 0, 0, 0, 0, 0, 0, 60, 0, 0, 0, 0, 0, 0, 0, 0, 0, 0, 0, 0, 48, 0, 0, 39, 0, 0, 55, 0, 0, 0, 0, 0, 81, 0, 0, 0
|0, 0, 0, 0, 56, 59, 78, 0, 0, 0, 0, 0, 54, 6, 36, 50, 0, 0, 69, 0, 2, 81, 16, 0, 0, 0, 71, 0, 65, 77, 22, 0, 0, 0, 72, 0, 0, 60, 0, 0, 0, 4, 0, 0, 62, 0, 80, 0, 0, 74, 48, 0, 0, 75, 0, 0, 0, 0, 0, 0, 0, 0, 40, 0, 0, 0, 0, 0, 0, 0, 0, 0, 0, 0, 42, 0, 0, 13, 17, 55, 12
|81, 0, 38, 2, 0, 0, 0, 0, 46, 33, 27, 0, 0, 0, 0, 0, 40, 0, 20, 0, 0, 0, 52, 24, 0, 0, 39, 0, 0, 13, 0, 0, 0, 0, 0, 0, 0, 0, 0, 0, 0, 80, 77, 0, 0, 0, 0, 0, 28, 0, 0, 0, 51, 0, 0, 0, 68, 0, 62, 0, 0, 0, 42, 0, 78, 73, 54, 0, 0, 0, 16, 0, 0, 57, 0, 0, 66, 32, 26, 60, 0
|0, 0, 0, 0, 11, 26, 0, 0, 0, 18, 77, 0, 0, 0, 0, 0, 0, 16, 0, 0, 73, 0, 74, 59, 0, 0, 0, 0, 0, 0, 5, 0, 19, 0, 0, 0, 0, 0, 0, 15, 0, 0, 0, 48, 61, 0, 0, 0, 0, 0, 0, 0, 41, 0, 0, 0, 20, 76, 50, 0, 0, 0, 0, 25, 0, 0, 14, 0, 0, 0, 0, 0, 0, 52, 0, 0, 0, 75, 0, 3, 0|];