order = 9;
grid = [|0, 57, 0, 0, 0, 0, 35, 77, 74, 0, 0, 0, 0, 66, 0, 38, 0, 0, 0, 0, 79, 0, 56, 0, 0, 0, 0, 0, 51, 0, 0, 0, 0, 0, 0, 0, 0, 0, 46, 19, 10, 0, 0, 72, 34, 41, 0, 36, 52, 81, 44, 11, 48, 18, 0, 0, 0, 0, 0, 0, 0, 0, 0, 0, 0, 0, 0, 27, 0, 0, 0, 0, 0, 0, 42, 15, 0, 3, 32, 0, 30
|0, 0, 81, 0, 0, 0, 20, 0, 0, 0, 0, 11, 0, 0, 0, 0, 0, 35, 13, 0, 62, 8, 61, 0, 0, 45, 0, 3, 0, 0, 26, 0, 0, 7, 52, 56, 0, 36, 0, 0, 0, 49, 0, 0, 0, 0, 0, 0, 0, 0, 0, 69, 53, 0, 0, 0, 0, 0, 0, 0, 0, 0, 42, 0, 0, 5, 0, 0, 72, 58, 59, 0, 6, 0, 0, 0, 0, 37, 29, 0, 50
|58, 0, 19, 0, 76, 0, 0, 0, 0, 0, 0, 0, 0, 59, 0, 44, 0, 20, 41, 0, 0, 0, 0, 0, 0, 63, 0, 0, 0, 0, 0, 37, 46, 0, 0, 34, 0, 0, 0, 2, 0, 0, 0, 43, 0, 33, 66, 0, 0, 13, 79, 0, 15, 0, 0, 0, 0, 0, 56, 0, 0, 0, 0, 0, 31, 0, 0, 0, 51, 48, 0, 0, 0, 38, 0, 0, 0, 0, 0, 61, 0
|0, 0, 0, 0, 0, 0, 27, 0, 68, 0, 0, 0, 0, 0, 0, 25, 0, 46, 30, 0, 0, 0, 57, 0, 52, 0, 0, 0, 0, 16, 0, 0, 0, 0, 2, 45, 0, 39, 28, 0, 0, 35, 0, 0, 0, 0, 0, 0, 0, 0, 70, 0, 4, 0, 3, 43, 0, 64, 0, 0, 0, 34, 0, 15, 81, 0, 0, 0, 0, 12, 0, 0, 23, 69, 75, 79, 0, 0, 0, 19, 0
|0, 0, 0, 0, 0, 0, 37, 0, 0, 0, 0, 0, 74, 0, 0, 0, 12, 0, 0, 6, 0, 81, 0, 0, 23, 0, 0, 0, 76, 0, 27, 0, 0, 75, 0, 73, 0, 18, 0, 0, 0, 55, 0, 0, 0, 0, 0, 0, 0, 71, 8, 0, 58, 0, 0, 50, 0, 61, 0, 59, 0, 0, 0, 47, 0, 11, 17, 56, 7, 0, 0, 0, 0, 0, 0, 0, 25, 2, 0, 0, 0
|0, 0, 0, 0, 17, 0, 0, 50, 46, 0, 0, 0, 0, 0, 0, 0, 58, 45, 0, 0, 0, 38, 0, 0, 0, 0, 0, 0, 0, 0, 0, 0, 0, 60, 0, 0, 0, 22, 0, 68, 0, 77, 0, 0, 14, 0, 0, 16, 0, 27, 43, 0, 61, 0, 0, 0, 0, 0, 51, 0, 0, 19, 0, 0, 0, 25, 0, 0, 0, 0, 54, 0, 36, 0, 0, 0, 65, 39, 0, 0, 0
|0, 0, 0, 60, 59, 0, 49, 0, 0, 0, 43, 0, 0, 0, 0, 0, 0, 0, 69, 0, 0, 0, 48, 9, 0, 0, 0, 6, 0, 0, 0, 0, 39, 38, 0, 0, 65, 0, 0, 0, 0, 0, 32, 0, 0, 54, 0, 0, 0, 0, 24, 75, 0, 77, 0, 0, 0, 0, 0, 0, 0, 53, 0, 0, 80, 55, 0, 0, 0, 0, 70, 71, 0, 33, 0, 0, 0, 0, 0, 34, 5
|0, 69, 0, 0, 0, 0, 36, 3, 43, 0, 0, 48, 16, 54, 64, 51, 0, 0, 0, 0, 0, 0, 0, 0, 72, 0, 67, 24, 29, 62, 0, 0, 0, 0, 61, 0, 0, 0, 0, 0, 0, 31, 0, 66, 6, 0, 0, 0, 0, 0, 0, 0, 0, 26, 79, 0, 0, 0, 0, 15, 0, 35, 0, 0, 75, 0, 0, 0, 33, 0, 0, 2, 0, 12, 45, 0, 0, 0, 0, 80, 0
|0, 0, 0, 0, 0, 0, 0, 10, 8, 0, 0, 57, 71, 0, 0, 0, 0, 4, 66, 0, 0, 65, 0, 0, 40, 0, 42, 0, 81, 55, 0, 0, 0, 0, 0, 25, 59, 0, 64, 70, 9, 0, 0, 37, 0, 0, 0, 0, 0, 0, 78, 30, 0, 0, 0, 0, 0, 0, 0, 0, 0, 0, 0, 6, 0, 0, 21, 0, 0, 13, 0, 0, 0, 16, 0, 0, 0, 0, 0, 0, 0
|0, 0, 0, 0, 0, 0, 0, 0, 0, 0, 0, 5, 0, 0, 73, 0, 80, 28, 0, 0, 59, 68, 71, 42, 33, 54, 0, 0, 32, 48, 46, 0, 0, 0, 0, 72, 0, 0, 0, 0, 0, 0, 0, 0, 0, 30, 0, 0, 4, 0, 0, 43, 74, 0, 16, 0, 0, 0, 0, 0, 0, 0, 0, 44, 10, 0, 26, 0, 34, 0, 0, 0, 0, 0, 15, 0, 0, 0, 0, 0, 0
|0, 0, 0, 5, 0, 0, 0, 0, 0, 0, 0, 0, 50, 13, 0, 65, 0, 54, 25, 0, 0, 0, 0, 0, 0, 0, 0, 0, 0, 53, 58, 0, 0, 0, 0, 75, 0, 0, 0, 0, 0, 66, 0, 0, 0, 77, 0, 0, 49, 0, 57, 0, 47, 0, 0, 0, 36, 0, 7, 0, 0, 0, 0, 0, 0, 3, 0, 76, 60, 0, 0, 0, 45, 0, 0, 51, 0, 0, 0, 0, 0
|0, 0, 0, 66, 0, 9, 52, 0, 48, 0, 45, 0, 53, 0, 4, 49, 0, 40, 18, 60, 0, 0, 30, 0, 0, 2, 61, 0, 0, 0, 0, 0, 0, 29, 0, 65, 0, 0, 0, 0, 68, 0, 0, 14, 10, 27, 0, 0, 0, 0, 0, 20, 41, 0, 0, 0, 0, 0, 0, 0, 38, 59, 23, 0, 13, 0, 0, 0, 0, 36, 33, 0, 0, 0, 0, 0, 0, 24, 0, 0, 0
|0, 3, 0, 0, 0, 0, 69, 0, 0, 0, 0, 0, 0, 30, 0, 0, 10, 0, 0, 9, 0, 5, 0, 0, 0, 0, 76, 0, 74, 4, 0, 0, 6, 0, 43, 0, 0, 0, 19, 46, 60, 0, 0, 0, 58, 0, 0, 53, 0, 0, 0, 70, 0, 79, 0, 0, 0, 0, 0, 0, 0, 0, 0, 0, 0, 0, 0, 0, 28, 0, 0, 65, 0, 17, 0, 0, 0, 50, 0, 0, 0
|0, 0, 0, 0, 42, 2, 0, 0, 32, 0, 79, 0, 48, 0, 0, 0, 20, 24, 0, 0, 0, 0, 72, 0, 51, 0, 0, 0, 0, 8, 80, 0, 0, 0, 0, 30, 0, 0, 0, 65, 57, 0, 0, 0, 56, 0, 0, 54, 0, 33, 0, 0, 0, 0, 0, 35, 52, 15, 0, 26, 68, 0, 0, 78, 0, 0, 0, 19, 18, 0, 58, 62, 67, 14, 28, 29, 0, 0, 0, 25, 0
|35, 0, 0, 0, 0, 0, 0, 0, 0, 0, 0, 22, 15, 0, 0, 0, 0, 0, 14, 0, 0, 67, 0, 0, 0, 0, 0, 79, 77, 0, 0, 66, 7, 0, 0, 0, 0, 0, 0, 0, 0, 0, 0, 0, 4, 0, 0, 0, 65, 0, 19, 73, 0, 0, 58, 42, 64, 0, 9, 43, 0, 0, 53, 0, 0, 32, 38, 0, 0, 46, 0, 0, 0, 0, 74, 0, 6, 0, 26, 18, 0
|59, 15, 18, 0, 23, 71, 0, 0, 0, 0, 35, 58, 19, 0, 0, 0, 0, 0, 0, 78, 0, 0, 0, 79, 46, 10, 0, 0, 0, 0, 68, 0, 0, 45, 37, 0, 50, 0, 0, 0, 0, 0, 0, 0, 0, 22, 67, 0, 3, 0, 0, 0, 0, 14, 0, 0, 21, 0, 0, 0, 39, 0, 0, 0, 0, 0, 4, 0, 24, 0, 0, 0, 0, 0, 0, 34, 0, 63, 0, 0, 0
|0, 37, 0, 4, 0, 19, 7, 0, 0, 0, 0, 0, 75, 0, 21, 0, 0, 0, 0, 0, 80, 0, 64, 0, 58, 66, 22, 52, 0, 0, 0, 0, 0, 0, 0, 16, 69, 0, 0, 0, 0, 0, 0, 40, 0, 0, 0, 0, 0, 0, 0, 71, 0, 0, 0, 0, 0, 0, 0, 0, 73, 0, 0, 0, 0, 1, 0, 45, 0, 57, 0, 0, 0, 47, 0, 12, 0, 32, 0, 0, 72
|49, 0, 0, 0, 0, 0, 0, 0, 55, 0, 0, 0, 0, 0, 0, 71, 0, 0, 0, 0, 0, 0, 0, 0, 0, 0, 0, 12, 0, 0, 24, 0, 18, 44, 0, 20, 0, 7, 0, 0, 0, 45, 0, 0, 42, 0, 35, 0, 0, 0, 0, 16, 1, 0, 0, 0, 0, 63, 0, 28, 0, 3, 0, 0, 0, 0, 0, 40, 0, 0, 0, 0, 0, 0, 0, 0, 0, 0, 4, 36, 0
|0, 43, 0, 0, 0, 0, 0, 0, 73, 0, 12, 31, 8, 0, 0, 58, 0, 71, 0, 22, 0, 0, 0, 0, 0, 0, 0, 0, 0, 0, 0, 0, 0, 59, 0, 0, 0, 0, 0, 0, 0, 37, 0, 0, 45, 0, 0, 0, 0, 0, 5, 60, 0, 0, 0, 0, 0, 0, 0, 75, 33, 4, 0, 0, 0, 0, 69, 0, 79, 28, 36, 0, 42, 0, 25, 63, 68, 0, 0, 0, 0
|0, 0, 0, 0, 70, 0, 0, 0, 0, 0, 0, 0, 0, 65, 0, 0, 73, 0, 34, 29, 0, 0, 14, 57, 0, 35, 33, 37, 0, 0, 81, 0, 0, 0, 0, 0, 27, 0, 11, 0, 0, 0, 72, 79, 0, 0, 71, 0, 76, 49, 0, 0, 0, 0, 0, 10, 0, 0, 0, 0, 0, 0, 64, 0, 0, 54, 0, 0, 0, 0, 0, 0, 13, 23, 0, 0, 75, 0, 74, 20, 0
|0, 0, 0, 0, 0, 0, 53, 61, 0, 0, 0, 0, 14, 0, 0, 0, 0, 0, 0, 0, 0, 30, 0, 0, 0, 25, 0, 0, 67, 0, 7, 0, 0, 0, 32, 0, 43, 0, 0, 0, 0, 36, 0, 41, 0, 17, 0, 20, 0, 0, 0, 40, 0, 0, 0, 66, 0, 0, 0, 0, 0, 0, 28, 0, 0, 0, 0, 0, 0, 72, 80, 0, 81, 0, 0, 0, 0, 33, 0, 0, 0
|0, 0, 6, 0, 0, 0, 34, 0, 0, 0, 21, 0, 0, 0, 67, 15, 47, 0, 39, 17, 0, 0, 24, 0, 0, 0, 0, 0, 0, 0, 0, 0, 0, 0, 0, 0, 0, 0, 33, 0, 40, 80, 0, 0, 0, 0, 19, 0, 9, 35, 54, 0, 0, 0, 26, 0, 16, 0, 0, 79, 49, 42, 32, 0, 0, 0, 0, 0, 66, 0, 5, 61, 55, 0, 0, 0, 14, 0, 0, 71, 73
|0, 46, 0, 0, 14, 0, 0, 0, 15, 0, 0, 3, 0, 20, 0, 0, 0, 43, 0, 0, 0, 0, 0, 38, 0, 0, 0, 0, 0, 0, 0, 0, 0, 0, 74, 0, 58, 0, 0, 28, 0, 1, 0, 0, 12, 0, 0, 0, 34, 0, 0, 0, 0, 36, 0, 17, 35, 0, 0, 73, 24, 0, 0, 0, 0, 0, 0, 0, 0, 0, 0, 0, 0, 0, 0, 44, 0, 0, 45, 5, 65
|0, 0, 0, 0, 0, 0, 0, 0, 54, 0, 0, 79, 13, 0, 0, 0, 0, 16, 0, 31, 0, 0, 45, 0, 81, 0, 0, 0, 0, 0, 0, 0, 0, 0, 57, 28, 18, 0, 0, 7, 0, 0, 0, 0, 67, 10, 41, 0, 70, 50, 0, 0, 0, 0, 0, 76, 0, 65, 0, 0, 0, 0, 0, 55, 58, 0, 34, 0, 0, 0, 0, 20, 0, 61, 0, 0, 0, 0, 0, 0, 0
|52, 0, 0, 19, 45, 0, 0, 13, 0, 24, 0, 0, 0, 0, 0, 0, 0, 27, 0, 0, 0, 0, 0, 0, 26, 20, 0, 0, 0, 64, 43, 0, 0, 0, 0, 0, 16, 0, 75, 0, 0, 0, 70, 0, 0, 0, 53, 81, 18, 0, 61, 0, 0, 0, 0, 0, 0, 0, 31, 0, 0, 60, 21, 0, 0, 41, 0, 0, 74, 0, 39, 0, 0, 6, 48, 0, 37, 76, 56, 12, 0
|32, 0, 42, 0, 64, 0, 0, 0, 0, 0, 0, 0, 0, 0, 72, 0, 0, 0, 79, 10, 0, 0, 0, 4, 0, 0, 0, 0, 0, 13, 40, 0, 0, 50, 0, 8, 0, 0, 0, 0, 0, 0, 0, 0, 46, 75, 0, 0, 0, 0, 0, 0, 73, 22, 0, 0, 0, 0, 0, 0, 45, 0, 34, 25, 0, 0, 0, 0, 0, 0, 44, 0, 30, 0, 0, 24, 0, 0, 0, 0, 0
|25, 60, 4, 28, 0, 27, 0, 0, 0, 45, 0, 1, 69, 0, 75, 0, 0, 0, 0, 0, 0, 0, 0, 0, 0, 0, 0, 0, 0, 0, 0, 0, 0, 0, 0, 79, 26, 0, 0, 0, 0, 0, 0, 0, 0, 0, 0, 37, 0, 0, 0, 21, 0, 38, 74, 0, 0, 0, 0, 68, 57, 0, 0, 13, 0, 0, 0, 0, 0, 40, 19, 64, 0, 0, 0, 0, 0, 0, 47, 35, 0
|0, 0, 0, 0, 19, 0, 0, 0, 0, 0, 0, 2, 0, 0, 0, 0, 0, 15, 0, 0, 71, 0, 0, 40, 36, 22, 0, 57, 0, 0, 0, 0, 0, 26, 0, 0, 64, 47, 0, 0, 0, 17, 46, 75, 0, 0, 8, 0, 0, 0, 0, 0, 0, 0, 14, 73, 59, 0, 0, 0, 0, 0, 0, 0, 0, 0, 61, 0, 0, 0, 0, 0, 0, 0, 0, 0, 23, 0, 0, 0, 0
|0, 0, 26, 10, 0, 74, 0, 0, 57, 0, 0, 0, 27, 0, 0, 0, 0, 0, 33, 62, 25, 0, 0, 0, 0, 69, 0, 48, 0, 0, 23, 45, 16, 0, 0, 0, 0, 0, 0, 0, 0, 0, 29, 39, 63, 0, 0, 0, 75, 0, 0, 12, 0, 0, 0, 0, 0, 0, 0, 0, 36, 0, 0, 59, 64, 58, 0, 0, 0, 0, 0, 34, 0, 54, 0, 0, 0, 79, 42, 0, 0
|36, 0, 0, 0, 0, 0, 23, 0, 0, 0, 0, 0, 0, 0, 0, 0, 19, 30, 0, 0, 0, 0, 68, 0, 0, 0, 57, 0, 0, 0, 0, 0, 0, 0, 0, 0, 0, 0, 0, 25, 0, 61, 0, 0, 0, 0, 0, 0, 0, 0, 0, 0, 18, 0, 0, 0, 65, 0, 0, 0, 0, 47, 0, 0, 5, 66, 0, 0, 0, 0, 0, 0, 0, 0, 0, 0, 29, 0, 0, 0, 0
|0, 0, 0, 0, 20, 8, 25, 0, 0, 49, 0, 0, 0, 21, 46, 17, 0, 0, 0, 23, 0, 0, 81, 61, 0, 0, 0, 0, 0, 12, 0, 0, 0, 0, 0, 0, 0, 0, 0, 43, 0, 0, 0, 0, 0, 0, 0, 0, 0, 72, 0, 78, 0, 0, 68, 26, 22, 0, 0, 0, 0, 66, 0, 0, 0, 0, 27, 29, 0, 0, 79, 0, 65, 0, 1, 0, 0, 0, 33, 57, 0
|0, 22, 0, 0, 0, 46, 0, 0, 0, 62, 0, 0, 42, 0, 1, 47, 63, 39, 11, 0, 14, 0, 0, 72, 0, 79, 0, 0, 50, 0, 74, 0, 0, 41, 6, 9, 4, 66, 0, 0, 76, 0, 0, 0, 77, 0, 0, 0, 0, 0, 0, 0, 0, 0, 0, 34, 0, 0, 0, 81, 0, 75, 0, 0, 60, 18, 0, 0, 37, 71, 0, 0, 0, 7, 0, 0, 0, 0, 0, 26, 8
|0, 0, 12, 79, 48, 17, 0, 49, 29, 0, 0, 25, 0, 0, 14, 0, 26, 0, 0, 47, 41, 54, 0, 0, 0, 64, 0, 0, 0, 11, 0, 0, 0, 0, 0, 0, 0, 0, 0, 0, 0, 0, 0, 0, 72, 0, 76, 0, 67, 0, 0, 3, 0, 59, 0, 0, 19, 7, 0, 0, 78, 37, 0, 0, 0, 0, 0, 0, 77, 0, 45, 0, 0, 0, 9, 0, 0, 6, 69, 0, 0
|0, 0, 71, 0, 33, 0, 0, 0, 38, 0, 0, 20, 0, 0, 0, 35, 0, 34, 0, 0, 52, 0, 65, 19, 76, 0, 0, 1, 0, 0, 0, 0, 15, 0, 36, 60, 0, 59, 0, 0, 0, 9, 0, 0, 0, 0, 0, 0, 0, 0, 0, 0, 0, 0, 0, 0, 0, 0, 0, 18, 0, 72, 0, 0, 0, 0, 0, 31, 0, 0, 0, 21, 0, 24, 0, 0, 0, 53, 5, 47, 0
|0, 0, 53, 0, 0, 0, 0, 0, 0, 0, 57, 0, 0, 0, 0, 45, 0, 0, 0, 0, 46, 0, 0, 10, 0, 0, 0, 42, 37, 0, 0, 0, 0, 0, 33, 0, 0, 0, 0, 0, 0, 0, 0, 0, 0, 26, 0, 66, 0, 0, 0, 0, 63, 0, 0, 0, 0, 0, 0, 0, 31, 0, 0, 0, 0, 0, 80, 0, 0, 0, 0, 0, 0, 28, 0, 0, 21, 0, 0, 0, 0
|0, 0, 0, 0, 69, 80, 64, 0, 0, 18, 0, 0, 0, 41, 0, 0, 0, 0, 0, 56, 0, 0, 0, 0, 0, 0, 0, 0, 0, 0, 0, 0, 0, 0, 0, 49, 0, 0, 0, 14, 0, 0, 0, 0, 0, 0, 29, 79, 0, 0, 0, 0, 0, 19, 0, 23, 0, 0, 0, 0, 0, 0, 0, 0, 0, 0, 0, 0, 0, 0, 0, 0, 0, 0, 0, 0, 0, 0, 0, 0, 76
|0, 0, 0, 46, 2, 0, 10, 0, 0, 0, 0, 37, 1, 42, 65, 0, 0, 52, 0, 16, 0, 11, 0, 0, 0, 24, 0, 0, 0, 0, 0, 0, 0, 0, 0, 0, 0, 0, 0, 75, 17, 0, 9, 15, 0, 45, 0, 0, 5, 0, 0, 0, 0, 63, 0, 51, 70, 72, 0, 0, 0, 56, 29, 33, 0, 0, 0, 0, 0, 0, 0, 0, 0, 0, 0, 21, 0, 25, 0, 0, 14
|60, 4, 0, 3, 0, 0, 16, 0, 72, 0, 80, 71, 0, 57, 0, 0, 0, 0, 0, 0, 0, 41, 50, 0, 0, 0, 81, 0, 0, 0, 0, 0, 0, 0, 0, 0, 0, 0, 0, 0, 54, 0, 0, 0, 0, 19, 0, 0, 0, 0, 0, 47, 0, 0, 0, 0, 0, 0, 0, 0, 59, 65, 0, 0, 0, 26, 0, 77, 0, 0, 0, 8, 0, 45, 0, 0, 0, 56, 7, 17, 0
|0, 73, 0, 0, 0, 0, 0, 0, 58, 30, 0, 0, 0, 0, 69, 0, 0, 32, 0, 0, 0, 0, 0, 0, 13, 36, 4, 0, 0, 50, 67, 0, 49, 0, 0, 0, 0, 0, 44, 0, 0, 0, 40, 0, 55, 51, 37, 0, 0, 0, 0, 0, 65, 0, 0, 77, 0, 0, 0, 0, 0, 0, 0, 0, 7, 9, 0, 0, 0, 0, 0, 53, 0, 0, 0, 0, 0, 20, 61, 0, 0
|79, 0, 0, 0, 0, 61, 47, 1, 0, 0, 0, 12, 0, 0, 9, 0, 0, 0, 0, 45, 43, 2, 0, 0, 20, 0, 0, 0, 0, 0, 0, 0, 26, 18, 0, 0, 63, 80, 0, 0, 0, 81, 0, 7, 0, 0, 0, 0, 0, 0, 0, 0, 0, 24, 32, 0, 0, 0, 0, 40, 0, 48, 0, 0, 59, 21, 0, 0, 65, 0, 0, 0, 0, 52, 0, 0, 0, 0, 54, 29, 0
|0, 0, 0, 0, 0, 5, 0, 0, 0, 0, 0, 21, 7, 16, 51, 13, 4, 0, 0, 0, 29, 0, 0, 0, 56, 0, 34, 71, 0, 0, 0, 0, 38, 37, 0, 0, 0, 0, 0, 0, 0, 62, 0, 0, 0, 0, 0, 0, 40, 0, 41, 0, 0, 0, 0, 0, 0, 25, 0, 17, 0, 54, 0, 0, 28, 68, 0, 0, 0, 0, 0, 30, 0, 0, 39, 35, 15, 0, 0, 0, 12
|0, 0, 0, 0, 0, 57, 0, 0, 0, 0, 0, 0, 0, 0, 0, 0, 0, 0, 0, 0, 0, 66, 0, 78, 0, 0, 0, 0, 16, 0, 0, 0, 61, 0, 0, 0, 0, 0, 0, 0, 0, 0, 12, 18, 0, 0, 0, 0, 30, 0, 0, 14, 0, 0, 45, 0, 0, 0, 74, 0, 0, 0, 80, 23, 0, 50, 0, 0, 0, 25, 56, 0, 0, 67, 71, 73, 0, 0, 0, 31, 0
|0, 0, 45, 0, 54, 0, 0, 0, 0, 2, 0, 0, 0, 39, 0, 0, 0, 0, 0, 0, 0, 0, 75, 0, 0, 0, 0, 0, 0, 0, 0, 0, 0, 0, 81, 0, 0, 0, 61, 0, 0, 26, 0, 0, 0, 0, 0, 56, 0, 0, 0, 0, 0, 0, 34, 0, 0, 0, 0, 0, 0, 0, 9, 18, 0, 0, 0, 0, 0, 0, 0, 0, 0, 65, 0, 55, 0, 0, 50, 0, 0
|0, 0, 0, 0, 0, 0, 6, 67, 0, 15, 0, 0, 0, 31, 0, 0, 0, 0, 19, 0, 0, 0, 40, 0, 0, 30, 0, 0, 0, 0, 0, 4, 0, 66, 0, 0, 0, 0, 0, 0, 0, 0, 65, 0, 0, 0, 0, 0, 0, 0, 0, 0, 62, 0, 81, 0, 2, 0, 0, 0, 0, 0, 0, 0, 0, 12, 0, 44, 0, 0, 0, 58, 69, 0, 0, 0, 8, 0, 0, 0, 0
|0, 76, 0, 0, 0, 77, 0, 0, 7, 67, 0, 0, 0, 46, 17, 0, 0, 36, 0, 70, 0, 0, 74, 0, 59, 0, 0, 73, 0, 0, 0, 0, 0, 27, 40, 0, 21, 0, 0, 8, 0, 0, 0, 0, 0, 0, 69, 50, 0, 39, 3, 0, 0, 0, 0, 0, 0, 66, 0, 35, 0, 0, 0, 0, 0, 0, 0, 0, 5, 31, 24, 0, 0, 0, 0, 0, 72, 0, 0, 0, 0
|0, 47, 0, 22, 0, 0, 0, 0, 0, 19, 0, 0, 0, 0, 0, 0, 0, 0, 0, 74, 32, 0, 0, 0, 0, 0, 0, 0, 26, 0, 8, 36, 0, 0, 34, 78, 35, 25, 0, 0, 0, 0, 38, 0, 0, 0, 16, 0, 0, 0, 0, 54, 0, 0, 0, 62, 63, 49, 0, 27, 0, 0, 66, 2, 0, 56, 14, 0, 30, 0, 0, 0, 0, 0, 0, 0, 10, 0, 15, 0, 0
|0, 0, 0, 0, 0, 0, 0, 0, 0, 0, 64, 0, 0, 0, 25, 0, 0, 0, 0, 26, 0, 0, 0, 17, 0, 0, 45, 46, 18, 0, 0, 0, 0, 79, 0, 0, 0, 0, 0, 74, 0, 0, 0, 0, 75, 0, 0, 0, 35, 3, 0, 0, 0, 0, 0, 0, 0, 0, 0, 0, 0, 33, 0, 4, 0, 0, 0, 0, 0, 0, 0, 0, 39, 0, 0, 0, 0, 0, 0, 0, 0
|63, 0, 0, 0, 0, 0, 19, 0, 1, 0, 74, 0, 0, 67, 0, 0, 78, 0, 0, 0, 39, 71, 0, 24, 0, 7, 50, 43, 0, 0, 29, 0, 0, 0, 11, 0, 46, 64, 0, 3, 0, 0, 69, 0, 17, 0, 6, 45, 14, 25, 0, 0, 0, 0, 0, 0, 0, 0, 12, 0, 4, 0, 77, 0, 0, 61, 54, 0, 32, 0, 0, 0, 0, 0, 0, 0, 0, 0, 73, 0, 27
|0, 0, 0, 9, 0, 0, 0, 0, 0, 37, 0, 0, 0, 0, 39, 0, 0, 0, 0, 0, 12, 0, 0, 0, 1, 0, 0, 10, 6, 74, 48, 0, 47, 54, 0, 76, 42, 0, 23, 58, 0, 0, 0, 0, 0, 5, 24, 65, 0, 0, 0, 0, 0, 0, 0, 78, 0, 41, 25, 0, 67, 29, 0, 62, 0, 0, 0, 0, 57, 53, 0, 59, 11, 79, 0, 0, 63, 0, 0, 0, 21
|0, 0, 0, 0, 0, 52, 0, 74, 0, 0, 0, 0, 30, 0, 26, 0, 0, 0, 0, 0, 0, 42, 0, 0, 0, 53, 58, 0, 0, 0, 0, 0, 44, 0, 68, 0, 0, 0, 0, 0, 0, 0, 37, 0, 62, 20, 0, 0, 0, 43, 0, 0, 66, 0, 59, 71, 0, 19, 0, 0, 0, 23, 76, 0, 0, 0, 25, 9, 1, 0, 28, 79, 0, 0, 0, 0, 0, 13, 0, 0, 0
|16, 54, 0, 0, 43, 0, 0, 8, 11, 0, 0, 0, 0, 0, 0, 10, 0, 58, 67, 38, 18, 0, 0, 0, 66, 48, 0, 56, 0, 0, 0, 0, 0, 0, 0, 0, 0, 0, 0, 0, 52, 79, 0, 53, 0, 0, 72, 0, 26, 73, 0, 9, 0, 27, 46, 0, 57, 0, 0, 0, 75, 24, 0, 19, 33, 0, 0, 0, 0, 45, 0, 0, 68, 0, 0, 0, 0, 0, 76, 2, 0
|0, 35, 0, 0, 0, 0, 0, 46, 0, 73, 47, 0, 0, 0, 0, 0, 0, 0, 0, 0, 0, 0, 0, 0, 0, 0, 0, 0, 0, 0, 0, 0, 0, 0, 25, 0, 0, 0, 0, 67, 0, 0, 0, 0, 0, 0, 21, 0, 0, 0, 29, 0, 0, 0, 0, 79, 0, 0, 0, 32, 80, 0, 0, 0, 0, 0, 0, 0, 75, 0, 0, 0, 18, 30, 0, 0, 0, 71, 0, 0, 37
|0, 0, 27, 23, 50, 0, 0, 0, 66, 0, 0, 0, 59, 60, 12, 0, 72, 0, 0, 0, 40, 0, 0, 76, 0, 0, 0, 58, 0, 71, 41, 0, 0, 77, 0, 0, 0, 0, 0, 0, 5, 0, 18, 28, 0, 47, 0, 0, 19, 0, 0, 0, 75, 0, 70, 0, 0, 0, 0, 36, 0, 0, 0, 0, 0, 0, 0, 0, 0, 69, 81, 0, 0, 25, 34, 48, 0, 0, 0, 3, 29
|18, 58, 79, 0, 71, 0, 0, 0, 0, 0, 0, 75, 0, 7, 50, 16, 66, 0, 22, 0, 0, 0, 0, 0, 0, 0, 0, 0, 30, 0, 73, 67, 2, 0, 0, 0, 48, 0, 76, 0, 49, 0, 0, 0, 0, 0, 0, 0, 0, 63, 12, 0, 0, 0, 35, 0, 0, 0, 0, 0, 0, 17, 0, 0, 0, 72, 0, 13, 46, 34, 0, 0, 0, 0, 70, 26, 0, 0, 53, 0, 0
|1, 0, 0, 67, 0, 39, 0, 0, 0, 0, 30, 0, 0, 0, 8, 0, 0, 0, 0, 0, 73, 21, 0, 0, 0, 0, 3, 64, 0, 0, 75, 15, 5, 0, 46, 0, 0, 0, 36, 0, 0, 0, 11, 0, 16, 0, 0, 0, 0, 53, 0, 0, 26, 80, 42, 0, 7, 54, 0, 20, 0, 0, 0, 71, 0, 0, 0, 0, 19, 0, 0, 0, 12, 0, 0, 2, 0, 31, 6, 0, 77
|0, 5, 32, 35, 0, 0, 12, 42, 53, 13, 0, 0, 0, 0, 37, 0, 0, 72, 0, 39, 0, 51, 22, 41, 0, 0, 60, 0, 0, 0, 0, 0, 77, 0, 30, 24, 0, 0, 0, 0, 0, 0, 0, 0, 9, 0, 0, 0, 0, 0, 0, 19, 0, 20, 55, 0, 0, 0, 0, 0, 26, 0, 0, 0, 0, 0, 0, 6, 0, 0, 0, 0, 15, 0, 0, 7, 0, 0, 0, 0, 0
|0, 0, 0, 0, 0, 0, 76, 0, 0, 0, 69, 0, 0, 0, 60, 0, 0, 63, 0, 0, 0, 0, 0, 0, 0, 0, 0, 0, 0, 0, 0, 6, 0, 0, 0, 0, 0, 0, 43, 0, 0, 0, 0, 0, 81, 0, 22, 25, 0, 0, 0, 0, 0, 0, 0, 0, 0, 0, 0, 64, 13, 5, 15, 0, 52, 0, 0, 0, 0, 0, 0, 0, 0, 0, 51, 0, 0, 66, 0, 0, 0
|0, 0, 11, 0, 0, 0, 51, 47, 0, 3, 66, 39, 0, 0, 24, 0, 21, 0, 0, 0, 0, 46, 0, 0, 37, 59, 0, 32, 0, 0, 0, 0, 0, 0, 80, 41, 0, 0, 4, 0, 0, 6, 25, 0, 0, 72, 0, 0, 0, 77, 0, 7, 29, 0, 0, 67, 0, 0, 52, 58, 71, 0, 0, 0, 0, 0, 0, 43, 0, 0, 0, 0, 19, 50, 0, 0, 70, 0, 55, 0, 0
|0, 65, 0, 0, 0, 0, 48, 69, 0, 47, 78, 0, 0, 0, 0, 0, 0, 0, 0, 0, 0, 0, 20, 0, 0, 0, 0, 0, 0, 0, 0, 62, 0, 0, 0, 27, 0, 0, 0, 0, 0, 75, 39, 0, 0, 0, 51, 30, 79, 5, 0, 0, 0, 0, 76, 0, 0, 0, 0, 22, 0, 0, 0, 28, 0, 0, 0, 57, 0, 0, 26, 56, 0, 68, 0, 11, 0, 0, 0, 0, 0
|0, 52, 0, 0, 24, 78, 0, 0, 0, 0, 0, 49, 0, 0, 0, 19, 15, 0, 0, 32, 0, 48, 0, 34, 0, 0, 0, 26, 0, 0, 0, 0, 0, 51, 0, 0, 0, 0, 0, 0, 0, 30, 67, 0, 0, 0, 0, 0, 0, 0, 56, 61, 38, 0, 77, 0, 9, 59, 0, 0, 53, 6, 47, 0, 65, 42, 33, 0, 0, 0, 0, 0, 0, 0, 3, 5, 69, 0, 0, 76, 0
|0, 0, 0, 0, 0, 62, 0, 0, 0, 5, 0, 0, 0, 81, 0, 0, 0, 0, 42, 65, 0, 0, 0, 0, 0, 0, 0, 22, 0, 0, 0, 0, 0, 0, 0, 37, 0, 14, 0, 0, 32, 76, 0, 0, 64, 0, 13, 0, 0, 55, 66, 0, 0, 0, 17, 0, 0, 0, 34, 2, 0, 0, 0, 0, 20, 0, 36, 0, 0, 0, 75, 0, 0, 0, 49, 0, 0, 0, 0, 0, 0
|0, 0, 0, 0, 66, 0, 0, 15, 0, 0, 0, 0, 20, 0, 0, 79, 0, 6, 0, 0, 0, 19, 0, 36, 0, 0, 0, 0, 0, 25, 70, 0, 33, 3, 0, 0, 0, 0, 0, 0, 0, 0, 0, 27, 38, 0, 78, 0, 0, 0, 0, 0, 0, 0, 57, 74, 0, 0, 0, 46, 0, 0, 0, 0, 0, 0, 0, 0, 53, 0, 0, 0, 0, 0, 0, 0, 0, 0, 67, 59, 0
|0, 0, 0, 70, 0, 0, 0, 0, 31, 0, 27, 0, 0, 0, 0, 0, 0, 65, 71, 0, 16, 0, 79, 74, 0, 0, 0, 0, 4, 0, 0, 0, 48, 68, 0, 0, 0, 0, 0, 0, 0, 0, 0, 0, 0, 0, 0, 0, 0, 0, 0, 0, 17, 28, 0, 0, 0, 14, 63, 0, 0, 39, 18, 0, 73, 0, 0, 0, 44, 0, 0, 0, 0, 58, 0, 0, 43, 62, 23, 0, 0
|46, 0, 0, 12, 0, 0, 0, 0, 0, 17, 44, 0, 0, 0, 68, 0, 0, 0, 0, 0, 35, 61, 0, 23, 0, 14, 0, 0, 0, 52, 45, 3, 0, 0, 0, 6, 0, 9, 0, 10, 78, 0, 0, 0, 0, 15, 27, 0, 0, 0, 0, 0, 0, 70, 73, 53, 0, 0, 0, 0, 0, 0, 0, 66, 0, 0, 5, 79, 0, 0, 0, 0, 0, 0, 0, 0, 0, 48, 0, 0, 0
|0, 7, 0, 0, 79, 0, 0, 0, 0, 0, 6, 72, 9, 14, 0, 0, 69, 0, 2, 0, 0, 0, 0, 0, 73, 0, 0, 39, 0, 0, 77, 0, 0, 0, 0, 0, 80, 0, 0, 0, 0, 0, 0, 0, 0, 12, 0, 0, 0, 0, 30, 0, 0, 0, 40, 0, 34, 0, 0, 0, 0, 0, 38, 0, 0, 8, 0, 0, 0, 10, 0, 0, 0, 0, 62, 0, 0, 0, 35, 68, 0
|19, 0, 16, 0, 0, 0, 0, 0, 39, 36, 0, 0, 73, 0, 15, 32, 0, 78, 0, 0, 0, 0, 0, 68, 0, 0, 0, 18, 0, 0, 60, 0, 0, 9, 44, 29, 0, 0, 0, 0, 38, 0, 0, 64, 22, 0, 75, 0, 0, 0, 0, 50, 80, 0, 10, 0, 0, 0, 0, 1, 25, 0, 0, 0, 0, 0, 65, 0, 12, 0, 72, 47, 21, 0, 55, 42, 53, 0, 0, 0, 0
|0, 0, 0, 0, 0, 0, 0, 0, 21, 0, 0, 0, 81, 0, 59, 0, 79, 74, 0, 0, 30, 0, 0, 0, 0, 46, 0, 62, 0, 0, 0, 0, 0, 0, 0, 0, 28, 0, 0, 0, 11, 0, 0, 69, 0, 0, 0, 0, 47, 0, 35, 0, 0, 0, 0, 0, 50, 0, 23, 0, 44, 0, 0, 0, 71, 0, 39, 0, 0, 26, 0, 45, 0, 8, 73, 0, 0, 12, 2, 0, 0
|0, 2, 64, 76, 3, 43, 0, 0, 0, 0, 0, 0, 0, 0, 0, 66, 0, 0, 15, 69, 0, 4, 0, 0, 0, 0, 0, 0, 0, 0, 0, 0, 0, 0, 47, 0, 0, 35, 0, 0, 0, 0, 0, 0, 8, 31, 0, 0, 0, 0, 0, 0, 0, 33, 0, 0, 0, 0, 55, 7, 22, 0, 14, 0, 0, 19, 0, 28, 48, 0, 0, 0, 17, 0, 0, 0, 0, 81, 78, 0, 0
|0, 0, 0, 0, 0, 45, 0, 60, 0, 0, 19, 0, 0, 0, 0, 0, 0, 21, 0, 48, 0, 3, 0, 66, 0, 0, 0, 0, 0, 46, 0, 0, 0, 0, 78, 0, 7, 0, 27, 0, 0, 0, 0, 55, 0, 0, 0, 0, 0, 29, 71, 53, 0, 0, 72, 0, 81, 0, 0, 0, 0, 0, 0, 0, 69, 64, 31, 18, 0, 63, 0, 0, 44, 0, 65, 0, 40, 0, 59, 0, 0
|0, 0, 0, 0, 15, 26, 0, 0, 0, 64, 0, 40, 57, 0, 53, 0, 23, 37, 0, 0, 0, 0, 0, 50, 0, 0, 39, 0, 73, 0, 0, 0, 0, 0, 0, 0, 0, 0, 0, 0, 0, 0, 0, 45, 0, 0, 0, 0, 0, 1, 38, 36, 0, 0, 65, 56, 80, 62, 59, 71, 0, 0, 0, 0, 78, 33, 0, 0, 0, 52, 0, 0, 34, 0, 0, 0, 0, 0, 0, 46, 0
|0, 33, 38, 48, 49, 6, 14, 23, 59, 10, 5, 0, 0, 0, 0, 0, 0, 0, 1, 0, 0, 36, 0, 0, 0, 0, 16, 31, 0, 0, 0, 0, 0, 0, 0, 0, 0, 0, 0, 34, 66, 0, 0, 0, 19, 18, 0, 0, 0, 0, 2, 45, 0, 0, 0, 0, 0, 0, 0, 0, 15, 0, 0, 0, 0, 73, 40, 32, 58, 80, 68, 0, 0, 0, 67, 39, 0, 0, 0, 0, 0
|0, 77, 0, 71, 0, 0, 73, 0, 0, 0, 0, 0, 67, 26, 0, 20, 0, 33, 78, 0, 55, 0, 31, 0, 65, 38, 0, 0, 0, 0, 0, 50, 0, 0, 0, 0, 32, 54, 16, 0, 0, 0, 44, 61, 0, 60, 81, 19, 13, 0, 0, 25, 0, 0, 0, 12, 0, 0, 0, 0, 0, 68, 0, 7, 0, 0, 0, 0, 17, 0, 0, 27, 0, 0, 0, 23, 0, 41, 57, 0, 75
|0, 23, 9, 43, 0, 14, 0, 21, 0, 0, 42, 0, 0, 0, 70, 0, 34, 0, 0, 0, 22, 0, 0, 0, 0, 40, 72, 0, 39, 0, 0, 0, 0, 0, 0, 61, 0, 0, 24, 0, 3, 0, 0, 0, 0, 0, 0, 0, 0, 0, 0, 0, 36, 75, 0, 0, 0, 0, 17, 0, 0, 0, 0, 0, 0, 63, 0, 11, 0, 0, 0, 0, 56, 0, 0, 0, 0, 26, 0, 0, 0
|0, 0, 0, 62, 0, 0, 0, 0, 0, 8, 71, 29, 33, 0, 0, 0, 57, 0, 21, 0, 0, 0, 51, 0, 0, 0, 28, 0, 0, 0, 65, 42, 0, 0, 0, 68, 0, 0, 0, 22, 0, 16, 0, 58, 0, 0, 20, 0, 0, 0, 63, 5, 35, 2, 0, 0, 66, 0, 77, 50, 27, 0, 0, 0, 0, 0, 0, 10, 0, 0, 48, 0, 0, 0, 72, 69, 0, 60, 0, 0, 0
|0, 61, 0, 0, 0, 38, 0, 44, 60, 81, 4, 65, 0, 0, 0, 0, 0, 0, 0, 15, 0, 0, 0, 54, 25, 0, 0, 0, 28, 72, 0, 0, 75, 0, 0, 0, 0, 26, 0, 0, 0, 70, 0, 0, 0, 0, 0, 0, 8, 0, 0, 0, 51, 37, 0, 24, 0, 34, 0, 0, 0, 62, 0, 0, 0, 0, 0, 3, 0, 0, 0, 33, 0, 0, 0, 59, 7, 10, 0, 55, 6
|0, 11, 49, 0, 46, 7, 0, 20, 0, 0, 0, 0, 79, 35, 0, 0, 0, 53, 0, 0, 0, 0, 0, 0, 0, 13, 0, 0, 0, 36, 0, 17, 22, 0, 0, 67, 0, 0, 10, 0, 0, 0, 14, 77, 0, 9, 44, 0, 0, 0, 0, 0, 19, 72, 0, 0, 8, 31, 0, 0, 60, 76, 0, 0, 0, 74, 71, 80, 0, 0, 0, 0, 0, 5, 0, 54, 57, 0, 3, 32, 0
|0, 0, 0, 0, 0, 73, 0, 0, 0, 56, 52, 44, 0, 27, 0, 0, 0, 0, 0, 0, 0, 0, 0, 0, 0, 0, 0, 0, 0, 0, 49, 0, 0, 0, 0, 0, 0, 0, 0, 47, 0, 0, 51, 0, 0, 0, 0, 0, 0, 59, 55, 0, 23, 0, 9, 7, 79, 0, 0, 0, 42, 0, 0, 0, 38, 0, 0, 0, 0, 5, 0, 0, 0, 31, 0, 0, 0, 0, 81, 0, 0
|70, 0, 78, 0, 0, 68, 0, 65, 0, 0, 0, 0, 0, 36, 0, 0, 0, 0, 0, 64, 0, 0, 0, 0, 0, 0, 1, 0, 0, 0, 0, 0, 0, 0, 12, 0, 0, 0, 0, 0, 21, 54, 0, 32, 0, 0, 0, 48, 0, 0, 77, 22, 0, 0, 0, 58, 6, 0, 0, 0, 56, 0, 67, 0, 49, 28, 0, 0, 0, 29, 73, 7, 38, 0, 0, 0, 74, 0, 0, 37, 0
|0, 56, 0, 80, 0, 0, 0, 0, 26, 0, 0, 0, 0, 0, 0, 46, 3, 22, 0, 53, 50, 57, 9, 0, 0, 0, 6, 0, 19, 41, 44, 0, 37, 0, 0, 0, 0, 0, 2, 0, 0, 0, 0, 0, 0, 43, 0, 0, 0, 0, 0, 0, 0, 68, 0, 36, 0, 0, 0, 65, 0, 0, 0, 0, 39, 62, 0, 20, 0, 0, 0, 0, 0, 0, 24, 0, 0, 0, 0, 0, 0
|0, 0, 30, 0, 0, 37, 0, 0, 71, 0, 13, 0, 0, 0, 0, 39, 67, 0, 0, 0, 0, 26, 0, 65, 62, 0, 0, 0, 0, 32, 0, 0, 0, 0, 0, 0, 0, 0, 0, 0, 0, 0, 0, 0, 31, 3, 0, 0, 0, 0, 0, 49, 0, 0, 22, 0, 0, 0, 72, 12, 0, 0, 0, 0, 0, 0, 0, 0, 0, 0, 0, 0, 50, 0, 0, 0, 0, 9, 0, 0, 70
|81, 0, 0, 0, 36, 10, 0, 0, 64, 0, 38, 0, 0, 0, 0, 74, 0, 5, 0, 0, 0, 0, 23, 47, 0, 0, 59, 0, 0, 0, 0, 0, 0, 0, 0, 50, 75, 72, 0, 0, 0, 0, 0, 0, 71, 56, 52, 0, 17, 67, 0, 0, 0, 0, 0, 0, 32, 0, 0, 0, 0, 46, 54, 0, 0, 0, 0, 0, 0, 61, 57, 0, 0, 0, 0, 0, 0, 30, 19, 42, 0|];