order = 9;
grid = [|0, 0, 0, 0, 0, 0, 54, 0, 79, 0, 0, 0, 0, 0, 0, 22, 0, 0, 0, 0, 0, 0, 57, 1, 65, 50, 31, 0, 0, 0, 0, 0, 0, 0, 0, 0, 60, 0, 59, 51, 0, 4, 0, 0, 0, 0, 0, 0, 0, 40, 52, 0, 0, 0, 0, 0, 13, 0, 0, 0, 0, 0, 37, 0, 0, 0, 0, 16, 32, 0, 76, 34, 0, 0, 0, 0, 0, 66, 0, 0, 17
|0, 0, 0, 35, 0, 0, 0, 70, 0, 0, 0, 37, 0, 0, 52, 0, 0, 30, 0, 0, 0, 0, 0, 54, 71, 0, 12, 11, 39, 2, 48, 76, 0, 0, 68, 0, 0, 0, 41, 7, 0, 0, 0, 0, 0, 0, 0, 0, 0, 63, 0, 0, 0, 0, 0, 0, 34, 0, 0, 81, 0, 0, 33, 66, 0, 17, 0, 53, 0, 79, 61, 62, 0, 0, 0, 0, 65, 0, 0, 26, 24
|0, 53, 0, 55, 0, 0, 5, 24, 9, 0, 0, 72, 0, 0, 44, 0, 2, 43, 0, 14, 0, 0, 0, 0, 0, 0, 11, 0, 0, 0, 0, 0, 22, 59, 0, 0, 0, 13, 0, 0, 0, 0, 37, 0, 0, 65, 67, 0, 60, 0, 0, 0, 0, 0, 0, 0, 0, 0, 0, 31, 0, 80, 0, 0, 41, 0, 0, 0, 0, 0, 0, 39, 0, 0, 3, 0, 0, 0, 15, 0, 0
|0, 68, 0, 0, 0, 25, 65, 0, 0, 50, 0, 62, 0, 0, 11, 0, 0, 0, 0, 0, 0, 0, 16, 0, 0, 0, 0, 0, 0, 36, 0, 0, 80, 64, 0, 0, 55, 0, 0, 0, 0, 0, 0, 0, 0, 0, 0, 32, 0, 0, 0, 73, 0, 0, 0, 0, 41, 56, 0, 0, 76, 0, 0, 72, 46, 0, 0, 24, 7, 0, 0, 0, 0, 0, 0, 0, 0, 44, 0, 60, 0
|0, 21, 57, 0, 0, 0, 0, 29, 36, 0, 53, 76, 0, 19, 8, 0, 15, 74, 0, 0, 66, 0, 0, 0, 0, 0, 6, 0, 0, 35, 0, 0, 0, 30, 0, 0, 0, 70, 0, 42, 0, 0, 0, 0, 0, 0, 0, 0, 37, 0, 78, 58, 56, 0, 0, 0, 46, 23, 77, 0, 24, 0, 44, 0, 0, 0, 0, 0, 0, 0, 0, 3, 0, 0, 28, 0, 0, 0, 0, 0, 0
|0, 0, 62, 8, 0, 0, 38, 10, 0, 0, 17, 77, 0, 0, 0, 1, 0, 46, 0, 0, 0, 0, 0, 0, 0, 0, 24, 32, 0, 0, 19, 37, 7, 0, 70, 42, 0, 66, 0, 45, 0, 0, 16, 0, 0, 0, 0, 0, 0, 0, 0, 34, 0, 0, 0, 9, 0, 60, 0, 0, 0, 40, 0, 0, 5, 0, 0, 0, 49, 13, 0, 0, 0, 0, 51, 69, 25, 0, 0, 0, 0
|0, 34, 0, 0, 33, 2, 0, 77, 27, 60, 0, 0, 0, 39, 0, 0, 0, 0, 0, 69, 0, 0, 46, 19, 0, 0, 79, 29, 0, 0, 71, 58, 0, 17, 0, 0, 78, 23, 0, 43, 76, 0, 0, 0, 0, 38, 0, 8, 15, 0, 0, 0, 75, 16, 61, 0, 45, 0, 0, 0, 0, 0, 0, 52, 10, 0, 47, 0, 0, 37, 22, 0, 0, 0, 0, 0, 0, 0, 59, 0, 0
|22, 49, 0, 0, 0, 20, 0, 0, 0, 0, 0, 0, 0, 0, 0, 57, 40, 79, 0, 0, 0, 62, 42, 78, 0, 0, 0, 14, 0, 0, 0, 3, 0, 5, 0, 0, 28, 0, 18, 0, 0, 0, 0, 0, 0, 0, 0, 0, 46, 0, 0, 0, 0, 80, 0, 38, 0, 43, 63, 0, 0, 0, 0, 0, 0, 0, 69, 0, 0, 0, 0, 67, 0, 0, 0, 0, 0, 0, 0, 0, 0
|0, 47, 0, 0, 0, 66, 0, 0, 0, 0, 31, 0, 0, 0, 0, 0, 0, 32, 38, 25, 0, 0, 0, 0, 70, 0, 80, 0, 0, 0, 18, 0, 0, 0, 78, 0, 2, 0, 48, 0, 69, 67, 0, 0, 0, 0, 26, 0, 0, 39, 0, 0, 0, 0, 0, 0, 0, 0, 0, 0, 0, 0, 0, 42, 0, 0, 0, 0, 0, 0, 0, 0, 0, 0, 30, 0, 0, 68, 0, 29, 36
|68, 0, 0, 75, 0, 62, 0, 0, 0, 0, 0, 0, 0, 22, 81, 0, 0, 0, 5, 0, 63, 36, 0, 0, 0, 0, 14, 42, 0, 0, 17, 12, 0, 0, 69, 0, 0, 0, 70, 44, 0, 45, 10, 28, 0, 52, 0, 0, 0, 0, 24, 0, 0, 0, 0, 0, 0, 0, 71, 0, 0, 0, 0, 0, 0, 16, 0, 0, 0, 0, 0, 60, 0, 0, 59, 0, 0, 0, 0, 72, 9
|0, 0, 0, 0, 0, 0, 0, 0, 38, 0, 55, 14, 71, 0, 35, 0, 0, 0, 0, 56, 0, 20, 26, 0, 0, 0, 0, 0, 15, 0, 0, 0, 68, 0, 0, 0, 1, 21, 8, 6, 0, 0, 0, 0, 0, 0, 0, 0, 79, 0, 61, 0, 0, 0, 0, 0, 0, 0, 0, 0, 0, 0, 40, 0, 0, 0, 48, 23, 0, 0, 78, 0, 0, 0, 53, 0, 31, 5, 10, 19, 0
|0, 0, 0, 0, 0, 40, 0, 0, 0, 0, 0, 0, 78, 30, 0, 0, 19, 0, 33, 0, 0, 0, 4, 0, 3, 0, 0, 80, 0, 0, 0, 0, 36, 31, 25, 32, 0, 0, 0, 56, 0, 0, 0, 0, 0, 0, 0, 0, 58, 0, 41, 0, 0, 45, 0, 0, 0, 11, 0, 0, 27, 76, 39, 77, 0, 62, 64, 0, 0, 0, 0, 72, 0, 65, 0, 0, 21, 46, 81, 8, 0
|25, 0, 0, 15, 0, 0, 0, 72, 0, 0, 0, 0, 0, 7, 45, 6, 0, 0, 0, 9, 34, 0, 0, 0, 0, 0, 0, 0, 10, 0, 0, 63, 0, 65, 0, 0, 61, 48, 0, 0, 0, 0, 0, 0, 0, 0, 56, 0, 43, 0, 0, 16, 0, 40, 0, 0, 0, 0, 0, 0, 0, 0, 0, 38, 0, 71, 0, 0, 0, 0, 0, 0, 0, 0, 11, 0, 0, 42, 0, 0, 0
|0, 0, 81, 0, 0, 0, 0, 0, 0, 0, 0, 0, 0, 0, 0, 0, 54, 0, 0, 0, 40, 0, 0, 0, 0, 0, 68, 0, 0, 0, 0, 0, 23, 66, 0, 0, 0, 24, 0, 0, 0, 0, 0, 26, 78, 0, 0, 0, 0, 0, 0, 0, 60, 0, 0, 0, 0, 0, 0, 14, 0, 0, 0, 0, 0, 8, 0, 0, 21, 28, 0, 0, 0, 64, 0, 0, 0, 37, 48, 62, 0
|9, 0, 0, 0, 0, 32, 0, 0, 0, 0, 61, 0, 47, 0, 0, 0, 29, 0, 62, 0, 74, 0, 0, 53, 0, 65, 81, 0, 58, 0, 1, 64, 16, 0, 0, 0, 0, 0, 17, 0, 59, 0, 60, 0, 0, 15, 0, 0, 0, 0, 0, 0, 0, 0, 0, 0, 72, 0, 19, 0, 0, 46, 0, 0, 0, 0, 0, 63, 0, 10, 0, 0, 12, 0, 0, 0, 0, 0, 75, 28, 0
|0, 0, 29, 0, 0, 4, 27, 0, 52, 0, 40, 17, 0, 0, 0, 70, 0, 0, 0, 0, 0, 0, 0, 0, 0, 24, 45, 0, 48, 20, 39, 0, 49, 14, 0, 62, 77, 53, 0, 69, 0, 0, 41, 80, 0, 0, 0, 0, 31, 46, 73, 0, 0, 0, 0, 43, 0, 0, 0, 0, 0, 0, 0, 0, 0, 0, 55, 0, 0, 0, 0, 0, 50, 0, 61, 0, 0, 0, 18, 44, 0
|0, 0, 0, 0, 0, 0, 0, 0, 58, 0, 0, 0, 0, 0, 18, 0, 38, 0, 0, 0, 59, 0, 0, 0, 0, 0, 0, 57, 0, 0, 0, 0, 50, 37, 27, 73, 0, 0, 76, 0, 0, 0, 0, 0, 0, 0, 0, 0, 33, 0, 0, 0, 35, 0, 0, 0, 78, 0, 7, 42, 0, 0, 0, 3, 0, 0, 0, 5, 0, 0, 69, 0, 0, 0, 29, 70, 0, 80, 0, 0, 0
|0, 0, 0, 24, 76, 0, 22, 0, 0, 69, 0, 0, 0, 21, 75, 0, 0, 0, 0, 0, 0, 35, 0, 0, 0, 0, 0, 54, 0, 0, 0, 28, 8, 0, 0, 40, 62, 64, 0, 0, 0, 0, 0, 65, 0, 0, 0, 81, 0, 0, 0, 0, 0, 51, 0, 0, 0, 0, 0, 36, 0, 0, 70, 33, 17, 47, 0, 18, 6, 46, 31, 0, 0, 0, 52, 0, 0, 60, 0, 0, 0
|14, 0, 0, 0, 0, 0, 26, 0, 0, 7, 0, 0, 53, 0, 0, 19, 69, 0, 46, 45, 0, 0, 0, 0, 0, 75, 0, 0, 0, 0, 0, 0, 63, 0, 6, 41, 0, 40, 0, 0, 1, 0, 0, 0, 15, 0, 0, 34, 3, 0, 50, 0, 0, 0, 0, 0, 0, 0, 18, 0, 32, 0, 0, 23, 27, 59, 0, 0, 0, 67, 0, 8, 0, 58, 0, 0, 0, 64, 0, 0, 0
|4, 0, 0, 0, 48, 0, 0, 0, 0, 14, 0, 0, 31, 0, 0, 0, 0, 15, 78, 0, 0, 0, 71, 0, 0, 0, 0, 0, 0, 0, 29, 0, 35, 0, 0, 0, 0, 0, 68, 30, 0, 0, 0, 62, 0, 17, 0, 0, 0, 0, 0, 27, 0, 0, 0, 0, 0, 0, 66, 0, 0, 0, 0, 0, 0, 28, 70, 3, 0, 44, 55, 0, 0, 0, 0, 0, 0, 0, 0, 18, 0
|0, 0, 0, 0, 0, 7, 0, 0, 0, 0, 8, 0, 0, 0, 0, 0, 0, 0, 56, 0, 0, 0, 0, 44, 17, 29, 0, 0, 0, 0, 61, 0, 0, 0, 0, 43, 80, 0, 38, 0, 0, 63, 0, 51, 31, 19, 0, 0, 0, 0, 0, 0, 73, 0, 0, 0, 0, 0, 6, 0, 0, 0, 0, 0, 42, 15, 0, 2, 0, 0, 30, 0, 16, 0, 0, 53, 3, 0, 0, 0, 70
|0, 0, 0, 66, 8, 0, 0, 0, 57, 0, 59, 6, 0, 0, 21, 0, 0, 48, 0, 0, 0, 0, 0, 0, 5, 0, 0, 0, 0, 0, 0, 69, 60, 79, 28, 74, 0, 0, 0, 0, 0, 0, 0, 29, 0, 0, 20, 35, 0, 0, 0, 0, 0, 44, 0, 0, 0, 0, 0, 0, 0, 0, 0, 0, 0, 0, 0, 0, 0, 0, 65, 10, 0, 0, 0, 0, 0, 0, 0, 0, 63
|60, 0, 0, 61, 10, 0, 0, 15, 0, 0, 0, 0, 0, 0, 29, 5, 50, 0, 0, 0, 0, 0, 0, 0, 24, 41, 0, 0, 0, 55, 0, 78, 0, 2, 0, 0, 0, 0, 0, 4, 75, 47, 0, 0, 0, 0, 0, 0, 0, 0, 0, 62, 0, 0, 0, 0, 0, 21, 56, 0, 45, 0, 0, 0, 0, 12, 0, 6, 0, 0, 1, 48, 0, 0, 0, 73, 0, 28, 0, 0, 30
|0, 0, 0, 73, 81, 69, 11, 0, 0, 0, 35, 0, 0, 0, 0, 0, 0, 0, 0, 65, 0, 0, 0, 0, 0, 0, 0, 0, 0, 0, 0, 0, 0, 0, 0, 0, 0, 0, 74, 79, 0, 60, 0, 0, 0, 0, 0, 0, 0, 0, 66, 22, 0, 0, 0, 0, 0, 5, 0, 0, 0, 0, 0, 39, 0, 14, 0, 7, 0, 0, 0, 0, 0, 52, 0, 0, 62, 51, 0, 0, 78
|0, 0, 0, 0, 0, 0, 0, 0, 0, 0, 0, 0, 0, 0, 0, 80, 79, 0, 50, 0, 0, 37, 36, 39, 77, 0, 70, 0, 8, 0, 57, 67, 0, 0, 0, 66, 6, 0, 0, 0, 0, 72, 58, 0, 0, 0, 0, 16, 0, 0, 0, 0, 0, 0, 78, 0, 40, 52, 0, 0, 0, 27, 26, 0, 0, 0, 0, 0, 0, 0, 0, 0, 0, 0, 0, 0, 43, 0, 0, 31, 42
|0, 0, 0, 29, 0, 0, 0, 0, 22, 0, 0, 36, 0, 0, 70, 0, 0, 0, 0, 0, 9, 79, 2, 0, 0, 0, 0, 30, 0, 0, 0, 0, 0, 34, 0, 0, 0, 0, 0, 0, 0, 0, 0, 0, 0, 0, 15, 0, 5, 0, 0, 0, 0, 0, 0, 0, 39, 0, 0, 0, 11, 0, 0, 0, 72, 0, 78, 0, 0, 0, 16, 0, 0, 0, 0, 0, 77, 0, 0, 0, 14
|0, 0, 0, 65, 0, 0, 49, 76, 0, 0, 32, 0, 72, 0, 0, 0, 0, 0, 22, 40, 69, 0, 20, 0, 0, 57, 0, 62, 0, 44, 9, 10, 0, 0, 14, 0, 3, 0, 0, 0, 48, 0, 0, 0, 0, 0, 46, 0, 0, 51, 0, 0, 0, 64, 0, 42, 29, 0, 0, 0, 0, 28, 0, 0, 0, 68, 0, 0, 75, 47, 0, 73, 0, 0, 0, 0, 0, 0, 79, 33, 0
|33, 14, 0, 0, 0, 48, 12, 47, 59, 0, 0, 1, 0, 0, 0, 0, 0, 71, 0, 0, 28, 0, 37, 30, 0, 0, 0, 44, 0, 0, 0, 0, 0, 0, 0, 0, 38, 0, 0, 77, 4, 70, 0, 0, 0, 0, 5, 0, 80, 0, 0, 0, 0, 0, 0, 0, 0, 51, 0, 46, 0, 36, 0, 0, 0, 7, 3, 0, 0, 0, 39, 0, 0, 0, 0, 0, 52, 0, 21, 0, 0
|0, 0, 0, 0, 0, 19, 29, 0, 0, 0, 74, 0, 0, 0, 0, 45, 0, 36, 53, 0, 0, 0, 43, 0, 0, 0, 69, 51, 0, 0, 0, 0, 58, 28, 0, 0, 0, 0, 46, 1, 78, 20, 0, 0, 0, 0, 0, 0, 17, 26, 0, 0, 0, 81, 68, 14, 0, 0, 0, 0, 8, 0, 0, 0, 18, 0, 77, 0, 54, 72, 0, 33, 0, 59, 0, 79, 73, 0, 0, 5, 0
|0, 0, 0, 0, 0, 0, 4, 0, 0, 0, 0, 0, 0, 0, 0, 0, 0, 0, 0, 0, 54, 0, 0, 68, 0, 27, 52, 0, 0, 0, 0, 7, 0, 0, 0, 0, 36, 0, 56, 25, 0, 0, 0, 0, 0, 0, 0, 0, 77, 0, 51, 0, 0, 37, 0, 31, 47, 66, 0, 0, 78, 0, 0, 0, 0, 0, 0, 0, 42, 0, 0, 71, 0, 0, 0, 0, 45, 9, 0, 41, 35
|0, 52, 11, 0, 0, 0, 0, 0, 0, 29, 0, 78, 0, 56, 0, 0, 0, 17, 0, 79, 0, 0, 23, 58, 0, 0, 65, 0, 0, 3, 0, 0, 0, 68, 0, 0, 15, 16, 0, 0, 0, 10, 0, 0, 0, 0, 0, 0, 0, 74, 0, 8, 0, 0, 72, 0, 22, 69, 44, 21, 33, 54, 0, 0, 0, 1, 0, 34, 70, 0, 0, 0, 0, 0, 0, 0, 0, 75, 40, 0, 0
|16, 0, 0, 0, 0, 0, 80, 0, 0, 77, 0, 0, 0, 0, 0, 4, 0, 0, 49, 0, 46, 0, 1, 0, 0, 0, 0, 10, 0, 0, 0, 0, 62, 0, 0, 0, 40, 0, 6, 0, 0, 0, 0, 0, 0, 0, 0, 0, 53, 0, 3, 0, 0, 0, 0, 0, 0, 7, 0, 0, 0, 0, 0, 0, 0, 5, 31, 0, 0, 25, 0, 0, 81, 0, 43, 0, 0, 0, 0, 0, 64
|0, 0, 0, 0, 0, 0, 0, 0, 0, 70, 0, 0, 38, 59, 0, 50, 55, 0, 0, 0, 0, 7, 0, 45, 48, 0, 0, 0, 14, 56, 0, 0, 5, 1, 0, 0, 0, 0, 0, 11, 0, 0, 0, 0, 0, 0, 47, 46, 0, 0, 0, 0, 0, 0, 0, 15, 0, 16, 0, 0, 37, 0, 61, 73, 0, 0, 0, 0, 44, 62, 0, 0, 0, 0, 0, 0, 0, 78, 0, 0, 0
|39, 0, 0, 0, 50, 5, 72, 30, 28, 0, 79, 0, 81, 51, 0, 0, 0, 0, 70, 0, 0, 0, 0, 0, 0, 0, 0, 0, 67, 0, 20, 0, 0, 0, 0, 0, 0, 0, 0, 0, 0, 0, 18, 0, 0, 0, 0, 0, 40, 0, 68, 0, 0, 0, 17, 0, 6, 0, 41, 26, 0, 49, 0, 0, 0, 0, 4, 0, 0, 0, 0, 0, 0, 2, 7, 44, 0, 0, 0, 0, 37
|0, 0, 0, 63, 0, 0, 0, 0, 21, 0, 0, 46, 12, 9, 0, 0, 28, 53, 16, 26, 25, 0, 0, 18, 0, 0, 0, 41, 32, 0, 0, 0, 78, 0, 0, 0, 0, 0, 43, 0, 0, 0, 3, 0, 0, 0, 1, 0, 0, 69, 0, 0, 0, 0, 0, 4, 0, 34, 0, 0, 0, 0, 0, 0, 68, 0, 0, 0, 48, 0, 0, 0, 39, 57, 42, 0, 0, 58, 0, 0, 29
|37, 71, 0, 0, 0, 0, 60, 51, 0, 0, 0, 0, 0, 0, 0, 16, 0, 68, 17, 0, 0, 0, 0, 0, 0, 31, 0, 0, 0, 54, 0, 0, 48, 75, 0, 0, 0, 0, 0, 0, 0, 0, 0, 74, 0, 42, 19, 0, 0, 25, 64, 0, 0, 55, 0, 0, 62, 0, 9, 0, 0, 0, 0, 0, 0, 0, 0, 69, 0, 0, 0, 0, 0, 0, 0, 0, 0, 0, 65, 0, 47
|5, 0, 33, 0, 0, 0, 0, 0, 0, 36, 0, 0, 0, 58, 59, 0, 0, 45, 0, 31, 0, 0, 0, 26, 0, 0, 0, 22, 0, 0, 0, 0, 0, 63, 0, 0, 0, 69, 35, 68, 7, 0, 0, 0, 0, 70, 0, 0, 0, 0, 0, 15, 64, 0, 47, 73, 0, 0, 0, 0, 0, 0, 0, 0, 0, 0, 0, 0, 0, 0, 0, 0, 0, 0, 0, 39, 0, 0, 54, 0, 46
|0, 0, 16, 0, 0, 44, 0, 0, 0, 0, 0, 0, 0, 17, 0, 0, 41, 0, 0, 0, 0, 0, 0, 40, 0, 0, 0, 0, 0, 0, 0, 0, 54, 71, 0, 69, 0, 0, 0, 67, 50, 0, 39, 0, 0, 0, 0, 0, 0, 22, 0, 0, 0, 0, 51, 76, 0, 0, 64, 0, 0, 0, 0, 45, 0, 72, 24, 20, 3, 0, 32, 65, 62, 0, 0, 0, 0, 0, 0, 38, 0
|59, 76, 17, 0, 80, 31, 20, 0, 12, 0, 69, 0, 0, 0, 23, 0, 0, 14, 0, 0, 6, 0, 29, 0, 0, 0, 50, 0, 0, 0, 0, 0, 0, 0, 65, 0, 0, 60, 0, 0, 0, 49, 2, 64, 0, 7, 0, 0, 0, 54, 0, 0, 0, 0, 0, 0, 55, 13, 0, 0, 0, 0, 28, 0, 0, 27, 61, 77, 0, 0, 0, 37, 24, 0, 15, 75, 0, 0, 0, 0, 0
|57, 13, 67, 0, 0, 0, 0, 0, 0, 24, 4, 0, 0, 0, 0, 0, 0, 54, 71, 0, 0, 72, 0, 0, 0, 36, 0, 45, 0, 29, 0, 0, 27, 0, 0, 0, 0, 80, 0, 0, 66, 0, 0, 0, 0, 0, 42, 17, 0, 0, 8, 0, 0, 0, 0, 0, 0, 0, 0, 0, 0, 0, 0, 0, 0, 50, 0, 75, 79, 0, 0, 22, 1, 77, 0, 0, 0, 49, 0, 0, 0
|0, 46, 0, 0, 0, 0, 0, 35, 0, 0, 0, 29, 15, 0, 0, 74, 0, 0, 44, 0, 0, 0, 0, 0, 0, 34, 0, 0, 0, 0, 21, 0, 0, 0, 41, 0, 0, 0, 0, 53, 70, 0, 14, 16, 76, 0, 40, 52, 0, 50, 0, 0, 0, 3, 4, 36, 19, 0, 80, 0, 9, 66, 20, 0, 23, 26, 81, 0, 0, 0, 0, 0, 58, 0, 0, 0, 0, 0, 60, 0, 0
|0, 81, 72, 0, 18, 78, 0, 0, 0, 0, 0, 0, 0, 0, 0, 0, 0, 0, 0, 0, 0, 0, 0, 15, 0, 0, 0, 0, 0, 0, 42, 17, 1, 77, 0, 0, 5, 0, 29, 0, 0, 0, 0, 33, 61, 0, 0, 67, 0, 0, 32, 0, 59, 0, 0, 0, 0, 0, 50, 0, 0, 12, 27, 14, 69, 0, 0, 54, 36, 56, 0, 70, 4, 0, 10, 30, 64, 0, 0, 68, 0
|0, 0, 19, 77, 0, 0, 0, 0, 8, 0, 0, 70, 0, 0, 76, 56, 0, 0, 14, 0, 0, 64, 0, 0, 0, 39, 0, 73, 0, 0, 0, 0, 0, 0, 0, 0, 0, 0, 0, 0, 0, 13, 0, 20, 0, 0, 38, 58, 0, 0, 0, 0, 0, 0, 69, 0, 0, 35, 11, 6, 0, 0, 0, 55, 0, 0, 0, 0, 0, 0, 0, 0, 0, 79, 0, 63, 0, 0, 0, 0, 72
|0, 48, 0, 0, 0, 0, 42, 11, 0, 22, 63, 0, 0, 32, 0, 67, 8, 0, 27, 0, 33, 0, 66, 0, 0, 69, 0, 0, 35, 0, 0, 0, 74, 0, 0, 0, 0, 0, 0, 0, 0, 0, 0, 0, 0, 0, 0, 0, 0, 0, 0, 0, 0, 0, 0, 0, 0, 0, 0, 0, 0, 0, 23, 0, 0, 9, 0, 0, 60, 7, 18, 0, 0, 0, 78, 0, 6, 0, 41, 0, 0
|0, 0, 0, 0, 0, 0, 0, 0, 0, 21, 0, 0, 0, 0, 3, 0, 0, 0, 0, 0, 0, 51, 0, 0, 0, 0, 0, 70, 31, 0, 0, 0, 0, 0, 0, 0, 63, 0, 44, 18, 0, 0, 0, 0, 12, 0, 0, 0, 6, 0, 0, 0, 0, 78, 0, 17, 52, 0, 15, 45, 77, 0, 0, 0, 0, 0, 0, 0, 0, 0, 0, 0, 9, 48, 26, 0, 0, 0, 69, 0, 50
|0, 0, 0, 0, 3, 30, 0, 0, 77, 0, 0, 59, 0, 0, 0, 26, 0, 0, 0, 0, 79, 0, 0, 0, 0, 54, 0, 0, 25, 51, 0, 0, 0, 0, 0, 0, 22, 0, 0, 0, 0, 0, 0, 0, 0, 49, 0, 0, 13, 0, 0, 60, 0, 0, 0, 19, 0, 55, 0, 0, 14, 0, 0, 0, 39, 43, 21, 0, 47, 0, 0, 32, 0, 42, 0, 0, 61, 10, 72, 69, 53
|78, 51, 8, 0, 0, 60, 0, 0, 0, 32, 0, 0, 0, 0, 0, 0, 0, 0, 0, 0, 0, 15, 0, 0, 0, 0, 0, 0, 0, 0, 0, 0, 0, 0, 0, 0, 0, 0, 0, 35, 0, 28, 0, 0, 29, 0, 11, 0, 0, 75, 0, 0, 1, 0, 0, 0, 0, 0, 36, 56, 0, 0, 0, 0, 0, 0, 0, 12, 0, 61, 0, 59, 0, 0, 0, 0, 74, 0, 0, 0, 0
|0, 0, 0, 0, 0, 47, 52, 0, 0, 9, 0, 64, 0, 0, 0, 0, 39, 0, 0, 72, 0, 0, 0, 0, 0, 0, 0, 0, 0, 77, 5, 0, 0, 0, 22, 37, 0, 0, 75, 32, 60, 56, 0, 0, 0, 0, 8, 0, 0, 15, 0, 57, 0, 0, 0, 40, 26, 0, 0, 0, 0, 81, 0, 0, 0, 65, 0, 0, 0, 0, 44, 0, 0, 78, 0, 0, 0, 0, 0, 0, 0
|0, 73, 32, 0, 0, 11, 0, 0, 0, 47, 0, 40, 2, 0, 1, 60, 61, 0, 63, 0, 0, 0, 0, 0, 49, 64, 0, 0, 0, 0, 0, 48, 0, 0, 0, 46, 0, 0, 0, 0, 0, 71, 0, 0, 0, 0, 0, 0, 0, 56, 0, 55, 0, 33, 35, 0, 79, 0, 30, 16, 29, 0, 57, 0, 0, 22, 72, 14, 0, 0, 38, 0, 0, 0, 18, 0, 0, 0, 80, 0, 0
|0, 75, 0, 0, 0, 0, 0, 54, 72, 0, 0, 0, 43, 76, 36, 0, 21, 0, 0, 0, 50, 77, 0, 0, 37, 3, 27, 0, 0, 11, 0, 0, 59, 57, 0, 0, 0, 34, 0, 0, 0, 38, 0, 0, 47, 0, 0, 22, 0, 79, 0, 0, 0, 0, 0, 0, 0, 0, 0, 18, 0, 0, 0, 0, 53, 78, 0, 70, 56, 64, 0, 9, 32, 19, 0, 0, 0, 0, 68, 0, 0
|35, 0, 0, 0, 65, 0, 0, 0, 0, 0, 0, 56, 0, 0, 4, 0, 68, 31, 0, 0, 0, 0, 0, 0, 0, 0, 0, 0, 0, 0, 64, 0, 0, 0, 0, 0, 0, 19, 16, 0, 0, 0, 0, 0, 51, 0, 0, 38, 0, 44, 26, 0, 0, 0, 37, 61, 0, 74, 0, 0, 0, 71, 0, 2, 0, 0, 0, 42, 0, 0, 0, 5, 36, 0, 0, 0, 0, 0, 0, 23, 73
|0, 0, 14, 5, 0, 68, 0, 0, 76, 0, 0, 3, 62, 0, 0, 18, 0, 0, 0, 70, 0, 0, 0, 0, 0, 0, 20, 0, 4, 0, 0, 0, 0, 0, 43, 0, 0, 0, 27, 0, 0, 48, 0, 0, 0, 46, 0, 0, 0, 0, 0, 66, 0, 0, 0, 0, 0, 0, 0, 0, 0, 39, 47, 0, 0, 0, 37, 0, 16, 0, 81, 0, 67, 0, 0, 0, 0, 0, 1, 17, 0
|0, 66, 0, 0, 0, 0, 81, 23, 0, 0, 15, 0, 75, 0, 0, 0, 0, 0, 0, 0, 0, 0, 0, 0, 0, 21, 0, 0, 71, 0, 0, 0, 0, 55, 67, 65, 0, 0, 5, 63, 0, 3, 0, 0, 0, 0, 0, 0, 0, 53, 0, 43, 0, 0, 0, 0, 0, 0, 0, 0, 0, 8, 0, 69, 26, 0, 73, 0, 20, 0, 0, 0, 0, 0, 0, 0, 0, 0, 0, 22, 0
|0, 0, 34, 27, 62, 0, 0, 0, 6, 0, 57, 30, 0, 20, 0, 0, 0, 0, 0, 0, 58, 0, 0, 0, 75, 0, 26, 0, 0, 31, 3, 0, 0, 78, 0, 0, 0, 0, 36, 0, 0, 76, 67, 0, 0, 64, 24, 0, 0, 41, 0, 0, 0, 0, 0, 0, 0, 0, 0, 0, 0, 0, 0, 0, 0, 0, 0, 74, 0, 0, 0, 11, 0, 0, 0, 0, 0, 0, 0, 0, 0
|0, 0, 68, 0, 0, 67, 57, 0, 20, 0, 0, 0, 0, 0, 0, 0, 51, 0, 0, 0, 0, 44, 0, 0, 0, 0, 0, 0, 0, 0, 0, 0, 0, 0, 0, 0, 9, 43, 14, 72, 0, 75, 19, 0, 0, 0, 70, 0, 8, 49, 28, 0, 0, 0, 0, 23, 0, 78, 0, 0, 0, 26, 0, 24, 50, 0, 2, 48, 0, 0, 0, 0, 0, 0, 0, 0, 0, 0, 0, 0, 0
|0, 0, 45, 0, 0, 0, 15, 0, 0, 0, 41, 0, 30, 0, 0, 0, 0, 7, 0, 0, 0, 0, 70, 0, 0, 0, 0, 0, 43, 0, 0, 0, 0, 0, 0, 0, 73, 0, 50, 0, 40, 5, 0, 0, 0, 0, 21, 0, 0, 0, 9, 0, 0, 27, 0, 0, 0, 0, 0, 0, 0, 0, 0, 0, 0, 67, 0, 0, 25, 0, 54, 0, 64, 0, 0, 0, 51, 2, 0, 0, 0
|0, 0, 46, 0, 0, 0, 0, 0, 0, 0, 26, 50, 0, 0, 0, 33, 0, 0, 20, 0, 27, 0, 0, 0, 81, 0, 0, 0, 0, 0, 0, 29, 0, 0, 13, 59, 0, 0, 0, 0, 0, 69, 0, 0, 0, 0, 0, 44, 0, 0, 0, 0, 0, 0, 71, 0, 48, 6, 0, 0, 0, 0, 0, 9, 36, 0, 0, 0, 55, 41, 57, 0, 68, 0, 0, 0, 76, 0, 58, 0, 0
|0, 50, 0, 22, 14, 0, 61, 81, 0, 0, 1, 0, 0, 0, 0, 0, 0, 0, 0, 0, 0, 0, 41, 63, 0, 0, 3, 0, 0, 0, 4, 0, 0, 0, 0, 0, 0, 0, 0, 0, 0, 29, 38, 0, 0, 18, 0, 20, 0, 0, 48, 0, 0, 57, 13, 0, 15, 0, 0, 0, 56, 0, 51, 0, 43, 0, 0, 0, 0, 0, 0, 28, 21, 45, 25, 0, 47, 0, 0, 7, 0
|0, 0, 0, 0, 0, 0, 0, 0, 78, 0, 0, 0, 0, 71, 0, 27, 0, 21, 0, 0, 61, 0, 0, 11, 0, 0, 0, 0, 0, 0, 8, 0, 0, 0, 0, 0, 0, 0, 0, 0, 0, 0, 0, 0, 79, 0, 0, 0, 0, 59, 0, 0, 81, 4, 0, 0, 0, 0, 3, 0, 0, 10, 0, 0, 34, 0, 0, 0, 68, 0, 0, 0, 0, 0, 0, 0, 37, 54, 26, 0, 0
|0, 0, 60, 17, 38, 0, 0, 0, 43, 5, 0, 4, 0, 0, 20, 34, 46, 0, 0, 0, 26, 0, 48, 0, 80, 0, 71, 69, 0, 0, 0, 0, 41, 0, 74, 3, 0, 0, 0, 0, 0, 0, 0, 0, 18, 0, 0, 25, 0, 0, 0, 0, 0, 77, 0, 16, 0, 0, 0, 0, 0, 0, 0, 0, 0, 0, 13, 0, 66, 59, 42, 0, 0, 0, 0, 0, 0, 0, 0, 79, 49
|0, 0, 56, 0, 28, 0, 0, 0, 48, 0, 0, 0, 0, 81, 58, 78, 0, 0, 43, 0, 0, 0, 0, 8, 0, 0, 25, 60, 0, 50, 35, 0, 0, 0, 0, 0, 0, 0, 0, 0, 24, 0, 0, 15, 0, 0, 0, 0, 0, 0, 17, 65, 0, 0, 76, 0, 0, 4, 0, 33, 0, 0, 7, 40, 0, 0, 0, 0, 14, 0, 0, 0, 0, 67, 12, 52, 0, 0, 0, 0, 0
|0, 0, 74, 30, 0, 54, 0, 0, 25, 0, 0, 0, 0, 0, 0, 0, 0, 0, 0, 0, 0, 0, 0, 0, 0, 0, 0, 19, 68, 0, 0, 0, 2, 0, 17, 0, 0, 0, 42, 0, 0, 0, 0, 0, 0, 0, 0, 69, 0, 0, 1, 0, 0, 0, 0, 81, 0, 0, 59, 0, 75, 0, 0, 0, 0, 0, 0, 0, 0, 0, 11, 0, 46, 0, 35, 0, 0, 0, 0, 0, 0
|0, 0, 0, 0, 0, 0, 51, 71, 0, 0, 65, 0, 59, 0, 0, 0, 0, 49, 0, 0, 4, 69, 0, 0, 16, 78, 0, 0, 20, 25, 0, 54, 0, 7, 0, 0, 0, 0, 0, 0, 0, 0, 0, 0, 0, 0, 41, 0, 0, 0, 0, 42, 0, 23, 0, 0, 0, 0, 0, 0, 0, 0, 34, 0, 0, 0, 53, 0, 0, 0, 35, 0, 60, 0, 0, 0, 0, 0, 36, 0, 3
|0, 0, 0, 0, 0, 0, 0, 0, 75, 0, 0, 0, 0, 40, 27, 0, 31, 0, 26, 0, 10, 0, 0, 3, 79, 71, 0, 0, 45, 38, 0, 0, 17, 0, 56, 0, 0, 0, 0, 0, 0, 33, 51, 0, 16, 44, 39, 0, 0, 61, 29, 0, 0, 0, 0, 74, 68, 0, 0, 0, 4, 0, 0, 0, 0, 76, 11, 0, 0, 0, 64, 0, 0, 0, 0, 0, 0, 0, 25, 0, 0
|77, 0, 0, 76, 0, 0, 45, 0, 0, 0, 0, 74, 0, 0, 0, 0, 0, 55, 13, 46, 0, 0, 0, 0, 25, 70, 0, 0, 41, 0, 0, 68, 0, 0, 18, 0, 0, 39, 9, 0, 0, 0, 0, 0, 0, 0, 71, 56, 0, 80, 0, 0, 0, 0, 43, 0, 0, 8, 0, 0, 69, 34, 0, 0, 0, 0, 59, 0, 0, 75, 0, 51, 0, 0, 0, 0, 0, 0, 0, 54, 0
|64, 33, 20, 0, 0, 0, 36, 0, 63, 0, 21, 58, 0, 0, 0, 12, 0, 0, 0, 0, 0, 45, 0, 0, 0, 0, 0, 0, 0, 46, 49, 0, 4, 0, 0, 25, 69, 76, 0, 28, 0, 0, 0, 0, 75, 0, 0, 0, 0, 0, 0, 0, 0, 0, 0, 0, 0, 39, 0, 0, 0, 0, 16, 0, 0, 44, 0, 0, 37, 0, 0, 0, 0, 40, 0, 0, 0, 0, 9, 24, 43
|55, 44, 0, 0, 0, 0, 0, 0, 0, 0, 5, 0, 0, 0, 0, 0, 0, 0, 0, 0, 20, 0, 0, 0, 0, 0, 0, 0, 0, 0, 0, 0, 0, 32, 71, 0, 0, 0, 78, 50, 22, 54, 0, 0, 0, 0, 64, 0, 0, 0, 72, 0, 53, 0, 0, 0, 18, 0, 0, 0, 0, 0, 0, 35, 3, 0, 0, 0, 1, 0, 47, 77, 0, 0, 0, 0, 19, 0, 0, 56, 26
|0, 43, 0, 0, 0, 61, 0, 68, 0, 0, 0, 0, 45, 0, 0, 0, 26, 9, 0, 0, 57, 0, 0, 23, 14, 0, 0, 0, 0, 0, 13, 0, 0, 21, 0, 50, 0, 0, 0, 0, 0, 18, 34, 0, 0, 0, 0, 0, 0, 10, 0, 41, 0, 11, 0, 5, 0, 0, 0, 20, 0, 0, 73, 0, 0, 0, 33, 0, 0, 0, 0, 0, 0, 0, 27, 0, 0, 0, 39, 0, 59
|0, 0, 0, 0, 0, 0, 0, 0, 50, 0, 78, 0, 0, 18, 19, 0, 0, 0, 0, 0, 56, 0, 0, 0, 0, 0, 0, 0, 5, 8, 0, 0, 0, 42, 7, 0, 0, 0, 0, 0, 29, 0, 0, 0, 0, 0, 0, 0, 21, 0, 0, 0, 0, 0, 0, 0, 67, 0, 37, 17, 0, 0, 0, 0, 0, 0, 0, 0, 0, 0, 28, 0, 0, 0, 0, 46, 0, 0, 0, 64, 68
|0, 59, 0, 0, 26, 9, 6, 0, 0, 2, 0, 25, 0, 0, 0, 0, 75, 0, 41, 39, 0, 0, 0, 0, 40, 0, 0, 0, 0, 0, 0, 0, 0, 35, 0, 0, 0, 0, 61, 0, 0, 0, 0, 0, 0, 0, 36, 0, 0, 48, 0, 33, 0, 0, 80, 0, 0, 0, 21, 44, 0, 29, 0, 0, 56, 0, 12, 0, 0, 54, 62, 0, 38, 0, 69, 0, 0, 81, 76, 0, 0
|0, 0, 0, 39, 0, 46, 0, 0, 32, 0, 0, 48, 0, 0, 0, 0, 0, 0, 0, 30, 0, 0, 0, 0, 0, 0, 4, 0, 22, 0, 0, 0, 0, 0, 0, 0, 0, 0, 15, 0, 0, 0, 59, 14, 0, 0, 0, 43, 0, 0, 55, 0, 0, 0, 0, 78, 70, 0, 0, 0, 0, 56, 2, 0, 0, 49, 50, 0, 0, 36, 0, 0, 0, 44, 0, 0, 0, 0, 0, 0, 33
|0, 11, 0, 0, 0, 0, 0, 0, 0, 0, 0, 0, 0, 0, 0, 0, 0, 0, 0, 0, 76, 0, 47, 0, 36, 0, 0, 0, 0, 0, 0, 0, 0, 69, 0, 0, 56, 0, 0, 0, 0, 0, 0, 0, 0, 5, 57, 0, 62, 0, 0, 28, 0, 0, 30, 0, 0, 46, 12, 10, 0, 0, 0, 0, 0, 74, 0, 0, 0, 0, 0, 18, 0, 0, 0, 8, 0, 0, 50, 0, 55
|0, 0, 0, 74, 45, 0, 0, 50, 0, 0, 0, 0, 0, 36, 0, 0, 0, 0, 0, 49, 53, 0, 0, 0, 54, 0, 0, 0, 0, 0, 0, 0, 0, 0, 0, 0, 0, 0, 0, 0, 0, 0, 0, 0, 59, 0, 76, 0, 0, 0, 0, 0, 0, 0, 0, 0, 3, 0, 0, 0, 0, 0, 75, 51, 13, 0, 0, 0, 2, 0, 0, 0, 0, 0, 0, 0, 0, 0, 27, 0, 16
|0, 0, 0, 0, 31, 56, 28, 0, 0, 0, 68, 0, 0, 0, 0, 62, 0, 0, 0, 10, 0, 48, 0, 46, 0, 0, 5, 0, 0, 0, 0, 6, 0, 0, 54, 0, 0, 58, 0, 0, 0, 9, 0, 0, 80, 0, 0, 0, 0, 20, 0, 78, 66, 0, 0, 0, 74, 0, 57, 0, 36, 38, 0, 0, 0, 0, 79, 0, 0, 0, 53, 0, 71, 0, 2, 0, 17, 0, 0, 0, 0
|0, 0, 15, 0, 2, 0, 0, 0, 0, 57, 0, 0, 0, 0, 0, 23, 0, 0, 0, 1, 0, 0, 0, 0, 0, 0, 47, 0, 0, 0, 0, 25, 0, 0, 0, 0, 29, 42, 0, 8, 12, 19, 0, 0, 34, 0, 0, 0, 0, 9, 0, 0, 74, 6, 0, 62, 0, 72, 0, 0, 40, 0, 31, 0, 0, 0, 0, 55, 0, 0, 0, 0, 0, 0, 70, 68, 39, 0, 0, 0, 44
|0, 0, 58, 0, 0, 81, 0, 0, 0, 0, 0, 0, 0, 0, 0, 49, 0, 64, 0, 0, 0, 0, 0, 0, 0, 0, 0, 0, 65, 5, 0, 0, 0, 0, 0, 21, 0, 0, 0, 0, 67, 78, 0, 0, 0, 10, 0, 0, 41, 0, 0, 0, 33, 56, 0, 20, 0, 0, 0, 0, 0, 0, 9, 0, 31, 0, 0, 0, 77, 63, 0, 66, 0, 14, 0, 0, 54, 0, 0, 0, 0
|0, 0, 5, 0, 0, 36, 0, 0, 0, 0, 18, 0, 0, 0, 13, 0, 60, 0, 0, 0, 0, 0, 0, 0, 0, 51, 0, 0, 50, 0, 0, 0, 0, 0, 0, 19, 0, 22, 0, 0, 0, 0, 0, 0, 11, 0, 0, 47, 57, 0, 65, 0, 0, 2, 27, 0, 0, 0, 0, 0, 0, 0, 14, 71, 0, 0, 8, 15, 0, 0, 0, 0, 0, 66, 1, 0, 0, 0, 0, 0, 41
|0, 0, 0, 0, 0, 0, 0, 57, 0, 0, 0, 0, 0, 0, 54, 0, 0, 0, 0, 0, 21, 0, 0, 77, 63, 7, 0, 0, 0, 0, 0, 81, 0, 0, 0, 0, 51, 0, 0, 41, 0, 74, 0, 79, 0, 0, 0, 0, 67, 8, 0, 0, 0, 0, 70, 0, 0, 26, 0, 0, 52, 0, 69, 0, 14, 0, 30, 35, 62, 0, 3, 38, 0, 47, 45, 40, 80, 22, 0, 0, 6
|0, 0, 41, 0, 54, 8, 0, 0, 46, 0, 0, 0, 0, 5, 15, 0, 74, 1, 0, 0, 0, 0, 0, 0, 0, 0, 0, 0, 0, 0, 0, 0, 26, 0, 29, 0, 0, 0, 0, 0, 0, 36, 0, 55, 17, 21, 0, 59, 0, 14, 0, 0, 0, 70, 0, 0, 0, 0, 0, 43, 16, 0, 0, 12, 0, 0, 0, 0, 0, 68, 0, 56, 0, 50, 24, 0, 32, 0, 0, 9, 0
|0, 23, 38, 0, 0, 0, 19, 65, 11, 0, 0, 2, 69, 0, 0, 21, 0, 0, 0, 0, 0, 0, 0, 50, 0, 20, 60, 3, 0, 74, 0, 0, 14, 0, 0, 7, 0, 49, 0, 70, 0, 0, 66, 0, 0, 0, 0, 0, 0, 0, 58, 0, 71, 0, 0, 0, 12, 0, 0, 0, 0, 0, 15, 0, 0, 0, 0, 0, 0, 0, 0, 47, 0, 0, 0, 62, 0, 53, 0, 0, 0
|0, 63, 0, 0, 0, 22, 0, 0, 0, 10, 0, 51, 70, 0, 9, 71, 0, 0, 0, 0, 30, 52, 0, 0, 0, 0, 78, 0, 0, 0, 0, 0, 0, 0, 0, 0, 0, 45, 0, 0, 65, 0, 0, 0, 24, 0, 0, 0, 0, 0, 11, 0, 0, 0, 50, 0, 8, 77, 1, 2, 0, 58, 80, 0, 0, 0, 0, 0, 0, 0, 49, 0, 0, 0, 72, 0, 46, 0, 0, 0, 15|];