order = 9;
grid = [|0, 0, 29, 57, 3, 10, 0, 0, 60, 0, 44, 0, 0, 0, 0, 49, 0, 0, 0, 0, 0, 36, 0, 0, 0, 0, 0, 76, 0, 0, 0, 50, 79, 0, 0, 0, 0, 22, 42, 0, 39, 6, 0, 0, 13, 18, 0, 0, 0, 0, 0, 0, 0, 31, 0, 0, 0, 0, 0, 0, 45, 4, 0, 68, 0, 1, 78, 0, 0, 0, 56, 11, 0, 0, 37, 0, 0, 0, 41, 0, 0
|0, 4, 0, 0, 0, 53, 33, 0, 0, 0, 47, 0, 0, 0, 77, 11, 0, 0, 25, 0, 0, 18, 51, 0, 0, 0, 42, 0, 0, 0, 0, 32, 0, 0, 0, 20, 0, 0, 45, 57, 0, 65, 0, 0, 0, 0, 0, 0, 71, 0, 0, 0, 0, 5, 0, 0, 0, 0, 74, 10, 0, 0, 67, 8, 0, 0, 0, 0, 0, 23, 0, 0, 0, 69, 50, 0, 0, 40, 0, 44, 0
|0, 0, 0, 37, 43, 54, 0, 0, 0, 0, 0, 0, 0, 0, 0, 0, 48, 0, 59, 0, 0, 0, 0, 0, 0, 0, 1, 71, 66, 51, 0, 0, 0, 26, 25, 0, 0, 0, 2, 0, 0, 33, 58, 0, 0, 0, 42, 4, 0, 29, 0, 0, 0, 72, 0, 0, 0, 61, 0, 0, 36, 0, 0, 24, 69, 0, 0, 0, 0, 0, 60, 9, 34, 35, 0, 0, 0, 0, 0, 0, 0
|0, 15, 0, 0, 13, 59, 12, 71, 0, 0, 57, 70, 0, 58, 0, 35, 0, 0, 0, 0, 0, 0, 0, 0, 19, 0, 0, 0, 29, 0, 0, 0, 0, 3, 0, 69, 64, 0, 0, 0, 0, 30, 24, 5, 54, 16, 0, 0, 0, 0, 0, 9, 0, 0, 0, 0, 68, 0, 0, 0, 11, 0, 0, 76, 0, 0, 0, 62, 0, 0, 0, 6, 0, 0, 43, 0, 0, 0, 0, 0, 0
|0, 0, 0, 0, 52, 74, 0, 62, 0, 27, 0, 29, 0, 0, 50, 46, 75, 45, 0, 8, 0, 0, 0, 0, 0, 0, 0, 24, 0, 33, 0, 0, 0, 0, 19, 0, 81, 0, 0, 0, 0, 0, 0, 0, 12, 0, 60, 0, 0, 0, 0, 0, 80, 0, 0, 0, 0, 0, 0, 0, 0, 0, 0, 4, 0, 0, 0, 0, 30, 54, 0, 79, 0, 57, 0, 13, 0, 0, 0, 0, 5
|8, 0, 16, 0, 0, 0, 30, 0, 0, 60, 0, 0, 80, 0, 5, 0, 0, 0, 0, 0, 26, 0, 0, 0, 0, 0, 0, 0, 0, 0, 0, 68, 73, 0, 0, 0, 78, 0, 0, 0, 0, 0, 0, 62, 56, 0, 0, 32, 0, 0, 0, 0, 0, 2, 0, 29, 0, 0, 39, 0, 20, 0, 0, 77, 0, 0, 0, 0, 58, 7, 0, 44, 0, 0, 52, 0, 0, 0, 0, 15, 0
|0, 18, 0, 0, 7, 0, 0, 0, 0, 39, 0, 0, 0, 0, 79, 25, 0, 71, 72, 0, 0, 81, 0, 50, 27, 61, 0, 56, 0, 0, 0, 0, 0, 60, 30, 0, 0, 0, 34, 0, 0, 0, 0, 44, 0, 0, 37, 0, 47, 66, 0, 45, 0, 0, 0, 0, 0, 77, 0, 0, 0, 8, 19, 0, 0, 35, 42, 15, 0, 21, 0, 0, 0, 0, 0, 73, 0, 0, 0, 0, 0
|64, 0, 19, 0, 0, 0, 0, 0, 0, 0, 13, 0, 0, 0, 0, 0, 0, 0, 0, 0, 0, 76, 0, 4, 45, 0, 0, 0, 0, 42, 0, 0, 28, 0, 0, 0, 0, 37, 0, 0, 0, 0, 0, 40, 0, 36, 0, 10, 0, 30, 0, 0, 49, 0, 0, 0, 0, 79, 57, 0, 0, 0, 60, 0, 0, 0, 18, 0, 0, 0, 20, 0, 0, 0, 0, 11, 0, 0, 61, 48, 8
|0, 0, 76, 0, 75, 0, 50, 78, 0, 0, 0, 19, 42, 0, 0, 0, 38, 0, 5, 15, 2, 6, 0, 0, 0, 0, 0, 0, 0, 22, 0, 0, 0, 0, 77, 0, 69, 0, 0, 0, 80, 0, 0, 1, 0, 0, 0, 54, 0, 0, 53, 0, 0, 0, 44, 0, 0, 35, 0, 72, 24, 33, 0, 0, 0, 0, 0, 0, 0, 0, 0, 0, 79, 81, 27, 0, 7, 0, 46, 0, 32
|68, 0, 0, 0, 0, 0, 0, 0, 0, 0, 0, 0, 0, 0, 0, 0, 0, 0, 0, 0, 0, 11, 0, 0, 59, 0, 0, 0, 0, 0, 0, 0, 0, 0, 0, 0, 0, 0, 13, 0, 5, 0, 0, 0, 0, 0, 0, 0, 0, 0, 0, 75, 0, 71, 0, 6, 0, 0, 0, 0, 39, 7, 0, 0, 0, 0, 62, 0, 0, 0, 2, 0, 27, 0, 0, 0, 0, 0, 0, 49, 0
|0, 39, 0, 0, 0, 0, 0, 0, 0, 0, 0, 8, 52, 43, 0, 0, 0, 62, 0, 0, 33, 0, 58, 0, 0, 0, 16, 0, 25, 66, 26, 0, 0, 0, 49, 0, 0, 41, 0, 0, 0, 3, 0, 0, 0, 0, 0, 0, 0, 0, 0, 40, 0, 0, 0, 0, 81, 0, 0, 0, 0, 0, 28, 22, 64, 44, 0, 73, 78, 13, 0, 0, 55, 0, 0, 0, 0, 0, 63, 0, 0
|0, 48, 0, 0, 0, 0, 0, 14, 0, 32, 0, 67, 0, 0, 0, 34, 1, 0, 0, 68, 51, 0, 23, 0, 40, 0, 0, 0, 0, 0, 0, 0, 0, 8, 65, 0, 12, 0, 0, 0, 0, 0, 0, 0, 0, 69, 0, 0, 0, 4, 0, 0, 0, 0, 0, 0, 19, 0, 0, 0, 64, 0, 50, 43, 0, 0, 0, 0, 0, 36, 0, 0, 0, 0, 58, 0, 0, 45, 0, 0, 44
|0, 0, 0, 0, 63, 0, 0, 0, 61, 0, 0, 0, 0, 0, 0, 0, 0, 0, 0, 56, 0, 21, 0, 25, 35, 0, 0, 1, 33, 0, 39, 0, 57, 0, 32, 52, 62, 0, 0, 0, 0, 23, 0, 64, 0, 19, 0, 0, 34, 0, 0, 0, 0, 0, 0, 0, 0, 4, 0, 40, 0, 0, 0, 0, 0, 0, 0, 0, 0, 0, 0, 50, 16, 0, 0, 0, 0, 48, 43, 0, 0
|0, 60, 0, 1, 0, 0, 20, 0, 0, 0, 26, 0, 0, 0, 0, 77, 0, 75, 0, 0, 15, 0, 0, 0, 0, 78, 28, 0, 0, 0, 64, 0, 10, 0, 0, 0, 0, 0, 0, 51, 47, 0, 0, 0, 0, 46, 0, 0, 0, 37, 0, 65, 0, 0, 0, 14, 0, 0, 33, 76, 0, 45, 0, 0, 80, 0, 0, 0, 0, 0, 0, 0, 57, 0, 0, 0, 6, 21, 7, 0, 79
|10, 0, 0, 0, 0, 0, 0, 0, 0, 20, 76, 0, 0, 0, 0, 44, 0, 0, 0, 0, 32, 0, 0, 60, 55, 0, 0, 43, 0, 0, 56, 0, 0, 0, 0, 46, 0, 65, 0, 30, 78, 0, 0, 0, 18, 0, 0, 14, 0, 0, 0, 0, 0, 0, 0, 0, 0, 58, 0, 0, 73, 0, 0, 0, 68, 0, 0, 0, 7, 70, 0, 69, 0, 0, 24, 0, 0, 0, 0, 0, 0
|0, 32, 0, 15, 0, 72, 0, 55, 0, 0, 0, 0, 0, 0, 70, 0, 0, 0, 0, 0, 0, 52, 0, 0, 34, 0, 0, 0, 0, 0, 48, 0, 0, 0, 0, 0, 0, 33, 58, 68, 0, 50, 56, 0, 0, 23, 78, 0, 0, 0, 0, 0, 0, 0, 0, 0, 0, 0, 0, 0, 0, 0, 0, 0, 0, 0, 0, 51, 24, 0, 0, 0, 0, 0, 0, 17, 0, 0, 0, 18, 0
|0, 0, 0, 0, 0, 37, 0, 0, 0, 17, 2, 64, 0, 0, 0, 0, 0, 0, 0, 62, 0, 0, 0, 0, 0, 0, 0, 0, 78, 0, 0, 0, 58, 0, 0, 0, 32, 0, 0, 0, 0, 0, 8, 0, 29, 0, 0, 0, 0, 0, 18, 0, 0, 50, 0, 59, 0, 0, 0, 0, 0, 0, 5, 48, 0, 0, 0, 0, 28, 0, 0, 77, 60, 0, 0, 20, 0, 0, 31, 0, 0
|35, 43, 31, 0, 18, 79, 0, 0, 0, 0, 0, 0, 0, 0, 58, 0, 4, 0, 0, 0, 8, 0, 0, 0, 0, 0, 0, 0, 0, 72, 0, 0, 0, 0, 34, 50, 0, 53, 0, 0, 0, 0, 0, 0, 0, 0, 0, 0, 0, 0, 0, 0, 0, 0, 0, 0, 0, 0, 55, 25, 0, 0, 21, 0, 0, 11, 0, 0, 26, 0, 0, 0, 0, 0, 0, 0, 36, 12, 0, 0, 0
|33, 0, 15, 0, 28, 0, 0, 0, 0, 0, 0, 0, 0, 51, 0, 0, 0, 0, 0, 0, 43, 0, 0, 0, 0, 63, 0, 0, 0, 20, 37, 0, 0, 39, 0, 0, 65, 0, 0, 0, 0, 76, 7, 12, 75, 67, 0, 42, 0, 0, 0, 50, 0, 0, 0, 0, 0, 0, 0, 0, 53, 0, 55, 0, 0, 0, 0, 0, 0, 11, 0, 46, 29, 0, 1, 41, 25, 0, 5, 0, 73
|0, 0, 0, 0, 0, 0, 46, 60, 0, 0, 73, 32, 17, 0, 0, 0, 0, 0, 0, 0, 0, 0, 0, 0, 0, 69, 0, 52, 42, 0, 58, 0, 38, 0, 1, 0, 66, 0, 0, 49, 9, 0, 22, 0, 0, 0, 53, 39, 68, 0, 0, 0, 0, 0, 0, 10, 0, 0, 0, 0, 0, 43, 0, 0, 0, 0, 0, 48, 0, 56, 0, 0, 0, 74, 12, 0, 0, 31, 0, 0, 0
|0, 19, 8, 0, 0, 2, 9, 0, 1, 0, 0, 20, 0, 0, 0, 43, 0, 6, 0, 0, 24, 0, 0, 0, 0, 0, 7, 0, 0, 0, 36, 0, 29, 69, 0, 0, 0, 0, 0, 0, 0, 45, 0, 28, 38, 0, 0, 0, 0, 71, 0, 0, 0, 0, 0, 0, 13, 0, 4, 0, 70, 0, 0, 66, 0, 14, 0, 49, 15, 31, 0, 0, 0, 52, 0, 0, 0, 79, 17, 60, 62
|0, 0, 0, 4, 0, 0, 44, 7, 0, 0, 0, 41, 50, 0, 0, 0, 0, 0, 0, 0, 55, 0, 0, 0, 0, 0, 0, 0, 0, 0, 0, 0, 0, 0, 0, 0, 0, 0, 0, 0, 0, 18, 51, 0, 0, 0, 35, 0, 0, 52, 13, 31, 2, 0, 0, 0, 0, 81, 0, 0, 60, 0, 0, 0, 0, 65, 36, 0, 1, 0, 0, 0, 9, 38, 48, 0, 27, 0, 0, 0, 47
|0, 0, 13, 0, 55, 0, 0, 0, 72, 0, 0, 0, 12, 0, 0, 52, 0, 60, 0, 0, 40, 0, 0, 0, 0, 0, 0, 8, 56, 0, 54, 0, 63, 0, 0, 66, 0, 0, 0, 15, 10, 0, 0, 0, 42, 0, 0, 0, 0, 0, 20, 0, 0, 0, 36, 38, 0, 0, 62, 0, 0, 80, 0, 53, 0, 0, 0, 59, 0, 0, 30, 35, 23, 0, 0, 6, 0, 0, 0, 0, 24
|0, 0, 0, 0, 0, 0, 0, 0, 0, 0, 0, 62, 0, 0, 0, 0, 33, 0, 0, 0, 0, 0, 0, 0, 0, 31, 75, 65, 0, 0, 46, 0, 41, 0, 0, 73, 0, 0, 0, 0, 0, 0, 0, 0, 0, 0, 0, 1, 0, 0, 0, 0, 0, 0, 67, 0, 0, 45, 0, 29, 0, 0, 0, 0, 0, 0, 0, 0, 0, 0, 0, 0, 0, 44, 61, 0, 0, 0, 0, 81, 0
|0, 62, 0, 0, 71, 63, 0, 54, 0, 0, 0, 76, 0, 10, 0, 64, 0, 31, 57, 52, 73, 0, 0, 17, 0, 27, 0, 0, 0, 70, 0, 0, 48, 0, 18, 0, 0, 0, 0, 0, 0, 32, 0, 81, 39, 0, 0, 19, 36, 0, 0, 59, 15, 0, 34, 0, 5, 0, 28, 0, 0, 0, 0, 0, 60, 0, 0, 0, 0, 0, 0, 41, 0, 0, 0, 22, 0, 0, 37, 56, 0
|73, 5, 27, 81, 67, 0, 41, 56, 0, 0, 0, 0, 53, 0, 0, 0, 0, 0, 0, 0, 0, 0, 34, 0, 48, 0, 0, 0, 0, 47, 0, 0, 0, 74, 0, 0, 0, 0, 36, 0, 0, 17, 79, 0, 0, 0, 0, 0, 0, 0, 9, 0, 0, 0, 49, 0, 0, 78, 35, 0, 32, 0, 0, 58, 0, 0, 0, 0, 55, 0, 19, 8, 0, 15, 0, 0, 0, 71, 70, 0, 59
|50, 0, 0, 0, 0, 0, 52, 0, 0, 0, 0, 0, 58, 0, 0, 0, 70, 0, 30, 6, 0, 42, 0, 0, 0, 39, 0, 0, 71, 59, 0, 80, 0, 0, 0, 0, 74, 0, 0, 0, 0, 0, 0, 0, 40, 0, 0, 0, 45, 0, 29, 0, 0, 0, 75, 77, 0, 0, 0, 21, 0, 0, 20, 63, 27, 0, 17, 69, 73, 25, 0, 22, 0, 0, 0, 0, 0, 46, 53, 0, 0
|0, 46, 0, 3, 0, 0, 13, 0, 0, 72, 0, 0, 47, 0, 0, 0, 0, 0, 0, 0, 63, 24, 62, 0, 0, 9, 0, 0, 20, 0, 0, 0, 0, 0, 0, 0, 33, 0, 0, 50, 0, 0, 0, 76, 6, 0, 0, 0, 48, 0, 0, 79, 0, 28, 0, 57, 0, 0, 0, 45, 0, 0, 0, 0, 0, 5, 0, 18, 0, 0, 64, 0, 0, 0, 0, 0, 17, 51, 1, 40, 0
|1, 0, 6, 19, 58, 0, 51, 0, 0, 29, 75, 3, 0, 0, 81, 0, 36, 0, 35, 41, 0, 0, 0, 0, 61, 0, 0, 0, 0, 0, 0, 0, 54, 52, 0, 39, 10, 0, 0, 62, 0, 38, 0, 8, 0, 56, 0, 0, 0, 0, 0, 77, 0, 0, 0, 0, 0, 0, 0, 0, 15, 0, 33, 40, 0, 0, 23, 0, 0, 0, 0, 72, 0, 25, 0, 24, 43, 0, 0, 0, 0
|0, 0, 0, 0, 39, 0, 0, 0, 0, 1, 0, 0, 10, 0, 46, 0, 0, 0, 32, 0, 0, 0, 37, 0, 0, 0, 68, 0, 74, 0, 0, 0, 0, 0, 0, 0, 0, 0, 64, 0, 0, 0, 0, 63, 44, 0, 22, 0, 0, 0, 0, 11, 0, 0, 0, 70, 0, 0, 0, 0, 0, 40, 0, 0, 0, 0, 33, 0, 0, 0, 58, 0, 14, 0, 0, 12, 0, 0, 0, 31, 16
|29, 0, 0, 0, 25, 0, 48, 0, 0, 35, 43, 0, 0, 0, 0, 9, 0, 0, 0, 0, 0, 0, 0, 0, 75, 0, 0, 0, 22, 21, 60, 23, 0, 0, 0, 0, 0, 0, 20, 0, 0, 40, 0, 0, 0, 63, 0, 0, 66, 0, 16, 0, 0, 0, 54, 0, 0, 10, 0, 0, 0, 0, 7, 0, 0, 0, 0, 13, 0, 0, 0, 42, 0, 56, 0, 0, 0, 0, 0, 0, 0
|0, 56, 0, 0, 57, 50, 0, 0, 0, 0, 0, 48, 63, 0, 0, 0, 0, 0, 71, 0, 0, 0, 0, 0, 7, 0, 0, 0, 0, 0, 0, 17, 0, 25, 0, 0, 39, 0, 16, 0, 0, 0, 29, 0, 34, 0, 12, 0, 0, 0, 0, 58, 0, 75, 21, 0, 0, 49, 0, 38, 0, 64, 0, 0, 0, 0, 19, 0, 0, 0, 0, 36, 45, 0, 0, 72, 37, 0, 0, 26, 66
|80, 79, 17, 0, 62, 0, 0, 10, 0, 0, 0, 0, 0, 55, 31, 19, 0, 0, 0, 0, 0, 0, 0, 26, 0, 0, 0, 0, 0, 0, 0, 0, 15, 0, 75, 81, 5, 0, 66, 0, 0, 0, 45, 53, 32, 4, 33, 0, 0, 0, 64, 73, 21, 0, 0, 0, 0, 0, 0, 0, 0, 39, 0, 0, 0, 22, 0, 0, 0, 0, 49, 74, 0, 60, 0, 0, 23, 0, 0, 0, 57
|0, 0, 49, 0, 0, 0, 77, 43, 0, 0, 0, 0, 0, 57, 74, 56, 0, 0, 0, 20, 0, 17, 0, 36, 0, 44, 48, 0, 19, 0, 8, 0, 0, 0, 0, 12, 37, 0, 11, 0, 14, 0, 4, 0, 0, 0, 25, 38, 9, 0, 24, 72, 0, 0, 68, 27, 0, 0, 46, 0, 0, 53, 0, 0, 0, 0, 54, 0, 79, 59, 0, 0, 0, 6, 0, 61, 22, 76, 10, 0, 0
|0, 0, 0, 16, 0, 0, 0, 20, 32, 4, 0, 42, 0, 0, 0, 0, 0, 70, 0, 0, 0, 13, 1, 0, 66, 0, 40, 38, 0, 0, 10, 64, 0, 0, 5, 0, 0, 0, 0, 0, 23, 0, 69, 0, 0, 0, 49, 44, 0, 0, 0, 0, 0, 0, 50, 72, 24, 8, 0, 0, 0, 0, 0, 17, 0, 0, 0, 63, 0, 0, 0, 0, 0, 0, 0, 0, 0, 0, 0, 0, 0
|0, 33, 0, 0, 5, 0, 38, 0, 0, 0, 15, 68, 0, 66, 0, 0, 0, 0, 19, 0, 0, 57, 27, 55, 0, 0, 0, 44, 0, 79, 0, 0, 76, 0, 0, 0, 0, 0, 0, 0, 0, 0, 0, 30, 0, 29, 0, 0, 0, 0, 69, 43, 0, 45, 26, 0, 0, 0, 12, 0, 0, 81, 0, 0, 1, 34, 8, 39, 61, 0, 0, 0, 0, 0, 0, 0, 47, 0, 0, 0, 21
|15, 0, 0, 34, 0, 0, 0, 4, 0, 0, 0, 0, 0, 0, 0, 0, 0, 0, 0, 0, 3, 56, 74, 58, 0, 22, 70, 5, 48, 0, 0, 0, 0, 27, 50, 0, 0, 0, 0, 46, 33, 39, 0, 0, 0, 0, 31, 0, 0, 0, 0, 0, 0, 0, 0, 54, 0, 0, 68, 0, 1, 0, 0, 23, 0, 0, 0, 10, 0, 65, 0, 0, 11, 0, 0, 0, 0, 0, 29, 0, 0
|0, 17, 39, 0, 0, 46, 0, 0, 0, 33, 0, 80, 0, 0, 0, 0, 57, 76, 0, 49, 0, 0, 60, 0, 0, 19, 0, 0, 0, 0, 0, 71, 0, 0, 0, 0, 0, 30, 0, 56, 20, 29, 21, 0, 0, 59, 0, 0, 0, 0, 50, 0, 0, 0, 0, 0, 0, 0, 13, 0, 42, 0, 0, 0, 0, 0, 0, 43, 0, 55, 0, 0, 18, 0, 0, 0, 0, 0, 0, 4, 67
|0, 0, 0, 0, 0, 0, 49, 0, 0, 0, 0, 0, 0, 0, 0, 68, 0, 58, 0, 0, 67, 0, 0, 0, 0, 72, 0, 0, 0, 0, 35, 52, 0, 10, 0, 0, 0, 0, 0, 76, 0, 0, 0, 0, 0, 0, 0, 29, 0, 0, 0, 0, 0, 0, 0, 0, 0, 0, 8, 0, 0, 0, 0, 0, 0, 0, 0, 0, 36, 0, 0, 0, 0, 0, 0, 38, 0, 0, 81, 0, 0
|0, 0, 50, 0, 0, 0, 8, 0, 0, 0, 0, 24, 0, 0, 0, 0, 0, 67, 0, 63, 6, 0, 0, 0, 44, 0, 0, 0, 0, 0, 0, 0, 0, 0, 0, 0, 38, 45, 0, 0, 0, 0, 42, 57, 0, 81, 0, 0, 0, 0, 0, 0, 0, 9, 65, 12, 46, 0, 0, 0, 0, 0, 0, 0, 0, 26, 20, 0, 0, 0, 0, 0, 0, 0, 0, 15, 0, 0, 0, 2, 0
|0, 0, 66, 0, 0, 70, 0, 0, 0, 0, 29, 0, 0, 0, 0, 0, 0, 55, 0, 42, 0, 0, 0, 0, 0, 0, 0, 0, 0, 0, 41, 0, 75, 7, 0, 0, 0, 0, 10, 32, 0, 24, 0, 47, 0, 49, 30, 0, 51, 53, 0, 0, 0, 34, 0, 0, 59, 17, 61, 4, 0, 20, 0, 0, 0, 0, 0, 0, 0, 0, 0, 14, 63, 68, 0, 0, 77, 0, 0, 0, 0
|43, 0, 0, 0, 0, 0, 0, 0, 14, 0, 0, 0, 77, 49, 0, 51, 0, 56, 0, 0, 0, 0, 0, 0, 0, 0, 54, 0, 0, 1, 0, 0, 39, 0, 63, 0, 0, 0, 80, 0, 0, 53, 0, 0, 0, 0, 0, 0, 0, 0, 36, 0, 0, 0, 0, 0, 0, 0, 0, 0, 0, 0, 10, 0, 0, 25, 0, 0, 0, 0, 5, 0, 6, 0, 0, 0, 0, 78, 0, 12, 0
|0, 0, 32, 0, 0, 0, 0, 44, 27, 0, 0, 65, 1, 0, 16, 8, 0, 0, 0, 0, 0, 61, 0, 0, 0, 0, 59, 0, 0, 25, 30, 11, 0, 0, 0, 58, 79, 0, 35, 0, 0, 0, 0, 0, 0, 0, 0, 0, 70, 0, 0, 0, 0, 0, 0, 40, 53, 0, 0, 0, 0, 0, 0, 0, 15, 0, 0, 19, 0, 0, 0, 76, 0, 0, 0, 0, 0, 0, 0, 0, 0
|0, 0, 2, 0, 0, 0, 0, 21, 0, 37, 64, 0, 0, 0, 0, 0, 0, 0, 7, 0, 17, 0, 0, 0, 68, 0, 35, 0, 49, 0, 77, 6, 0, 0, 0, 0, 0, 40, 26, 0, 0, 0, 0, 0, 62, 0, 0, 0, 0, 42, 27, 0, 0, 60, 0, 0, 0, 0, 0, 0, 0, 0, 0, 56, 75, 0, 0, 0, 0, 0, 0, 71, 0, 0, 0, 51, 0, 41, 0, 0, 0
|0, 0, 0, 0, 0, 0, 0, 0, 0, 61, 21, 44, 0, 74, 0, 0, 0, 19, 0, 24, 0, 69, 13, 73, 0, 2, 0, 0, 46, 0, 0, 0, 0, 0, 0, 0, 0, 0, 0, 0, 0, 0, 11, 0, 0, 79, 26, 0, 0, 43, 0, 0, 68, 0, 32, 0, 0, 64, 66, 0, 0, 0, 80, 6, 0, 0, 0, 0, 0, 0, 0, 38, 35, 0, 0, 0, 0, 0, 36, 3, 0
|0, 0, 0, 59, 0, 38, 0, 0, 30, 0, 0, 0, 0, 0, 1, 81, 0, 25, 0, 0, 0, 0, 0, 32, 0, 0, 0, 0, 0, 0, 0, 0, 0, 56, 0, 0, 7, 0, 43, 0, 0, 42, 67, 10, 0, 0, 0, 0, 0, 0, 0, 0, 0, 65, 41, 0, 0, 0, 79, 0, 0, 0, 0, 47, 0, 0, 24, 0, 0, 39, 14, 0, 5, 49, 0, 0, 15, 0, 0, 0, 0
|0, 0, 0, 0, 0, 75, 43, 42, 0, 51, 0, 0, 0, 0, 0, 0, 0, 57, 0, 0, 48, 0, 80, 20, 0, 0, 0, 0, 0, 0, 0, 0, 0, 55, 0, 0, 61, 0, 0, 0, 0, 0, 33, 65, 27, 0, 28, 0, 41, 0, 0, 0, 0, 0, 0, 0, 0, 0, 0, 0, 0, 68, 0, 0, 44, 38, 0, 0, 0, 77, 0, 0, 0, 0, 0, 0, 3, 0, 39, 0, 0
|0, 0, 0, 0, 20, 0, 0, 0, 31, 48, 69, 43, 0, 0, 0, 5, 24, 0, 81, 12, 0, 0, 0, 0, 22, 0, 0, 0, 0, 0, 0, 0, 77, 0, 0, 11, 0, 0, 0, 0, 0, 0, 0, 0, 15, 44, 0, 64, 0, 0, 32, 0, 27, 0, 0, 58, 29, 0, 0, 0, 0, 75, 4, 0, 0, 37, 0, 3, 0, 10, 0, 0, 0, 0, 70, 0, 0, 72, 0, 0, 0
|13, 7, 48, 0, 0, 18, 0, 0, 0, 0, 50, 0, 0, 0, 0, 0, 0, 0, 0, 0, 0, 0, 69, 41, 0, 0, 0, 45, 0, 0, 0, 0, 24, 0, 20, 0, 0, 0, 0, 0, 0, 0, 0, 72, 0, 0, 0, 0, 40, 75, 42, 0, 0, 16, 0, 0, 0, 0, 32, 0, 0, 0, 0, 0, 0, 0, 63, 0, 0, 0, 0, 81, 0, 0, 0, 0, 0, 0, 52, 0, 43
|0, 0, 0, 0, 77, 34, 39, 0, 8, 0, 45, 23, 0, 14, 0, 40, 0, 0, 0, 53, 0, 0, 67, 0, 46, 0, 10, 0, 0, 0, 0, 0, 27, 0, 0, 72, 18, 0, 0, 47, 0, 0, 0, 0, 4, 0, 0, 0, 0, 0, 0, 0, 0, 0, 0, 20, 0, 73, 0, 0, 0, 51, 0, 15, 0, 74, 49, 0, 0, 0, 22, 7, 0, 26, 0, 0, 75, 0, 0, 0, 0
|0, 0, 0, 61, 0, 0, 0, 0, 0, 0, 0, 0, 0, 0, 0, 0, 0, 73, 0, 0, 0, 0, 63, 0, 28, 0, 0, 26, 0, 6, 0, 40, 18, 23, 9, 0, 41, 0, 0, 0, 0, 25, 38, 0, 0, 0, 0, 0, 0, 0, 46, 67, 10, 0, 0, 33, 71, 27, 0, 0, 0, 0, 0, 0, 0, 31, 0, 0, 0, 0, 0, 0, 42, 0, 21, 0, 0, 0, 0, 35, 17
|17, 0, 0, 0, 0, 0, 0, 32, 0, 63, 0, 0, 21, 0, 0, 33, 65, 41, 0, 45, 0, 55, 0, 0, 37, 8, 0, 0, 52, 0, 0, 0, 46, 0, 0, 0, 0, 0, 0, 5, 0, 73, 0, 0, 0, 35, 0, 0, 0, 0, 0, 0, 0, 66, 38, 0, 0, 0, 72, 0, 0, 0, 14, 0, 0, 75, 67, 0, 0, 0, 0, 61, 0, 0, 0, 0, 0, 0, 0, 0, 0
|0, 0, 0, 0, 0, 5, 0, 0, 41, 0, 0, 0, 0, 37, 20, 0, 10, 0, 0, 0, 0, 0, 0, 0, 0, 64, 0, 0, 0, 0, 0, 0, 33, 0, 0, 0, 11, 75, 0, 22, 0, 69, 0, 54, 79, 0, 0, 0, 0, 0, 0, 49, 72, 0, 43, 0, 9, 0, 65, 0, 0, 0, 47, 0, 0, 0, 28, 0, 0, 0, 12, 53, 0, 0, 38, 0, 0, 0, 0, 78, 40
|23, 11, 78, 74, 50, 0, 0, 0, 0, 0, 39, 0, 0, 0, 27, 7, 46, 0, 0, 0, 0, 0, 0, 0, 0, 0, 47, 54, 0, 64, 75, 0, 0, 71, 0, 0, 0, 0, 9, 0, 0, 0, 0, 58, 0, 12, 76, 68, 0, 0, 0, 0, 0, 0, 0, 63, 0, 0, 0, 80, 0, 55, 0, 0, 29, 0, 0, 0, 21, 72, 79, 0, 0, 0, 0, 0, 0, 57, 0, 0, 0
|0, 23, 3, 41, 0, 57, 11, 0, 0, 6, 74, 0, 0, 0, 0, 0, 0, 0, 15, 0, 0, 0, 0, 0, 0, 0, 39, 0, 0, 0, 61, 0, 0, 46, 0, 4, 0, 0, 0, 0, 0, 0, 19, 14, 0, 0, 0, 65, 29, 0, 0, 0, 0, 0, 31, 81, 0, 53, 0, 48, 0, 0, 0, 0, 0, 0, 0, 45, 0, 62, 0, 0, 64, 0, 0, 0, 0, 77, 0, 0, 0
|77, 36, 0, 0, 21, 0, 2, 72, 0, 0, 0, 0, 5, 0, 0, 0, 0, 0, 0, 0, 1, 0, 0, 0, 0, 47, 9, 0, 0, 0, 0, 79, 0, 0, 0, 0, 54, 0, 0, 7, 6, 75, 0, 0, 25, 0, 0, 0, 60, 0, 38, 14, 0, 0, 0, 0, 0, 0, 0, 0, 68, 0, 0, 0, 0, 59, 22, 0, 42, 0, 0, 26, 0, 40, 0, 49, 0, 0, 0, 50, 0
|0, 27, 44, 50, 0, 25, 0, 0, 0, 0, 0, 0, 0, 0, 0, 15, 0, 0, 42, 0, 0, 48, 0, 0, 0, 0, 0, 0, 0, 0, 16, 0, 0, 63, 0, 0, 0, 0, 0, 0, 0, 0, 0, 0, 58, 0, 0, 0, 0, 0, 47, 0, 0, 0, 22, 8, 0, 0, 0, 0, 0, 0, 0, 0, 0, 0, 0, 0, 0, 0, 0, 80, 66, 0, 0, 0, 33, 0, 51, 0, 38
|0, 42, 0, 0, 15, 0, 0, 0, 74, 34, 0, 0, 0, 0, 0, 31, 0, 0, 0, 0, 0, 0, 38, 77, 36, 0, 0, 0, 0, 0, 44, 0, 0, 0, 0, 0, 40, 27, 0, 61, 35, 0, 0, 0, 0, 41, 0, 0, 0, 0, 0, 0, 23, 0, 29, 0, 0, 71, 47, 0, 0, 54, 0, 0, 0, 68, 3, 16, 70, 0, 17, 39, 53, 0, 0, 0, 0, 0, 0, 0, 0
|51, 0, 68, 0, 56, 0, 0, 31, 0, 71, 0, 0, 0, 19, 0, 0, 0, 0, 0, 0, 0, 0, 0, 33, 30, 0, 0, 0, 0, 0, 0, 0, 0, 0, 0, 0, 0, 47, 0, 4, 0, 0, 0, 0, 0, 74, 72, 0, 0, 0, 0, 36, 53, 1, 27, 0, 0, 0, 0, 0, 5, 0, 0, 0, 10, 9, 0, 0, 77, 15, 0, 0, 0, 0, 81, 0, 0, 54, 0, 0, 0
|0, 0, 0, 0, 0, 0, 0, 0, 67, 0, 0, 0, 0, 0, 0, 0, 0, 0, 0, 0, 0, 0, 0, 18, 0, 0, 0, 0, 0, 0, 0, 10, 74, 6, 0, 0, 0, 21, 0, 0, 0, 0, 0, 0, 63, 0, 0, 0, 54, 9, 0, 0, 0, 42, 0, 39, 0, 0, 0, 0, 0, 0, 0, 0, 0, 46, 0, 4, 11, 0, 0, 0, 0, 48, 57, 0, 0, 0, 0, 0, 0
|0, 0, 30, 62, 0, 71, 0, 0, 0, 23, 0, 69, 0, 0, 0, 0, 53, 0, 0, 0, 65, 0, 0, 78, 0, 25, 0, 80, 0, 0, 0, 35, 0, 0, 67, 0, 0, 0, 77, 0, 74, 0, 0, 0, 0, 0, 0, 0, 0, 59, 0, 0, 0, 0, 0, 0, 0, 21, 0, 79, 0, 34, 42, 0, 0, 61, 0, 0, 0, 0, 6, 28, 0, 0, 0, 0, 0, 70, 0, 0, 68
|0, 0, 0, 0, 0, 65, 60, 0, 0, 41, 0, 0, 39, 0, 0, 27, 77, 0, 31, 0, 0, 0, 72, 0, 0, 0, 0, 0, 0, 0, 0, 0, 23, 0, 0, 0, 0, 17, 67, 0, 73, 0, 0, 38, 0, 0, 0, 0, 0, 78, 40, 0, 46, 64, 0, 0, 0, 0, 0, 0, 0, 35, 74, 2, 0, 48, 0, 34, 63, 0, 51, 18, 22, 0, 20, 0, 0, 0, 0, 0, 0
|0, 59, 0, 0, 0, 0, 0, 0, 0, 66, 0, 0, 16, 0, 0, 18, 0, 0, 0, 0, 0, 0, 0, 0, 0, 0, 0, 0, 75, 78, 0, 0, 0, 51, 29, 60, 0, 0, 0, 34, 0, 0, 0, 0, 69, 26, 3, 21, 0, 77, 0, 0, 0, 0, 0, 25, 0, 52, 73, 0, 0, 0, 0, 0, 0, 0, 0, 0, 0, 0, 0, 0, 0, 0, 0, 0, 0, 0, 0, 0, 0
|53, 74, 0, 0, 69, 0, 0, 0, 0, 0, 0, 58, 0, 67, 0, 0, 5, 0, 0, 26, 0, 0, 0, 62, 0, 0, 44, 0, 13, 68, 50, 0, 0, 0, 0, 0, 0, 81, 41, 0, 0, 0, 0, 0, 0, 48, 0, 0, 0, 0, 0, 0, 77, 0, 0, 45, 0, 0, 0, 0, 21, 0, 0, 0, 0, 0, 46, 0, 0, 22, 7, 73, 0, 0, 0, 0, 0, 0, 38, 0, 2
|41, 0, 0, 0, 0, 0, 0, 8, 28, 0, 0, 0, 0, 0, 11, 23, 0, 0, 0, 0, 0, 43, 0, 65, 0, 81, 0, 0, 31, 61, 0, 49, 0, 0, 0, 0, 0, 74, 0, 0, 52, 0, 0, 0, 22, 0, 0, 0, 25, 0, 0, 0, 0, 26, 0, 0, 35, 0, 0, 32, 0, 0, 78, 0, 50, 0, 0, 0, 0, 0, 0, 0, 0, 58, 66, 0, 0, 0, 0, 45, 64
|0, 30, 0, 0, 61, 62, 0, 0, 0, 0, 0, 0, 0, 0, 60, 0, 0, 43, 11, 0, 0, 0, 0, 0, 52, 58, 0, 0, 26, 0, 27, 0, 0, 0, 0, 0, 0, 23, 78, 73, 0, 0, 0, 0, 24, 0, 0, 0, 0, 28, 54, 0, 47, 56, 0, 34, 0, 39, 38, 0, 66, 67, 0, 0, 0, 0, 0, 0, 41, 0, 0, 0, 17, 0, 0, 16, 0, 0, 0, 0, 0
|0, 2, 0, 0, 0, 0, 0, 0, 0, 0, 0, 0, 3, 0, 0, 0, 69, 0, 0, 0, 22, 27, 0, 0, 24, 0, 0, 0, 0, 0, 47, 0, 0, 0, 45, 0, 0, 67, 0, 0, 0, 0, 0, 0, 0, 0, 0, 0, 0, 44, 65, 34, 0, 0, 0, 0, 0, 23, 0, 0, 0, 0, 18, 0, 0, 0, 31, 0, 0, 0, 0, 0, 0, 0, 54, 37, 0, 0, 0, 0, 0
|0, 76, 0, 0, 0, 7, 0, 34, 6, 0, 0, 0, 0, 0, 0, 0, 0, 0, 0, 19, 0, 0, 14, 0, 0, 17, 0, 0, 0, 0, 0, 0, 0, 0, 0, 0, 0, 0, 0, 0, 4, 0, 0, 32, 0, 0, 38, 0, 0, 0, 0, 22, 0, 0, 0, 0, 0, 68, 0, 0, 0, 0, 31, 0, 0, 0, 61, 0, 0, 0, 0, 0, 46, 0, 0, 0, 0, 0, 57, 13, 0
|0, 44, 0, 0, 10, 0, 0, 17, 3, 0, 0, 0, 0, 0, 0, 0, 0, 32, 48, 60, 0, 0, 0, 0, 0, 0, 0, 11, 0, 0, 0, 0, 0, 0, 0, 0, 0, 49, 0, 0, 0, 0, 0, 0, 0, 76, 0, 72, 23, 0, 0, 81, 0, 0, 0, 0, 0, 15, 0, 0, 0, 0, 0, 0, 0, 13, 0, 52, 0, 0, 0, 54, 0, 0, 22, 0, 0, 0, 0, 0, 29
|0, 0, 0, 0, 59, 4, 36, 52, 0, 0, 0, 0, 15, 0, 0, 54, 0, 0, 16, 0, 0, 0, 0, 0, 0, 0, 6, 0, 0, 0, 0, 56, 35, 0, 0, 0, 0, 0, 0, 0, 0, 0, 0, 0, 8, 0, 0, 0, 0, 0, 68, 0, 0, 0, 0, 7, 0, 0, 26, 27, 72, 0, 0, 37, 0, 42, 0, 44, 0, 78, 47, 40, 0, 0, 0, 0, 0, 10, 67, 0, 0
|0, 0, 0, 80, 0, 0, 0, 0, 0, 0, 0, 0, 49, 30, 0, 29, 0, 1, 3, 0, 0, 9, 36, 0, 0, 0, 0, 0, 34, 0, 62, 0, 0, 0, 0, 64, 0, 0, 0, 0, 0, 0, 0, 0, 0, 0, 0, 78, 0, 0, 0, 0, 0, 0, 81, 73, 0, 0, 0, 0, 0, 0, 0, 0, 0, 53, 0, 0, 0, 0, 26, 0, 76, 8, 0, 0, 0, 0, 74, 0, 0
|0, 0, 21, 0, 0, 0, 0, 13, 0, 75, 0, 0, 0, 59, 0, 0, 0, 22, 0, 34, 79, 0, 0, 31, 0, 45, 53, 0, 63, 0, 0, 29, 69, 0, 0, 0, 0, 76, 0, 0, 65, 56, 0, 0, 30, 0, 0, 0, 0, 0, 49, 2, 0, 11, 0, 3, 0, 0, 0, 0, 0, 10, 0, 0, 0, 0, 15, 0, 0, 0, 0, 0, 0, 0, 0, 0, 0, 0, 0, 0, 0
|0, 0, 77, 0, 0, 22, 71, 0, 0, 0, 0, 0, 41, 0, 0, 0, 0, 49, 0, 1, 0, 0, 0, 0, 0, 46, 61, 0, 0, 0, 0, 0, 0, 0, 52, 0, 0, 16, 0, 26, 0, 0, 0, 0, 0, 75, 43, 0, 0, 34, 0, 0, 0, 0, 0, 66, 0, 0, 0, 0, 27, 0, 44, 0, 35, 45, 0, 0, 0, 0, 68, 19, 13, 11, 0, 0, 5, 24, 33, 0, 74
|0, 0, 0, 0, 0, 0, 42, 61, 0, 0, 66, 75, 0, 62, 15, 16, 0, 50, 0, 23, 0, 0, 3, 0, 0, 0, 0, 0, 47, 43, 0, 48, 0, 12, 0, 35, 0, 0, 1, 39, 0, 0, 54, 0, 46, 0, 0, 0, 0, 20, 0, 0, 0, 0, 0, 0, 0, 0, 0, 0, 0, 0, 0, 0, 0, 80, 0, 24, 0, 0, 0, 55, 25, 0, 0, 34, 0, 56, 0, 0, 0
|0, 50, 43, 0, 41, 0, 78, 15, 0, 0, 11, 0, 35, 0, 68, 71, 0, 33, 53, 0, 0, 73, 0, 0, 0, 0, 0, 0, 0, 0, 67, 0, 0, 0, 0, 10, 0, 0, 5, 64, 0, 0, 0, 0, 0, 0, 0, 0, 28, 0, 0, 29, 0, 19, 55, 0, 0, 0, 45, 56, 0, 3, 0, 27, 0, 54, 34, 72, 0, 38, 21, 57, 0, 0, 0, 0, 0, 0, 23, 0, 31
|0, 0, 0, 0, 48, 0, 34, 0, 0, 8, 0, 0, 4, 0, 0, 67, 0, 0, 0, 27, 0, 0, 0, 0, 10, 0, 0, 0, 0, 0, 0, 0, 0, 0, 40, 0, 0, 0, 0, 66, 0, 0, 0, 0, 0, 42, 63, 0, 0, 0, 0, 0, 36, 30, 80, 9, 0, 0, 0, 0, 52, 0, 6, 0, 0, 18, 73, 0, 0, 0, 0, 0, 0, 0, 46, 68, 0, 0, 0, 77, 0
|59, 0, 5, 0, 0, 26, 0, 0, 0, 0, 0, 34, 69, 0, 38, 0, 0, 0, 0, 0, 0, 0, 7, 8, 0, 0, 0, 0, 0, 0, 0, 0, 19, 0, 0, 0, 30, 0, 0, 0, 70, 0, 72, 0, 0, 0, 0, 0, 0, 0, 0, 0, 0, 0, 0, 0, 0, 0, 54, 0, 0, 0, 0, 0, 0, 77, 0, 0, 37, 0, 0, 12, 65, 0, 0, 0, 0, 55, 0, 0, 0
|0, 0, 10, 0, 32, 0, 0, 0, 0, 0, 0, 7, 0, 27, 0, 30, 0, 46, 21, 35, 28, 67, 43, 0, 0, 0, 0, 0, 0, 0, 0, 0, 80, 70, 0, 0, 0, 0, 0, 0, 0, 12, 0, 6, 0, 9, 77, 58, 72, 65, 2, 3, 33, 37, 0, 0, 0, 0, 76, 0, 63, 17, 64, 49, 0, 0, 0, 0, 0, 60, 25, 62, 48, 0, 53, 0, 0, 0, 66, 0, 54
|0, 49, 28, 0, 65, 0, 0, 0, 73, 0, 0, 0, 0, 22, 0, 80, 0, 77, 0, 0, 11, 0, 0, 0, 0, 40, 0, 0, 0, 0, 0, 0, 0, 72, 66, 0, 0, 0, 0, 0, 38, 7, 35, 0, 0, 0, 21, 0, 0, 0, 0, 0, 0, 0, 0, 0, 0, 0, 0, 0, 0, 41, 0, 0, 6, 0, 0, 71, 0, 0, 32, 58, 67, 14, 0, 0, 0, 0, 12, 19, 0
|44, 0, 23, 0, 0, 0, 0, 0, 0, 0, 0, 54, 0, 0, 0, 0, 0, 13, 0, 0, 66, 0, 16, 68, 0, 0, 0, 0, 0, 0, 0, 0, 32, 81, 0, 0, 0, 0, 3, 0, 76, 0, 0, 0, 28, 0, 0, 67, 0, 0, 0, 0, 0, 0, 0, 0, 7, 0, 30, 0, 74, 0, 0, 41, 0, 0, 0, 22, 0, 0, 0, 0, 0, 0, 8, 0, 62, 0, 0, 0, 0
|18, 0, 0, 0, 0, 58, 0, 0, 54, 43, 0, 0, 45, 12, 0, 0, 0, 0, 65, 0, 0, 0, 5, 0, 0, 0, 0, 30, 27, 0, 24, 0, 61, 0, 0, 0, 0, 0, 69, 0, 0, 0, 0, 0, 0, 0, 0, 0, 1, 0, 0, 57, 0, 0, 0, 0, 8, 40, 0, 0, 0, 0, 0, 0, 51, 0, 0, 0, 33, 0, 16, 0, 0, 0, 26, 0, 72, 0, 0, 37, 0|];