order = 9;
grid = [|0, 0, 0, 0, 0, 0, 0, 0, 0, 75, 12, 69, 0, 0, 34, 0, 0, 0, 0, 0, 0, 0, 0, 0, 0, 50, 6, 0, 0, 0, 0, 0, 0, 0, 0, 22, 0, 23, 0, 0, 0, 1, 0, 0, 0, 0, 0, 0, 0, 0, 78, 0, 0, 74, 80, 17, 45, 68, 0, 0, 71, 0, 0, 54, 0, 0, 0, 0, 73, 63, 0, 14, 55, 67, 0, 0, 0, 13, 0, 0, 0
|0, 0, 0, 80, 0, 0, 12, 0, 0, 0, 25, 0, 0, 0, 13, 0, 0, 0, 42, 0, 46, 0, 0, 79, 0, 0, 0, 0, 0, 0, 0, 11, 0, 0, 0, 50, 0, 0, 33, 0, 0, 0, 0, 0, 0, 0, 0, 26, 0, 0, 0, 0, 0, 34, 0, 0, 0, 72, 0, 0, 0, 0, 0, 24, 0, 77, 0, 0, 0, 0, 0, 0, 0, 0, 0, 2, 0, 0, 59, 0, 18
|0, 0, 5, 0, 61, 52, 0, 2, 0, 15, 22, 28, 0, 0, 10, 0, 0, 0, 44, 0, 0, 38, 8, 0, 0, 0, 54, 0, 0, 0, 0, 13, 30, 0, 0, 43, 0, 0, 0, 0, 0, 36, 0, 74, 0, 71, 0, 18, 0, 27, 0, 0, 70, 0, 0, 65, 0, 0, 35, 0, 0, 0, 0, 0, 0, 0, 0, 50, 0, 0, 11, 0, 0, 0, 0, 0, 0, 0, 0, 0, 0
|59, 50, 0, 0, 0, 0, 0, 0, 0, 68, 0, 0, 0, 0, 0, 0, 0, 0, 0, 0, 0, 57, 14, 0, 0, 0, 53, 0, 39, 0, 23, 31, 0, 0, 0, 54, 0, 0, 0, 0, 0, 0, 61, 11, 0, 0, 0, 0, 0, 0, 0, 0, 0, 29, 0, 22, 0, 0, 0, 0, 8, 0, 5, 0, 0, 0, 0, 0, 16, 0, 0, 0, 63, 25, 0, 80, 0, 0, 0, 0, 0
|0, 39, 38, 0, 0, 47, 0, 0, 0, 0, 0, 0, 63, 21, 0, 0, 64, 0, 0, 0, 0, 0, 0, 0, 0, 0, 0, 0, 0, 40, 0, 35, 4, 0, 0, 81, 29, 72, 0, 0, 13, 0, 76, 26, 18, 0, 0, 10, 0, 0, 0, 0, 7, 1, 2, 0, 37, 0, 0, 73, 0, 0, 0, 25, 68, 0, 23, 49, 0, 0, 0, 0, 30, 44, 0, 0, 0, 0, 0, 31, 11
|0, 0, 9, 0, 0, 19, 0, 0, 0, 11, 53, 17, 0, 39, 0, 0, 0, 0, 0, 0, 0, 0, 0, 31, 0, 0, 0, 0, 0, 71, 0, 0, 0, 0, 5, 29, 0, 78, 0, 0, 0, 0, 62, 0, 0, 0, 0, 52, 0, 0, 0, 65, 0, 0, 0, 0, 0, 77, 63, 0, 60, 0, 0, 0, 22, 0, 56, 0, 0, 0, 0, 81, 0, 8, 0, 0, 0, 0, 0, 0, 0
|0, 0, 0, 15, 0, 0, 0, 0, 0, 0, 31, 0, 0, 0, 0, 0, 0, 4, 0, 0, 60, 0, 0, 72, 32, 0, 0, 0, 0, 58, 1, 80, 0, 79, 0, 48, 0, 0, 0, 14, 0, 0, 0, 22, 59, 0, 0, 36, 0, 0, 0, 0, 0, 0, 27, 64, 0, 0, 0, 0, 0, 0, 0, 0, 0, 0, 0, 29, 74, 0, 12, 20, 73, 0, 0, 0, 50, 61, 0, 51, 0
|46, 75, 0, 0, 72, 0, 0, 0, 0, 45, 0, 0, 0, 0, 20, 35, 0, 81, 66, 0, 0, 0, 78, 0, 0, 0, 0, 0, 0, 17, 0, 65, 15, 0, 0, 0, 0, 56, 0, 0, 80, 0, 0, 0, 0, 0, 0, 22, 0, 47, 50, 76, 0, 58, 0, 74, 0, 0, 0, 0, 32, 0, 0, 0, 0, 61, 0, 0, 4, 41, 18, 0, 0, 0, 21, 0, 0, 14, 0, 0, 29
|0, 0, 0, 0, 0, 0, 33, 0, 0, 0, 0, 0, 0, 40, 61, 0, 0, 0, 0, 0, 0, 69, 10, 18, 1, 0, 0, 51, 59, 44, 0, 0, 0, 0, 0, 66, 0, 12, 0, 0, 0, 49, 0, 27, 42, 0, 0, 0, 0, 0, 8, 81, 0, 15, 0, 24, 0, 48, 55, 0, 0, 0, 0, 0, 0, 0, 0, 0, 0, 70, 28, 64, 0, 0, 78, 0, 0, 0, 0, 0, 0
|0, 0, 0, 0, 0, 0, 21, 57, 0, 0, 0, 66, 0, 50, 0, 2, 0, 72, 0, 0, 1, 39, 35, 0, 0, 33, 0, 3, 0, 52, 0, 0, 0, 25, 0, 0, 0, 0, 0, 80, 0, 0, 0, 55, 0, 0, 64, 56, 44, 79, 0, 0, 54, 0, 0, 0, 0, 0, 0, 0, 0, 73, 0, 0, 60, 0, 0, 0, 59, 48, 0, 0, 0, 19, 0, 0, 74, 0, 0, 77, 0
|0, 28, 0, 0, 0, 0, 58, 0, 0, 77, 0, 0, 0, 0, 12, 21, 79, 0, 43, 25, 55, 0, 0, 54, 0, 42, 44, 0, 0, 29, 31, 0, 60, 0, 39, 0, 0, 46, 63, 0, 0, 0, 0, 0, 72, 0, 0, 0, 0, 0, 0, 0, 0, 0, 69, 0, 0, 30, 0, 0, 0, 0, 0, 0, 0, 0, 47, 0, 0, 16, 8, 7, 0, 0, 0, 0, 0, 68, 61, 0, 10
|0, 18, 0, 4, 0, 0, 74, 0, 0, 0, 0, 0, 19, 30, 0, 0, 55, 0, 0, 62, 47, 0, 0, 0, 59, 0, 45, 0, 0, 0, 0, 0, 0, 0, 0, 0, 0, 0, 6, 60, 0, 0, 0, 0, 0, 52, 0, 0, 41, 71, 75, 8, 0, 20, 54, 0, 0, 24, 2, 0, 0, 0, 0, 76, 0, 50, 0, 0, 0, 0, 0, 5, 0, 0, 0, 0, 0, 58, 0, 0, 0
|0, 0, 0, 0, 0, 0, 0, 0, 0, 65, 0, 0, 0, 0, 14, 0, 54, 0, 0, 0, 66, 0, 0, 0, 70, 0, 21, 0, 58, 0, 0, 0, 49, 0, 0, 0, 74, 0, 0, 27, 0, 0, 0, 0, 41, 0, 0, 60, 0, 35, 0, 0, 0, 39, 40, 0, 79, 76, 78, 67, 0, 0, 0, 0, 0, 51, 0, 0, 0, 71, 0, 77, 0, 30, 0, 0, 0, 56, 0, 0, 52
|0, 46, 0, 0, 42, 9, 0, 68, 1, 0, 0, 0, 0, 0, 8, 0, 41, 0, 0, 0, 0, 0, 51, 0, 52, 0, 0, 13, 0, 74, 77, 54, 70, 0, 0, 5, 0, 35, 50, 0, 0, 0, 3, 0, 0, 0, 0, 0, 0, 0, 27, 0, 53, 0, 45, 20, 32, 0, 0, 59, 18, 0, 0, 2, 0, 0, 0, 67, 23, 0, 0, 0, 24, 0, 0, 0, 33, 0, 21, 0, 0
|51, 0, 0, 0, 79, 0, 62, 0, 0, 0, 0, 0, 0, 0, 0, 0, 22, 34, 0, 0, 0, 0, 0, 0, 0, 0, 9, 0, 21, 0, 0, 59, 0, 0, 48, 0, 0, 0, 78, 0, 0, 0, 0, 0, 0, 0, 0, 0, 0, 0, 40, 2, 0, 0, 14, 0, 0, 0, 0, 7, 52, 0, 77, 0, 0, 30, 0, 0, 0, 15, 56, 0, 0, 0, 35, 0, 16, 67, 5, 0, 0
|44, 0, 0, 0, 0, 0, 0, 49, 0, 0, 76, 0, 0, 0, 0, 0, 0, 64, 0, 0, 73, 0, 46, 0, 0, 0, 37, 0, 0, 0, 0, 0, 0, 0, 2, 0, 0, 0, 0, 40, 0, 0, 14, 8, 0, 0, 68, 78, 0, 0, 0, 18, 0, 0, 53, 39, 0, 4, 0, 42, 0, 0, 0, 0, 0, 0, 0, 0, 0, 13, 0, 0, 0, 0, 0, 72, 12, 0, 48, 22, 0
|0, 56, 0, 2, 23, 0, 0, 27, 41, 0, 0, 0, 25, 0, 39, 0, 0, 0, 0, 0, 10, 0, 0, 0, 78, 0, 0, 0, 79, 0, 0, 0, 0, 0, 0, 0, 57, 0, 0, 0, 0, 0, 0, 0, 32, 77, 0, 0, 0, 69, 0, 0, 0, 0, 0, 0, 0, 6, 0, 74, 62, 0, 0, 0, 0, 0, 0, 0, 14, 0, 0, 0, 0, 0, 0, 4, 7, 0, 0, 0, 0
|15, 0, 0, 0, 52, 8, 0, 78, 0, 0, 17, 5, 32, 67, 0, 0, 0, 0, 72, 48, 0, 0, 80, 0, 0, 14, 58, 55, 0, 0, 0, 0, 0, 42, 28, 19, 44, 0, 0, 0, 0, 0, 0, 54, 0, 61, 0, 0, 47, 0, 0, 0, 0, 0, 0, 0, 0, 51, 0, 0, 0, 0, 12, 0, 0, 73, 0, 0, 0, 0, 75, 74, 0, 0, 9, 43, 20, 3, 0, 59, 0
|18, 0, 0, 0, 0, 0, 0, 45, 0, 0, 27, 0, 0, 28, 0, 0, 0, 32, 0, 0, 29, 0, 0, 2, 0, 21, 0, 0, 0, 0, 0, 0, 0, 65, 52, 24, 47, 0, 0, 0, 33, 23, 0, 0, 43, 0, 0, 0, 0, 0, 31, 0, 49, 55, 0, 0, 14, 0, 38, 0, 13, 0, 44, 0, 0, 42, 0, 0, 0, 0, 0, 0, 0, 66, 0, 0, 0, 0, 0, 0, 22
|0, 0, 8, 0, 0, 0, 0, 12, 0, 6, 0, 0, 50, 0, 0, 0, 0, 0, 23, 0, 25, 0, 0, 58, 76, 71, 0, 0, 29, 0, 0, 0, 0, 0, 54, 0, 51, 0, 0, 0, 0, 0, 64, 0, 0, 41, 0, 0, 26, 0, 0, 61, 34, 0, 0, 81, 0, 0, 0, 0, 0, 66, 19, 75, 0, 24, 0, 0, 0, 4, 0, 13, 0, 0, 67, 78, 27, 0, 77, 1, 0
|10, 0, 0, 0, 0, 0, 0, 0, 0, 0, 0, 64, 0, 0, 0, 0, 0, 0, 0, 53, 0, 0, 0, 0, 0, 0, 74, 0, 49, 0, 61, 0, 0, 0, 0, 0, 81, 0, 0, 3, 45, 0, 28, 0, 76, 0, 44, 0, 0, 6, 0, 48, 0, 40, 0, 0, 0, 0, 0, 68, 37, 0, 0, 0, 46, 0, 0, 62, 7, 0, 43, 21, 56, 0, 0, 23, 0, 0, 0, 0, 0
|0, 0, 0, 0, 60, 4, 0, 69, 0, 0, 0, 0, 0, 0, 0, 0, 0, 18, 0, 0, 0, 44, 79, 0, 0, 0, 0, 0, 0, 0, 7, 0, 0, 0, 0, 0, 0, 66, 0, 38, 0, 0, 10, 0, 50, 0, 29, 0, 0, 0, 0, 0, 0, 0, 0, 0, 24, 47, 73, 0, 0, 74, 48, 0, 0, 55, 39, 0, 0, 0, 0, 0, 0, 0, 0, 0, 0, 0, 0, 14, 35
|0, 73, 27, 0, 0, 0, 0, 0, 0, 56, 13, 0, 0, 0, 0, 0, 46, 0, 0, 0, 32, 0, 0, 0, 0, 0, 0, 0, 0, 0, 0, 0, 0, 70, 0, 12, 0, 0, 0, 0, 0, 53, 0, 0, 4, 25, 0, 57, 0, 0, 80, 0, 47, 0, 0, 78, 0, 62, 0, 28, 0, 0, 0, 0, 26, 0, 0, 0, 81, 0, 0, 0, 0, 0, 0, 0, 0, 0, 0, 21, 0
|0, 0, 0, 0, 0, 0, 0, 30, 78, 4, 71, 0, 0, 69, 0, 47, 0, 0, 80, 0, 0, 0, 0, 0, 0, 65, 38, 0, 0, 56, 18, 0, 0, 0, 0, 60, 0, 0, 0, 0, 0, 0, 0, 0, 0, 0, 46, 0, 0, 72, 0, 0, 0, 0, 70, 32, 0, 64, 0, 33, 0, 45, 42, 68, 29, 5, 3, 57, 0, 0, 51, 0, 0, 0, 0, 0, 62, 0, 58, 8, 0
|0, 0, 0, 0, 0, 0, 55, 0, 0, 42, 19, 0, 53, 49, 0, 44, 5, 0, 0, 0, 0, 0, 0, 36, 0, 0, 52, 0, 0, 21, 0, 0, 13, 0, 0, 0, 31, 0, 0, 0, 0, 0, 70, 77, 0, 0, 8, 0, 0, 0, 0, 0, 45, 0, 10, 0, 0, 75, 56, 0, 0, 0, 0, 0, 47, 0, 0, 0, 0, 0, 59, 9, 0, 7, 32, 0, 0, 41, 33, 65, 0
|0, 47, 0, 0, 59, 68, 0, 0, 43, 0, 0, 0, 0, 0, 0, 0, 0, 54, 0, 0, 0, 0, 0, 0, 0, 0, 30, 0, 0, 0, 0, 38, 0, 0, 58, 0, 0, 0, 0, 0, 0, 71, 0, 0, 0, 0, 0, 0, 0, 0, 0, 7, 0, 56, 0, 26, 0, 0, 0, 0, 0, 0, 0, 0, 0, 0, 31, 10, 0, 0, 36, 0, 0, 6, 0, 0, 0, 34, 44, 76, 0
|61, 0, 0, 75, 0, 0, 0, 0, 0, 0, 0, 60, 0, 2, 0, 0, 8, 0, 56, 0, 68, 0, 0, 0, 11, 0, 0, 34, 0, 0, 0, 0, 0, 0, 0, 0, 0, 0, 16, 72, 54, 0, 0, 46, 0, 0, 0, 0, 0, 76, 0, 0, 0, 64, 0, 40, 0, 0, 0, 0, 0, 65, 67, 0, 0, 0, 0, 0, 0, 0, 0, 0, 0, 74, 0, 24, 51, 71, 10, 0, 3
|0, 23, 0, 0, 0, 0, 69, 0, 38, 0, 0, 22, 0, 76, 0, 0, 60, 0, 0, 0, 72, 0, 44, 61, 0, 70, 75, 0, 71, 0, 9, 0, 0, 0, 0, 0, 30, 0, 0, 0, 41, 0, 58, 0, 0, 0, 16, 0, 45, 5, 0, 33, 0, 0, 0, 0, 0, 0, 0, 0, 11, 0, 20, 39, 50, 0, 0, 0, 0, 0, 0, 62, 80, 0, 0, 0, 0, 0, 0, 0, 68
|3, 0, 0, 0, 0, 0, 50, 0, 0, 0, 51, 0, 0, 79, 0, 0, 0, 0, 78, 0, 0, 34, 0, 67, 0, 0, 0, 0, 0, 0, 0, 0, 73, 74, 0, 0, 27, 0, 0, 28, 0, 0, 0, 4, 0, 0, 0, 0, 0, 0, 0, 0, 0, 0, 47, 56, 33, 0, 0, 0, 55, 62, 0, 21, 20, 58, 0, 60, 36, 0, 17, 0, 0, 59, 0, 81, 0, 0, 0, 29, 37
|0, 2, 0, 0, 20, 0, 0, 0, 48, 37, 0, 29, 0, 11, 27, 0, 4, 75, 0, 26, 0, 0, 81, 0, 5, 56, 0, 62, 54, 72, 0, 0, 0, 13, 0, 0, 0, 59, 43, 0, 18, 60, 0, 0, 63, 39, 0, 0, 25, 22, 71, 0, 65, 3, 0, 0, 74, 0, 0, 58, 0, 78, 0, 0, 0, 0, 0, 0, 0, 10, 0, 0, 0, 0, 0, 0, 0, 8, 0, 0, 12
|28, 0, 0, 65, 0, 0, 31, 54, 0, 0, 0, 58, 0, 52, 45, 32, 0, 59, 0, 0, 0, 0, 0, 4, 14, 0, 29, 0, 0, 0, 67, 10, 43, 15, 0, 0, 0, 0, 0, 0, 0, 6, 0, 0, 40, 0, 0, 0, 0, 0, 0, 0, 48, 47, 30, 0, 0, 0, 0, 0, 0, 0, 0, 38, 0, 0, 0, 0, 0, 0, 22, 0, 0, 0, 0, 0, 0, 24, 0, 0, 0
|80, 0, 0, 36, 8, 0, 0, 0, 13, 44, 0, 0, 1, 0, 0, 0, 34, 0, 0, 0, 0, 30, 0, 0, 0, 0, 0, 77, 5, 0, 0, 41, 0, 20, 56, 0, 0, 0, 42, 0, 0, 0, 0, 0, 53, 0, 21, 0, 0, 0, 0, 40, 0, 78, 37, 0, 0, 0, 65, 0, 49, 0, 0, 0, 51, 0, 81, 0, 71, 61, 0, 0, 0, 0, 46, 0, 0, 16, 0, 60, 0
|0, 34, 33, 0, 58, 53, 0, 55, 22, 0, 0, 81, 0, 0, 25, 0, 0, 0, 0, 31, 0, 0, 0, 0, 0, 0, 0, 38, 0, 0, 0, 0, 0, 49, 0, 0, 0, 0, 0, 0, 0, 45, 0, 0, 0, 0, 0, 0, 0, 63, 0, 0, 0, 0, 0, 0, 57, 0, 0, 0, 0, 0, 40, 78, 0, 0, 0, 0, 0, 0, 27, 0, 0, 0, 42, 0, 36, 0, 0, 0, 0
|0, 0, 0, 0, 0, 0, 0, 47, 0, 9, 0, 0, 0, 0, 0, 65, 0, 7, 0, 74, 0, 0, 0, 0, 0, 0, 0, 29, 0, 0, 0, 60, 48, 28, 0, 0, 0, 0, 0, 61, 0, 15, 0, 0, 0, 0, 0, 0, 0, 0, 0, 0, 0, 81, 0, 45, 73, 32, 41, 0, 54, 0, 0, 0, 0, 0, 63, 0, 0, 0, 0, 24, 40, 78, 0, 0, 0, 0, 2, 0, 43
|0, 0, 0, 0, 0, 0, 0, 0, 0, 66, 0, 50, 18, 72, 0, 0, 0, 0, 2, 0, 42, 0, 0, 0, 0, 0, 0, 0, 0, 0, 0, 0, 0, 0, 31, 0, 25, 0, 73, 0, 0, 0, 0, 20, 0, 0, 32, 0, 10, 29, 0, 58, 0, 0, 0, 0, 0, 3, 0, 0, 0, 0, 0, 0, 0, 0, 0, 0, 0, 0, 34, 46, 0, 0, 0, 0, 15, 19, 64, 74, 0
|0, 0, 0, 0, 0, 0, 0, 9, 72, 20, 0, 0, 0, 46, 0, 0, 0, 0, 0, 0, 0, 0, 0, 0, 0, 12, 0, 32, 18, 0, 0, 0, 19, 0, 0, 0, 0, 0, 0, 0, 0, 0, 0, 0, 0, 0, 0, 0, 0, 38, 0, 0, 0, 0, 0, 0, 0, 16, 0, 0, 0, 0, 0, 0, 0, 0, 49, 0, 0, 0, 65, 0, 0, 0, 0, 30, 0, 0, 0, 0, 0
|36, 0, 61, 0, 0, 0, 0, 0, 42, 0, 0, 0, 74, 0, 35, 0, 0, 0, 70, 0, 0, 12, 45, 0, 0, 19, 8, 71, 0, 0, 0, 0, 0, 0, 0, 58, 0, 0, 0, 0, 9, 31, 65, 40, 0, 59, 38, 0, 22, 0, 0, 0, 1, 0, 73, 43, 0, 63, 6, 50, 0, 0, 0, 0, 0, 76, 0, 5, 0, 29, 0, 0, 20, 0, 0, 0, 0, 0, 0, 0, 0
|0, 0, 0, 40, 0, 0, 0, 0, 0, 0, 0, 7, 78, 0, 0, 0, 33, 0, 0, 13, 79, 63, 0, 0, 48, 15, 0, 0, 4, 0, 37, 16, 0, 0, 0, 0, 0, 0, 5, 0, 35, 0, 0, 0, 6, 0, 28, 51, 46, 0, 66, 17, 0, 0, 0, 0, 0, 58, 0, 0, 0, 0, 0, 80, 0, 0, 0, 73, 20, 0, 0, 0, 8, 0, 0, 1, 39, 0, 26, 54, 75
|0, 0, 0, 58, 80, 0, 0, 13, 47, 8, 29, 0, 0, 31, 0, 0, 0, 6, 0, 0, 0, 54, 0, 0, 0, 0, 0, 0, 1, 0, 0, 0, 0, 7, 0, 40, 0, 0, 77, 0, 0, 63, 0, 60, 0, 0, 43, 0, 0, 0, 0, 75, 0, 33, 0, 37, 0, 45, 0, 0, 0, 0, 0, 0, 0, 41, 0, 19, 3, 0, 0, 0, 66, 22, 0, 69, 44, 0, 0, 0, 0
|33, 0, 0, 49, 74, 0, 26, 35, 0, 0, 0, 46, 0, 0, 0, 0, 51, 0, 0, 68, 0, 0, 0, 0, 0, 0, 0, 56, 0, 61, 0, 76, 0, 59, 0, 0, 0, 0, 0, 0, 0, 0, 0, 2, 8, 0, 0, 0, 15, 0, 0, 0, 0, 0, 0, 0, 0, 7, 0, 0, 65, 0, 0, 0, 0, 0, 21, 0, 32, 0, 0, 0, 0, 0, 0, 0, 3, 0, 0, 17, 30
|0, 0, 0, 0, 9, 44, 2, 0, 8, 62, 0, 0, 0, 13, 0, 0, 0, 20, 0, 75, 0, 0, 0, 0, 35, 0, 0, 17, 0, 0, 48, 28, 23, 0, 0, 0, 0, 0, 0, 36, 50, 4, 30, 0, 0, 0, 70, 0, 0, 0, 0, 0, 29, 60, 55, 18, 61, 0, 0, 22, 0, 0, 69, 0, 63, 0, 15, 0, 0, 0, 1, 0, 0, 0, 77, 0, 0, 7, 0, 0, 0
|73, 16, 0, 0, 0, 0, 0, 10, 29, 0, 0, 0, 0, 55, 0, 0, 0, 41, 34, 0, 44, 0, 0, 0, 9, 53, 69, 0, 0, 60, 0, 0, 0, 0, 67, 0, 0, 0, 0, 0, 0, 61, 0, 0, 0, 30, 0, 0, 35, 50, 0, 31, 0, 0, 66, 0, 0, 33, 39, 0, 64, 0, 27, 17, 81, 13, 0, 0, 0, 79, 74, 71, 0, 0, 0, 63, 0, 4, 70, 48, 24
|0, 0, 0, 0, 0, 0, 0, 0, 0, 0, 0, 0, 0, 0, 0, 22, 0, 0, 0, 0, 0, 0, 0, 47, 51, 43, 28, 69, 0, 19, 36, 21, 0, 29, 0, 0, 0, 0, 0, 33, 0, 11, 0, 70, 0, 0, 34, 5, 0, 0, 0, 32, 0, 0, 79, 0, 0, 13, 0, 0, 25, 0, 0, 0, 0, 0, 8, 7, 0, 0, 0, 75, 6, 0, 0, 0, 45, 0, 0, 0, 0
|0, 0, 64, 0, 0, 0, 5, 50, 17, 0, 0, 0, 0, 0, 56, 30, 0, 60, 0, 0, 0, 0, 0, 0, 0, 0, 0, 0, 0, 0, 52, 0, 44, 46, 0, 0, 0, 0, 75, 0, 0, 80, 1, 0, 0, 68, 0, 0, 4, 73, 0, 0, 58, 12, 31, 54, 34, 0, 40, 0, 0, 71, 74, 0, 28, 0, 0, 0, 0, 0, 69, 16, 0, 0, 0, 0, 19, 0, 0, 41, 0
|0, 0, 0, 0, 68, 0, 0, 0, 0, 61, 0, 0, 65, 0, 0, 0, 15, 71, 49, 0, 0, 0, 0, 0, 30, 0, 0, 41, 0, 12, 0, 0, 31, 0, 70, 20, 0, 0, 0, 0, 44, 0, 13, 81, 69, 0, 0, 0, 0, 37, 0, 0, 63, 0, 0, 42, 0, 5, 75, 0, 59, 0, 0, 47, 0, 0, 40, 27, 26, 0, 0, 0, 0, 0, 0, 0, 0, 0, 0, 55, 0
|67, 0, 0, 0, 43, 0, 25, 34, 46, 0, 0, 0, 0, 0, 0, 0, 0, 0, 0, 0, 62, 14, 0, 0, 0, 0, 0, 0, 13, 0, 0, 73, 26, 0, 12, 38, 0, 52, 0, 0, 17, 0, 0, 0, 28, 0, 0, 0, 60, 0, 41, 45, 20, 0, 4, 0, 0, 0, 0, 0, 0, 0, 0, 32, 0, 0, 6, 0, 0, 0, 0, 0, 59, 71, 0, 0, 0, 70, 8, 0, 0
|1, 54, 0, 11, 22, 0, 0, 0, 21, 0, 0, 24, 0, 0, 0, 26, 0, 43, 73, 50, 0, 0, 0, 0, 77, 0, 0, 0, 0, 0, 0, 0, 0, 0, 0, 0, 0, 0, 79, 0, 0, 0, 0, 0, 37, 38, 0, 0, 2, 0, 0, 0, 0, 0, 0, 0, 0, 74, 0, 55, 0, 0, 0, 16, 17, 0, 0, 0, 13, 0, 0, 0, 0, 27, 60, 0, 0, 0, 0, 0, 34
|0, 69, 0, 0, 0, 0, 16, 0, 0, 78, 40, 49, 0, 8, 0, 37, 0, 46, 21, 0, 0, 41, 0, 0, 24, 0, 0, 0, 0, 0, 0, 0, 0, 0, 0, 0, 0, 0, 64, 76, 0, 22, 80, 0, 2, 0, 0, 74, 0, 33, 0, 0, 6, 0, 25, 0, 0, 0, 13, 0, 0, 72, 0, 0, 0, 0, 54, 0, 0, 1, 0, 0, 32, 0, 3, 0, 0, 0, 0, 0, 0
|0, 0, 0, 0, 0, 60, 0, 0, 0, 0, 21, 0, 0, 0, 0, 62, 0, 0, 0, 0, 0, 0, 0, 0, 0, 55, 0, 0, 0, 0, 42, 0, 16, 31, 0, 0, 77, 0, 0, 0, 0, 0, 0, 72, 0, 0, 5, 14, 54, 0, 0, 0, 76, 0, 0, 0, 0, 0, 0, 0, 0, 0, 0, 0, 0, 20, 52, 33, 0, 47, 0, 3, 0, 0, 0, 0, 0, 0, 0, 0, 0
|0, 35, 0, 0, 0, 0, 49, 0, 64, 0, 0, 11, 0, 0, 0, 0, 0, 45, 0, 0, 0, 0, 15, 0, 0, 0, 0, 0, 0, 59, 41, 0, 71, 18, 0, 0, 0, 0, 0, 0, 0, 5, 0, 0, 0, 0, 0, 0, 0, 0, 0, 43, 0, 66, 0, 0, 0, 42, 0, 81, 27, 70, 21, 0, 76, 0, 75, 0, 0, 0, 0, 26, 78, 0, 37, 0, 6, 0, 39, 0, 0
|5, 0, 0, 18, 38, 78, 0, 0, 26, 0, 0, 16, 0, 0, 0, 55, 0, 68, 53, 0, 0, 13, 0, 0, 72, 64, 0, 0, 6, 75, 69, 44, 0, 0, 77, 61, 0, 0, 0, 39, 1, 0, 0, 0, 0, 0, 0, 71, 0, 0, 0, 0, 0, 0, 33, 0, 0, 0, 60, 0, 10, 0, 0, 0, 0, 37, 41, 0, 0, 65, 0, 0, 46, 0, 0, 0, 0, 0, 0, 20, 47
|0, 0, 0, 79, 0, 0, 0, 76, 0, 0, 0, 18, 44, 25, 0, 66, 2, 0, 0, 0, 0, 16, 0, 0, 60, 0, 17, 0, 47, 10, 0, 0, 0, 0, 0, 80, 0, 0, 26, 73, 0, 0, 0, 0, 0, 0, 0, 0, 0, 0, 65, 0, 0, 0, 0, 0, 75, 0, 0, 0, 0, 24, 0, 74, 0, 0, 0, 0, 27, 59, 0, 0, 0, 0, 0, 52, 69, 0, 0, 0, 0
|68, 0, 0, 0, 0, 28, 0, 52, 0, 0, 0, 0, 0, 53, 0, 0, 30, 9, 0, 0, 0, 43, 26, 0, 0, 0, 0, 0, 0, 76, 0, 58, 81, 0, 0, 0, 33, 10, 0, 0, 11, 0, 0, 38, 0, 0, 0, 0, 0, 40, 48, 0, 0, 49, 71, 0, 0, 0, 31, 0, 67, 0, 0, 0, 42, 0, 22, 0, 0, 21, 24, 0, 0, 0, 0, 0, 73, 0, 0, 0, 50
|0, 0, 0, 0, 0, 0, 0, 0, 15, 0, 3, 0, 42, 0, 0, 0, 0, 29, 54, 0, 12, 0, 0, 0, 0, 0, 0, 0, 0, 0, 0, 0, 56, 0, 21, 0, 55, 41, 0, 71, 0, 0, 0, 0, 14, 0, 0, 0, 0, 0, 0, 0, 0, 0, 22, 48, 40, 0, 0, 0, 0, 0, 73, 0, 0, 0, 51, 0, 0, 0, 0, 0, 0, 16, 33, 0, 0, 0, 0, 0, 0
|19, 0, 18, 0, 0, 0, 0, 75, 54, 0, 0, 0, 55, 0, 53, 57, 27, 0, 0, 0, 0, 0, 0, 35, 0, 0, 80, 61, 0, 50, 0, 0, 20, 52, 45, 0, 0, 0, 0, 16, 0, 0, 8, 0, 47, 6, 0, 67, 0, 0, 0, 62, 0, 0, 24, 0, 0, 38, 21, 0, 22, 0, 0, 23, 0, 0, 0, 64, 43, 0, 66, 0, 28, 37, 30, 0, 48, 0, 0, 0, 65
|0, 0, 0, 0, 0, 0, 0, 0, 0, 0, 41, 0, 17, 14, 0, 0, 0, 0, 0, 0, 0, 0, 0, 0, 0, 18, 0, 0, 0, 0, 0, 0, 0, 57, 0, 0, 0, 0, 59, 0, 0, 0, 52, 0, 30, 0, 58, 0, 0, 80, 0, 0, 0, 0, 32, 75, 0, 65, 0, 0, 56, 68, 0, 0, 38, 2, 33, 0, 0, 42, 0, 1, 74, 3, 0, 0, 0, 0, 0, 0, 0
|0, 0, 0, 66, 16, 0, 0, 0, 0, 0, 0, 0, 56, 0, 0, 75, 0, 0, 0, 77, 0, 55, 3, 65, 0, 76, 0, 0, 0, 0, 5, 42, 29, 0, 14, 73, 0, 0, 25, 0, 0, 69, 27, 0, 0, 36, 0, 0, 0, 0, 0, 0, 0, 2, 0, 0, 59, 0, 0, 0, 0, 0, 0, 49, 0, 0, 0, 0, 44, 0, 0, 0, 22, 46, 0, 32, 17, 33, 0, 0, 0
|0, 0, 37, 0, 64, 0, 0, 0, 0, 43, 0, 71, 0, 0, 0, 0, 0, 0, 0, 49, 0, 5, 0, 0, 0, 0, 0, 0, 19, 79, 0, 0, 0, 0, 0, 0, 38, 18, 74, 0, 21, 0, 0, 0, 9, 1, 27, 53, 0, 0, 23, 0, 0, 0, 46, 0, 0, 0, 16, 0, 0, 0, 0, 0, 15, 39, 59, 48, 78, 24, 0, 0, 0, 26, 44, 10, 55, 75, 12, 0, 0
|0, 0, 0, 35, 0, 42, 0, 43, 49, 0, 1, 0, 64, 0, 0, 0, 0, 0, 10, 0, 48, 0, 0, 20, 0, 0, 15, 0, 40, 18, 0, 0, 0, 54, 0, 67, 80, 0, 0, 66, 57, 0, 0, 39, 0, 74, 59, 25, 0, 51, 70, 0, 0, 0, 0, 3, 0, 0, 0, 44, 41, 0, 0, 0, 0, 63, 0, 0, 0, 0, 0, 0, 0, 77, 0, 0, 13, 0, 45, 0, 0
|47, 0, 0, 0, 0, 15, 0, 0, 0, 0, 2, 0, 9, 0, 0, 0, 37, 0, 0, 4, 28, 0, 0, 0, 19, 0, 0, 0, 0, 49, 0, 0, 0, 0, 0, 0, 70, 0, 0, 0, 0, 0, 81, 0, 0, 0, 0, 0, 0, 0, 0, 0, 0, 0, 67, 33, 0, 0, 0, 13, 0, 25, 0, 0, 0, 0, 0, 0, 0, 54, 0, 17, 0, 0, 0, 20, 0, 0, 0, 0, 14
|39, 0, 41, 0, 0, 3, 0, 0, 0, 0, 0, 0, 0, 6, 0, 0, 0, 0, 0, 0, 0, 0, 0, 50, 58, 0, 0, 0, 30, 0, 0, 62, 28, 0, 0, 0, 0, 0, 0, 0, 0, 48, 0, 0, 24, 0, 0, 0, 0, 0, 64, 0, 0, 0, 0, 47, 0, 0, 0, 0, 45, 0, 78, 77, 0, 4, 0, 0, 19, 0, 72, 65, 0, 0, 70, 0, 0, 0, 52, 0, 59
|0, 0, 22, 0, 0, 58, 0, 0, 0, 0, 0, 4, 0, 73, 0, 0, 0, 0, 0, 24, 0, 0, 0, 64, 0, 54, 0, 0, 0, 8, 0, 0, 0, 0, 0, 0, 0, 0, 0, 49, 0, 0, 44, 3, 0, 0, 0, 0, 0, 77, 0, 35, 0, 17, 74, 0, 0, 0, 0, 0, 0, 0, 0, 0, 45, 0, 0, 0, 12, 0, 0, 0, 0, 0, 43, 31, 0, 0, 0, 0, 0
|0, 0, 0, 0, 0, 0, 0, 1, 0, 0, 0, 0, 0, 0, 0, 0, 16, 42, 0, 0, 0, 0, 33, 0, 0, 79, 0, 0, 0, 0, 34, 0, 0, 0, 0, 0, 0, 67, 0, 0, 0, 0, 75, 29, 45, 0, 0, 28, 0, 43, 0, 0, 0, 5, 0, 0, 20, 0, 0, 0, 0, 0, 0, 0, 0, 0, 0, 0, 47, 0, 0, 0, 49, 0, 0, 61, 0, 15, 0, 0, 39
|66, 0, 0, 16, 69, 0, 0, 23, 0, 0, 0, 0, 46, 0, 43, 12, 0, 0, 48, 0, 0, 0, 0, 71, 36, 0, 32, 33, 0, 11, 0, 19, 0, 8, 0, 0, 0, 0, 0, 53, 77, 0, 0, 18, 0, 0, 0, 0, 27, 0, 38, 22, 0, 0, 65, 0, 49, 0, 74, 0, 0, 0, 0, 41, 0, 0, 0, 0, 0, 0, 0, 0, 58, 0, 68, 0, 63, 50, 0, 79, 0
|30, 20, 54, 0, 75, 0, 0, 0, 0, 79, 0, 8, 0, 78, 0, 0, 0, 0, 13, 0, 43, 0, 5, 0, 0, 0, 0, 0, 0, 0, 0, 15, 0, 63, 0, 0, 42, 0, 52, 29, 0, 47, 34, 0, 71, 0, 41, 0, 77, 0, 0, 39, 4, 0, 0, 0, 0, 0, 0, 0, 73, 0, 0, 0, 66, 0, 64, 0, 0, 17, 16, 0, 25, 31, 11, 0, 0, 0, 46, 0, 0
|0, 78, 0, 39, 0, 0, 0, 79, 24, 0, 18, 32, 68, 0, 0, 60, 0, 0, 0, 0, 0, 22, 0, 0, 50, 66, 0, 0, 0, 0, 0, 0, 0, 0, 55, 64, 14, 0, 0, 0, 26, 43, 0, 0, 0, 0, 0, 49, 0, 0, 0, 37, 0, 0, 0, 0, 0, 0, 4, 61, 0, 48, 1, 13, 0, 0, 0, 0, 0, 0, 42, 0, 51, 0, 19, 0, 0, 0, 0, 0, 0
|37, 0, 0, 0, 0, 1, 0, 0, 52, 69, 0, 0, 7, 0, 57, 13, 0, 0, 0, 0, 0, 0, 0, 0, 0, 0, 0, 58, 20, 0, 43, 0, 42, 0, 0, 62, 0, 81, 0, 0, 27, 0, 0, 23, 0, 40, 0, 0, 0, 0, 56, 0, 8, 0, 0, 0, 77, 0, 70, 0, 0, 0, 0, 34, 0, 0, 35, 0, 0, 0, 0, 0, 0, 0, 41, 0, 0, 12, 14, 0, 45
|64, 0, 4, 0, 0, 0, 0, 0, 0, 28, 0, 25, 0, 0, 0, 0, 0, 0, 0, 51, 41, 0, 0, 39, 0, 81, 0, 52, 68, 26, 75, 0, 0, 77, 0, 30, 0, 0, 0, 54, 0, 0, 45, 0, 48, 50, 15, 0, 0, 32, 0, 0, 0, 0, 0, 0, 0, 0, 0, 0, 0, 0, 0, 0, 0, 0, 0, 0, 0, 0, 20, 0, 0, 70, 80, 0, 22, 74, 0, 0, 6
|6, 19, 0, 0, 0, 40, 48, 0, 0, 0, 0, 0, 0, 0, 77, 0, 49, 0, 0, 0, 0, 79, 23, 0, 8, 0, 59, 66, 22, 0, 21, 71, 0, 0, 0, 74, 0, 0, 38, 20, 0, 0, 0, 0, 78, 0, 31, 0, 0, 0, 0, 10, 14, 0, 0, 50, 27, 0, 33, 0, 42, 47, 0, 0, 0, 44, 43, 0, 0, 0, 0, 68, 0, 81, 0, 65, 0, 0, 0, 75, 0
|0, 0, 0, 0, 0, 0, 0, 0, 0, 0, 0, 0, 75, 0, 0, 14, 0, 62, 0, 17, 0, 0, 0, 0, 0, 0, 0, 46, 0, 16, 0, 6, 2, 0, 0, 0, 0, 25, 0, 0, 0, 0, 50, 0, 0, 0, 0, 0, 0, 0, 0, 74, 23, 0, 0, 0, 0, 0, 0, 0, 24, 0, 0, 22, 0, 38, 0, 0, 0, 0, 0, 11, 0, 0, 0, 0, 0, 0, 34, 33, 0
|0, 49, 0, 38, 0, 27, 0, 0, 0, 0, 0, 0, 71, 59, 0, 0, 0, 67, 0, 0, 53, 0, 0, 0, 0, 31, 0, 44, 34, 0, 0, 0, 0, 48, 0, 0, 63, 68, 0, 0, 0, 0, 51, 0, 75, 0, 0, 0, 0, 0, 0, 0, 0, 0, 0, 57, 0, 0, 66, 0, 35, 0, 46, 0, 0, 14, 30, 0, 8, 0, 0, 0, 61, 0, 55, 0, 0, 0, 4, 42, 54
|0, 0, 0, 0, 0, 0, 0, 0, 0, 0, 63, 0, 0, 0, 44, 0, 80, 0, 0, 0, 0, 3, 0, 62, 6, 68, 0, 0, 41, 0, 0, 29, 72, 0, 0, 31, 0, 33, 37, 0, 0, 2, 0, 0, 0, 55, 17, 0, 0, 0, 0, 0, 0, 0, 0, 0, 0, 0, 0, 0, 0, 81, 0, 71, 0, 47, 67, 32, 49, 12, 0, 0, 77, 0, 48, 13, 0, 59, 0, 53, 0
|14, 0, 0, 25, 0, 0, 0, 0, 5, 0, 0, 56, 0, 42, 0, 0, 9, 0, 0, 0, 80, 0, 0, 0, 0, 0, 0, 45, 0, 54, 0, 0, 0, 0, 0, 7, 0, 0, 0, 0, 0, 0, 0, 58, 0, 26, 0, 37, 0, 74, 0, 0, 0, 0, 36, 0, 0, 21, 0, 27, 33, 0, 0, 0, 41, 0, 0, 0, 0, 0, 0, 0, 0, 23, 52, 59, 0, 0, 62, 46, 0
|0, 0, 1, 0, 0, 0, 0, 0, 0, 72, 0, 0, 0, 54, 0, 0, 0, 0, 0, 0, 0, 0, 74, 0, 37, 0, 23, 0, 0, 13, 16, 0, 0, 0, 0, 0, 45, 0, 0, 0, 43, 52, 0, 0, 0, 0, 0, 76, 0, 11, 0, 60, 56, 0, 0, 73, 19, 20, 0, 0, 0, 0, 0, 27, 25, 6, 0, 65, 63, 78, 0, 0, 50, 0, 28, 0, 0, 0, 0, 0, 0
|17, 0, 0, 0, 0, 0, 36, 0, 39, 0, 57, 0, 79, 0, 0, 31, 0, 51, 0, 0, 0, 0, 0, 0, 0, 63, 0, 68, 0, 20, 0, 0, 0, 67, 0, 0, 0, 0, 15, 0, 66, 0, 0, 0, 0, 0, 0, 0, 0, 0, 0, 47, 21, 0, 44, 0, 0, 0, 45, 5, 81, 0, 0, 0, 19, 33, 0, 0, 0, 0, 2, 0, 0, 0, 0, 42, 54, 0, 0, 0, 0
|71, 0, 0, 0, 0, 0, 67, 0, 31, 47, 0, 19, 0, 38, 0, 25, 81, 49, 0, 0, 0, 0, 72, 70, 0, 0, 0, 0, 0, 0, 58, 0, 18, 0, 73, 0, 0, 0, 0, 17, 0, 65, 0, 0, 27, 0, 75, 40, 0, 0, 0, 0, 0, 0, 0, 51, 13, 0, 0, 0, 0, 0, 41, 0, 0, 0, 0, 14, 0, 30, 0, 0, 0, 0, 0, 77, 0, 0, 0, 0, 0
|0, 0, 24, 0, 0, 0, 0, 26, 37, 0, 0, 0, 29, 0, 0, 0, 7, 0, 0, 58, 0, 0, 25, 0, 0, 38, 5, 0, 57, 0, 0, 0, 50, 33, 0, 2, 0, 71, 18, 0, 0, 0, 31, 0, 0, 17, 23, 0, 0, 0, 0, 0, 3, 0, 0, 0, 0, 0, 0, 0, 74, 0, 0, 20, 0, 0, 34, 54, 0, 0, 0, 0, 0, 0, 63, 0, 0, 44, 0, 0, 0
|0, 0, 0, 0, 3, 0, 0, 0, 0, 0, 0, 33, 0, 0, 0, 28, 0, 0, 0, 0, 0, 71, 0, 13, 46, 0, 0, 43, 0, 0, 0, 0, 0, 0, 0, 0, 39, 7, 0, 0, 0, 40, 0, 0, 0, 0, 0, 0, 50, 0, 0, 0, 0, 0, 0, 0, 54, 0, 0, 0, 0, 0, 0, 36, 8, 75, 0, 66, 0, 64, 0, 0, 76, 0, 0, 0, 0, 0, 0, 0, 0
|13, 0, 0, 0, 0, 80, 0, 0, 0, 0, 32, 0, 0, 64, 0, 8, 0, 0, 0, 0, 35, 0, 0, 0, 0, 0, 33, 9, 37, 0, 11, 0, 34, 0, 0, 0, 20, 76, 62, 81, 0, 41, 0, 0, 29, 45, 0, 0, 0, 0, 0, 0, 0, 68, 1, 0, 56, 0, 0, 0, 0, 0, 0, 0, 0, 0, 74, 53, 0, 0, 0, 0, 0, 0, 0, 0, 0, 0, 65, 0, 31
|72, 0, 49, 0, 0, 0, 0, 0, 0, 0, 46, 0, 0, 0, 55, 0, 0, 0, 18, 79, 0, 0, 0, 0, 0, 3, 0, 0, 0, 0, 0, 0, 0, 0, 0, 0, 0, 22, 19, 0, 0, 0, 0, 0, 60, 31, 0, 0, 0, 0, 0, 20, 0, 0, 0, 0, 0, 14, 0, 53, 0, 0, 0, 0, 0, 71, 17, 16, 68, 81, 0, 40, 0, 0, 0, 0, 41, 0, 0, 0, 0
|60, 76, 12, 0, 0, 0, 0, 46, 16, 0, 0, 0, 0, 0, 0, 0, 0, 0, 55, 0, 0, 75, 57, 0, 0, 0, 0, 0, 65, 0, 0, 0, 0, 0, 66, 0, 2, 0, 0, 48, 5, 74, 0, 59, 0, 0, 0, 0, 0, 0, 0, 0, 0, 0, 0, 0, 0, 0, 30, 0, 0, 0, 0, 0, 11, 28, 44, 0, 0, 0, 0, 0, 0, 10, 0, 0, 0, 0, 67, 0, 0|];