order = 9;
grid = [|48, 0, 0, 81, 0, 20, 0, 0, 0, 0, 79, 0, 0, 0, 0, 0, 10, 0, 7, 0, 25, 0, 16, 0, 0, 40, 0, 0, 62, 72, 36, 33, 0, 0, 28, 0, 0, 0, 0, 0, 0, 0, 0, 0, 0, 0, 0, 0, 0, 0, 0, 0, 0, 77, 0, 0, 59, 0, 0, 61, 0, 0, 8, 0, 0, 76, 0, 0, 21, 78, 0, 17, 0, 0, 0, 32, 0, 0, 68, 0, 73
|28, 0, 0, 0, 0, 62, 0, 15, 0, 7, 0, 0, 41, 26, 0, 0, 0, 64, 0, 0, 0, 0, 0, 24, 23, 0, 0, 0, 0, 14, 45, 0, 0, 66, 0, 0, 27, 21, 0, 0, 47, 0, 18, 0, 0, 0, 0, 54, 0, 0, 0, 78, 1, 0, 48, 50, 0, 0, 6, 0, 30, 0, 0, 0, 40, 79, 0, 0, 0, 0, 0, 0, 71, 0, 0, 0, 0, 0, 0, 0, 0
|0, 0, 0, 0, 0, 0, 0, 0, 30, 0, 0, 0, 0, 0, 0, 0, 0, 0, 65, 71, 0, 0, 37, 32, 0, 0, 0, 0, 0, 81, 0, 42, 0, 0, 0, 0, 0, 0, 0, 0, 31, 0, 40, 0, 69, 0, 0, 0, 0, 64, 0, 0, 79, 15, 73, 0, 0, 0, 0, 75, 0, 0, 70, 0, 0, 0, 23, 56, 51, 7, 0, 0, 0, 41, 0, 0, 0, 0, 0, 0, 6
|2, 0, 0, 70, 0, 0, 0, 0, 0, 0, 0, 0, 0, 66, 0, 0, 30, 0, 0, 49, 0, 0, 0, 0, 0, 76, 63, 0, 0, 61, 0, 0, 0, 0, 0, 0, 0, 0, 0, 0, 0, 0, 0, 81, 0, 0, 0, 0, 17, 72, 0, 0, 0, 0, 65, 55, 0, 0, 0, 1, 0, 37, 0, 0, 0, 10, 16, 0, 0, 0, 5, 0, 51, 0, 0, 0, 79, 0, 0, 58, 40
|0, 0, 0, 0, 50, 0, 45, 0, 0, 52, 0, 0, 0, 0, 62, 0, 0, 0, 0, 0, 0, 77, 0, 0, 0, 3, 0, 25, 0, 60, 0, 51, 44, 17, 0, 64, 0, 0, 0, 28, 0, 0, 0, 0, 0, 0, 30, 67, 4, 0, 0, 0, 0, 12, 35, 0, 0, 72, 0, 41, 0, 0, 47, 0, 0, 0, 0, 39, 0, 73, 26, 0, 0, 0, 0, 7, 0, 0, 42, 0, 0
|0, 0, 0, 0, 59, 0, 76, 18, 8, 6, 0, 80, 45, 0, 0, 0, 0, 0, 74, 42, 0, 0, 0, 0, 81, 0, 0, 0, 0, 37, 70, 0, 22, 0, 24, 58, 53, 63, 0, 0, 0, 0, 0, 0, 0, 75, 0, 0, 0, 0, 57, 0, 46, 0, 0, 0, 0, 0, 0, 39, 0, 0, 0, 0, 0, 0, 0, 0, 0, 47, 0, 49, 0, 0, 0, 0, 0, 66, 0, 54, 0
|0, 0, 0, 0, 0, 0, 47, 75, 0, 0, 0, 0, 0, 0, 0, 0, 76, 0, 78, 67, 0, 0, 73, 0, 53, 0, 0, 0, 0, 0, 0, 49, 0, 23, 0, 0, 0, 1, 58, 0, 13, 0, 0, 0, 44, 0, 61, 20, 48, 0, 0, 0, 0, 8, 0, 64, 0, 0, 56, 0, 0, 36, 0, 74, 52, 15, 0, 0, 42, 0, 0, 0, 0, 28, 0, 0, 0, 0, 0, 17, 63
|16, 0, 0, 0, 0, 0, 0, 0, 38, 63, 0, 24, 0, 0, 0, 0, 0, 23, 0, 6, 0, 45, 0, 0, 11, 13, 75, 0, 0, 40, 0, 0, 0, 0, 0, 56, 77, 0, 0, 0, 0, 36, 0, 0, 0, 0, 0, 29, 71, 0, 32, 0, 0, 0, 0, 0, 0, 81, 0, 20, 28, 0, 0, 0, 33, 0, 0, 0, 0, 64, 0, 0, 0, 0, 69, 0, 43, 0, 9, 50, 0
|0, 0, 0, 0, 0, 0, 0, 0, 0, 0, 0, 0, 0, 39, 0, 0, 0, 53, 0, 68, 0, 0, 0, 19, 0, 31, 4, 0, 0, 73, 0, 0, 0, 0, 0, 0, 0, 0, 23, 0, 0, 0, 32, 72, 0, 0, 24, 0, 0, 0, 0, 0, 0, 0, 0, 0, 0, 0, 0, 0, 0, 14, 69, 0, 0, 0, 0, 0, 0, 41, 61, 0, 0, 20, 0, 0, 0, 0, 0, 0, 0
|0, 4, 0, 0, 0, 0, 17, 0, 63, 0, 0, 1, 68, 0, 0, 0, 0, 0, 0, 43, 80, 0, 0, 0, 34, 0, 0, 0, 0, 0, 37, 36, 0, 0, 0, 0, 0, 0, 7, 0, 0, 0, 0, 0, 0, 5, 0, 0, 0, 0, 0, 0, 0, 0, 28, 0, 0, 0, 0, 0, 26, 0, 2, 0, 78, 0, 0, 15, 0, 0, 0, 55, 0, 9, 0, 0, 0, 0, 0, 0, 0
|29, 0, 15, 0, 0, 0, 0, 69, 37, 62, 0, 0, 19, 0, 0, 0, 0, 0, 33, 77, 22, 0, 64, 0, 0, 0, 0, 0, 73, 35, 0, 0, 0, 0, 40, 0, 0, 0, 0, 0, 0, 65, 14, 0, 0, 0, 0, 0, 68, 0, 0, 0, 43, 0, 0, 44, 0, 0, 0, 0, 0, 47, 0, 28, 0, 0, 0, 25, 0, 0, 0, 0, 54, 0, 67, 0, 57, 0, 71, 59, 0
|0, 0, 0, 0, 0, 0, 0, 0, 0, 51, 13, 0, 20, 45, 11, 0, 60, 0, 29, 4, 27, 0, 0, 0, 0, 0, 61, 0, 0, 0, 0, 18, 0, 0, 0, 26, 41, 69, 0, 0, 63, 0, 0, 1, 0, 0, 79, 0, 0, 28, 0, 0, 71, 0, 0, 0, 39, 0, 0, 0, 0, 32, 0, 76, 56, 53, 21, 70, 50, 0, 0, 0, 44, 0, 0, 0, 0, 0, 0, 0, 0
|0, 58, 0, 0, 0, 0, 0, 0, 0, 0, 43, 0, 0, 72, 0, 0, 0, 18, 0, 0, 0, 6, 0, 0, 0, 0, 0, 0, 41, 0, 61, 0, 52, 0, 13, 0, 0, 0, 22, 0, 79, 66, 0, 71, 4, 33, 0, 0, 20, 0, 0, 0, 0, 0, 0, 10, 0, 34, 0, 0, 0, 49, 46, 0, 0, 26, 68, 57, 63, 0, 0, 12, 5, 19, 65, 0, 37, 0, 0, 0, 0
|0, 48, 71, 0, 0, 0, 62, 0, 36, 53, 0, 69, 32, 58, 0, 0, 29, 0, 0, 0, 0, 60, 14, 0, 24, 0, 0, 0, 0, 0, 0, 0, 0, 0, 4, 0, 0, 0, 0, 0, 0, 73, 0, 0, 0, 7, 67, 0, 0, 0, 0, 26, 0, 70, 0, 0, 0, 0, 0, 0, 0, 0, 0, 0, 0, 0, 44, 27, 0, 0, 0, 0, 0, 0, 0, 39, 0, 0, 3, 34, 64
|0, 46, 0, 0, 0, 0, 0, 0, 0, 0, 0, 0, 0, 75, 0, 77, 6, 0, 0, 0, 36, 73, 0, 0, 0, 0, 0, 0, 0, 43, 38, 62, 57, 0, 0, 0, 33, 35, 47, 0, 0, 0, 44, 0, 0, 0, 0, 0, 0, 0, 0, 0, 0, 0, 40, 72, 0, 0, 0, 0, 0, 0, 0, 0, 0, 0, 0, 0, 0, 0, 0, 0, 0, 0, 0, 70, 0, 0, 0, 0, 0
|10, 33, 0, 0, 60, 0, 0, 44, 13, 35, 0, 0, 0, 0, 0, 31, 67, 65, 0, 0, 1, 0, 42, 0, 0, 0, 71, 0, 48, 0, 0, 0, 72, 51, 0, 76, 0, 0, 26, 0, 0, 0, 0, 0, 0, 0, 0, 74, 0, 0, 0, 77, 73, 0, 0, 0, 0, 0, 78, 62, 0, 0, 37, 0, 0, 16, 0, 36, 0, 3, 0, 0, 0, 0, 8, 0, 0, 53, 56, 0, 0
|0, 0, 0, 28, 0, 50, 70, 22, 68, 12, 0, 79, 0, 0, 73, 0, 0, 74, 49, 0, 0, 0, 67, 0, 0, 2, 0, 0, 21, 0, 0, 0, 0, 45, 0, 0, 58, 27, 0, 37, 0, 0, 0, 0, 42, 17, 0, 0, 0, 0, 0, 0, 0, 0, 0, 0, 0, 0, 63, 25, 33, 0, 0, 0, 0, 0, 8, 0, 0, 0, 0, 0, 0, 4, 0, 0, 0, 0, 15, 0, 0
|74, 0, 0, 0, 0, 0, 0, 0, 0, 0, 24, 0, 0, 0, 0, 0, 0, 4, 0, 0, 0, 0, 52, 0, 50, 0, 21, 0, 0, 0, 0, 0, 0, 0, 0, 0, 38, 0, 0, 0, 62, 0, 16, 12, 59, 0, 54, 0, 0, 0, 0, 0, 0, 10, 0, 56, 0, 0, 0, 0, 0, 0, 0, 0, 48, 67, 0, 0, 0, 9, 11, 0, 0, 0, 0, 0, 63, 0, 0, 41, 33
|0, 0, 0, 0, 0, 9, 0, 0, 0, 0, 0, 0, 13, 0, 6, 0, 0, 0, 0, 0, 0, 67, 0, 0, 0, 0, 74, 0, 0, 27, 0, 75, 0, 0, 0, 8, 0, 16, 0, 0, 0, 12, 0, 0, 0, 0, 0, 0, 0, 30, 0, 0, 29, 0, 0, 0, 62, 0, 32, 0, 0, 0, 0, 78, 63, 0, 39, 37, 0, 0, 66, 0, 0, 0, 44, 1, 0, 0, 0, 0, 7
|0, 0, 0, 14, 0, 2, 10, 38, 0, 0, 0, 71, 0, 63, 0, 0, 36, 0, 81, 0, 0, 0, 80, 49, 48, 0, 57, 0, 0, 0, 0, 72, 67, 32, 17, 0, 0, 0, 0, 0, 0, 54, 0, 0, 51, 24, 34, 0, 8, 59, 21, 0, 0, 75, 68, 0, 0, 39, 0, 0, 55, 0, 0, 3, 0, 0, 0, 0, 0, 0, 0, 0, 0, 0, 77, 0, 5, 27, 19, 23, 15
|27, 0, 70, 32, 0, 0, 0, 0, 0, 0, 0, 21, 0, 0, 0, 0, 0, 77, 0, 31, 0, 0, 0, 0, 0, 0, 0, 0, 0, 0, 39, 0, 55, 15, 0, 30, 0, 0, 0, 0, 37, 0, 81, 0, 0, 0, 0, 0, 0, 63, 0, 43, 0, 0, 0, 71, 0, 0, 0, 2, 0, 0, 0, 73, 0, 0, 19, 0, 0, 36, 0, 0, 0, 0, 11, 0, 0, 0, 0, 13, 0
|0, 31, 0, 63, 0, 0, 4, 0, 0, 60, 57, 0, 48, 46, 0, 34, 43, 0, 72, 78, 0, 0, 0, 0, 37, 0, 0, 0, 19, 0, 0, 0, 26, 0, 0, 0, 42, 79, 0, 0, 0, 0, 30, 0, 0, 0, 0, 58, 0, 0, 50, 0, 0, 0, 70, 0, 0, 0, 0, 0, 0, 0, 0, 0, 0, 0, 0, 0, 0, 0, 0, 0, 0, 0, 0, 59, 41, 47, 0, 0, 0
|39, 0, 0, 0, 0, 0, 0, 36, 35, 0, 0, 0, 0, 0, 24, 0, 0, 52, 0, 16, 0, 22, 0, 0, 32, 0, 19, 48, 44, 0, 0, 0, 0, 69, 5, 70, 0, 0, 71, 0, 65, 0, 11, 0, 0, 0, 0, 0, 0, 0, 38, 0, 0, 0, 0, 0, 0, 0, 0, 0, 7, 0, 0, 0, 0, 0, 0, 45, 0, 17, 0, 0, 0, 76, 0, 0, 0, 0, 0, 0, 42
|0, 28, 0, 48, 0, 0, 0, 0, 73, 0, 0, 0, 69, 0, 15, 0, 0, 80, 55, 0, 65, 0, 23, 0, 0, 0, 39, 0, 74, 0, 0, 0, 0, 0, 0, 10, 4, 0, 8, 46, 24, 20, 0, 43, 0, 0, 0, 31, 0, 35, 0, 0, 0, 0, 0, 0, 0, 0, 0, 0, 0, 0, 0, 7, 0, 0, 30, 0, 0, 0, 0, 0, 0, 67, 0, 22, 0, 0, 0, 0, 0
|0, 0, 0, 0, 0, 17, 0, 0, 0, 0, 78, 0, 0, 8, 0, 0, 11, 28, 0, 0, 0, 0, 75, 0, 40, 0, 0, 0, 0, 0, 0, 13, 0, 0, 0, 0, 0, 72, 0, 0, 0, 0, 0, 39, 0, 0, 0, 0, 0, 0, 67, 0, 0, 36, 46, 0, 0, 0, 0, 0, 58, 10, 0, 0, 0, 80, 0, 0, 23, 0, 0, 0, 25, 0, 0, 0, 49, 65, 24, 0, 0
|76, 72, 0, 60, 3, 80, 0, 0, 64, 0, 0, 7, 0, 0, 0, 0, 74, 39, 0, 0, 0, 8, 0, 0, 0, 18, 0, 0, 37, 0, 11, 56, 71, 0, 36, 0, 0, 15, 2, 0, 0, 41, 0, 59, 0, 0, 0, 0, 0, 0, 0, 14, 0, 0, 0, 0, 28, 0, 0, 0, 0, 0, 48, 0, 12, 77, 49, 0, 27, 0, 0, 0, 0, 81, 0, 0, 0, 43, 0, 0, 0
|0, 0, 0, 0, 0, 0, 0, 0, 0, 0, 35, 0, 0, 0, 0, 0, 19, 68, 4, 0, 0, 0, 0, 0, 0, 0, 0, 16, 61, 0, 0, 0, 76, 18, 0, 0, 0, 0, 64, 0, 14, 25, 0, 0, 31, 11, 0, 0, 27, 0, 0, 0, 0, 49, 0, 0, 0, 0, 0, 0, 20, 78, 0, 24, 10, 34, 0, 0, 0, 69, 0, 0, 36, 37, 50, 0, 0, 0, 0, 79, 0
|0, 0, 0, 0, 0, 0, 73, 20, 0, 0, 71, 0, 31, 0, 0, 66, 65, 0, 0, 0, 44, 58, 60, 2, 68, 0, 0, 0, 0, 0, 0, 0, 0, 0, 51, 0, 12, 0, 32, 0, 55, 56, 0, 57, 0, 0, 1, 0, 34, 0, 0, 0, 0, 0, 0, 0, 0, 0, 0, 38, 0, 72, 0, 0, 0, 49, 0, 0, 0, 0, 0, 0, 0, 0, 0, 0, 0, 0, 0, 29, 39
|0, 49, 0, 57, 0, 0, 0, 74, 0, 20, 0, 2, 0, 11, 79, 0, 0, 0, 0, 72, 43, 0, 0, 0, 0, 0, 47, 27, 0, 18, 0, 0, 0, 39, 0, 0, 0, 0, 65, 0, 42, 0, 0, 0, 0, 0, 0, 0, 19, 0, 68, 0, 0, 0, 0, 35, 0, 0, 77, 0, 0, 0, 0, 71, 0, 0, 3, 0, 0, 21, 53, 0, 0, 0, 0, 0, 4, 0, 0, 0, 0
|0, 0, 0, 0, 0, 65, 69, 14, 0, 0, 0, 0, 77, 19, 0, 6, 0, 16, 31, 0, 7, 0, 0, 0, 0, 25, 0, 0, 0, 12, 0, 76, 0, 0, 0, 3, 0, 0, 0, 0, 60, 0, 2, 45, 0, 0, 39, 30, 0, 54, 0, 0, 0, 0, 0, 20, 0, 73, 0, 0, 0, 26, 42, 40, 0, 0, 5, 0, 79, 0, 55, 0, 0, 78, 0, 0, 0, 0, 0, 0, 0
|0, 0, 0, 5, 0, 0, 0, 37, 16, 0, 0, 30, 24, 0, 49, 0, 0, 0, 0, 0, 0, 51, 18, 0, 0, 0, 0, 69, 0, 44, 0, 32, 0, 28, 0, 67, 0, 50, 77, 0, 0, 0, 0, 0, 0, 0, 0, 0, 0, 0, 0, 0, 36, 42, 25, 0, 0, 0, 0, 79, 0, 0, 55, 63, 70, 0, 45, 0, 0, 0, 0, 0, 0, 57, 0, 0, 0, 0, 61, 0, 0
|0, 0, 45, 0, 0, 0, 0, 0, 0, 0, 0, 0, 12, 0, 0, 0, 78, 0, 0, 73, 76, 0, 0, 5, 0, 0, 0, 0, 0, 0, 0, 54, 0, 0, 0, 0, 63, 0, 0, 0, 0, 0, 0, 0, 0, 0, 0, 0, 0, 0, 0, 0, 69, 0, 0, 24, 0, 0, 0, 0, 0, 71, 0, 0, 0, 75, 0, 0, 0, 0, 0, 52, 55, 0, 0, 0, 0, 0, 0, 0, 41
|0, 0, 0, 75, 68, 0, 50, 59, 6, 0, 0, 25, 0, 0, 0, 0, 0, 0, 0, 0, 16, 0, 0, 14, 0, 0, 0, 0, 26, 57, 0, 0, 0, 0, 0, 0, 0, 0, 0, 72, 0, 35, 0, 0, 0, 60, 0, 0, 0, 73, 27, 0, 0, 56, 0, 67, 0, 7, 2, 76, 70, 0, 0, 0, 58, 0, 0, 0, 0, 81, 0, 0, 0, 0, 0, 23, 74, 0, 0, 3, 0
|0, 0, 0, 0, 0, 0, 0, 0, 0, 0, 69, 0, 0, 0, 0, 4, 0, 60, 0, 0, 0, 52, 0, 0, 0, 0, 0, 0, 0, 0, 78, 45, 0, 0, 0, 35, 0, 30, 40, 0, 0, 0, 31, 46, 28, 0, 13, 0, 0, 0, 58, 0, 0, 0, 37, 53, 0, 0, 0, 74, 0, 0, 1, 65, 23, 0, 0, 0, 61, 0, 59, 0, 81, 0, 0, 73, 72, 0, 0, 0, 0
|0, 26, 29, 0, 80, 0, 0, 28, 79, 0, 0, 0, 0, 0, 0, 0, 33, 0, 0, 0, 69, 65, 0, 0, 0, 0, 0, 0, 0, 0, 0, 0, 0, 0, 55, 0, 0, 0, 0, 0, 0, 0, 0, 73, 54, 22, 0, 0, 0, 17, 31, 0, 25, 0, 0, 59, 0, 43, 0, 0, 0, 0, 0, 60, 0, 0, 0, 50, 0, 0, 48, 0, 0, 0, 0, 16, 0, 0, 0, 56, 0
|0, 0, 0, 0, 0, 0, 56, 11, 0, 68, 0, 0, 0, 0, 37, 63, 0, 0, 3, 0, 33, 0, 0, 0, 0, 4, 0, 70, 0, 53, 0, 21, 64, 0, 0, 42, 81, 0, 0, 66, 0, 0, 0, 0, 0, 0, 0, 0, 0, 0, 0, 71, 0, 26, 0, 61, 0, 0, 0, 0, 0, 0, 23, 0, 0, 0, 0, 0, 57, 74, 0, 0, 0, 32, 7, 0, 0, 69, 0, 0, 0
|0, 0, 0, 0, 0, 0, 0, 30, 0, 0, 0, 0, 0, 0, 16, 35, 0, 0, 0, 0, 45, 42, 47, 20, 0, 10, 0, 0, 0, 15, 0, 65, 0, 54, 0, 0, 0, 0, 0, 0, 0, 0, 0, 58, 60, 0, 0, 0, 0, 0, 0, 41, 53, 0, 77, 0, 0, 0, 24, 0, 0, 0, 0, 2, 0, 0, 0, 14, 0, 0, 0, 74, 40, 0, 3, 49, 0, 0, 0, 0, 0
|0, 0, 81, 0, 46, 0, 0, 0, 0, 26, 32, 68, 0, 0, 0, 0, 0, 0, 0, 0, 0, 39, 57, 0, 0, 0, 0, 0, 0, 0, 9, 14, 0, 72, 0, 40, 0, 0, 0, 0, 0, 0, 0, 0, 0, 0, 0, 0, 0, 20, 17, 0, 15, 38, 0, 0, 0, 0, 0, 3, 0, 0, 0, 0, 0, 0, 0, 0, 0, 49, 0, 0, 0, 47, 0, 0, 0, 80, 33, 37, 0
|0, 0, 0, 80, 0, 0, 0, 24, 0, 0, 0, 18, 58, 0, 0, 70, 12, 0, 0, 48, 0, 30, 0, 0, 0, 0, 0, 0, 0, 0, 0, 0, 43, 49, 0, 33, 0, 0, 0, 53, 77, 0, 66, 15, 0, 0, 68, 0, 37, 0, 0, 0, 0, 63, 0, 45, 0, 0, 55, 0, 0, 0, 10, 47, 0, 0, 52, 0, 64, 0, 0, 65, 0, 0, 59, 75, 0, 56, 0, 0, 0
|73, 25, 20, 64, 0, 0, 59, 49, 0, 0, 42, 0, 0, 0, 0, 0, 69, 38, 0, 0, 0, 0, 81, 70, 0, 60, 0, 0, 0, 8, 0, 10, 30, 0, 0, 0, 0, 11, 0, 44, 0, 0, 0, 0, 2, 46, 0, 0, 77, 0, 0, 0, 45, 0, 0, 0, 0, 0, 0, 0, 0, 0, 0, 0, 0, 0, 1, 80, 5, 0, 15, 0, 66, 0, 79, 0, 0, 63, 0, 61, 0
|37, 0, 0, 0, 0, 61, 0, 60, 0, 59, 0, 0, 0, 76, 0, 0, 0, 0, 0, 15, 0, 0, 78, 0, 0, 17, 0, 0, 0, 0, 0, 0, 35, 77, 0, 0, 29, 0, 0, 0, 0, 0, 0, 0, 0, 0, 26, 6, 0, 0, 73, 0, 0, 34, 63, 0, 0, 0, 0, 33, 0, 0, 80, 0, 0, 0, 54, 0, 69, 27, 0, 72, 0, 0, 0, 20, 25, 0, 48, 64, 19
|40, 47, 0, 0, 42, 0, 0, 0, 0, 0, 0, 31, 0, 71, 0, 0, 0, 0, 0, 0, 3, 0, 0, 0, 7, 0, 0, 0, 0, 0, 0, 19, 0, 0, 16, 0, 0, 24, 0, 0, 20, 0, 0, 0, 57, 0, 35, 0, 0, 0, 0, 51, 76, 5, 0, 0, 0, 0, 0, 0, 0, 0, 0, 59, 41, 0, 37, 0, 0, 0, 0, 0, 0, 72, 0, 0, 0, 0, 0, 0, 0
|0, 14, 0, 0, 0, 0, 0, 35, 72, 0, 0, 52, 0, 0, 17, 30, 0, 0, 0, 2, 0, 0, 0, 0, 18, 0, 31, 0, 0, 0, 0, 0, 0, 0, 0, 0, 36, 0, 16, 70, 0, 0, 0, 0, 0, 39, 0, 21, 0, 0, 48, 0, 0, 0, 0, 29, 0, 0, 0, 0, 0, 0, 0, 0, 3, 0, 0, 33, 0, 0, 0, 0, 0, 0, 0, 0, 0, 0, 0, 0, 8
|0, 0, 0, 50, 5, 0, 0, 0, 10, 74, 0, 47, 0, 0, 0, 0, 34, 0, 22, 0, 0, 0, 28, 0, 0, 0, 0, 0, 0, 71, 0, 0, 0, 0, 0, 0, 0, 0, 0, 0, 19, 0, 0, 0, 0, 0, 62, 0, 0, 70, 75, 0, 66, 0, 0, 0, 0, 37, 46, 0, 17, 0, 0, 0, 0, 0, 0, 0, 0, 13, 0, 0, 0, 0, 41, 69, 0, 31, 0, 0, 0
|0, 0, 0, 38, 0, 0, 0, 0, 0, 0, 37, 0, 0, 0, 3, 23, 0, 0, 0, 0, 0, 0, 19, 0, 0, 33, 72, 0, 0, 0, 48, 0, 0, 0, 0, 36, 0, 0, 0, 56, 0, 0, 0, 0, 0, 50, 7, 0, 0, 0, 0, 0, 0, 40, 0, 0, 0, 0, 0, 0, 0, 0, 34, 11, 0, 0, 26, 0, 0, 67, 0, 0, 0, 0, 0, 0, 0, 6, 44, 0, 1
|0, 0, 5, 0, 62, 0, 0, 64, 0, 0, 73, 0, 0, 78, 0, 0, 0, 81, 56, 0, 0, 17, 0, 0, 22, 0, 0, 0, 0, 0, 0, 0, 0, 0, 29, 0, 0, 0, 80, 36, 0, 0, 0, 0, 0, 0, 47, 59, 0, 0, 72, 0, 0, 0, 7, 0, 0, 0, 12, 42, 23, 0, 0, 10, 0, 0, 15, 0, 0, 0, 0, 75, 0, 0, 0, 0, 0, 0, 0, 0, 0
|0, 0, 0, 0, 0, 60, 0, 10, 0, 0, 0, 20, 0, 0, 0, 76, 55, 62, 0, 37, 0, 0, 0, 51, 0, 29, 0, 78, 3, 0, 0, 0, 0, 22, 52, 0, 0, 0, 0, 0, 0, 0, 0, 0, 64, 0, 11, 0, 0, 0, 0, 0, 0, 2, 0, 0, 0, 0, 0, 31, 0, 35, 5, 0, 42, 32, 0, 0, 0, 0, 0, 0, 0, 49, 26, 0, 0, 59, 47, 0, 0
|0, 13, 0, 61, 0, 0, 33, 0, 0, 0, 0, 36, 0, 0, 58, 0, 66, 0, 0, 0, 0, 0, 9, 12, 0, 0, 2, 0, 0, 48, 0, 0, 70, 0, 72, 0, 0, 77, 0, 0, 0, 30, 0, 0, 0, 19, 0, 0, 0, 80, 0, 0, 0, 0, 0, 0, 0, 0, 0, 65, 0, 46, 16, 0, 0, 37, 0, 0, 0, 79, 0, 0, 53, 0, 0, 0, 0, 24, 0, 0, 44
|59, 0, 0, 0, 0, 0, 40, 80, 0, 19, 0, 0, 7, 0, 0, 1, 52, 0, 0, 63, 0, 0, 49, 0, 46, 0, 0, 31, 81, 0, 21, 5, 0, 0, 18, 0, 0, 33, 0, 0, 22, 9, 0, 61, 0, 0, 0, 0, 0, 0, 0, 0, 24, 0, 0, 27, 45, 0, 0, 0, 74, 0, 0, 0, 67, 0, 70, 53, 0, 0, 0, 0, 0, 0, 0, 0, 0, 0, 79, 0, 0
|0, 0, 72, 42, 22, 21, 54, 0, 0, 0, 0, 49, 29, 0, 59, 0, 75, 0, 0, 0, 0, 0, 0, 71, 0, 0, 0, 0, 0, 0, 44, 46, 74, 56, 0, 45, 0, 51, 0, 69, 0, 0, 17, 0, 0, 68, 0, 64, 0, 0, 61, 15, 78, 0, 0, 0, 47, 0, 73, 0, 0, 20, 0, 0, 0, 0, 63, 19, 0, 0, 28, 0, 0, 35, 0, 0, 9, 0, 36, 0, 65
|65, 44, 0, 0, 0, 0, 30, 16, 0, 0, 22, 5, 0, 35, 0, 0, 51, 0, 0, 58, 0, 0, 0, 0, 64, 0, 0, 0, 0, 0, 0, 6, 0, 38, 20, 0, 62, 0, 34, 0, 59, 81, 0, 0, 0, 0, 0, 71, 0, 0, 63, 0, 39, 0, 0, 79, 37, 0, 0, 68, 32, 0, 15, 0, 0, 8, 0, 0, 52, 0, 0, 2, 0, 0, 0, 0, 69, 0, 0, 0, 0
|0, 0, 0, 4, 6, 26, 0, 2, 0, 0, 46, 0, 0, 0, 0, 0, 0, 12, 0, 40, 62, 0, 0, 0, 0, 81, 0, 0, 0, 0, 0, 0, 0, 0, 63, 0, 0, 0, 0, 0, 0, 0, 0, 0, 0, 49, 38, 0, 0, 0, 70, 0, 0, 0, 66, 0, 0, 0, 41, 9, 0, 0, 0, 0, 47, 0, 0, 0, 80, 0, 0, 0, 39, 0, 0, 0, 0, 0, 0, 43, 58
|0, 0, 0, 7, 0, 43, 0, 0, 0, 0, 0, 37, 0, 0, 28, 0, 0, 0, 0, 36, 75, 0, 30, 0, 0, 0, 0, 73, 0, 0, 0, 12, 0, 0, 0, 0, 0, 0, 0, 0, 41, 0, 0, 0, 0, 0, 52, 0, 9, 0, 0, 34, 18, 0, 24, 0, 0, 0, 0, 6, 40, 67, 0, 81, 0, 0, 0, 0, 3, 31, 13, 0, 0, 0, 0, 0, 0, 20, 0, 21, 0
|0, 0, 0, 0, 0, 0, 8, 0, 0, 34, 50, 0, 56, 0, 68, 0, 17, 0, 10, 65, 0, 0, 0, 76, 66, 0, 0, 0, 0, 23, 53, 0, 0, 0, 0, 0, 49, 0, 0, 0, 0, 0, 0, 0, 58, 0, 0, 0, 0, 0, 0, 0, 13, 0, 0, 0, 0, 0, 0, 36, 0, 0, 0, 0, 54, 72, 0, 26, 0, 0, 0, 60, 12, 0, 0, 0, 81, 0, 0, 0, 0
|55, 34, 0, 0, 0, 0, 0, 0, 14, 0, 0, 0, 0, 0, 0, 0, 0, 0, 51, 0, 0, 0, 0, 0, 33, 52, 17, 0, 0, 0, 0, 0, 0, 0, 0, 0, 0, 64, 0, 0, 0, 0, 0, 79, 0, 0, 0, 0, 0, 0, 0, 60, 7, 65, 10, 11, 16, 15, 0, 50, 0, 0, 0, 0, 0, 0, 22, 0, 0, 72, 0, 0, 0, 0, 0, 76, 0, 8, 80, 40, 0
|0, 0, 0, 29, 0, 0, 16, 0, 0, 22, 0, 6, 42, 50, 0, 0, 58, 0, 0, 69, 0, 47, 0, 0, 0, 0, 0, 0, 0, 0, 0, 0, 12, 60, 0, 0, 40, 0, 0, 0, 33, 0, 0, 3, 0, 0, 55, 0, 15, 0, 0, 52, 0, 17, 0, 0, 0, 46, 0, 0, 0, 75, 21, 0, 0, 0, 27, 0, 0, 37, 0, 7, 0, 0, 0, 0, 35, 0, 25, 81, 68
|0, 0, 0, 0, 0, 46, 0, 0, 70, 40, 0, 15, 0, 52, 0, 8, 0, 0, 0, 0, 19, 0, 50, 0, 4, 0, 0, 0, 51, 0, 0, 0, 0, 0, 0, 0, 0, 0, 0, 0, 0, 0, 0, 69, 0, 0, 32, 0, 30, 0, 0, 13, 80, 0, 0, 0, 78, 58, 27, 54, 0, 0, 64, 0, 14, 74, 60, 0, 0, 0, 17, 28, 0, 0, 0, 44, 0, 0, 0, 0, 0
|80, 0, 0, 0, 0, 0, 0, 0, 0, 0, 0, 28, 0, 0, 57, 0, 59, 0, 63, 0, 0, 0, 0, 0, 0, 0, 0, 40, 24, 0, 0, 22, 0, 0, 21, 78, 51, 0, 0, 0, 0, 0, 0, 0, 0, 0, 0, 0, 16, 0, 0, 0, 6, 0, 0, 0, 48, 0, 0, 34, 0, 0, 53, 0, 18, 46, 0, 12, 0, 65, 0, 58, 0, 0, 64, 0, 7, 0, 69, 0, 0
|0, 0, 62, 11, 0, 0, 58, 19, 0, 0, 0, 0, 0, 49, 76, 0, 0, 31, 0, 0, 59, 0, 0, 0, 0, 0, 0, 0, 0, 65, 0, 15, 0, 0, 79, 52, 0, 0, 44, 50, 0, 0, 24, 42, 0, 73, 0, 68, 0, 34, 0, 0, 0, 22, 43, 0, 0, 23, 0, 55, 81, 0, 35, 0, 77, 0, 0, 0, 0, 0, 64, 0, 0, 16, 0, 0, 51, 12, 29, 0, 0
|0, 0, 0, 65, 0, 33, 0, 0, 0, 69, 0, 0, 0, 0, 0, 0, 13, 0, 0, 39, 0, 0, 11, 0, 9, 21, 0, 14, 64, 0, 0, 55, 0, 58, 75, 0, 0, 28, 43, 0, 0, 60, 0, 0, 0, 0, 46, 0, 38, 0, 0, 0, 81, 0, 32, 76, 0, 0, 29, 0, 0, 0, 0, 51, 0, 52, 0, 0, 68, 48, 0, 35, 47, 0, 0, 0, 0, 73, 0, 22, 0
|12, 0, 0, 0, 0, 0, 0, 0, 0, 21, 0, 0, 64, 0, 0, 0, 16, 0, 45, 56, 55, 46, 31, 0, 49, 0, 0, 17, 27, 0, 0, 37, 61, 76, 0, 0, 0, 73, 0, 0, 0, 0, 0, 6, 35, 0, 36, 63, 0, 74, 0, 0, 0, 0, 42, 0, 0, 0, 0, 0, 44, 33, 38, 79, 0, 0, 57, 29, 2, 0, 0, 4, 0, 0, 0, 0, 0, 0, 0, 0, 0
|22, 68, 3, 0, 0, 0, 37, 21, 18, 1, 55, 51, 0, 0, 0, 5, 0, 0, 15, 0, 0, 0, 0, 0, 0, 64, 62, 23, 0, 0, 0, 0, 0, 0, 44, 0, 16, 0, 0, 0, 0, 0, 52, 0, 77, 0, 2, 0, 43, 0, 0, 0, 12, 0, 0, 73, 0, 80, 69, 0, 0, 41, 72, 0, 0, 0, 67, 38, 0, 0, 0, 63, 33, 0, 20, 0, 42, 0, 46, 0, 0
|0, 0, 8, 0, 0, 0, 0, 0, 7, 14, 68, 67, 33, 0, 0, 0, 0, 0, 0, 0, 0, 16, 0, 0, 80, 72, 0, 0, 1, 0, 0, 0, 0, 0, 50, 54, 0, 31, 0, 0, 49, 0, 0, 0, 0, 0, 0, 24, 0, 0, 0, 0, 0, 0, 0, 0, 0, 0, 0, 0, 45, 0, 0, 0, 19, 0, 0, 0, 0, 0, 0, 0, 0, 0, 15, 17, 34, 0, 0, 0, 3
|18, 0, 0, 0, 0, 10, 0, 0, 0, 78, 77, 17, 0, 0, 5, 38, 0, 0, 0, 0, 26, 0, 0, 0, 0, 34, 0, 65, 15, 22, 4, 0, 0, 0, 1, 0, 0, 0, 0, 0, 0, 0, 0, 76, 0, 72, 64, 27, 0, 75, 0, 0, 0, 11, 55, 41, 79, 0, 0, 0, 0, 54, 0, 62, 0, 0, 0, 0, 43, 19, 0, 0, 0, 0, 0, 14, 3, 51, 58, 0, 66
|0, 0, 0, 16, 69, 0, 14, 0, 0, 0, 23, 0, 79, 0, 52, 0, 0, 0, 0, 0, 35, 0, 0, 0, 0, 0, 0, 0, 0, 3, 0, 0, 0, 0, 0, 0, 44, 0, 0, 0, 0, 0, 77, 0, 38, 13, 0, 8, 21, 0, 0, 58, 54, 24, 0, 0, 0, 76, 75, 0, 68, 0, 0, 0, 0, 40, 36, 0, 0, 0, 65, 0, 32, 1, 0, 67, 59, 4, 41, 60, 0
|0, 19, 0, 3, 0, 66, 0, 0, 26, 48, 0, 0, 80, 0, 0, 0, 0, 0, 18, 0, 0, 0, 0, 0, 0, 0, 0, 0, 17, 0, 54, 34, 0, 0, 74, 50, 0, 0, 0, 0, 72, 0, 0, 31, 0, 0, 0, 28, 69, 0, 0, 0, 55, 0, 16, 0, 0, 0, 0, 59, 0, 0, 63, 15, 0, 78, 47, 0, 0, 0, 0, 0, 23, 0, 0, 0, 0, 0, 0, 0, 79
|0, 0, 59, 0, 0, 72, 0, 0, 0, 0, 0, 0, 0, 0, 0, 0, 0, 0, 58, 80, 0, 0, 38, 0, 0, 0, 0, 64, 76, 0, 0, 31, 0, 25, 0, 0, 0, 0, 0, 0, 3, 0, 0, 0, 68, 37, 0, 0, 0, 0, 0, 22, 0, 0, 0, 77, 71, 44, 0, 0, 0, 52, 0, 16, 0, 0, 0, 0, 0, 0, 0, 0, 0, 0, 0, 0, 0, 33, 0, 0, 21
|0, 67, 0, 9, 0, 74, 0, 0, 46, 0, 58, 0, 3, 20, 0, 0, 0, 0, 0, 60, 0, 0, 0, 0, 0, 0, 32, 0, 0, 0, 0, 0, 0, 0, 0, 0, 66, 80, 28, 0, 57, 64, 0, 0, 40, 63, 0, 0, 61, 18, 47, 0, 0, 48, 72, 0, 0, 0, 0, 0, 0, 29, 26, 0, 0, 0, 0, 0, 39, 0, 0, 13, 0, 0, 22, 0, 0, 0, 0, 0, 0
|0, 0, 49, 0, 0, 0, 0, 17, 44, 0, 0, 35, 0, 0, 0, 0, 0, 0, 0, 74, 0, 0, 63, 33, 0, 0, 0, 0, 0, 0, 32, 0, 28, 10, 0, 0, 0, 0, 0, 54, 0, 0, 9, 0, 0, 0, 0, 0, 0, 81, 0, 62, 50, 0, 0, 0, 1, 0, 58, 0, 0, 64, 0, 0, 0, 0, 7, 68, 0, 0, 0, 69, 0, 0, 0, 0, 0, 0, 0, 24, 0
|0, 70, 0, 0, 23, 31, 0, 0, 0, 0, 7, 0, 0, 47, 41, 0, 63, 0, 48, 0, 0, 0, 20, 0, 30, 0, 0, 0, 0, 0, 26, 0, 0, 0, 0, 73, 0, 0, 0, 34, 0, 0, 0, 0, 0, 0, 60, 0, 0, 0, 76, 4, 0, 78, 17, 0, 0, 0, 10, 0, 0, 53, 0, 0, 0, 0, 0, 0, 12, 0, 0, 0, 64, 29, 0, 0, 0, 0, 0, 0, 0
|0, 0, 0, 62, 0, 58, 0, 0, 77, 0, 76, 32, 0, 0, 0, 0, 81, 44, 0, 0, 0, 0, 0, 0, 0, 0, 0, 9, 0, 33, 0, 70, 0, 0, 42, 72, 2, 0, 0, 0, 0, 0, 0, 0, 0, 0, 0, 53, 0, 0, 0, 67, 0, 0, 38, 0, 13, 0, 0, 0, 0, 0, 0, 26, 0, 0, 0, 79, 11, 0, 0, 0, 0, 0, 71, 0, 65, 0, 74, 0, 47
|64, 0, 0, 0, 0, 1, 0, 81, 0, 15, 0, 66, 0, 0, 0, 75, 0, 0, 0, 0, 11, 0, 0, 3, 0, 14, 49, 0, 0, 0, 0, 41, 0, 63, 0, 61, 0, 0, 0, 26, 0, 53, 79, 0, 0, 0, 0, 0, 0, 0, 77, 0, 0, 0, 0, 0, 0, 0, 0, 57, 67, 0, 33, 0, 0, 0, 0, 0, 6, 22, 0, 0, 0, 0, 73, 0, 0, 0, 17, 68, 0
|0, 0, 0, 0, 0, 45, 0, 0, 0, 0, 60, 75, 51, 0, 0, 0, 0, 0, 0, 0, 0, 0, 0, 39, 25, 0, 0, 0, 0, 64, 0, 29, 68, 0, 26, 41, 0, 0, 13, 0, 0, 47, 0, 0, 0, 65, 42, 62, 0, 27, 0, 63, 30, 0, 0, 0, 0, 0, 23, 58, 0, 0, 0, 0, 0, 4, 0, 0, 33, 0, 0, 0, 0, 0, 0, 19, 0, 0, 1, 0, 0
|0, 60, 78, 66, 0, 0, 0, 0, 0, 0, 0, 12, 0, 4, 34, 36, 0, 0, 2, 0, 0, 0, 22, 0, 0, 0, 0, 32, 0, 0, 7, 0, 0, 0, 0, 0, 24, 74, 59, 0, 0, 0, 0, 0, 46, 0, 0, 0, 1, 0, 0, 18, 0, 0, 0, 40, 0, 0, 37, 56, 0, 6, 0, 0, 0, 0, 0, 0, 48, 35, 0, 0, 0, 0, 54, 0, 33, 0, 0, 0, 49
|0, 0, 0, 0, 0, 0, 0, 0, 20, 0, 66, 16, 0, 0, 0, 0, 0, 0, 0, 0, 0, 76, 72, 0, 0, 0, 65, 0, 0, 0, 0, 81, 0, 0, 0, 0, 1, 0, 0, 3, 53, 33, 0, 28, 0, 0, 0, 25, 58, 0, 0, 0, 64, 0, 0, 0, 0, 0, 22, 44, 49, 0, 68, 0, 17, 0, 0, 0, 0, 0, 0, 0, 63, 70, 60, 0, 80, 0, 34, 0, 0
|0, 79, 0, 2, 0, 19, 0, 77, 43, 0, 25, 3, 0, 0, 33, 0, 0, 0, 8, 0, 48, 78, 0, 23, 62, 0, 0, 0, 0, 0, 0, 16, 0, 0, 61, 0, 0, 49, 68, 18, 0, 55, 22, 64, 0, 69, 0, 0, 0, 0, 71, 0, 0, 0, 0, 0, 10, 0, 0, 0, 63, 0, 0, 0, 0, 0, 74, 0, 0, 0, 0, 44, 0, 0, 81, 0, 0, 0, 0, 4, 50
|0, 0, 0, 0, 76, 0, 0, 0, 0, 67, 49, 0, 0, 21, 38, 13, 24, 0, 0, 0, 0, 0, 4, 0, 0, 0, 77, 0, 0, 19, 0, 52, 0, 0, 0, 0, 0, 0, 0, 14, 0, 0, 15, 0, 17, 0, 5, 35, 0, 0, 0, 0, 0, 0, 60, 31, 0, 33, 0, 0, 53, 16, 0, 0, 0, 55, 0, 0, 28, 0, 0, 0, 73, 40, 0, 0, 27, 0, 0, 0, 0
|32, 0, 0, 0, 0, 0, 64, 0, 69, 30, 0, 61, 59, 0, 0, 55, 70, 56, 43, 21, 12, 0, 33, 0, 0, 0, 18, 0, 50, 74, 0, 67, 0, 1, 0, 39, 0, 0, 0, 0, 0, 0, 0, 0, 0, 0, 0, 0, 0, 53, 0, 0, 0, 0, 0, 0, 38, 0, 0, 0, 0, 0, 0, 0, 0, 73, 0, 63, 0, 0, 0, 0, 0, 0, 28, 26, 44, 76, 0, 0, 0
|0, 0, 39, 73, 0, 0, 44, 0, 0, 42, 0, 0, 0, 0, 46, 50, 0, 76, 0, 0, 0, 0, 0, 0, 0, 0, 0, 0, 0, 0, 0, 0, 53, 0, 0, 0, 48, 0, 0, 0, 16, 69, 35, 0, 0, 0, 0, 0, 47, 0, 34, 70, 38, 0, 0, 26, 5, 0, 0, 0, 24, 0, 0, 0, 20, 65, 0, 64, 8, 0, 0, 67, 0, 0, 61, 0, 78, 71, 43, 0, 0
|0, 0, 0, 8, 0, 0, 15, 0, 33, 71, 0, 0, 0, 64, 1, 0, 0, 6, 0, 0, 0, 0, 0, 0, 0, 0, 42, 0, 0, 0, 0, 23, 0, 44, 78, 13, 0, 9, 0, 0, 52, 79, 0, 0, 65, 0, 50, 0, 0, 0, 0, 24, 0, 39, 57, 18, 0, 28, 0, 70, 0, 3, 41, 0, 80, 69, 14, 0, 49, 0, 0, 0, 0, 0, 0, 0, 48, 7, 0, 0, 0
|0, 59, 54, 0, 49, 28, 0, 0, 0, 79, 0, 63, 8, 0, 77, 20, 0, 0, 0, 38, 0, 0, 0, 0, 0, 7, 0, 0, 0, 0, 76, 58, 0, 36, 0, 0, 0, 0, 0, 11, 0, 0, 72, 0, 56, 26, 0, 0, 0, 48, 0, 0, 0, 52, 30, 0, 42, 13, 0, 0, 0, 0, 0, 0, 21, 0, 0, 5, 70, 43, 0, 0, 0, 24, 0, 0, 16, 0, 0, 65, 0|];