order = 9;
grid = [|0, 77, 78, 0, 0, 0, 54, 27, 7, 22, 0, 12, 29, 0, 0, 11, 63, 0, 0, 0, 0, 0, 0, 8, 0, 0, 0, 0, 0, 24, 0, 0, 17, 0, 71, 0, 0, 14, 0, 0, 68, 0, 0, 65, 1, 0, 0, 0, 58, 37, 0, 0, 0, 0, 0, 0, 18, 0, 0, 0, 0, 0, 5, 0, 59, 33, 0, 0, 66, 47, 0, 28, 0, 0, 6, 0, 0, 0, 0, 0, 0
|0, 43, 47, 0, 0, 0, 50, 48, 1, 21, 0, 0, 58, 10, 0, 4, 61, 0, 70, 0, 0, 0, 0, 81, 0, 80, 0, 72, 0, 0, 0, 3, 0, 0, 0, 0, 0, 0, 0, 0, 0, 0, 31, 0, 0, 0, 0, 55, 0, 2, 69, 78, 0, 0, 0, 0, 0, 0, 0, 0, 29, 0, 26, 0, 14, 0, 0, 0, 0, 9, 0, 0, 0, 0, 16, 0, 0, 0, 0, 0, 0
|71, 55, 0, 0, 63, 0, 72, 0, 0, 0, 0, 0, 0, 81, 0, 0, 66, 0, 21, 14, 0, 0, 0, 18, 0, 0, 0, 4, 0, 0, 0, 35, 0, 0, 0, 0, 45, 0, 0, 56, 0, 0, 0, 44, 0, 0, 0, 0, 0, 0, 0, 0, 0, 0, 0, 0, 0, 0, 0, 0, 0, 0, 61, 0, 36, 0, 26, 24, 0, 0, 0, 40, 0, 0, 0, 0, 0, 0, 5, 0, 0
|0, 32, 0, 0, 0, 0, 0, 0, 0, 0, 0, 2, 0, 0, 64, 59, 0, 0, 0, 0, 0, 0, 0, 0, 0, 0, 54, 46, 0, 0, 0, 0, 0, 0, 0, 0, 0, 0, 12, 23, 0, 0, 20, 0, 0, 36, 0, 66, 0, 72, 0, 26, 0, 0, 0, 0, 0, 0, 0, 0, 73, 6, 0, 53, 0, 0, 0, 0, 0, 0, 0, 0, 0, 0, 0, 0, 0, 7, 0, 48, 10
|0, 81, 0, 0, 0, 0, 0, 0, 0, 0, 55, 43, 0, 6, 0, 0, 0, 0, 0, 0, 0, 59, 36, 73, 0, 0, 0, 0, 0, 0, 0, 29, 56, 0, 0, 27, 0, 0, 71, 0, 18, 0, 0, 0, 0, 39, 0, 24, 61, 20, 0, 0, 0, 0, 0, 0, 0, 4, 0, 0, 47, 74, 0, 42, 0, 0, 0, 49, 23, 0, 0, 35, 0, 45, 0, 60, 68, 30, 58, 72, 0
|0, 0, 0, 62, 60, 0, 0, 0, 0, 0, 0, 0, 0, 0, 72, 0, 0, 0, 5, 26, 0, 76, 48, 0, 0, 10, 0, 66, 44, 57, 0, 0, 0, 0, 0, 0, 22, 74, 34, 0, 0, 0, 0, 59, 0, 0, 63, 0, 0, 0, 0, 54, 0, 49, 0, 0, 55, 0, 24, 36, 0, 0, 0, 80, 13, 0, 0, 0, 0, 0, 50, 0, 41, 56, 0, 27, 0, 0, 0, 0, 64
|0, 0, 0, 0, 45, 0, 0, 0, 0, 0, 0, 0, 0, 0, 0, 0, 0, 0, 0, 53, 0, 0, 0, 19, 44, 0, 0, 0, 0, 0, 0, 0, 0, 0, 0, 0, 0, 27, 30, 72, 0, 0, 0, 41, 39, 0, 0, 0, 0, 71, 0, 0, 74, 0, 0, 14, 33, 80, 0, 60, 76, 0, 0, 20, 0, 0, 0, 0, 0, 0, 58, 0, 0, 0, 0, 4, 0, 0, 0, 0, 0
|30, 0, 0, 0, 0, 0, 15, 0, 0, 36, 0, 0, 0, 0, 45, 0, 46, 41, 0, 0, 29, 0, 0, 0, 0, 7, 24, 0, 0, 0, 9, 0, 69, 0, 0, 0, 58, 0, 67, 0, 0, 0, 0, 0, 70, 0, 44, 34, 0, 0, 0, 0, 0, 0, 0, 0, 0, 31, 8, 0, 54, 0, 81, 0, 62, 0, 0, 60, 0, 0, 0, 0, 0, 0, 59, 0, 42, 3, 0, 0, 0
|0, 75, 36, 10, 0, 0, 0, 0, 0, 14, 74, 0, 50, 42, 0, 0, 30, 0, 72, 68, 4, 0, 0, 27, 0, 0, 0, 0, 33, 0, 0, 0, 0, 0, 0, 0, 63, 0, 81, 61, 0, 25, 32, 0, 16, 0, 0, 0, 0, 0, 0, 3, 45, 0, 0, 0, 64, 0, 0, 57, 41, 0, 0, 71, 0, 0, 0, 0, 21, 0, 0, 0, 0, 9, 18, 0, 0, 0, 0, 0, 0
|72, 0, 0, 0, 0, 42, 0, 68, 0, 39, 0, 0, 46, 0, 26, 1, 0, 0, 0, 0, 0, 0, 0, 0, 0, 0, 0, 0, 0, 0, 0, 0, 52, 0, 0, 0, 0, 0, 0, 0, 80, 0, 7, 0, 0, 0, 0, 0, 14, 0, 0, 0, 0, 0, 0, 0, 0, 0, 0, 21, 60, 0, 0, 0, 75, 0, 35, 0, 0, 0, 36, 2, 0, 0, 0, 0, 0, 25, 44, 0, 71
|0, 0, 0, 63, 0, 64, 0, 0, 0, 0, 0, 0, 68, 34, 28, 0, 0, 0, 0, 56, 78, 23, 0, 0, 0, 35, 0, 0, 0, 0, 20, 0, 0, 0, 27, 0, 0, 0, 0, 0, 0, 0, 0, 0, 0, 0, 0, 0, 0, 1, 43, 0, 81, 0, 77, 0, 0, 0, 0, 0, 13, 0, 0, 39, 45, 0, 33, 79, 0, 0, 0, 58, 74, 0, 0, 22, 19, 0, 0, 0, 5
|2, 0, 0, 0, 0, 0, 0, 50, 0, 0, 47, 0, 17, 4, 0, 0, 58, 0, 0, 0, 22, 48, 70, 33, 0, 44, 0, 0, 69, 77, 0, 72, 0, 0, 34, 73, 0, 0, 65, 62, 71, 52, 0, 0, 6, 0, 21, 0, 40, 0, 0, 0, 0, 0, 0, 0, 0, 0, 0, 0, 0, 0, 0, 0, 0, 67, 0, 55, 0, 0, 0, 61, 0, 0, 0, 0, 0, 0, 57, 0, 0
|0, 79, 0, 30, 0, 33, 0, 0, 0, 0, 0, 0, 0, 78, 0, 25, 0, 0, 47, 7, 0, 4, 0, 0, 0, 0, 36, 68, 0, 0, 74, 0, 0, 0, 6, 0, 0, 60, 0, 0, 0, 0, 0, 0, 0, 0, 13, 0, 44, 58, 0, 0, 0, 62, 0, 0, 0, 0, 0, 0, 37, 0, 0, 0, 54, 0, 0, 0, 0, 0, 0, 0, 0, 0, 32, 67, 0, 0, 2, 0, 0
|0, 0, 0, 0, 58, 0, 0, 0, 62, 0, 0, 0, 3, 0, 0, 0, 0, 14, 0, 0, 0, 0, 0, 55, 75, 0, 0, 11, 0, 45, 0, 0, 0, 0, 0, 0, 0, 0, 0, 0, 0, 0, 0, 0, 0, 30, 0, 0, 15, 54, 0, 0, 67, 0, 0, 69, 27, 74, 68, 38, 20, 23, 0, 0, 0, 0, 44, 81, 0, 0, 0, 0, 56, 0, 0, 16, 0, 33, 0, 0, 0
|81, 0, 0, 18, 44, 0, 0, 0, 0, 13, 0, 0, 0, 0, 0, 0, 0, 0, 0, 0, 0, 0, 0, 0, 60, 0, 0, 0, 0, 0, 0, 0, 0, 0, 19, 0, 0, 48, 45, 0, 16, 0, 0, 0, 0, 61, 0, 71, 3, 0, 0, 8, 0, 56, 79, 0, 0, 1, 0, 0, 0, 52, 54, 0, 30, 0, 23, 0, 12, 0, 24, 0, 0, 0, 0, 0, 0, 0, 0, 0, 0
|0, 0, 0, 0, 0, 0, 48, 0, 77, 0, 0, 0, 0, 0, 0, 0, 81, 0, 11, 2, 6, 0, 0, 0, 40, 0, 61, 17, 0, 0, 0, 0, 0, 0, 78, 67, 0, 54, 33, 0, 0, 0, 0, 0, 0, 0, 72, 0, 39, 74, 0, 70, 0, 0, 0, 0, 0, 0, 0, 46, 0, 0, 0, 49, 47, 0, 53, 0, 0, 0, 0, 22, 0, 65, 0, 62, 0, 0, 0, 0, 0
|45, 0, 0, 0, 65, 55, 0, 23, 0, 0, 0, 0, 30, 0, 0, 0, 0, 0, 0, 0, 0, 0, 0, 0, 0, 3, 0, 71, 0, 0, 0, 0, 39, 0, 63, 0, 0, 0, 68, 0, 0, 0, 0, 0, 74, 0, 0, 0, 0, 41, 0, 12, 0, 0, 0, 0, 0, 7, 22, 0, 0, 0, 47, 0, 4, 0, 21, 0, 0, 31, 0, 0, 0, 0, 0, 0, 0, 0, 0, 0, 0
|27, 0, 15, 0, 0, 0, 0, 0, 0, 0, 0, 0, 0, 19, 0, 64, 70, 0, 0, 32, 0, 68, 0, 0, 0, 0, 0, 81, 10, 29, 0, 0, 0, 0, 75, 0, 39, 0, 66, 9, 0, 0, 0, 0, 0, 0, 0, 0, 0, 0, 0, 0, 0, 0, 0, 0, 57, 58, 0, 0, 0, 48, 0, 0, 0, 0, 0, 0, 0, 40, 0, 0, 0, 0, 0, 0, 0, 0, 0, 0, 0
|0, 0, 0, 0, 24, 52, 11, 32, 0, 0, 77, 0, 64, 51, 0, 0, 25, 0, 37, 0, 0, 0, 0, 0, 0, 18, 0, 0, 0, 0, 0, 0, 0, 0, 0, 44, 0, 0, 0, 6, 0, 0, 0, 71, 0, 79, 0, 0, 0, 0, 0, 0, 56, 0, 0, 66, 0, 46, 0, 0, 0, 0, 68, 54, 0, 0, 9, 28, 0, 0, 0, 0, 0, 0, 0, 0, 0, 45, 0, 0, 0
|0, 0, 29, 0, 0, 0, 0, 0, 0, 0, 0, 6, 7, 0, 0, 0, 0, 0, 0, 0, 0, 13, 0, 53, 0, 0, 0, 0, 0, 0, 0, 0, 0, 0, 0, 0, 0, 0, 0, 0, 0, 0, 0, 0, 0, 0, 0, 51, 68, 0, 0, 19, 0, 0, 2, 0, 0, 0, 0, 0, 0, 0, 0, 0, 0, 0, 0, 0, 0, 0, 47, 0, 0, 0, 0, 26, 0, 18, 0, 0, 0
|0, 0, 0, 0, 0, 0, 23, 75, 0, 0, 72, 0, 0, 0, 58, 0, 0, 0, 0, 22, 61, 0, 0, 0, 0, 0, 0, 0, 0, 47, 0, 0, 0, 76, 0, 0, 0, 0, 0, 78, 0, 0, 0, 54, 0, 0, 0, 59, 0, 0, 39, 0, 0, 0, 0, 0, 49, 0, 31, 73, 0, 0, 0, 0, 0, 0, 0, 0, 0, 68, 0, 0, 0, 42, 0, 0, 0, 0, 0, 0, 0
|0, 16, 0, 54, 0, 9, 0, 0, 20, 0, 46, 0, 47, 0, 79, 21, 42, 11, 28, 0, 0, 0, 0, 0, 0, 29, 0, 0, 0, 0, 0, 0, 0, 14, 0, 0, 32, 25, 0, 58, 0, 0, 0, 0, 68, 0, 0, 2, 0, 65, 0, 0, 0, 53, 55, 0, 74, 0, 17, 0, 36, 0, 70, 0, 0, 0, 0, 15, 0, 0, 0, 0, 0, 0, 0, 0, 0, 31, 0, 56, 0
|0, 3, 0, 0, 0, 0, 0, 0, 0, 0, 0, 0, 0, 0, 0, 54, 17, 0, 81, 57, 0, 0, 0, 0, 2, 0, 0, 28, 0, 0, 0, 0, 42, 0, 0, 65, 73, 4, 0, 39, 0, 0, 0, 10, 9, 26, 18, 58, 0, 8, 29, 43, 0, 0, 0, 0, 0, 0, 0, 61, 0, 20, 0, 30, 0, 14, 0, 0, 71, 1, 13, 0, 0, 0, 0, 75, 0, 0, 60, 68, 0
|55, 25, 43, 0, 0, 0, 0, 56, 0, 0, 0, 0, 60, 0, 0, 0, 4, 0, 0, 0, 0, 20, 63, 66, 0, 0, 0, 70, 80, 0, 0, 0, 8, 51, 0, 0, 0, 37, 0, 0, 0, 61, 35, 0, 0, 0, 62, 0, 46, 0, 0, 0, 0, 30, 0, 0, 13, 0, 14, 76, 0, 0, 19, 0, 0, 0, 40, 0, 0, 0, 52, 53, 0, 48, 0, 0, 0, 0, 0, 0, 77
|0, 80, 0, 0, 0, 0, 0, 18, 0, 0, 0, 36, 32, 0, 0, 0, 0, 0, 19, 0, 75, 27, 0, 9, 0, 0, 0, 79, 0, 39, 56, 0, 53, 33, 64, 34, 0, 0, 72, 0, 0, 0, 0, 0, 0, 67, 60, 0, 0, 13, 0, 0, 35, 7, 0, 0, 0, 25, 0, 0, 10, 0, 65, 0, 0, 61, 0, 66, 0, 0, 0, 0, 0, 2, 0, 58, 20, 0, 0, 0, 0
|0, 0, 71, 0, 0, 0, 0, 67, 66, 16, 2, 0, 24, 0, 43, 0, 0, 15, 0, 0, 0, 0, 58, 0, 0, 32, 0, 0, 0, 0, 0, 46, 0, 0, 0, 0, 80, 52, 0, 1, 0, 0, 0, 0, 55, 0, 0, 0, 41, 21, 57, 0, 0, 74, 12, 0, 42, 0, 0, 0, 75, 0, 0, 0, 0, 0, 0, 0, 0, 0, 0, 6, 0, 0, 9, 53, 0, 0, 0, 0, 25
|46, 65, 0, 19, 0, 0, 30, 31, 12, 0, 0, 0, 0, 55, 0, 0, 0, 0, 38, 39, 0, 0, 0, 67, 0, 0, 0, 13, 41, 49, 0, 0, 60, 7, 74, 0, 0, 0, 0, 0, 43, 0, 0, 0, 0, 0, 0, 15, 0, 0, 1, 6, 0, 0, 72, 0, 9, 0, 0, 8, 0, 0, 0, 0, 0, 0, 11, 0, 0, 0, 0, 0, 0, 0, 0, 0, 62, 0, 0, 0, 61
|26, 0, 0, 0, 0, 0, 0, 0, 0, 0, 67, 4, 65, 64, 0, 0, 0, 0, 0, 50, 68, 0, 2, 0, 0, 0, 0, 78, 0, 28, 22, 0, 0, 0, 0, 0, 0, 0, 0, 0, 0, 0, 0, 0, 0, 0, 6, 0, 0, 0, 0, 0, 0, 0, 0, 0, 12, 0, 0, 0, 0, 0, 69, 25, 0, 62, 0, 74, 0, 46, 0, 0, 0, 0, 47, 0, 5, 0, 66, 0, 0
|0, 27, 0, 64, 47, 0, 16, 0, 10, 0, 58, 0, 0, 0, 59, 12, 79, 49, 0, 13, 0, 0, 0, 0, 0, 0, 0, 0, 0, 0, 0, 63, 0, 0, 68, 0, 0, 1, 0, 0, 0, 0, 0, 0, 0, 0, 0, 0, 0, 40, 0, 0, 0, 0, 0, 0, 0, 0, 0, 0, 2, 0, 0, 0, 0, 0, 0, 0, 24, 0, 0, 0, 75, 0, 0, 0, 0, 41, 0, 25, 38
|32, 0, 46, 0, 0, 0, 0, 77, 0, 0, 30, 0, 48, 0, 36, 39, 6, 0, 0, 0, 19, 0, 14, 0, 0, 0, 0, 33, 0, 0, 21, 0, 0, 57, 40, 59, 0, 0, 47, 10, 0, 15, 0, 0, 0, 0, 0, 0, 0, 7, 4, 0, 0, 73, 74, 0, 0, 0, 0, 63, 0, 0, 0, 0, 60, 0, 0, 0, 29, 0, 0, 0, 0, 0, 0, 0, 50, 0, 0, 0, 0
|48, 0, 0, 0, 56, 0, 18, 0, 25, 68, 41, 62, 0, 0, 55, 0, 23, 0, 0, 0, 0, 0, 0, 0, 0, 78, 0, 0, 54, 53, 0, 75, 0, 0, 0, 0, 0, 0, 0, 60, 0, 0, 34, 0, 13, 5, 0, 0, 0, 81, 0, 0, 0, 50, 0, 0, 52, 0, 16, 0, 0, 0, 0, 0, 27, 0, 0, 8, 44, 0, 22, 0, 0, 37, 0, 71, 6, 0, 0, 0, 0
|0, 58, 0, 0, 0, 0, 33, 63, 0, 50, 10, 0, 0, 0, 0, 45, 0, 0, 0, 0, 0, 0, 0, 0, 0, 20, 0, 0, 0, 65, 6, 0, 76, 0, 3, 0, 59, 75, 0, 0, 0, 80, 0, 0, 0, 0, 0, 0, 0, 0, 0, 0, 0, 0, 0, 19, 0, 0, 39, 27, 0, 0, 0, 0, 0, 0, 0, 26, 0, 41, 0, 1, 0, 0, 43, 0, 0, 72, 0, 0, 0
|0, 6, 17, 0, 4, 78, 0, 0, 0, 0, 0, 0, 56, 0, 0, 0, 0, 0, 0, 0, 0, 0, 0, 38, 0, 37, 58, 0, 51, 0, 0, 0, 0, 0, 72, 0, 46, 0, 0, 0, 0, 0, 3, 0, 5, 0, 0, 0, 75, 0, 35, 24, 26, 0, 0, 0, 0, 0, 0, 0, 0, 76, 0, 0, 77, 0, 2, 13, 0, 0, 0, 0, 0, 0, 42, 0, 0, 0, 0, 0, 0
|0, 0, 0, 0, 0, 7, 0, 0, 0, 0, 0, 0, 74, 0, 0, 0, 72, 0, 0, 75, 0, 0, 0, 0, 0, 56, 0, 0, 0, 0, 71, 0, 44, 0, 0, 17, 0, 0, 26, 0, 0, 0, 63, 0, 0, 0, 0, 1, 0, 27, 46, 0, 0, 0, 0, 0, 14, 0, 0, 0, 11, 0, 6, 10, 0, 0, 45, 21, 0, 35, 0, 52, 0, 0, 0, 0, 81, 0, 0, 0, 0
|0, 0, 0, 0, 0, 0, 0, 0, 55, 0, 0, 0, 0, 69, 0, 0, 78, 0, 0, 6, 0, 0, 32, 0, 0, 0, 27, 0, 0, 0, 0, 0, 0, 0, 10, 41, 0, 0, 76, 0, 19, 0, 0, 0, 0, 0, 0, 0, 0, 38, 22, 20, 0, 0, 0, 0, 0, 65, 0, 0, 0, 9, 49, 0, 0, 0, 0, 0, 48, 0, 0, 80, 0, 7, 0, 73, 14, 40, 0, 0, 79
|0, 0, 0, 0, 0, 0, 0, 0, 29, 15, 0, 80, 0, 0, 0, 0, 0, 0, 0, 11, 0, 0, 0, 0, 7, 0, 0, 0, 0, 30, 0, 77, 67, 58, 0, 0, 0, 6, 23, 0, 57, 0, 0, 0, 0, 64, 47, 79, 0, 0, 34, 0, 0, 0, 0, 0, 45, 0, 0, 22, 0, 25, 0, 0, 50, 0, 61, 0, 0, 0, 59, 0, 0, 0, 69, 0, 0, 0, 0, 60, 33
|0, 5, 0, 0, 0, 0, 0, 0, 0, 76, 40, 0, 0, 0, 0, 0, 0, 0, 10, 79, 0, 0, 0, 0, 0, 46, 38, 0, 0, 0, 0, 0, 0, 0, 0, 0, 0, 0, 0, 48, 0, 0, 0, 0, 43, 0, 23, 0, 0, 0, 0, 0, 11, 0, 0, 0, 0, 12, 69, 62, 56, 0, 36, 0, 0, 0, 66, 51, 0, 0, 27, 18, 9, 0, 0, 72, 59, 0, 0, 63, 60
|0, 0, 25, 0, 0, 0, 0, 0, 0, 0, 0, 54, 0, 21, 0, 48, 34, 0, 0, 0, 0, 0, 0, 0, 0, 0, 0, 0, 0, 0, 64, 0, 0, 0, 0, 0, 44, 0, 0, 0, 63, 0, 0, 0, 0, 0, 0, 0, 0, 0, 0, 0, 0, 38, 0, 73, 72, 0, 57, 0, 46, 0, 27, 0, 1, 0, 0, 40, 52, 0, 0, 0, 0, 0, 0, 0, 26, 0, 0, 0, 0
|0, 0, 0, 0, 23, 0, 0, 0, 0, 0, 0, 49, 15, 0, 0, 0, 0, 63, 0, 0, 12, 0, 0, 0, 0, 53, 0, 48, 0, 0, 0, 0, 0, 17, 0, 0, 0, 7, 40, 20, 30, 0, 73, 1, 59, 50, 0, 0, 19, 0, 28, 64, 72, 0, 0, 0, 0, 0, 0, 0, 0, 0, 0, 24, 0, 0, 0, 0, 0, 25, 33, 0, 0, 46, 0, 0, 71, 0, 0, 78, 0
|0, 71, 0, 53, 0, 0, 0, 0, 30, 0, 0, 0, 0, 0, 0, 6, 0, 0, 0, 0, 0, 0, 20, 0, 0, 0, 0, 0, 0, 0, 2, 18, 0, 0, 47, 0, 0, 0, 28, 0, 10, 0, 0, 36, 78, 0, 35, 0, 0, 0, 67, 0, 0, 31, 0, 0, 16, 0, 0, 0, 52, 0, 0, 48, 0, 0, 0, 0, 0, 0, 0, 0, 42, 61, 0, 0, 0, 0, 24, 8, 40
|59, 0, 0, 72, 40, 0, 0, 0, 0, 57, 0, 46, 0, 0, 0, 0, 56, 0, 0, 0, 0, 0, 54, 0, 0, 0, 48, 76, 0, 25, 0, 0, 0, 0, 0, 35, 79, 0, 0, 0, 0, 0, 0, 0, 0, 0, 0, 0, 0, 0, 0, 0, 0, 0, 18, 49, 19, 0, 0, 0, 0, 0, 0, 0, 0, 0, 0, 0, 0, 32, 0, 65, 0, 0, 0, 1, 0, 0, 0, 0, 0
|63, 0, 27, 0, 0, 0, 0, 0, 0, 62, 0, 0, 0, 0, 7, 0, 0, 0, 0, 0, 26, 0, 0, 3, 0, 76, 0, 0, 0, 0, 0, 0, 45, 0, 0, 56, 0, 0, 0, 0, 0, 0, 14, 38, 0, 0, 0, 0, 0, 42, 0, 0, 0, 0, 70, 0, 10, 0, 0, 0, 0, 0, 31, 0, 35, 9, 0, 0, 0, 49, 0, 54, 0, 0, 55, 0, 18, 0, 0, 0, 0
|0, 0, 65, 0, 0, 0, 68, 0, 78, 0, 20, 0, 0, 36, 38, 51, 0, 0, 0, 0, 0, 0, 0, 59, 0, 0, 0, 0, 0, 0, 0, 0, 0, 53, 30, 0, 0, 61, 5, 67, 0, 31, 0, 0, 71, 0, 0, 27, 0, 48, 0, 0, 0, 3, 0, 0, 0, 54, 0, 0, 0, 41, 0, 63, 23, 0, 0, 50, 0, 0, 6, 0, 0, 52, 0, 0, 0, 0, 0, 57, 0
|0, 31, 70, 0, 0, 0, 0, 15, 0, 0, 0, 0, 0, 0, 68, 0, 26, 0, 44, 0, 0, 0, 22, 0, 80, 0, 0, 0, 0, 0, 49, 0, 0, 75, 54, 0, 42, 64, 0, 0, 0, 0, 0, 27, 32, 0, 0, 21, 0, 0, 0, 0, 0, 0, 0, 1, 0, 63, 0, 0, 0, 0, 0, 5, 0, 0, 0, 36, 0, 19, 0, 0, 0, 0, 3, 0, 13, 0, 0, 0, 0
|67, 0, 0, 0, 48, 0, 1, 45, 35, 0, 0, 0, 18, 0, 0, 0, 0, 0, 25, 0, 5, 72, 0, 0, 78, 0, 63, 0, 0, 0, 69, 0, 0, 0, 0, 0, 0, 0, 0, 0, 58, 68, 0, 0, 0, 0, 0, 4, 0, 44, 0, 60, 32, 0, 11, 61, 51, 53, 0, 0, 0, 0, 0, 0, 16, 0, 0, 0, 15, 0, 0, 17, 0, 0, 0, 0, 0, 0, 75, 0, 29
|0, 0, 77, 0, 0, 25, 0, 0, 0, 70, 15, 0, 0, 0, 0, 42, 44, 0, 78, 0, 59, 79, 0, 0, 0, 0, 13, 0, 0, 0, 72, 69, 0, 67, 0, 0, 33, 18, 10, 0, 0, 14, 0, 0, 0, 0, 61, 0, 0, 0, 0, 27, 0, 0, 0, 0, 30, 0, 60, 64, 0, 62, 0, 0, 0, 0, 0, 0, 0, 0, 45, 0, 0, 0, 0, 0, 53, 63, 0, 65, 0
|75, 49, 40, 0, 0, 0, 0, 0, 0, 72, 0, 0, 0, 0, 0, 0, 52, 28, 2, 0, 0, 0, 0, 0, 0, 0, 0, 0, 0, 66, 0, 0, 68, 0, 0, 0, 0, 0, 0, 0, 0, 0, 0, 58, 46, 37, 36, 0, 73, 64, 0, 4, 0, 69, 10, 34, 0, 32, 78, 79, 0, 18, 0, 0, 0, 0, 0, 56, 0, 0, 0, 0, 31, 3, 0, 5, 38, 0, 0, 0, 14
|0, 14, 0, 0, 2, 0, 47, 20, 69, 0, 78, 58, 0, 60, 0, 61, 0, 0, 0, 37, 0, 34, 0, 0, 0, 0, 0, 0, 0, 0, 19, 0, 0, 0, 0, 0, 0, 0, 0, 0, 0, 0, 0, 4, 0, 0, 45, 0, 0, 0, 0, 79, 0, 0, 0, 0, 67, 0, 46, 0, 43, 21, 38, 0, 0, 0, 0, 0, 0, 0, 0, 0, 59, 0, 0, 51, 70, 62, 0, 0, 0
|0, 0, 0, 0, 0, 37, 0, 0, 0, 0, 0, 0, 0, 0, 74, 17, 36, 0, 24, 0, 0, 0, 0, 77, 0, 50, 0, 0, 0, 0, 79, 28, 47, 0, 0, 0, 0, 0, 0, 0, 0, 0, 0, 23, 0, 78, 0, 0, 0, 0, 0, 34, 3, 68, 0, 0, 35, 0, 15, 0, 0, 72, 0, 0, 0, 0, 0, 0, 0, 0, 2, 0, 0, 0, 1, 25, 0, 0, 30, 42, 0
|0, 0, 0, 0, 0, 0, 0, 0, 0, 0, 35, 0, 8, 26, 0, 27, 0, 0, 0, 23, 0, 0, 0, 63, 0, 0, 0, 41, 37, 0, 0, 0, 65, 0, 53, 0, 68, 0, 51, 0, 66, 0, 0, 11, 0, 55, 0, 81, 0, 0, 0, 0, 0, 77, 0, 0, 0, 49, 0, 0, 0, 0, 0, 0, 0, 58, 0, 0, 0, 0, 21, 33, 60, 0, 74, 0, 0, 0, 0, 0, 80
|19, 63, 0, 70, 0, 0, 64, 0, 0, 4, 0, 0, 0, 0, 3, 0, 0, 0, 0, 0, 0, 0, 0, 0, 0, 0, 10, 0, 50, 15, 61, 51, 59, 0, 0, 0, 0, 0, 0, 26, 0, 0, 0, 0, 0, 0, 53, 0, 22, 0, 8, 0, 33, 0, 9, 0, 80, 0, 0, 0, 0, 0, 0, 0, 78, 39, 71, 0, 0, 0, 0, 69, 0, 0, 0, 0, 0, 79, 0, 0, 0
|0, 0, 0, 0, 0, 0, 0, 29, 0, 59, 0, 0, 0, 0, 0, 0, 50, 0, 48, 60, 57, 0, 69, 0, 39, 65, 74, 2, 0, 0, 0, 0, 0, 0, 0, 0, 0, 34, 0, 0, 3, 0, 0, 0, 75, 0, 0, 0, 0, 0, 15, 0, 54, 0, 0, 0, 81, 0, 0, 0, 0, 0, 0, 0, 0, 0, 0, 0, 0, 38, 0, 0, 0, 0, 0, 0, 58, 4, 0, 0, 0
|0, 0, 0, 78, 80, 1, 0, 0, 0, 0, 0, 0, 12, 0, 41, 0, 0, 0, 0, 0, 0, 32, 4, 0, 0, 0, 0, 0, 60, 0, 0, 0, 0, 0, 46, 3, 0, 0, 0, 0, 61, 0, 0, 0, 0, 49, 31, 0, 0, 0, 21, 30, 0, 44, 0, 0, 0, 0, 65, 0, 63, 0, 0, 52, 72, 0, 50, 59, 0, 42, 0, 0, 0, 0, 0, 56, 0, 0, 0, 13, 48
|0, 7, 0, 0, 0, 0, 0, 17, 0, 10, 29, 23, 0, 79, 1, 37, 22, 34, 0, 0, 0, 0, 0, 0, 31, 0, 11, 77, 0, 0, 0, 0, 64, 20, 0, 57, 0, 78, 0, 0, 65, 0, 0, 0, 0, 0, 0, 0, 28, 0, 38, 0, 47, 0, 71, 74, 0, 40, 53, 0, 68, 0, 0, 0, 0, 80, 49, 0, 5, 0, 0, 25, 0, 27, 0, 0, 0, 0, 15, 0, 66
|13, 0, 0, 0, 0, 34, 3, 0, 33, 0, 0, 0, 1, 0, 0, 41, 0, 0, 0, 73, 0, 0, 0, 44, 6, 79, 0, 0, 81, 0, 0, 12, 28, 0, 0, 22, 0, 0, 0, 0, 0, 0, 43, 0, 0, 0, 0, 0, 0, 0, 0, 0, 0, 0, 78, 0, 0, 39, 21, 0, 0, 0, 0, 0, 24, 0, 0, 0, 0, 0, 0, 0, 0, 0, 0, 0, 0, 0, 10, 0, 0
|0, 0, 57, 43, 25, 0, 0, 61, 0, 0, 0, 33, 0, 0, 0, 14, 0, 6, 0, 15, 0, 0, 0, 0, 23, 0, 78, 0, 0, 74, 0, 0, 58, 0, 0, 72, 9, 39, 0, 0, 0, 3, 0, 8, 0, 0, 0, 60, 0, 53, 11, 0, 0, 20, 0, 0, 0, 0, 0, 75, 0, 10, 0, 0, 0, 42, 0, 0, 31, 0, 0, 0, 30, 0, 0, 0, 0, 0, 0, 0, 0
|0, 46, 39, 0, 0, 0, 42, 22, 0, 60, 0, 47, 0, 0, 0, 0, 15, 0, 0, 1, 77, 0, 3, 0, 0, 0, 0, 0, 0, 56, 0, 0, 0, 0, 0, 69, 41, 21, 70, 65, 0, 11, 55, 0, 0, 76, 0, 0, 0, 62, 0, 0, 0, 0, 0, 12, 0, 72, 0, 0, 0, 28, 0, 0, 19, 27, 17, 58, 35, 0, 23, 0, 81, 0, 71, 0, 0, 0, 20, 18, 0
|15, 0, 80, 0, 0, 0, 53, 55, 0, 17, 70, 38, 0, 0, 51, 0, 0, 59, 0, 0, 0, 0, 0, 0, 30, 0, 76, 0, 0, 0, 43, 0, 3, 0, 79, 0, 0, 0, 0, 0, 0, 0, 0, 13, 0, 0, 0, 63, 0, 0, 0, 45, 39, 0, 0, 48, 71, 69, 0, 0, 0, 0, 2, 0, 0, 0, 0, 0, 0, 16, 0, 0, 0, 0, 58, 74, 0, 0, 0, 54, 0
|0, 0, 1, 35, 19, 0, 71, 0, 0, 0, 0, 0, 62, 0, 0, 0, 0, 0, 31, 0, 34, 25, 0, 57, 48, 61, 0, 0, 68, 0, 0, 0, 0, 0, 0, 53, 16, 73, 0, 0, 0, 58, 0, 0, 0, 0, 8, 0, 0, 0, 0, 17, 0, 46, 0, 0, 0, 59, 0, 0, 0, 0, 0, 0, 0, 0, 0, 39, 0, 0, 44, 0, 0, 0, 0, 33, 60, 0, 0, 14, 0
|68, 0, 63, 0, 0, 0, 0, 73, 0, 0, 0, 0, 81, 0, 67, 0, 0, 0, 0, 0, 0, 58, 38, 11, 0, 0, 14, 0, 76, 0, 0, 0, 0, 0, 0, 0, 0, 0, 0, 0, 0, 59, 0, 0, 0, 0, 16, 3, 6, 26, 0, 0, 0, 0, 0, 0, 0, 0, 64, 0, 0, 0, 50, 0, 0, 0, 0, 0, 7, 2, 0, 0, 44, 0, 0, 0, 78, 0, 51, 0, 0
|0, 0, 0, 0, 0, 70, 7, 0, 0, 3, 42, 27, 0, 48, 61, 44, 0, 0, 51, 0, 0, 0, 8, 0, 72, 0, 0, 0, 0, 5, 18, 0, 77, 0, 0, 0, 0, 0, 2, 0, 34, 28, 0, 0, 0, 0, 0, 0, 35, 43, 78, 0, 0, 0, 53, 0, 0, 0, 66, 68, 0, 63, 0, 12, 0, 36, 0, 0, 0, 0, 0, 32, 0, 17, 0, 76, 0, 0, 11, 0, 0
|0, 0, 0, 66, 0, 0, 0, 0, 0, 0, 0, 0, 19, 0, 0, 0, 69, 9, 0, 0, 18, 0, 0, 50, 0, 0, 0, 0, 0, 44, 0, 21, 0, 8, 23, 0, 0, 0, 0, 0, 0, 1, 0, 0, 0, 0, 7, 0, 27, 25, 0, 72, 28, 36, 52, 0, 0, 0, 41, 0, 0, 0, 0, 0, 0, 0, 0, 0, 0, 53, 0, 0, 0, 16, 0, 0, 43, 0, 0, 29, 0
|78, 0, 0, 44, 77, 59, 5, 0, 0, 0, 28, 0, 39, 22, 34, 0, 0, 12, 36, 70, 0, 19, 0, 0, 0, 68, 0, 60, 0, 0, 0, 0, 0, 0, 61, 0, 0, 0, 0, 0, 0, 0, 80, 0, 54, 13, 2, 0, 31, 0, 0, 23, 0, 40, 0, 0, 0, 9, 0, 49, 0, 24, 58, 65, 0, 0, 0, 62, 0, 81, 0, 20, 0, 0, 0, 38, 0, 0, 0, 69, 0
|0, 0, 35, 0, 0, 0, 27, 0, 0, 44, 50, 0, 63, 70, 0, 36, 0, 0, 0, 0, 2, 0, 0, 0, 0, 0, 0, 53, 22, 0, 0, 0, 19, 0, 0, 0, 48, 0, 0, 0, 0, 60, 0, 0, 73, 0, 0, 0, 0, 0, 55, 0, 0, 0, 37, 0, 0, 71, 0, 41, 0, 0, 0, 0, 43, 75, 0, 25, 0, 0, 67, 0, 0, 0, 0, 18, 33, 0, 0, 0, 0
|0, 0, 34, 0, 0, 47, 0, 0, 0, 0, 14, 15, 42, 0, 0, 0, 0, 0, 3, 19, 0, 0, 35, 0, 76, 45, 0, 0, 0, 0, 0, 0, 0, 0, 0, 0, 38, 80, 0, 16, 0, 0, 0, 0, 11, 0, 28, 39, 30, 57, 0, 0, 0, 0, 59, 0, 0, 0, 75, 69, 22, 0, 0, 73, 0, 0, 0, 29, 0, 66, 48, 0, 0, 55, 0, 0, 0, 0, 0, 0, 0
|14, 67, 0, 0, 70, 62, 55, 39, 0, 0, 81, 0, 71, 38, 0, 0, 0, 0, 0, 0, 47, 0, 28, 0, 8, 15, 37, 0, 0, 0, 16, 0, 0, 0, 0, 0, 0, 0, 0, 33, 21, 0, 78, 75, 58, 0, 0, 0, 0, 60, 0, 0, 40, 76, 0, 9, 0, 0, 0, 0, 3, 0, 11, 0, 0, 0, 0, 0, 0, 0, 0, 24, 0, 0, 0, 0, 0, 43, 41, 0, 50
|22, 26, 54, 0, 0, 48, 0, 0, 0, 66, 0, 30, 16, 0, 11, 0, 0, 0, 32, 0, 43, 0, 0, 0, 0, 0, 0, 0, 0, 0, 0, 0, 33, 0, 24, 45, 0, 3, 0, 0, 40, 71, 0, 0, 0, 0, 29, 0, 56, 0, 0, 0, 0, 67, 14, 79, 0, 0, 0, 0, 0, 0, 0, 0, 0, 0, 0, 72, 0, 62, 0, 0, 58, 0, 77, 0, 0, 1, 38, 0, 0
|0, 44, 0, 0, 0, 0, 0, 0, 51, 33, 0, 0, 0, 27, 0, 69, 0, 45, 0, 0, 0, 0, 0, 0, 0, 11, 67, 0, 0, 0, 66, 70, 0, 0, 0, 0, 0, 9, 0, 0, 23, 65, 41, 0, 35, 0, 0, 0, 0, 0, 0, 16, 0, 0, 0, 72, 0, 0, 0, 0, 0, 0, 0, 0, 57, 54, 74, 0, 0, 0, 0, 0, 0, 0, 8, 0, 56, 0, 0, 0, 0
|0, 0, 0, 0, 75, 0, 0, 0, 0, 0, 0, 0, 0, 0, 0, 22, 0, 25, 0, 0, 0, 74, 0, 0, 71, 0, 0, 0, 15, 60, 0, 0, 0, 0, 39, 32, 19, 0, 62, 0, 0, 69, 0, 0, 0, 0, 0, 0, 0, 49, 0, 1, 68, 81, 0, 0, 0, 35, 0, 0, 51, 0, 0, 9, 0, 0, 13, 0, 33, 0, 0, 21, 7, 79, 0, 0, 0, 14, 0, 0, 0
|0, 0, 0, 0, 69, 0, 25, 0, 0, 0, 1, 0, 26, 65, 0, 0, 21, 0, 0, 66, 0, 0, 49, 0, 55, 0, 57, 0, 63, 0, 0, 0, 0, 13, 18, 0, 0, 53, 8, 42, 39, 0, 27, 0, 0, 0, 74, 0, 0, 61, 0, 38, 0, 0, 0, 0, 0, 0, 67, 0, 0, 0, 0, 0, 0, 0, 0, 0, 0, 45, 0, 0, 0, 0, 19, 0, 80, 20, 0, 0, 0
|0, 0, 0, 9, 0, 0, 0, 3, 0, 74, 0, 0, 0, 5, 0, 18, 0, 0, 0, 0, 0, 0, 0, 0, 0, 0, 0, 43, 78, 34, 14, 0, 0, 0, 0, 0, 0, 0, 0, 45, 0, 0, 0, 0, 0, 59, 0, 0, 0, 0, 0, 0, 0, 6, 0, 0, 0, 0, 10, 19, 0, 0, 0, 0, 0, 0, 41, 0, 0, 58, 0, 4, 15, 0, 57, 0, 0, 0, 0, 67, 0
|5, 0, 58, 0, 59, 0, 0, 8, 0, 0, 0, 0, 0, 0, 47, 0, 0, 0, 0, 0, 0, 0, 0, 0, 18, 0, 4, 0, 65, 0, 67, 55, 21, 0, 62, 79, 66, 22, 0, 0, 0, 0, 0, 0, 49, 0, 3, 0, 23, 0, 36, 0, 0, 0, 0, 0, 0, 0, 0, 0, 74, 0, 0, 0, 0, 0, 80, 0, 0, 0, 40, 0, 0, 72, 0, 0, 0, 71, 17, 0, 0
|10, 0, 0, 15, 9, 0, 0, 0, 0, 56, 0, 18, 0, 0, 0, 0, 0, 0, 76, 0, 50, 0, 0, 0, 0, 0, 0, 0, 0, 0, 0, 0, 13, 0, 0, 0, 0, 20, 48, 54, 0, 0, 0, 0, 0, 0, 79, 49, 0, 0, 0, 0, 0, 72, 0, 81, 0, 0, 0, 0, 0, 0, 0, 22, 0, 0, 0, 0, 0, 0, 0, 0, 0, 0, 70, 23, 0, 29, 55, 0, 0
|0, 0, 41, 0, 0, 6, 78, 58, 0, 0, 66, 68, 38, 72, 0, 0, 0, 0, 0, 44, 0, 69, 0, 0, 32, 0, 0, 0, 0, 81, 0, 15, 0, 62, 0, 0, 28, 51, 0, 0, 0, 0, 0, 0, 0, 0, 0, 61, 0, 0, 0, 13, 0, 0, 0, 0, 0, 0, 19, 31, 0, 29, 71, 0, 0, 76, 55, 48, 0, 0, 0, 0, 0, 0, 0, 0, 0, 65, 0, 0, 0
|3, 0, 0, 0, 46, 0, 0, 14, 0, 64, 0, 0, 44, 24, 37, 8, 0, 0, 0, 0, 0, 0, 57, 0, 79, 0, 0, 0, 77, 2, 54, 66, 35, 0, 0, 0, 0, 0, 15, 0, 0, 33, 0, 0, 26, 0, 0, 32, 0, 68, 0, 53, 0, 0, 0, 0, 6, 30, 0, 72, 0, 0, 39, 0, 0, 0, 0, 0, 81, 0, 0, 0, 0, 74, 0, 0, 0, 0, 0, 27, 0
|0, 0, 0, 27, 0, 0, 0, 0, 0, 0, 61, 26, 0, 0, 0, 31, 0, 0, 66, 0, 10, 0, 0, 15, 1, 0, 0, 0, 0, 0, 0, 0, 0, 12, 0, 24, 0, 0, 0, 14, 0, 0, 0, 0, 4, 0, 48, 56, 8, 33, 0, 0, 0, 0, 0, 0, 41, 17, 0, 53, 0, 79, 0, 0, 9, 0, 0, 0, 0, 78, 32, 13, 0, 60, 0, 59, 0, 0, 49, 7, 0
|0, 0, 55, 0, 0, 0, 0, 0, 0, 0, 0, 0, 0, 0, 0, 0, 74, 0, 0, 0, 0, 0, 30, 26, 46, 36, 0, 0, 0, 0, 0, 68, 48, 0, 0, 0, 0, 59, 0, 0, 0, 0, 0, 0, 0, 0, 0, 0, 0, 6, 0, 0, 0, 43, 0, 0, 70, 18, 0, 0, 0, 0, 0, 0, 12, 0, 0, 10, 62, 75, 0, 0, 0, 14, 0, 0, 0, 0, 21, 0, 0
|0, 0, 0, 0, 0, 71, 76, 0, 68, 0, 0, 10, 55, 30, 32, 0, 0, 0, 0, 0, 0, 0, 0, 0, 67, 0, 51, 0, 0, 63, 0, 0, 0, 0, 0, 0, 0, 0, 0, 0, 0, 0, 0, 0, 23, 0, 0, 0, 0, 0, 0, 35, 0, 45, 0, 65, 0, 0, 0, 0, 0, 0, 9, 19, 0, 0, 0, 57, 37, 80, 0, 0, 11, 0, 0, 47, 0, 0, 0, 40, 0
|0, 50, 0, 0, 0, 0, 0, 24, 0, 20, 39, 0, 0, 0, 48, 0, 0, 36, 63, 0, 70, 0, 0, 0, 0, 0, 0, 0, 0, 0, 1, 38, 0, 0, 0, 18, 0, 0, 57, 0, 0, 29, 0, 0, 45, 0, 0, 0, 0, 0, 0, 62, 0, 60, 0, 0, 0, 52, 0, 0, 49, 75, 0, 0, 0, 0, 0, 0, 0, 0, 0, 47, 0, 0, 0, 0, 0, 61, 46, 0, 0
|0, 0, 45, 0, 0, 0, 0, 70, 0, 0, 0, 0, 27, 80, 0, 0, 0, 57, 0, 0, 0, 0, 41, 4, 0, 0, 20, 0, 0, 0, 52, 53, 40, 0, 0, 0, 65, 0, 0, 0, 0, 62, 66, 0, 79, 0, 0, 0, 0, 0, 58, 0, 0, 0, 0, 0, 32, 10, 0, 0, 0, 0, 0, 14, 0, 0, 0, 35, 68, 26, 0, 0, 0, 0, 0, 0, 0, 0, 0, 0, 0
|0, 0, 0, 0, 0, 0, 0, 12, 0, 0, 0, 0, 0, 0, 0, 0, 0, 0, 0, 0, 0, 0, 0, 0, 29, 0, 0, 0, 0, 0, 75, 0, 0, 21, 0, 61, 0, 69, 78, 31, 0, 0, 0, 19, 0, 0, 0, 37, 0, 0, 0, 0, 46, 0, 47, 20, 0, 0, 0, 0, 0, 0, 0, 0, 33, 0, 79, 5, 27, 54, 3, 0, 71, 53, 0, 0, 0, 0, 0, 81, 34|];