order = 9;
grid = [|0, 0, 0, 67, 0, 0, 0, 0, 19, 21, 0, 0, 57, 0, 0, 0, 70, 53, 0, 0, 0, 22, 0, 36, 39, 0, 0, 0, 0, 0, 37, 0, 0, 0, 0, 0, 0, 0, 13, 0, 0, 41, 0, 0, 44, 0, 0, 4, 0, 43, 0, 0, 0, 0, 0, 0, 0, 62, 0, 54, 0, 0, 0, 25, 0, 0, 0, 18, 0, 0, 0, 52, 0, 0, 0, 0, 0, 30, 80, 0, 0
|0, 22, 0, 43, 68, 0, 0, 1, 0, 61, 0, 0, 0, 0, 0, 0, 0, 37, 0, 78, 0, 0, 0, 45, 0, 0, 15, 0, 0, 56, 0, 0, 0, 0, 0, 0, 0, 0, 34, 38, 0, 59, 0, 0, 36, 7, 0, 0, 64, 27, 0, 0, 0, 12, 18, 30, 0, 25, 0, 10, 75, 0, 0, 0, 0, 28, 0, 0, 0, 5, 0, 0, 0, 11, 0, 0, 0, 0, 0, 0, 0
|63, 0, 0, 71, 0, 0, 39, 0, 6, 22, 0, 0, 0, 46, 19, 0, 72, 30, 0, 55, 0, 0, 0, 28, 0, 0, 41, 0, 0, 0, 0, 0, 73, 0, 69, 0, 0, 62, 0, 0, 67, 0, 0, 0, 0, 9, 0, 0, 0, 38, 44, 0, 0, 0, 0, 13, 65, 0, 0, 0, 0, 0, 79, 0, 37, 0, 0, 0, 47, 0, 77, 61, 0, 81, 0, 66, 21, 0, 0, 59, 0
|0, 0, 40, 73, 0, 0, 31, 0, 0, 0, 0, 0, 45, 0, 0, 0, 0, 15, 0, 0, 0, 0, 0, 0, 0, 0, 0, 0, 0, 0, 0, 0, 0, 0, 0, 53, 22, 63, 30, 20, 0, 0, 0, 0, 0, 0, 41, 0, 0, 0, 0, 24, 18, 0, 69, 0, 0, 0, 0, 0, 0, 0, 0, 0, 0, 0, 0, 0, 0, 0, 0, 34, 0, 19, 57, 8, 0, 12, 5, 16, 0
|75, 21, 0, 0, 55, 37, 0, 0, 0, 0, 0, 0, 0, 43, 0, 66, 0, 64, 0, 0, 0, 0, 0, 0, 0, 0, 33, 0, 0, 0, 0, 0, 4, 0, 0, 0, 0, 0, 18, 51, 7, 0, 0, 77, 0, 0, 31, 54, 0, 0, 0, 40, 60, 0, 0, 0, 0, 0, 0, 0, 35, 50, 0, 44, 0, 0, 0, 0, 0, 0, 0, 0, 0, 58, 0, 0, 0, 0, 0, 39, 0
|0, 48, 2, 0, 33, 0, 0, 0, 34, 75, 4, 0, 0, 0, 0, 41, 0, 13, 19, 0, 18, 0, 0, 0, 49, 0, 0, 0, 0, 5, 81, 0, 0, 0, 0, 0, 0, 0, 8, 0, 28, 39, 21, 0, 0, 0, 0, 80, 0, 0, 0, 0, 59, 67, 77, 51, 0, 63, 22, 27, 38, 72, 0, 0, 0, 73, 0, 0, 14, 0, 71, 70, 0, 69, 0, 45, 0, 61, 0, 47, 0
|0, 0, 0, 74, 32, 0, 0, 0, 0, 0, 0, 0, 0, 0, 0, 0, 0, 0, 0, 0, 0, 0, 0, 0, 0, 29, 59, 0, 0, 26, 0, 67, 77, 33, 18, 0, 0, 0, 0, 0, 0, 1, 64, 0, 0, 0, 0, 57, 46, 13, 79, 0, 73, 34, 12, 0, 0, 0, 0, 0, 0, 70, 0, 0, 0, 0, 3, 22, 0, 0, 0, 0, 0, 0, 0, 4, 0, 48, 0, 0, 7
|0, 0, 0, 0, 0, 7, 45, 0, 0, 0, 0, 0, 0, 0, 0, 62, 0, 0, 0, 14, 56, 80, 0, 0, 0, 0, 0, 0, 0, 0, 0, 0, 0, 0, 9, 0, 0, 0, 32, 69, 75, 0, 0, 0, 74, 0, 0, 0, 53, 30, 36, 0, 28, 0, 0, 0, 55, 0, 0, 33, 58, 0, 0, 0, 0, 0, 19, 57, 0, 49, 12, 40, 0, 0, 0, 70, 0, 42, 22, 0, 79
|49, 15, 8, 0, 29, 0, 0, 0, 0, 0, 0, 18, 65, 28, 34, 0, 0, 0, 0, 0, 0, 0, 13, 0, 0, 71, 0, 59, 78, 0, 75, 36, 22, 44, 0, 64, 0, 0, 0, 0, 0, 37, 0, 0, 45, 0, 0, 0, 39, 0, 0, 0, 72, 74, 3, 2, 17, 0, 19, 0, 73, 47, 4, 0, 21, 0, 0, 0, 0, 58, 31, 0, 0, 0, 0, 0, 0, 0, 0, 0, 0
|0, 0, 0, 0, 0, 0, 0, 0, 0, 0, 0, 0, 7, 0, 0, 0, 54, 32, 41, 19, 0, 34, 16, 0, 76, 0, 0, 0, 0, 0, 39, 14, 0, 0, 0, 0, 73, 0, 0, 0, 0, 0, 3, 80, 0, 0, 23, 21, 0, 11, 0, 15, 0, 27, 0, 25, 0, 64, 0, 0, 0, 0, 0, 0, 0, 0, 0, 0, 0, 0, 13, 79, 0, 6, 0, 0, 0, 40, 0, 0, 0
|0, 0, 4, 0, 21, 0, 0, 0, 0, 49, 37, 0, 0, 0, 67, 6, 63, 0, 0, 0, 0, 0, 0, 0, 0, 10, 0, 0, 0, 8, 68, 40, 0, 70, 0, 0, 33, 0, 79, 64, 0, 0, 0, 0, 0, 0, 0, 0, 0, 20, 0, 0, 0, 0, 0, 0, 0, 59, 39, 0, 57, 2, 0, 0, 48, 0, 0, 0, 0, 0, 0, 32, 0, 77, 0, 0, 0, 0, 0, 43, 0
|26, 0, 0, 0, 0, 0, 0, 0, 0, 0, 0, 0, 68, 0, 0, 0, 0, 22, 3, 25, 64, 48, 5, 77, 81, 0, 79, 0, 57, 17, 0, 55, 80, 0, 0, 0, 0, 0, 0, 0, 0, 0, 24, 0, 35, 0, 36, 0, 0, 12, 69, 6, 78, 18, 0, 7, 0, 0, 0, 0, 0, 28, 0, 0, 0, 0, 45, 2, 0, 0, 60, 0, 0, 65, 0, 0, 67, 38, 0, 10, 73
|0, 72, 0, 0, 0, 0, 0, 29, 35, 5, 0, 31, 0, 0, 0, 17, 0, 0, 0, 0, 0, 0, 0, 14, 0, 0, 63, 0, 0, 38, 0, 16, 0, 69, 0, 0, 0, 0, 0, 0, 0, 0, 0, 0, 0, 0, 60, 0, 0, 0, 0, 7, 61, 0, 71, 0, 0, 0, 33, 0, 0, 0, 0, 0, 36, 0, 54, 0, 0, 0, 0, 0, 0, 79, 0, 0, 0, 0, 0, 0, 0
|10, 0, 0, 12, 0, 0, 0, 0, 0, 0, 0, 0, 0, 78, 51, 0, 41, 0, 0, 37, 70, 0, 0, 49, 0, 0, 0, 0, 72, 0, 3, 77, 0, 0, 75, 0, 36, 0, 0, 0, 25, 47, 0, 0, 30, 0, 0, 50, 0, 0, 0, 0, 4, 0, 0, 0, 0, 0, 46, 0, 0, 8, 0, 0, 0, 0, 34, 0, 55, 0, 6, 19, 0, 0, 0, 0, 0, 0, 0, 28, 0
|0, 0, 0, 0, 50, 0, 16, 0, 0, 0, 0, 0, 0, 0, 14, 64, 0, 0, 0, 57, 0, 0, 0, 0, 0, 0, 78, 15, 0, 4, 0, 0, 0, 0, 0, 0, 0, 0, 0, 0, 0, 12, 0, 0, 0, 0, 0, 72, 0, 0, 81, 0, 66, 0, 0, 0, 0, 0, 0, 0, 0, 0, 0, 10, 70, 76, 0, 42, 38, 0, 0, 75, 0, 46, 0, 0, 7, 0, 0, 11, 0
|0, 0, 68, 0, 0, 0, 0, 0, 0, 0, 58, 40, 70, 23, 73, 15, 77, 0, 0, 80, 0, 0, 0, 0, 0, 12, 0, 27, 0, 0, 0, 19, 10, 0, 0, 9, 0, 0, 0, 61, 0, 0, 2, 0, 0, 0, 0, 79, 0, 0, 5, 0, 0, 0, 6, 32, 0, 0, 0, 53, 13, 0, 35, 59, 49, 0, 39, 67, 0, 0, 0, 0, 42, 0, 8, 33, 0, 36, 0, 0, 0
|0, 77, 0, 0, 17, 0, 58, 0, 64, 12, 0, 0, 0, 0, 0, 0, 0, 0, 61, 0, 26, 0, 0, 0, 0, 0, 66, 0, 0, 0, 13, 0, 0, 0, 0, 0, 0, 0, 0, 0, 9, 52, 67, 21, 0, 0, 0, 0, 0, 0, 0, 0, 0, 0, 0, 0, 0, 0, 0, 49, 0, 0, 0, 0, 22, 63, 0, 0, 0, 31, 29, 50, 0, 0, 0, 68, 0, 23, 0, 70, 19
|0, 25, 0, 0, 0, 0, 0, 0, 0, 0, 0, 0, 60, 0, 0, 26, 0, 0, 39, 0, 68, 50, 33, 0, 20, 13, 0, 0, 0, 28, 0, 54, 64, 0, 0, 34, 5, 0, 0, 0, 0, 0, 59, 0, 0, 0, 0, 0, 38, 0, 0, 0, 0, 0, 0, 1, 0, 0, 0, 36, 0, 0, 0, 0, 0, 61, 0, 0, 37, 0, 0, 0, 49, 0, 0, 0, 0, 0, 0, 0, 0
|0, 33, 0, 38, 0, 0, 0, 55, 0, 77, 0, 0, 0, 0, 23, 0, 0, 0, 0, 45, 0, 0, 44, 52, 0, 16, 0, 6, 0, 0, 0, 0, 0, 0, 0, 28, 20, 0, 0, 0, 0, 0, 0, 0, 0, 0, 8, 0, 0, 0, 0, 0, 0, 0, 0, 0, 0, 0, 0, 58, 70, 0, 0, 0, 0, 0, 0, 0, 11, 0, 0, 0, 0, 0, 0, 0, 75, 0, 0, 0, 80
|0, 0, 0, 9, 0, 0, 0, 0, 75, 54, 27, 0, 0, 0, 0, 0, 31, 49, 0, 0, 0, 25, 0, 0, 0, 0, 0, 62, 0, 0, 61, 76, 0, 0, 23, 0, 0, 70, 0, 41, 73, 0, 0, 0, 69, 30, 0, 29, 11, 63, 0, 0, 50, 52, 0, 0, 37, 55, 0, 0, 0, 0, 0, 60, 56, 0, 0, 0, 0, 0, 0, 0, 0, 34, 0, 32, 38, 0, 0, 0, 0
|0, 3, 0, 50, 0, 27, 13, 0, 0, 0, 24, 56, 0, 63, 1, 0, 0, 0, 0, 81, 0, 0, 64, 0, 0, 70, 73, 0, 59, 0, 74, 0, 0, 0, 55, 0, 34, 51, 61, 0, 0, 44, 0, 0, 0, 0, 77, 75, 0, 0, 0, 0, 0, 0, 0, 17, 0, 0, 0, 0, 0, 0, 0, 32, 0, 0, 0, 0, 0, 0, 0, 0, 0, 0, 0, 31, 0, 0, 10, 57, 0
|0, 0, 59, 49, 0, 0, 0, 0, 0, 0, 0, 0, 69, 0, 0, 0, 0, 45, 0, 38, 0, 43, 0, 76, 57, 0, 0, 0, 0, 0, 0, 0, 0, 11, 0, 0, 0, 3, 0, 0, 0, 0, 0, 0, 66, 37, 0, 0, 36, 0, 0, 0, 0, 0, 0, 0, 28, 27, 0, 0, 0, 0, 56, 0, 0, 0, 35, 0, 0, 0, 26, 0, 29, 0, 0, 12, 2, 0, 0, 60, 0
|37, 0, 24, 0, 39, 12, 0, 0, 0, 9, 0, 0, 52, 0, 0, 70, 0, 0, 0, 8, 0, 0, 3, 0, 0, 60, 0, 0, 0, 0, 0, 0, 0, 18, 0, 0, 0, 0, 23, 0, 0, 0, 0, 0, 0, 0, 14, 0, 0, 0, 0, 44, 0, 0, 0, 0, 0, 0, 32, 65, 0, 25, 33, 0, 15, 66, 0, 0, 0, 0, 34, 0, 0, 0, 4, 0, 0, 50, 51, 0, 0
|0, 0, 0, 0, 0, 0, 0, 0, 0, 0, 0, 0, 0, 0, 0, 0, 0, 0, 75, 0, 40, 0, 50, 9, 79, 0, 0, 48, 0, 66, 0, 0, 0, 0, 32, 0, 0, 0, 0, 0, 0, 0, 77, 36, 0, 0, 0, 0, 0, 0, 0, 60, 0, 0, 63, 0, 0, 0, 0, 0, 0, 0, 0, 21, 53, 0, 0, 0, 0, 0, 0, 65, 0, 0, 52, 0, 0, 0, 41, 56, 0
|0, 7, 10, 0, 18, 0, 0, 0, 0, 0, 0, 22, 0, 0, 0, 0, 0, 0, 0, 36, 63, 12, 0, 0, 32, 0, 37, 0, 0, 0, 0, 35, 0, 0, 1, 0, 58, 0, 0, 0, 39, 0, 0, 0, 0, 0, 0, 0, 0, 0, 0, 0, 0, 0, 0, 0, 0, 0, 0, 59, 0, 0, 0, 0, 0, 0, 0, 0, 0, 0, 49, 0, 0, 0, 79, 77, 0, 45, 42, 0, 0
|0, 31, 0, 0, 0, 0, 0, 0, 0, 0, 0, 61, 0, 0, 0, 0, 0, 36, 0, 0, 0, 0, 0, 0, 69, 0, 67, 0, 0, 0, 0, 24, 0, 25, 0, 0, 37, 0, 0, 0, 0, 0, 33, 0, 0, 0, 40, 0, 48, 0, 0, 41, 0, 32, 0, 0, 0, 79, 0, 80, 0, 0, 10, 0, 0, 0, 0, 29, 0, 0, 0, 44, 0, 0, 0, 0, 0, 0, 39, 14, 0
|0, 78, 47, 0, 63, 0, 0, 0, 60, 66, 40, 0, 73, 0, 0, 0, 79, 0, 0, 0, 71, 0, 80, 0, 0, 0, 0, 0, 12, 0, 0, 0, 0, 0, 0, 0, 72, 0, 0, 75, 0, 0, 0, 74, 0, 0, 0, 0, 0, 0, 0, 0, 10, 0, 0, 81, 0, 0, 0, 0, 0, 0, 0, 0, 0, 24, 0, 0, 0, 7, 0, 0, 0, 0, 0, 0, 11, 68, 0, 0, 3
|0, 0, 50, 0, 0, 51, 37, 0, 78, 0, 0, 0, 0, 0, 55, 0, 0, 0, 65, 0, 0, 0, 0, 13, 0, 0, 0, 0, 0, 74, 0, 0, 0, 0, 33, 40, 48, 0, 0, 5, 81, 0, 0, 53, 0, 0, 0, 20, 27, 0, 9, 0, 0, 1, 22, 47, 0, 0, 0, 0, 71, 0, 12, 0, 0, 77, 0, 0, 0, 0, 0, 0, 0, 0, 0, 0, 0, 28, 36, 0, 0
|0, 0, 0, 0, 0, 0, 0, 0, 0, 0, 0, 0, 77, 45, 0, 74, 0, 0, 0, 0, 0, 0, 0, 38, 0, 0, 0, 0, 0, 0, 23, 25, 8, 0, 0, 0, 0, 0, 0, 76, 0, 0, 78, 0, 0, 14, 0, 0, 0, 0, 35, 48, 0, 0, 0, 0, 0, 0, 3, 68, 0, 51, 31, 0, 0, 0, 11, 0, 26, 0, 0, 0, 57, 5, 16, 0, 0, 0, 0, 62, 21
|66, 0, 0, 0, 0, 81, 0, 0, 5, 0, 0, 0, 44, 0, 8, 0, 0, 0, 0, 40, 0, 0, 0, 0, 0, 41, 55, 54, 0, 0, 43, 0, 0, 0, 0, 0, 0, 73, 0, 0, 11, 0, 35, 0, 0, 0, 0, 0, 0, 0, 0, 17, 37, 0, 13, 0, 0, 0, 0, 0, 0, 0, 0, 0, 0, 0, 24, 0, 50, 0, 0, 76, 0, 0, 0, 0, 58, 27, 0, 0, 0
|0, 0, 0, 0, 0, 0, 0, 33, 1, 0, 10, 0, 0, 0, 0, 0, 0, 40, 0, 0, 0, 0, 0, 0, 0, 0, 18, 0, 0, 0, 0, 0, 0, 0, 0, 49, 21, 57, 0, 72, 0, 15, 0, 37, 0, 0, 0, 0, 0, 0, 0, 0, 70, 0, 0, 46, 0, 39, 0, 30, 5, 0, 62, 0, 0, 60, 0, 0, 53, 0, 0, 0, 0, 0, 42, 0, 78, 0, 0, 4, 77
|0, 0, 0, 0, 0, 0, 0, 0, 10, 0, 13, 0, 18, 0, 0, 12, 0, 35, 0, 0, 36, 0, 0, 0, 0, 46, 43, 0, 67, 39, 0, 0, 0, 0, 59, 0, 55, 0, 60, 0, 0, 70, 0, 0, 0, 77, 0, 0, 0, 0, 0, 0, 0, 0, 57, 0, 0, 56, 0, 0, 7, 53, 0, 0, 0, 32, 0, 0, 61, 0, 38, 0, 52, 0, 0, 0, 0, 0, 0, 51, 30
|0, 0, 0, 0, 0, 0, 0, 0, 0, 26, 0, 0, 76, 0, 0, 0, 0, 28, 0, 0, 60, 77, 73, 0, 0, 0, 0, 55, 0, 0, 0, 0, 0, 51, 0, 6, 0, 0, 0, 0, 0, 0, 0, 0, 0, 42, 0, 10, 23, 0, 58, 0, 8, 0, 59, 0, 70, 0, 0, 0, 80, 0, 64, 5, 0, 0, 0, 0, 0, 0, 56, 39, 0, 0, 12, 81, 0, 0, 47, 3, 0
|0, 80, 0, 0, 0, 0, 0, 0, 0, 3, 39, 0, 1, 0, 22, 0, 0, 0, 0, 28, 0, 0, 0, 0, 0, 19, 0, 53, 26, 0, 0, 0, 0, 75, 0, 0, 0, 0, 0, 0, 0, 0, 0, 31, 12, 0, 43, 0, 0, 0, 0, 0, 0, 0, 79, 61, 38, 0, 77, 0, 81, 0, 0, 0, 0, 0, 0, 0, 0, 0, 0, 0, 0, 0, 0, 48, 24, 67, 0, 0, 72
|0, 56, 43, 0, 12, 62, 0, 0, 0, 6, 0, 0, 0, 0, 0, 0, 61, 0, 0, 0, 0, 44, 0, 0, 15, 45, 26, 11, 0, 0, 0, 3, 0, 48, 0, 5, 0, 9, 0, 0, 0, 0, 36, 0, 0, 51, 0, 0, 0, 53, 25, 38, 55, 0, 0, 0, 0, 0, 0, 0, 0, 0, 0, 42, 0, 0, 0, 79, 23, 0, 69, 0, 0, 14, 0, 0, 20, 0, 0, 0, 65
|17, 0, 0, 0, 0, 0, 0, 0, 0, 80, 0, 0, 0, 0, 79, 20, 0, 0, 23, 0, 0, 0, 9, 0, 0, 0, 0, 0, 77, 0, 0, 45, 56, 0, 30, 0, 0, 0, 54, 74, 0, 0, 0, 0, 0, 0, 0, 0, 33, 32, 0, 0, 0, 0, 50, 63, 0, 0, 0, 0, 49, 65, 0, 78, 6, 0, 0, 28, 57, 81, 21, 0, 0, 0, 0, 26, 0, 0, 0, 0, 0
|50, 36, 0, 0, 27, 19, 64, 0, 0, 0, 0, 26, 0, 0, 56, 0, 0, 57, 0, 0, 16, 46, 0, 0, 0, 21, 20, 0, 0, 0, 35, 0, 0, 77, 0, 0, 0, 0, 0, 65, 0, 13, 0, 0, 0, 12, 0, 67, 0, 0, 0, 0, 0, 0, 11, 0, 0, 0, 10, 75, 0, 74, 0, 22, 5, 0, 0, 0, 0, 0, 0, 72, 79, 40, 62, 0, 59, 18, 0, 0, 0
|73, 0, 0, 0, 58, 0, 0, 0, 0, 0, 8, 0, 40, 0, 64, 51, 0, 0, 60, 0, 30, 47, 59, 63, 61, 15, 32, 0, 0, 0, 5, 70, 0, 0, 0, 0, 0, 6, 19, 36, 0, 11, 0, 0, 76, 0, 0, 0, 0, 0, 0, 0, 65, 0, 0, 24, 0, 0, 0, 0, 0, 0, 0, 53, 0, 0, 0, 0, 0, 0, 0, 68, 0, 66, 28, 0, 0, 0, 27, 23, 0
|0, 0, 0, 0, 7, 0, 52, 0, 51, 0, 0, 0, 0, 31, 0, 0, 0, 0, 72, 0, 42, 33, 54, 81, 8, 0, 11, 0, 0, 50, 36, 0, 0, 0, 0, 0, 0, 61, 0, 0, 0, 24, 0, 0, 0, 56, 0, 76, 0, 0, 0, 57, 0, 0, 40, 68, 0, 23, 0, 0, 15, 26, 6, 0, 17, 75, 0, 0, 71, 0, 0, 0, 0, 80, 55, 0, 0, 0, 0, 25, 0
|57, 44, 0, 0, 0, 0, 0, 0, 0, 67, 0, 0, 0, 0, 0, 0, 0, 0, 0, 0, 0, 0, 27, 0, 0, 0, 36, 24, 65, 0, 0, 56, 0, 81, 0, 0, 0, 42, 0, 0, 22, 0, 0, 0, 0, 0, 45, 51, 0, 0, 0, 0, 0, 62, 0, 0, 0, 0, 58, 0, 0, 0, 0, 0, 0, 0, 61, 0, 0, 0, 0, 0, 68, 0, 0, 0, 16, 0, 0, 73, 71
|0, 0, 0, 59, 0, 0, 0, 0, 0, 0, 0, 0, 12, 0, 2, 0, 0, 0, 0, 0, 0, 0, 0, 0, 0, 0, 0, 0, 31, 0, 69, 0, 0, 0, 0, 0, 0, 0, 40, 0, 0, 0, 70, 0, 33, 17, 0, 0, 0, 0, 49, 0, 0, 0, 0, 0, 81, 50, 0, 25, 0, 0, 0, 0, 0, 16, 64, 0, 0, 21, 0, 38, 0, 0, 0, 0, 0, 0, 0, 0, 0
|0, 16, 0, 0, 0, 0, 21, 0, 29, 81, 0, 33, 0, 0, 25, 0, 0, 0, 0, 0, 0, 0, 0, 0, 0, 0, 0, 0, 23, 0, 0, 0, 0, 0, 0, 0, 0, 0, 59, 0, 0, 0, 0, 0, 7, 0, 0, 0, 0, 70, 0, 0, 0, 0, 0, 39, 0, 0, 51, 0, 0, 0, 0, 66, 0, 11, 0, 0, 0, 0, 55, 0, 0, 0, 0, 0, 0, 0, 0, 0, 0
|0, 12, 0, 0, 0, 0, 0, 2, 0, 0, 0, 0, 34, 0, 62, 4, 37, 0, 0, 0, 0, 0, 0, 0, 74, 0, 65, 45, 6, 0, 54, 0, 0, 55, 0, 11, 0, 0, 0, 0, 64, 0, 0, 16, 21, 0, 0, 66, 0, 33, 0, 0, 0, 25, 0, 0, 0, 0, 27, 0, 67, 0, 0, 0, 0, 0, 0, 0, 0, 0, 0, 0, 0, 0, 56, 0, 0, 0, 0, 0, 0
|0, 0, 31, 0, 0, 0, 0, 76, 0, 18, 6, 0, 0, 0, 0, 0, 0, 0, 0, 23, 41, 0, 0, 10, 0, 0, 0, 0, 0, 0, 0, 27, 0, 0, 0, 0, 80, 0, 0, 0, 32, 0, 0, 0, 0, 0, 0, 36, 0, 50, 38, 0, 0, 13, 0, 0, 0, 0, 0, 0, 0, 0, 0, 77, 69, 35, 0, 0, 19, 0, 46, 57, 0, 0, 0, 0, 0, 0, 0, 0, 0
|0, 6, 0, 0, 0, 0, 35, 0, 66, 0, 0, 75, 53, 0, 46, 0, 0, 0, 0, 0, 0, 0, 0, 70, 71, 0, 49, 0, 18, 0, 0, 0, 0, 0, 0, 57, 0, 0, 0, 68, 0, 0, 54, 0, 0, 0, 81, 55, 0, 0, 0, 0, 0, 0, 0, 0, 0, 0, 61, 0, 0, 0, 76, 0, 65, 0, 0, 73, 58, 0, 23, 0, 0, 37, 50, 0, 0, 39, 0, 0, 0
|40, 0, 0, 22, 0, 0, 0, 24, 0, 72, 0, 35, 59, 3, 0, 0, 0, 0, 10, 73, 0, 0, 37, 0, 0, 0, 0, 0, 0, 20, 60, 0, 0, 5, 47, 38, 0, 0, 0, 33, 0, 0, 44, 0, 0, 0, 0, 0, 0, 0, 0, 42, 0, 0, 0, 65, 0, 0, 0, 0, 32, 0, 0, 0, 0, 0, 25, 7, 1, 0, 2, 0, 0, 0, 0, 18, 64, 0, 0, 0, 16
|0, 0, 0, 0, 71, 0, 0, 0, 0, 64, 0, 21, 0, 0, 63, 40, 0, 78, 14, 9, 1, 0, 74, 0, 0, 36, 0, 58, 0, 12, 15, 0, 17, 0, 0, 10, 67, 0, 0, 0, 0, 51, 0, 76, 0, 0, 0, 0, 0, 0, 30, 79, 0, 73, 0, 0, 33, 77, 5, 0, 62, 57, 0, 65, 0, 0, 56, 0, 41, 0, 0, 0, 0, 47, 0, 0, 0, 0, 0, 0, 0
|14, 0, 25, 30, 1, 0, 0, 0, 0, 0, 17, 0, 0, 0, 0, 0, 0, 77, 81, 56, 0, 0, 0, 0, 0, 0, 0, 64, 0, 76, 0, 0, 0, 0, 0, 0, 0, 0, 0, 22, 0, 0, 0, 48, 0, 15, 21, 0, 0, 0, 0, 0, 38, 0, 0, 0, 18, 0, 0, 0, 0, 0, 0, 20, 0, 0, 0, 0, 0, 0, 0, 0, 0, 0, 0, 0, 0, 0, 0, 0, 4
|0, 0, 0, 0, 56, 0, 0, 0, 0, 0, 0, 39, 0, 0, 0, 0, 44, 18, 0, 34, 76, 0, 0, 21, 28, 49, 0, 0, 3, 75, 0, 0, 0, 0, 45, 0, 14, 0, 77, 0, 15, 0, 0, 0, 0, 46, 0, 0, 0, 0, 0, 0, 20, 0, 0, 36, 0, 0, 0, 0, 0, 0, 0, 0, 0, 51, 0, 0, 0, 0, 0, 0, 0, 73, 0, 38, 0, 0, 0, 78, 0
|0, 0, 0, 0, 16, 0, 7, 0, 0, 0, 0, 0, 0, 34, 0, 0, 0, 0, 30, 0, 67, 0, 0, 44, 0, 0, 0, 2, 36, 0, 0, 48, 41, 0, 0, 33, 0, 0, 0, 0, 59, 60, 0, 0, 42, 43, 0, 0, 0, 0, 63, 68, 0, 0, 0, 0, 25, 0, 70, 38, 0, 0, 0, 0, 0, 9, 0, 53, 0, 0, 73, 0, 0, 0, 23, 0, 0, 0, 0, 12, 0
|4, 51, 0, 0, 0, 0, 55, 0, 0, 50, 62, 0, 0, 0, 10, 0, 2, 9, 66, 0, 33, 0, 78, 0, 0, 0, 0, 0, 0, 0, 11, 0, 0, 0, 0, 71, 0, 0, 0, 0, 0, 0, 61, 0, 27, 0, 58, 24, 0, 36, 0, 0, 0, 0, 0, 0, 47, 0, 0, 0, 0, 52, 0, 0, 0, 0, 0, 0, 34, 76, 75, 0, 0, 0, 7, 0, 0, 44, 0, 26, 53
|0, 0, 0, 77, 73, 0, 49, 0, 27, 0, 0, 0, 26, 0, 33, 0, 71, 0, 0, 0, 0, 75, 48, 72, 60, 0, 0, 37, 0, 30, 42, 0, 0, 0, 0, 0, 0, 0, 0, 0, 0, 50, 0, 0, 0, 0, 0, 52, 0, 76, 0, 59, 39, 0, 0, 0, 0, 35, 0, 28, 0, 0, 0, 0, 0, 0, 0, 0, 21, 0, 0, 0, 0, 8, 32, 0, 41, 0, 0, 0, 0
|0, 0, 0, 11, 44, 33, 0, 0, 0, 0, 0, 16, 0, 0, 0, 0, 0, 0, 0, 0, 0, 18, 0, 0, 26, 7, 0, 0, 0, 29, 0, 28, 0, 0, 4, 0, 0, 0, 74, 0, 0, 0, 0, 0, 70, 60, 0, 34, 0, 14, 0, 0, 27, 0, 0, 0, 0, 54, 0, 12, 63, 0, 19, 37, 0, 0, 0, 0, 0, 0, 0, 0, 0, 0, 51, 50, 0, 0, 58, 0, 13
|69, 0, 0, 0, 9, 0, 41, 0, 0, 25, 19, 0, 0, 0, 0, 0, 0, 68, 0, 0, 0, 0, 0, 2, 0, 0, 0, 34, 0, 51, 44, 0, 0, 78, 49, 0, 0, 0, 0, 1, 0, 0, 0, 0, 0, 0, 0, 0, 62, 67, 47, 50, 0, 0, 30, 0, 26, 53, 0, 0, 46, 17, 0, 0, 0, 0, 0, 70, 10, 0, 0, 0, 36, 0, 76, 28, 54, 0, 81, 66, 0
|54, 0, 0, 0, 0, 0, 0, 0, 0, 0, 0, 0, 30, 0, 0, 0, 0, 0, 28, 0, 38, 0, 0, 0, 0, 0, 17, 60, 0, 0, 0, 0, 0, 0, 0, 21, 10, 0, 0, 0, 0, 0, 0, 0, 0, 25, 0, 0, 0, 3, 0, 0, 0, 5, 0, 43, 0, 0, 0, 14, 36, 0, 0, 0, 0, 34, 50, 80, 73, 0, 0, 0, 0, 0, 0, 61, 0, 70, 0, 81, 8
|0, 0, 17, 0, 0, 39, 0, 0, 0, 19, 0, 0, 31, 0, 0, 57, 0, 0, 1, 0, 9, 0, 0, 0, 0, 0, 0, 0, 0, 0, 0, 0, 0, 0, 12, 0, 0, 41, 0, 48, 36, 2, 0, 52, 0, 40, 16, 0, 0, 0, 34, 0, 0, 0, 0, 35, 0, 44, 0, 74, 0, 0, 0, 0, 0, 70, 0, 0, 63, 0, 0, 15, 0, 20, 66, 0, 71, 0, 0, 0, 0
|0, 0, 0, 0, 0, 0, 0, 0, 0, 0, 0, 0, 0, 0, 0, 0, 0, 61, 0, 0, 0, 0, 0, 0, 6, 0, 0, 0, 0, 0, 50, 0, 0, 0, 25, 54, 0, 11, 0, 0, 14, 0, 40, 0, 0, 0, 62, 0, 0, 0, 31, 0, 0, 0, 58, 0, 0, 0, 17, 0, 0, 16, 0, 0, 0, 0, 0, 0, 0, 0, 0, 0, 0, 0, 0, 0, 0, 0, 0, 0, 0
|55, 0, 37, 0, 0, 0, 0, 0, 0, 0, 73, 13, 0, 0, 0, 0, 43, 0, 32, 0, 0, 0, 0, 80, 0, 0, 77, 0, 0, 0, 0, 0, 0, 0, 72, 0, 59, 0, 0, 12, 79, 67, 50, 0, 0, 0, 0, 0, 0, 47, 39, 2, 0, 0, 0, 0, 0, 0, 0, 60, 0, 0, 0, 51, 0, 0, 0, 5, 0, 0, 36, 0, 0, 0, 0, 0, 15, 0, 0, 0, 0
|0, 0, 0, 81, 8, 11, 0, 0, 0, 0, 26, 6, 21, 0, 0, 0, 0, 24, 0, 71, 0, 0, 0, 0, 0, 27, 0, 43, 0, 0, 28, 7, 40, 0, 38, 23, 0, 0, 0, 34, 80, 57, 0, 1, 58, 13, 0, 60, 17, 59, 45, 4, 12, 0, 0, 0, 0, 0, 0, 61, 0, 0, 73, 0, 54, 18, 0, 0, 0, 0, 30, 0, 0, 0, 0, 39, 0, 0, 64, 0, 0
|0, 0, 0, 0, 0, 0, 0, 13, 61, 0, 0, 28, 0, 0, 0, 0, 0, 8, 0, 0, 74, 0, 0, 0, 23, 0, 0, 0, 0, 0, 0, 66, 55, 53, 0, 0, 0, 37, 0, 0, 0, 0, 75, 0, 9, 21, 46, 0, 0, 0, 52, 0, 0, 0, 33, 0, 56, 76, 0, 0, 0, 0, 0, 0, 71, 0, 41, 0, 0, 0, 0, 0, 0, 0, 0, 0, 0, 58, 73, 0, 0
|31, 0, 0, 0, 53, 0, 0, 6, 52, 0, 0, 14, 0, 40, 42, 49, 23, 0, 0, 0, 0, 41, 0, 8, 0, 0, 0, 0, 0, 0, 0, 0, 24, 2, 0, 51, 0, 0, 0, 0, 55, 7, 0, 0, 15, 0, 0, 38, 0, 0, 0, 20, 0, 0, 47, 5, 0, 32, 0, 0, 0, 80, 26, 0, 10, 0, 0, 0, 0, 35, 0, 0, 72, 0, 27, 69, 0, 0, 67, 0, 0
|0, 0, 14, 0, 20, 0, 0, 0, 63, 0, 0, 0, 55, 80, 0, 0, 0, 0, 0, 11, 0, 0, 10, 12, 0, 18, 2, 3, 19, 0, 48, 0, 0, 0, 0, 15, 0, 24, 0, 0, 30, 0, 0, 0, 0, 0, 0, 0, 75, 0, 0, 0, 71, 0, 0, 0, 0, 0, 0, 0, 41, 39, 40, 0, 60, 0, 0, 0, 0, 0, 0, 0, 0, 0, 38, 0, 0, 0, 77, 0, 0
|0, 0, 0, 0, 0, 0, 32, 50, 0, 0, 0, 0, 0, 0, 0, 0, 0, 0, 5, 0, 0, 0, 0, 0, 33, 72, 0, 52, 0, 46, 26, 0, 0, 0, 0, 0, 0, 0, 0, 0, 43, 0, 28, 22, 0, 0, 0, 0, 0, 0, 0, 0, 0, 49, 0, 0, 0, 0, 0, 0, 0, 0, 0, 0, 4, 29, 53, 0, 0, 0, 40, 0, 0, 0, 1, 0, 34, 0, 0, 35, 0
|0, 0, 0, 0, 0, 67, 0, 37, 0, 0, 56, 0, 0, 0, 0, 0, 0, 54, 0, 76, 0, 0, 0, 0, 0, 43, 0, 80, 0, 0, 46, 0, 0, 38, 0, 0, 0, 0, 0, 0, 17, 0, 0, 0, 73, 23, 0, 13, 2, 41, 70, 0, 0, 0, 8, 0, 0, 0, 50, 0, 0, 63, 18, 72, 51, 0, 0, 0, 0, 75, 27, 77, 0, 0, 0, 0, 0, 0, 0, 0, 0
|1, 68, 55, 58, 64, 0, 0, 0, 0, 0, 79, 45, 0, 11, 49, 75, 0, 0, 0, 0, 0, 0, 0, 0, 0, 0, 28, 0, 0, 0, 0, 0, 0, 0, 0, 0, 19, 0, 0, 23, 21, 0, 72, 0, 0, 0, 0, 0, 0, 8, 61, 0, 0, 0, 25, 14, 0, 6, 0, 24, 0, 15, 0, 0, 0, 40, 47, 0, 0, 0, 0, 0, 76, 27, 0, 7, 0, 0, 0, 38, 0
|0, 0, 0, 5, 0, 0, 0, 0, 0, 0, 0, 24, 19, 0, 0, 0, 0, 0, 0, 1, 14, 0, 0, 71, 0, 0, 0, 0, 0, 0, 0, 0, 0, 0, 81, 0, 0, 0, 66, 0, 0, 0, 0, 0, 0, 0, 0, 0, 0, 0, 0, 0, 0, 0, 36, 0, 0, 0, 7, 0, 0, 56, 0, 0, 0, 49, 22, 64, 0, 0, 0, 42, 0, 0, 0, 0, 0, 0, 0, 0, 0
|35, 43, 0, 0, 0, 0, 17, 0, 0, 0, 0, 81, 0, 4, 0, 0, 0, 63, 8, 0, 0, 6, 0, 0, 0, 0, 0, 0, 0, 0, 0, 53, 0, 0, 0, 0, 18, 0, 76, 0, 0, 0, 0, 34, 0, 0, 0, 30, 0, 0, 0, 0, 0, 0, 54, 73, 0, 0, 0, 0, 77, 1, 0, 29, 0, 0, 0, 0, 0, 0, 24, 0, 0, 0, 0, 0, 0, 25, 0, 0, 0
|15, 14, 0, 0, 0, 0, 71, 0, 38, 0, 44, 0, 0, 18, 9, 0, 0, 0, 0, 0, 27, 5, 0, 22, 0, 0, 0, 0, 0, 70, 64, 0, 0, 36, 41, 0, 0, 0, 0, 0, 3, 0, 26, 0, 0, 20, 0, 0, 60, 62, 0, 0, 0, 0, 65, 0, 0, 0, 0, 51, 0, 0, 0, 16, 0, 0, 0, 55, 43, 0, 50, 0, 0, 32, 0, 0, 6, 34, 0, 0, 78
|0, 0, 7, 0, 0, 26, 0, 0, 0, 0, 5, 66, 0, 64, 0, 42, 6, 0, 47, 0, 0, 0, 0, 0, 77, 0, 72, 1, 0, 0, 55, 15, 60, 61, 0, 0, 0, 28, 65, 44, 0, 0, 8, 0, 49, 0, 0, 0, 0, 0, 0, 27, 0, 0, 0, 0, 30, 0, 0, 0, 0, 0, 0, 0, 0, 38, 0, 35, 0, 0, 32, 0, 0, 0, 0, 0, 0, 0, 74, 0, 0
|0, 0, 73, 72, 77, 0, 0, 0, 0, 0, 0, 60, 0, 0, 0, 39, 0, 33, 0, 0, 0, 0, 0, 0, 0, 74, 0, 0, 54, 0, 0, 0, 0, 0, 0, 8, 0, 0, 0, 67, 0, 46, 11, 0, 0, 6, 0, 0, 0, 5, 0, 0, 56, 0, 0, 0, 0, 0, 0, 0, 0, 0, 49, 0, 0, 0, 0, 20, 7, 34, 28, 0, 48, 0, 0, 0, 0, 4, 62, 0, 1
|0, 0, 0, 0, 69, 0, 0, 0, 33, 0, 0, 0, 0, 59, 74, 48, 0, 12, 70, 0, 0, 65, 0, 0, 0, 0, 38, 0, 0, 9, 0, 0, 0, 62, 0, 0, 0, 0, 0, 0, 0, 0, 0, 0, 0, 18, 0, 11, 0, 0, 54, 0, 0, 0, 0, 19, 0, 0, 0, 0, 0, 0, 0, 0, 63, 56, 79, 0, 0, 0, 57, 0, 51, 0, 0, 0, 0, 0, 0, 0, 0
|0, 0, 0, 0, 0, 0, 0, 53, 22, 0, 0, 77, 0, 51, 37, 0, 0, 0, 0, 0, 0, 69, 0, 26, 0, 0, 0, 0, 17, 0, 33, 0, 43, 0, 48, 14, 0, 50, 0, 0, 27, 64, 0, 20, 0, 0, 0, 0, 66, 7, 0, 0, 0, 24, 0, 0, 0, 0, 29, 0, 0, 76, 0, 71, 0, 0, 0, 0, 0, 68, 0, 0, 67, 0, 0, 0, 0, 0, 0, 0, 0
|0, 52, 0, 0, 0, 0, 20, 19, 0, 0, 72, 0, 0, 57, 0, 0, 69, 0, 0, 43, 0, 0, 58, 0, 47, 48, 0, 0, 0, 0, 0, 0, 16, 0, 0, 0, 65, 0, 67, 0, 0, 0, 0, 0, 59, 39, 0, 0, 0, 0, 0, 0, 5, 0, 38, 80, 0, 0, 0, 0, 0, 49, 0, 0, 0, 0, 0, 0, 0, 0, 11, 13, 77, 0, 0, 0, 0, 0, 0, 0, 0
|21, 0, 0, 0, 0, 0, 62, 0, 0, 0, 0, 0, 46, 7, 26, 0, 0, 76, 4, 0, 0, 16, 0, 57, 52, 67, 0, 0, 0, 0, 17, 0, 0, 0, 0, 36, 0, 0, 0, 0, 68, 27, 0, 38, 0, 0, 0, 0, 0, 69, 78, 0, 0, 45, 0, 0, 58, 0, 37, 0, 1, 10, 0, 0, 0, 8, 0, 77, 0, 72, 54, 0, 0, 0, 0, 0, 0, 0, 49, 20, 0
|56, 41, 26, 60, 5, 0, 81, 0, 68, 11, 0, 0, 0, 0, 27, 0, 48, 21, 0, 0, 0, 17, 0, 64, 38, 0, 0, 0, 0, 0, 0, 0, 0, 0, 0, 0, 0, 0, 14, 0, 0, 0, 20, 0, 0, 0, 0, 0, 49, 0, 10, 8, 7, 0, 9, 77, 78, 0, 0, 0, 0, 23, 50, 0, 45, 0, 0, 0, 0, 0, 0, 36, 0, 0, 0, 0, 0, 35, 0, 0, 39
|23, 30, 1, 14, 0, 0, 27, 0, 0, 0, 77, 25, 0, 0, 32, 0, 75, 10, 0, 0, 0, 73, 8, 0, 0, 0, 54, 0, 37, 0, 0, 0, 0, 49, 0, 39, 0, 0, 0, 0, 0, 0, 0, 81, 63, 0, 0, 62, 0, 0, 4, 0, 0, 80, 42, 0, 0, 19, 68, 0, 0, 0, 0, 0, 0, 0, 9, 60, 5, 0, 0, 0, 0, 0, 0, 0, 0, 13, 38, 0, 0
|43, 40, 0, 80, 0, 0, 0, 0, 0, 0, 70, 0, 35, 0, 31, 0, 0, 0, 0, 65, 0, 0, 39, 0, 5, 0, 0, 26, 0, 0, 0, 50, 0, 0, 0, 55, 2, 0, 0, 0, 0, 0, 52, 0, 51, 0, 0, 0, 0, 0, 0, 0, 67, 0, 0, 18, 0, 60, 64, 0, 0, 0, 0, 38, 7, 53, 15, 0, 27, 0, 0, 0, 33, 1, 0, 36, 0, 0, 0, 0, 0
|0, 18, 0, 0, 0, 0, 15, 0, 0, 0, 0, 52, 0, 38, 0, 73, 0, 0, 0, 0, 0, 23, 0, 0, 0, 0, 0, 0, 0, 0, 0, 0, 0, 0, 0, 0, 0, 0, 36, 50, 0, 76, 74, 8, 5, 0, 20, 26, 51, 60, 0, 0, 19, 0, 0, 0, 0, 0, 0, 0, 12, 0, 0, 0, 0, 0, 81, 75, 0, 25, 37, 0, 0, 0, 58, 0, 0, 16, 0, 0, 0
|2, 9, 72, 78, 0, 0, 0, 0, 0, 0, 0, 0, 0, 17, 0, 0, 18, 0, 7, 12, 0, 45, 0, 1, 51, 76, 71, 0, 0, 0, 0, 0, 25, 24, 0, 56, 0, 46, 0, 0, 0, 0, 37, 49, 0, 0, 0, 0, 15, 79, 0, 0, 43, 0, 0, 0, 0, 0, 0, 44, 0, 0, 0, 0, 0, 0, 42, 0, 0, 0, 61, 22, 73, 0, 69, 0, 0, 0, 60, 0, 0
|0, 0, 57, 0, 37, 0, 50, 0, 46, 59, 0, 0, 0, 0, 0, 33, 58, 0, 0, 0, 61, 0, 0, 0, 0, 0, 0, 75, 20, 0, 73, 0, 11, 54, 0, 62, 0, 0, 25, 0, 23, 0, 0, 0, 0, 65, 38, 70, 0, 0, 55, 0, 0, 28, 4, 40, 0, 0, 0, 0, 8, 0, 53, 0, 0, 0, 0, 16, 0, 0, 0, 0, 71, 42, 0, 63, 0, 0, 0, 0, 0
|0, 0, 0, 0, 0, 0, 0, 0, 0, 37, 0, 0, 0, 13, 0, 19, 0, 0, 0, 33, 0, 0, 26, 0, 0, 78, 0, 67, 5, 0, 0, 0, 0, 0, 15, 18, 0, 60, 0, 0, 0, 0, 0, 0, 0, 64, 57, 0, 0, 0, 0, 0, 0, 0, 0, 0, 0, 0, 0, 0, 0, 0, 0, 0, 0, 0, 0, 0, 0, 0, 0, 0, 62, 0, 80, 0, 68, 0, 70, 0, 12|];