order = 9;
grid = [|31, 77, 78, 69, 0, 0, 0, 27, 0, 0, 57, 12, 0, 0, 73, 0, 0, 0, 0, 0, 0, 0, 0, 0, 0, 67, 0, 0, 49, 0, 0, 0, 17, 10, 0, 0, 26, 14, 0, 0, 68, 0, 0, 0, 1, 0, 30, 0, 58, 37, 56, 0, 0, 70, 13, 3, 18, 21, 0, 48, 0, 0, 0, 0, 0, 0, 0, 0, 0, 47, 0, 0, 2, 0, 0, 36, 0, 0, 0, 0, 43
|0, 43, 0, 0, 0, 49, 0, 0, 0, 0, 0, 0, 0, 10, 8, 0, 0, 0, 0, 0, 32, 46, 0, 0, 0, 0, 56, 72, 0, 0, 53, 0, 73, 64, 0, 0, 6, 0, 0, 0, 60, 35, 31, 0, 52, 68, 0, 0, 0, 0, 69, 0, 65, 0, 0, 0, 0, 0, 0, 0, 0, 0, 0, 0, 0, 0, 0, 0, 0, 0, 79, 0, 0, 0, 0, 57, 24, 34, 0, 0, 0
|0, 55, 0, 67, 0, 0, 0, 25, 28, 0, 68, 0, 0, 0, 0, 0, 0, 27, 0, 0, 41, 9, 0, 18, 0, 0, 0, 0, 43, 0, 0, 0, 0, 0, 0, 0, 45, 0, 0, 56, 0, 0, 33, 0, 0, 0, 0, 19, 0, 50, 0, 0, 62, 0, 0, 0, 69, 0, 0, 58, 0, 11, 0, 15, 0, 0, 0, 0, 30, 0, 10, 0, 22, 23, 54, 0, 0, 8, 0, 0, 0
|0, 32, 0, 16, 0, 0, 0, 41, 0, 35, 0, 2, 52, 0, 0, 0, 0, 0, 0, 34, 0, 0, 0, 0, 0, 58, 0, 46, 0, 0, 0, 0, 25, 0, 14, 0, 0, 0, 0, 23, 0, 0, 20, 0, 0, 0, 0, 66, 42, 0, 47, 0, 0, 0, 45, 0, 0, 78, 0, 0, 0, 0, 0, 0, 0, 38, 0, 0, 0, 55, 0, 27, 0, 0, 81, 0, 0, 0, 0, 0, 10
|0, 81, 0, 0, 51, 0, 0, 0, 0, 0, 0, 0, 0, 6, 0, 0, 0, 26, 0, 0, 0, 59, 0, 73, 50, 0, 0, 0, 0, 0, 0, 0, 0, 0, 38, 27, 0, 40, 71, 0, 0, 0, 0, 0, 0, 0, 0, 24, 0, 0, 0, 33, 0, 22, 15, 0, 0, 4, 0, 0, 47, 0, 0, 0, 0, 0, 0, 49, 0, 0, 0, 35, 77, 0, 0, 0, 0, 0, 0, 0, 13
|0, 0, 0, 0, 60, 0, 29, 0, 0, 47, 0, 0, 0, 0, 0, 0, 20, 39, 0, 0, 0, 76, 0, 0, 69, 0, 25, 0, 0, 0, 0, 0, 0, 32, 0, 15, 0, 0, 0, 0, 0, 78, 75, 0, 0, 8, 63, 0, 18, 35, 0, 54, 0, 49, 68, 0, 0, 0, 0, 36, 0, 7, 43, 0, 13, 65, 12, 0, 0, 0, 0, 0, 0, 56, 0, 27, 0, 0, 0, 0, 64
|64, 21, 0, 0, 0, 0, 0, 0, 0, 0, 0, 0, 0, 0, 0, 0, 0, 0, 0, 53, 0, 51, 0, 19, 0, 42, 49, 0, 0, 0, 65, 0, 0, 0, 0, 55, 0, 0, 0, 72, 0, 0, 0, 0, 0, 0, 1, 10, 11, 0, 5, 0, 0, 48, 0, 0, 33, 80, 0, 0, 0, 50, 12, 0, 0, 0, 57, 22, 0, 6, 58, 31, 0, 0, 63, 4, 29, 0, 0, 0, 78
|0, 56, 26, 0, 68, 0, 0, 80, 0, 36, 0, 16, 78, 0, 45, 0, 46, 0, 0, 63, 0, 65, 0, 0, 0, 0, 0, 0, 0, 40, 0, 47, 0, 0, 0, 28, 58, 13, 0, 0, 79, 0, 0, 0, 0, 0, 0, 0, 0, 0, 12, 0, 0, 0, 25, 0, 0, 0, 0, 10, 0, 0, 0, 0, 62, 0, 4, 60, 0, 0, 0, 0, 0, 38, 59, 0, 0, 0, 19, 0, 0
|24, 0, 36, 0, 34, 0, 0, 0, 13, 14, 0, 0, 50, 0, 0, 7, 0, 0, 0, 68, 4, 0, 0, 27, 66, 0, 0, 0, 0, 0, 26, 0, 0, 54, 2, 0, 63, 0, 0, 61, 0, 0, 0, 15, 0, 0, 43, 17, 0, 29, 0, 0, 45, 0, 0, 59, 0, 0, 0, 0, 0, 0, 0, 0, 0, 0, 8, 0, 0, 0, 0, 78, 73, 0, 0, 0, 46, 0, 0, 0, 0
|0, 0, 0, 31, 0, 0, 0, 0, 6, 39, 16, 0, 0, 0, 0, 0, 0, 0, 0, 0, 0, 45, 0, 0, 20, 57, 0, 0, 56, 58, 0, 0, 52, 0, 0, 8, 0, 23, 0, 0, 80, 0, 0, 70, 0, 18, 0, 48, 0, 0, 0, 0, 0, 32, 0, 0, 63, 33, 0, 21, 0, 0, 0, 0, 0, 5, 0, 34, 0, 0, 0, 0, 0, 0, 79, 0, 0, 25, 0, 0, 0
|0, 0, 61, 0, 54, 0, 0, 46, 52, 12, 0, 0, 0, 0, 0, 0, 67, 0, 0, 0, 78, 0, 0, 0, 0, 35, 0, 0, 21, 3, 0, 0, 0, 0, 0, 0, 0, 32, 0, 0, 38, 57, 0, 0, 0, 42, 4, 0, 0, 0, 0, 2, 0, 26, 0, 41, 0, 0, 0, 0, 0, 70, 18, 0, 0, 0, 33, 79, 0, 0, 0, 0, 74, 6, 0, 0, 0, 0, 0, 9, 5
|0, 39, 0, 0, 0, 0, 0, 50, 60, 63, 47, 42, 17, 0, 15, 0, 0, 54, 0, 38, 0, 0, 70, 33, 0, 44, 0, 23, 69, 0, 46, 72, 0, 0, 0, 0, 0, 31, 0, 0, 71, 0, 0, 78, 0, 0, 0, 0, 0, 0, 0, 0, 0, 0, 49, 0, 0, 0, 0, 0, 0, 0, 0, 0, 26, 67, 0, 0, 0, 76, 0, 0, 0, 10, 0, 0, 0, 0, 0, 0, 0
|12, 0, 0, 0, 0, 33, 14, 0, 0, 0, 0, 41, 0, 0, 0, 0, 0, 52, 0, 0, 0, 0, 0, 0, 63, 72, 0, 0, 0, 76, 0, 0, 0, 42, 6, 0, 35, 0, 0, 0, 0, 55, 0, 0, 0, 0, 0, 0, 0, 0, 66, 80, 9, 0, 0, 0, 0, 0, 0, 39, 0, 53, 0, 0, 54, 0, 0, 0, 0, 8, 70, 0, 21, 64, 0, 0, 0, 0, 0, 0, 23
|0, 0, 0, 0, 0, 0, 57, 0, 62, 51, 31, 0, 0, 0, 0, 0, 48, 14, 0, 9, 71, 1, 42, 55, 0, 0, 0, 0, 0, 0, 28, 0, 0, 0, 0, 0, 0, 41, 43, 0, 29, 49, 0, 0, 0, 0, 0, 0, 0, 54, 0, 0, 67, 0, 65, 0, 0, 0, 0, 38, 0, 0, 0, 46, 0, 0, 0, 0, 0, 0, 0, 0, 56, 63, 72, 0, 0, 0, 0, 0, 0
|0, 0, 0, 0, 0, 21, 0, 10, 0, 0, 0, 0, 0, 76, 0, 53, 0, 0, 0, 0, 0, 66, 0, 0, 60, 5, 0, 0, 0, 35, 0, 0, 0, 0, 0, 37, 0, 0, 45, 0, 0, 40, 0, 22, 14, 0, 33, 0, 0, 0, 0, 0, 0, 56, 0, 0, 36, 1, 73, 0, 72, 52, 0, 0, 0, 63, 0, 20, 0, 0, 0, 43, 0, 0, 0, 0, 0, 0, 0, 0, 0
|0, 9, 0, 0, 0, 80, 0, 0, 0, 0, 0, 0, 0, 45, 21, 0, 0, 55, 0, 0, 0, 0, 0, 0, 40, 0, 0, 0, 64, 0, 0, 0, 24, 0, 78, 0, 34, 0, 0, 27, 0, 0, 0, 0, 28, 0, 0, 20, 0, 0, 0, 0, 7, 0, 0, 50, 0, 19, 0, 0, 44, 0, 4, 49, 0, 15, 0, 0, 0, 18, 0, 0, 52, 65, 0, 62, 0, 0, 68, 0, 69
|0, 0, 56, 34, 0, 55, 0, 0, 0, 43, 0, 0, 0, 0, 0, 0, 0, 0, 77, 0, 0, 52, 0, 0, 0, 0, 0, 0, 53, 0, 0, 0, 0, 0, 63, 1, 0, 0, 0, 0, 0, 51, 0, 0, 0, 46, 0, 0, 0, 0, 6, 0, 0, 0, 42, 0, 0, 0, 22, 0, 0, 0, 0, 0, 4, 0, 0, 9, 25, 31, 0, 0, 40, 0, 0, 49, 54, 81, 0, 70, 0
|0, 0, 15, 0, 0, 0, 0, 0, 0, 0, 36, 44, 2, 0, 0, 0, 0, 20, 0, 0, 28, 68, 21, 25, 0, 54, 30, 81, 0, 29, 0, 33, 0, 0, 0, 0, 39, 42, 66, 0, 0, 0, 0, 0, 0, 0, 0, 0, 79, 59, 0, 0, 0, 0, 34, 31, 0, 0, 6, 0, 0, 0, 0, 0, 52, 0, 0, 14, 80, 0, 0, 0, 24, 18, 0, 0, 0, 0, 61, 43, 0
|40, 60, 22, 0, 24, 0, 0, 0, 0, 0, 0, 0, 0, 0, 0, 26, 25, 0, 0, 31, 0, 0, 76, 0, 0, 0, 0, 0, 0, 75, 0, 0, 10, 0, 0, 0, 0, 65, 27, 0, 0, 0, 0, 0, 0, 79, 0, 0, 72, 0, 0, 0, 56, 0, 0, 0, 53, 46, 0, 0, 57, 0, 0, 0, 0, 0, 0, 0, 0, 12, 73, 0, 78, 0, 0, 43, 0, 0, 0, 0, 63
|21, 36, 0, 0, 0, 0, 0, 0, 42, 73, 0, 6, 0, 0, 0, 0, 0, 0, 49, 0, 0, 0, 25, 53, 12, 0, 0, 0, 58, 0, 0, 78, 0, 72, 0, 0, 0, 0, 38, 0, 0, 0, 0, 0, 22, 33, 0, 0, 68, 0, 0, 0, 0, 52, 2, 0, 0, 0, 71, 0, 0, 16, 0, 75, 46, 43, 0, 0, 0, 0, 0, 0, 0, 0, 0, 26, 0, 0, 0, 0, 0
|0, 0, 0, 0, 0, 0, 0, 0, 2, 28, 0, 0, 0, 0, 0, 0, 8, 0, 0, 0, 0, 50, 0, 56, 0, 0, 0, 0, 0, 0, 3, 0, 0, 0, 0, 26, 0, 33, 0, 0, 41, 46, 0, 0, 20, 0, 0, 59, 0, 0, 0, 0, 0, 14, 0, 0, 0, 0, 31, 0, 0, 60, 0, 0, 0, 0, 0, 0, 0, 68, 0, 0, 0, 0, 0, 0, 0, 0, 0, 0, 0
|0, 0, 48, 0, 0, 0, 38, 0, 0, 80, 0, 69, 0, 3, 0, 21, 0, 11, 0, 0, 52, 0, 62, 0, 10, 0, 64, 0, 0, 0, 81, 0, 43, 14, 66, 0, 0, 25, 0, 0, 75, 0, 0, 0, 0, 0, 0, 0, 0, 0, 0, 0, 61, 0, 55, 5, 0, 23, 0, 0, 0, 0, 0, 0, 0, 0, 24, 0, 0, 0, 0, 0, 51, 13, 0, 6, 0, 0, 0, 0, 0
|0, 0, 0, 0, 0, 76, 0, 62, 0, 52, 0, 0, 0, 0, 31, 0, 17, 0, 81, 0, 55, 0, 0, 21, 2, 0, 0, 0, 0, 38, 23, 0, 42, 0, 0, 65, 0, 4, 50, 0, 69, 0, 15, 0, 0, 0, 18, 0, 12, 0, 0, 0, 64, 0, 0, 32, 0, 0, 0, 61, 0, 0, 0, 0, 0, 0, 0, 19, 0, 1, 0, 0, 0, 0, 49, 0, 40, 0, 60, 68, 0
|55, 0, 0, 0, 0, 0, 0, 0, 0, 65, 0, 0, 0, 0, 27, 49, 0, 0, 0, 47, 72, 20, 63, 0, 17, 0, 0, 0, 0, 0, 24, 0, 8, 0, 0, 0, 0, 0, 0, 44, 0, 61, 35, 0, 0, 75, 0, 0, 0, 32, 0, 0, 0, 0, 0, 0, 0, 0, 14, 0, 0, 0, 0, 0, 0, 50, 40, 78, 0, 10, 0, 0, 12, 0, 0, 0, 0, 5, 0, 0, 77
|0, 80, 0, 0, 0, 0, 0, 0, 70, 0, 22, 0, 0, 0, 0, 78, 0, 0, 19, 0, 0, 0, 0, 0, 0, 0, 73, 0, 0, 0, 0, 0, 0, 33, 64, 0, 0, 0, 0, 81, 0, 0, 0, 14, 42, 67, 0, 0, 0, 0, 0, 71, 0, 7, 0, 0, 0, 0, 43, 0, 10, 0, 0, 0, 48, 0, 0, 66, 63, 69, 31, 0, 0, 0, 0, 0, 0, 50, 0, 46, 0
|0, 34, 0, 0, 0, 63, 10, 67, 0, 0, 2, 14, 0, 0, 43, 0, 0, 15, 68, 0, 48, 0, 0, 0, 11, 32, 0, 0, 0, 61, 0, 0, 50, 31, 0, 0, 80, 0, 0, 1, 0, 0, 0, 0, 0, 0, 0, 0, 0, 0, 57, 0, 23, 0, 12, 54, 0, 45, 51, 81, 75, 39, 0, 0, 56, 0, 59, 33, 17, 4, 8, 0, 0, 0, 9, 53, 22, 0, 0, 0, 0
|0, 0, 0, 0, 0, 58, 0, 0, 0, 0, 63, 0, 0, 55, 75, 0, 0, 18, 38, 0, 0, 0, 16, 67, 0, 0, 44, 0, 41, 0, 0, 0, 60, 7, 0, 0, 53, 0, 0, 0, 0, 34, 0, 51, 0, 0, 0, 0, 24, 0, 0, 0, 10, 28, 0, 0, 0, 0, 3, 0, 27, 0, 0, 21, 0, 0, 0, 0, 0, 0, 25, 0, 0, 0, 0, 0, 0, 0, 33, 71, 61
|0, 0, 0, 0, 0, 39, 19, 30, 0, 0, 0, 4, 0, 0, 0, 0, 27, 0, 0, 0, 0, 0, 0, 0, 0, 17, 0, 0, 34, 28, 0, 0, 0, 70, 0, 0, 51, 0, 0, 0, 0, 0, 0, 24, 0, 0, 6, 0, 0, 0, 0, 0, 15, 0, 81, 10, 0, 0, 0, 0, 0, 80, 69, 0, 63, 0, 0, 0, 0, 46, 0, 71, 0, 0, 47, 0, 0, 59, 0, 0, 57
|44, 0, 69, 0, 0, 0, 16, 0, 0, 0, 58, 0, 0, 0, 0, 0, 0, 49, 0, 13, 0, 0, 5, 76, 0, 0, 0, 0, 0, 0, 0, 0, 0, 0, 68, 0, 78, 0, 39, 0, 0, 0, 21, 0, 0, 70, 52, 0, 0, 0, 23, 0, 0, 0, 0, 77, 48, 0, 0, 71, 2, 0, 0, 57, 0, 0, 0, 54, 24, 0, 0, 0, 0, 0, 0, 0, 0, 0, 0, 0, 0
|0, 0, 0, 0, 28, 0, 0, 0, 0, 0, 0, 3, 0, 0, 36, 0, 6, 0, 0, 0, 19, 0, 0, 12, 0, 0, 0, 0, 52, 0, 21, 0, 0, 0, 40, 0, 0, 0, 47, 10, 25, 0, 71, 35, 81, 0, 65, 13, 0, 7, 0, 0, 0, 73, 0, 0, 44, 0, 0, 0, 0, 0, 0, 11, 0, 0, 0, 0, 29, 37, 5, 0, 0, 0, 0, 0, 50, 0, 23, 0, 0
|0, 0, 31, 0, 0, 0, 0, 0, 0, 0, 0, 62, 0, 0, 0, 0, 0, 0, 0, 0, 0, 26, 51, 65, 0, 0, 72, 0, 0, 0, 0, 75, 0, 0, 0, 0, 0, 0, 0, 0, 0, 43, 0, 12, 13, 0, 0, 0, 0, 0, 0, 0, 0, 0, 0, 0, 0, 0, 0, 66, 30, 0, 0, 0, 0, 0, 0, 0, 44, 0, 0, 0, 0, 0, 0, 0, 0, 49, 0, 0, 0
|60, 0, 0, 0, 81, 0, 33, 0, 23, 50, 0, 0, 0, 0, 35, 45, 11, 0, 0, 0, 0, 0, 0, 70, 34, 0, 22, 42, 0, 0, 0, 0, 0, 0, 3, 0, 0, 0, 0, 0, 0, 0, 61, 0, 77, 29, 0, 12, 0, 67, 62, 0, 0, 25, 0, 0, 0, 0, 39, 27, 0, 0, 0, 0, 0, 0, 36, 26, 0, 0, 0, 1, 0, 0, 0, 0, 64, 72, 0, 0, 18
|0, 0, 0, 0, 0, 0, 70, 0, 0, 1, 0, 63, 0, 32, 0, 71, 47, 0, 0, 67, 0, 0, 0, 0, 53, 0, 0, 0, 0, 0, 0, 0, 0, 0, 0, 0, 0, 0, 0, 0, 0, 48, 0, 0, 5, 0, 0, 18, 75, 11, 0, 0, 0, 0, 21, 0, 0, 0, 79, 0, 0, 0, 0, 0, 0, 73, 0, 0, 0, 0, 0, 12, 0, 0, 0, 0, 0, 74, 0, 28, 65
|80, 0, 0, 0, 0, 0, 0, 51, 0, 0, 13, 0, 74, 0, 19, 0, 0, 0, 0, 75, 0, 0, 0, 60, 57, 0, 33, 29, 0, 0, 71, 0, 0, 0, 9, 17, 0, 49, 26, 79, 0, 0, 0, 0, 0, 0, 42, 0, 0, 27, 0, 37, 0, 0, 38, 0, 0, 67, 0, 47, 11, 61, 0, 0, 58, 0, 0, 0, 0, 35, 0, 0, 0, 0, 0, 0, 81, 0, 0, 0, 62
|0, 0, 0, 0, 0, 15, 0, 57, 55, 0, 26, 34, 53, 0, 0, 0, 0, 0, 0, 0, 21, 0, 32, 0, 0, 0, 0, 5, 0, 0, 12, 24, 0, 0, 0, 0, 0, 11, 0, 0, 0, 0, 0, 0, 0, 0, 0, 0, 0, 38, 0, 0, 0, 0, 0, 36, 75, 65, 35, 0, 0, 9, 49, 67, 0, 0, 0, 31, 0, 72, 0, 0, 0, 7, 0, 73, 0, 0, 56, 58, 0
|0, 40, 0, 0, 12, 0, 0, 0, 0, 15, 0, 0, 20, 0, 0, 0, 24, 0, 0, 0, 49, 0, 52, 0, 0, 55, 0, 0, 1, 30, 0, 0, 67, 0, 0, 39, 0, 6, 23, 37, 57, 0, 0, 62, 53, 64, 47, 0, 0, 0, 0, 0, 0, 0, 54, 26, 0, 0, 0, 0, 0, 0, 0, 0, 0, 3, 0, 32, 38, 70, 59, 0, 0, 51, 0, 78, 10, 0, 0, 0, 0
|34, 0, 21, 0, 0, 41, 0, 47, 0, 76, 40, 0, 0, 0, 0, 0, 0, 0, 0, 0, 30, 61, 0, 7, 0, 0, 38, 0, 0, 0, 68, 0, 15, 24, 0, 0, 0, 0, 55, 48, 0, 8, 0, 0, 0, 57, 0, 29, 0, 0, 0, 0, 0, 0, 0, 0, 26, 0, 69, 0, 0, 0, 0, 0, 0, 0, 0, 0, 0, 0, 0, 0, 9, 0, 0, 0, 0, 0, 0, 0, 60
|0, 33, 0, 56, 0, 0, 32, 0, 0, 78, 0, 0, 0, 0, 10, 48, 0, 16, 0, 0, 42, 0, 0, 0, 0, 75, 0, 0, 0, 0, 64, 79, 71, 28, 5, 0, 0, 70, 0, 0, 0, 12, 0, 0, 0, 0, 0, 36, 0, 0, 0, 0, 2, 38, 0, 73, 72, 0, 0, 0, 0, 55, 0, 0, 0, 0, 0, 40, 52, 0, 0, 0, 53, 0, 0, 20, 26, 0, 7, 0, 22
|0, 0, 60, 0, 23, 43, 52, 0, 22, 0, 0, 49, 0, 41, 0, 0, 0, 0, 55, 65, 0, 0, 81, 0, 0, 0, 69, 0, 0, 0, 38, 0, 0, 17, 0, 0, 18, 0, 0, 0, 0, 0, 73, 1, 0, 50, 0, 77, 0, 0, 0, 64, 0, 0, 0, 0, 0, 76, 0, 0, 0, 0, 0, 0, 0, 0, 47, 0, 0, 0, 33, 26, 62, 0, 31, 35, 71, 44, 0, 0, 54
|0, 0, 0, 53, 0, 38, 69, 0, 0, 0, 0, 0, 0, 37, 0, 0, 0, 0, 0, 0, 0, 0, 0, 1, 0, 0, 0, 0, 0, 33, 0, 0, 72, 0, 0, 74, 62, 0, 0, 0, 0, 0, 0, 36, 0, 0, 0, 0, 0, 0, 0, 7, 0, 31, 22, 0, 0, 0, 0, 3, 0, 0, 0, 0, 0, 0, 0, 0, 0, 0, 41, 0, 0, 0, 0, 68, 0, 0, 24, 0, 0
|0, 0, 7, 0, 0, 66, 4, 6, 0, 0, 0, 0, 61, 0, 0, 0, 56, 0, 52, 0, 0, 71, 54, 0, 0, 0, 0, 76, 0, 0, 0, 0, 0, 77, 55, 0, 79, 0, 80, 0, 0, 0, 0, 0, 24, 0, 0, 0, 43, 0, 0, 0, 0, 12, 0, 49, 0, 34, 50, 30, 0, 0, 0, 8, 0, 0, 42, 0, 0, 0, 68, 0, 0, 0, 45, 1, 0, 0, 0, 0, 58
|63, 0, 0, 50, 0, 0, 0, 44, 0, 0, 0, 0, 69, 75, 7, 0, 0, 0, 0, 0, 26, 0, 0, 0, 41, 0, 32, 0, 0, 0, 0, 0, 45, 78, 0, 0, 0, 0, 0, 47, 0, 0, 0, 38, 0, 0, 0, 68, 0, 42, 0, 0, 37, 0, 0, 24, 0, 0, 0, 0, 71, 0, 31, 0, 0, 9, 0, 0, 0, 49, 0, 54, 0, 43, 55, 0, 0, 0, 0, 79, 16
|0, 0, 65, 0, 11, 77, 0, 0, 78, 0, 20, 0, 33, 36, 0, 51, 0, 0, 0, 0, 40, 0, 0, 59, 0, 74, 0, 0, 0, 4, 0, 0, 0, 0, 30, 9, 0, 0, 0, 67, 0, 0, 0, 0, 71, 0, 0, 0, 0, 48, 0, 0, 0, 3, 0, 0, 79, 0, 25, 44, 0, 0, 0, 0, 23, 0, 0, 50, 0, 7, 0, 0, 0, 0, 0, 0, 21, 56, 0, 0, 0
|0, 31, 0, 0, 0, 0, 0, 0, 24, 0, 79, 0, 0, 71, 0, 30, 0, 0, 44, 0, 33, 0, 0, 0, 80, 16, 0, 62, 0, 41, 0, 60, 61, 75, 0, 0, 0, 0, 56, 0, 0, 72, 0, 27, 32, 53, 0, 0, 0, 55, 0, 0, 6, 8, 0, 1, 7, 0, 0, 0, 40, 0, 23, 5, 0, 59, 0, 0, 0, 0, 57, 0, 0, 0, 0, 14, 0, 0, 0, 38, 0
|0, 0, 0, 0, 48, 0, 0, 45, 0, 0, 0, 0, 0, 0, 65, 0, 0, 0, 25, 0, 0, 0, 47, 0, 0, 0, 0, 40, 27, 14, 0, 23, 34, 0, 0, 0, 54, 0, 0, 0, 0, 0, 0, 9, 0, 0, 26, 0, 71, 44, 0, 0, 0, 10, 11, 61, 51, 53, 42, 20, 0, 0, 0, 70, 16, 22, 0, 38, 0, 0, 56, 17, 0, 0, 36, 0, 0, 19, 0, 6, 29
|0, 0, 0, 0, 0, 0, 0, 34, 0, 70, 0, 51, 0, 0, 0, 0, 0, 0, 0, 0, 0, 0, 0, 0, 0, 40, 0, 0, 0, 0, 0, 0, 0, 0, 0, 0, 33, 0, 0, 0, 0, 0, 0, 0, 0, 0, 0, 0, 0, 66, 20, 0, 0, 0, 0, 0, 0, 0, 0, 0, 50, 0, 0, 0, 0, 19, 28, 0, 0, 0, 45, 41, 0, 57, 0, 0, 53, 63, 0, 0, 0
|0, 49, 0, 0, 0, 0, 26, 42, 0, 0, 65, 0, 0, 0, 0, 0, 0, 0, 2, 33, 0, 15, 0, 0, 0, 62, 0, 0, 0, 0, 0, 0, 0, 0, 21, 0, 0, 57, 24, 0, 53, 0, 0, 0, 0, 0, 0, 0, 0, 0, 0, 0, 0, 69, 0, 0, 59, 32, 78, 79, 0, 0, 0, 0, 0, 0, 0, 0, 74, 0, 0, 55, 0, 0, 0, 5, 38, 0, 0, 0, 14
|0, 14, 0, 68, 0, 72, 0, 20, 0, 0, 0, 58, 0, 0, 0, 0, 0, 0, 0, 0, 0, 0, 0, 30, 28, 0, 9, 27, 0, 0, 19, 0, 31, 0, 33, 0, 77, 0, 0, 0, 0, 0, 0, 0, 0, 0, 45, 0, 0, 0, 0, 79, 48, 5, 1, 25, 0, 3, 46, 52, 43, 21, 0, 81, 65, 0, 54, 75, 6, 0, 0, 0, 0, 50, 22, 0, 0, 0, 0, 26, 0
|0, 22, 12, 0, 0, 37, 0, 0, 11, 0, 6, 0, 13, 43, 0, 0, 36, 0, 0, 0, 0, 0, 29, 0, 0, 0, 8, 0, 55, 0, 0, 0, 0, 0, 0, 0, 0, 63, 0, 69, 0, 0, 0, 0, 0, 0, 0, 0, 0, 0, 0, 34, 3, 0, 0, 0, 0, 0, 15, 0, 4, 72, 0, 0, 0, 10, 0, 0, 46, 14, 0, 66, 0, 0, 0, 25, 0, 0, 0, 42, 21
|4, 10, 13, 0, 0, 0, 0, 0, 0, 0, 0, 0, 8, 0, 0, 0, 18, 30, 0, 0, 0, 0, 1, 63, 0, 6, 0, 41, 37, 0, 32, 40, 0, 52, 0, 0, 0, 72, 0, 0, 0, 64, 45, 0, 0, 0, 0, 81, 0, 0, 0, 0, 0, 0, 0, 0, 0, 0, 0, 0, 12, 31, 0, 62, 34, 0, 0, 0, 0, 0, 0, 0, 0, 0, 0, 0, 17, 0, 0, 0, 0
|0, 63, 0, 0, 0, 0, 0, 0, 44, 0, 0, 21, 0, 0, 3, 0, 0, 0, 0, 0, 0, 43, 0, 49, 0, 12, 10, 0, 0, 0, 61, 0, 59, 0, 0, 14, 0, 0, 0, 26, 0, 0, 0, 0, 0, 0, 53, 75, 22, 0, 0, 0, 0, 0, 0, 0, 0, 0, 11, 17, 0, 0, 0, 0, 0, 39, 71, 0, 0, 0, 0, 0, 0, 81, 40, 34, 0, 0, 47, 0, 0
|56, 0, 0, 0, 0, 31, 45, 0, 21, 59, 24, 0, 0, 0, 71, 0, 0, 0, 48, 60, 0, 0, 0, 0, 0, 0, 74, 0, 0, 0, 0, 0, 0, 0, 17, 0, 0, 34, 0, 0, 3, 0, 0, 0, 75, 0, 67, 0, 0, 0, 0, 0, 0, 0, 0, 0, 0, 0, 0, 42, 0, 0, 0, 26, 7, 0, 0, 0, 0, 0, 35, 0, 0, 0, 37, 10, 0, 4, 0, 19, 0
|0, 0, 0, 0, 80, 0, 0, 0, 0, 0, 0, 0, 0, 0, 41, 0, 0, 0, 14, 0, 0, 0, 0, 16, 0, 0, 0, 10, 0, 0, 0, 34, 0, 18, 0, 0, 76, 0, 0, 0, 0, 79, 0, 0, 0, 49, 0, 0, 0, 0, 0, 30, 0, 0, 0, 8, 58, 0, 65, 0, 63, 0, 0, 0, 0, 47, 0, 59, 0, 0, 20, 37, 0, 0, 0, 0, 0, 0, 0, 0, 0
|0, 7, 0, 59, 33, 0, 46, 0, 48, 0, 0, 0, 0, 0, 0, 37, 0, 0, 0, 0, 0, 0, 18, 0, 31, 26, 0, 77, 24, 0, 0, 0, 0, 0, 0, 0, 0, 0, 0, 0, 65, 2, 0, 60, 0, 0, 50, 62, 0, 0, 0, 0, 0, 0, 0, 0, 0, 40, 0, 0, 0, 0, 0, 0, 0, 0, 0, 30, 0, 0, 0, 0, 0, 0, 0, 0, 0, 0, 0, 0, 0
|0, 0, 67, 0, 0, 0, 0, 0, 33, 0, 0, 20, 1, 18, 0, 0, 0, 46, 0, 73, 0, 64, 9, 0, 0, 0, 0, 0, 81, 0, 57, 0, 0, 65, 0, 22, 0, 0, 0, 0, 27, 0, 0, 61, 0, 0, 0, 0, 0, 47, 48, 0, 0, 19, 78, 37, 0, 0, 0, 0, 0, 0, 51, 0, 0, 0, 0, 11, 0, 71, 0, 0, 0, 0, 0, 55, 0, 0, 10, 5, 0
|47, 0, 0, 0, 0, 0, 0, 0, 41, 0, 0, 0, 0, 13, 0, 0, 0, 0, 0, 0, 0, 5, 0, 62, 23, 0, 0, 38, 0, 0, 0, 0, 0, 73, 0, 72, 0, 0, 0, 0, 0, 0, 0, 0, 0, 0, 0, 0, 0, 0, 11, 0, 69, 0, 0, 18, 0, 0, 0, 0, 81, 0, 0, 0, 66, 0, 0, 0, 31, 0, 26, 70, 0, 0, 0, 0, 0, 0, 0, 0, 0
|0, 0, 0, 0, 16, 0, 0, 22, 0, 0, 0, 0, 0, 25, 0, 63, 15, 31, 45, 0, 0, 49, 3, 2, 0, 33, 0, 6, 0, 56, 37, 9, 0, 0, 7, 0, 41, 0, 0, 0, 0, 0, 0, 0, 0, 0, 0, 0, 0, 0, 74, 0, 0, 57, 0, 12, 0, 0, 61, 0, 0, 0, 80, 64, 19, 0, 0, 58, 0, 34, 0, 48, 0, 67, 71, 0, 75, 0, 20, 18, 0
|15, 0, 0, 0, 0, 0, 0, 55, 0, 0, 0, 0, 0, 0, 0, 0, 68, 0, 41, 10, 0, 0, 0, 0, 30, 0, 0, 0, 0, 0, 0, 0, 0, 0, 0, 0, 57, 0, 0, 0, 0, 0, 0, 0, 0, 21, 0, 0, 37, 0, 0, 0, 0, 33, 23, 0, 0, 0, 0, 0, 0, 65, 2, 50, 0, 0, 0, 0, 0, 0, 0, 0, 0, 0, 0, 74, 77, 0, 0, 0, 0
|0, 0, 0, 0, 19, 0, 71, 0, 27, 0, 21, 74, 0, 0, 0, 0, 0, 0, 31, 0, 0, 0, 0, 0, 0, 0, 0, 75, 0, 55, 0, 0, 2, 66, 0, 0, 0, 0, 0, 0, 0, 0, 0, 77, 69, 24, 0, 70, 0, 0, 0, 0, 0, 0, 67, 0, 0, 59, 54, 11, 6, 0, 0, 40, 0, 41, 0, 39, 0, 0, 0, 0, 3, 0, 0, 33, 0, 0, 32, 14, 26
|0, 0, 0, 0, 0, 0, 0, 0, 0, 8, 0, 0, 0, 0, 0, 40, 0, 0, 0, 71, 54, 58, 38, 0, 0, 0, 0, 52, 0, 0, 0, 42, 0, 34, 0, 0, 56, 0, 60, 0, 0, 0, 0, 0, 0, 0, 16, 0, 0, 0, 0, 0, 0, 0, 17, 0, 0, 0, 0, 43, 0, 19, 50, 0, 22, 0, 25, 47, 7, 2, 0, 0, 0, 0, 61, 0, 0, 0, 0, 66, 0
|0, 74, 0, 0, 0, 70, 7, 0, 0, 0, 0, 0, 10, 0, 0, 0, 0, 0, 51, 0, 0, 0, 8, 0, 0, 0, 21, 0, 40, 0, 0, 39, 77, 0, 0, 0, 0, 47, 2, 30, 34, 0, 0, 0, 0, 0, 15, 0, 35, 43, 78, 0, 0, 0, 0, 33, 29, 20, 66, 0, 16, 63, 62, 12, 0, 0, 0, 0, 0, 0, 54, 0, 0, 0, 41, 76, 0, 6, 0, 0, 45
|0, 20, 0, 0, 0, 0, 0, 0, 31, 0, 0, 55, 19, 0, 0, 0, 0, 0, 59, 0, 0, 0, 0, 0, 0, 4, 0, 0, 0, 0, 30, 0, 63, 0, 23, 70, 0, 0, 32, 0, 0, 0, 0, 0, 0, 65, 7, 22, 0, 25, 0, 0, 28, 0, 52, 0, 0, 0, 0, 0, 35, 0, 0, 33, 68, 0, 0, 77, 0, 0, 0, 0, 49, 16, 0, 0, 43, 0, 0, 0, 0
|0, 0, 0, 0, 0, 0, 5, 72, 75, 11, 28, 0, 0, 0, 0, 0, 0, 0, 0, 70, 0, 0, 0, 0, 42, 0, 0, 0, 0, 0, 0, 0, 41, 0, 61, 0, 14, 0, 0, 63, 6, 0, 0, 0, 0, 13, 0, 0, 0, 0, 0, 0, 0, 0, 76, 30, 0, 0, 32, 0, 0, 0, 0, 0, 73, 0, 0, 0, 4, 81, 0, 0, 0, 21, 52, 0, 0, 0, 48, 0, 0
|0, 72, 0, 0, 0, 28, 27, 0, 57, 0, 50, 0, 63, 0, 20, 0, 0, 0, 0, 0, 0, 10, 0, 0, 9, 38, 0, 0, 0, 0, 0, 56, 19, 0, 0, 0, 0, 0, 0, 0, 0, 0, 0, 0, 73, 0, 0, 0, 0, 69, 0, 0, 21, 0, 0, 0, 39, 0, 0, 41, 17, 40, 66, 6, 0, 0, 0, 0, 0, 0, 67, 0, 29, 0, 13, 18, 0, 0, 0, 0, 0
|33, 1, 0, 0, 37, 47, 61, 78, 0, 0, 0, 15, 0, 0, 0, 0, 0, 0, 0, 0, 0, 0, 0, 0, 0, 0, 0, 7, 0, 36, 0, 0, 0, 0, 0, 0, 0, 80, 0, 0, 0, 17, 0, 81, 0, 0, 0, 0, 30, 0, 0, 0, 0, 0, 59, 0, 62, 0, 75, 0, 0, 0, 0, 0, 0, 12, 5, 29, 0, 66, 0, 0, 27, 55, 0, 0, 0, 0, 0, 49, 0
|0, 0, 49, 0, 0, 62, 0, 39, 46, 0, 81, 0, 71, 0, 0, 68, 0, 0, 0, 0, 47, 0, 0, 36, 0, 15, 37, 0, 0, 72, 0, 0, 0, 0, 0, 0, 0, 0, 0, 0, 0, 0, 0, 0, 0, 0, 0, 0, 13, 0, 0, 66, 0, 0, 31, 0, 0, 2, 7, 0, 3, 0, 11, 0, 0, 0, 19, 0, 0, 0, 0, 0, 0, 0, 53, 69, 0, 43, 0, 0, 0
|22, 0, 0, 0, 0, 0, 0, 0, 0, 66, 0, 0, 16, 23, 11, 0, 39, 0, 0, 0, 43, 0, 0, 34, 0, 0, 0, 0, 28, 0, 17, 0, 33, 6, 0, 0, 0, 0, 61, 0, 0, 71, 59, 0, 37, 0, 0, 0, 0, 0, 0, 63, 0, 0, 0, 79, 0, 0, 0, 0, 0, 0, 55, 35, 0, 0, 0, 72, 10, 62, 0, 0, 58, 0, 0, 21, 47, 0, 0, 0, 0
|0, 44, 0, 0, 0, 0, 0, 71, 0, 0, 0, 19, 0, 27, 0, 0, 0, 0, 0, 0, 0, 6, 0, 20, 0, 0, 0, 25, 38, 0, 0, 70, 46, 0, 0, 0, 0, 0, 0, 0, 0, 0, 0, 32, 0, 15, 0, 0, 0, 34, 0, 16, 79, 37, 0, 0, 61, 0, 0, 13, 0, 0, 0, 0, 57, 0, 0, 7, 0, 0, 0, 0, 0, 75, 0, 0, 0, 60, 0, 0, 28
|0, 12, 0, 0, 0, 20, 0, 0, 0, 0, 0, 0, 34, 46, 17, 0, 0, 25, 26, 0, 56, 0, 0, 0, 0, 73, 0, 0, 0, 0, 41, 76, 0, 0, 0, 0, 0, 0, 0, 0, 0, 69, 0, 0, 0, 0, 0, 52, 0, 0, 0, 1, 0, 0, 57, 0, 0, 0, 0, 6, 0, 0, 0, 0, 0, 55, 0, 0, 0, 28, 0, 21, 0, 79, 66, 0, 2, 0, 42, 3, 11
|0, 0, 76, 0, 69, 0, 25, 0, 0, 0, 1, 0, 0, 0, 0, 58, 21, 0, 0, 66, 0, 0, 49, 68, 0, 52, 57, 0, 0, 0, 0, 37, 0, 0, 18, 0, 0, 53, 0, 42, 0, 0, 0, 0, 12, 0, 0, 0, 0, 0, 0, 0, 70, 0, 0, 43, 0, 0, 0, 78, 0, 33, 0, 0, 3, 0, 0, 0, 0, 45, 0, 0, 0, 0, 0, 0, 0, 0, 6, 0, 0
|0, 66, 0, 9, 0, 0, 0, 3, 0, 74, 73, 0, 0, 5, 0, 18, 0, 0, 0, 0, 65, 0, 27, 0, 0, 39, 0, 43, 78, 0, 0, 0, 0, 0, 0, 71, 0, 0, 0, 45, 0, 0, 0, 0, 0, 59, 0, 8, 33, 80, 0, 0, 17, 6, 46, 0, 47, 0, 0, 19, 53, 0, 0, 0, 0, 0, 0, 0, 51, 58, 0, 4, 0, 35, 0, 70, 37, 0, 26, 0, 0
|5, 0, 0, 45, 0, 30, 63, 0, 0, 0, 37, 0, 77, 0, 0, 0, 0, 0, 33, 0, 0, 31, 0, 0, 0, 0, 0, 57, 0, 0, 0, 0, 0, 0, 0, 0, 0, 22, 0, 0, 0, 0, 0, 0, 0, 0, 0, 0, 0, 0, 36, 0, 0, 78, 0, 0, 0, 73, 0, 0, 74, 0, 20, 0, 0, 0, 80, 70, 0, 11, 0, 68, 0, 0, 0, 0, 0, 71, 17, 0, 81
|0, 0, 0, 0, 0, 0, 8, 43, 0, 0, 0, 18, 0, 52, 0, 0, 19, 0, 0, 12, 50, 0, 80, 0, 58, 0, 0, 0, 0, 51, 33, 0, 0, 0, 60, 0, 0, 20, 0, 0, 0, 0, 0, 63, 0, 77, 0, 0, 0, 0, 0, 0, 0, 0, 0, 0, 0, 0, 0, 0, 0, 0, 0, 0, 0, 0, 73, 0, 0, 0, 0, 0, 0, 31, 0, 23, 32, 0, 0, 0, 0
|0, 0, 0, 0, 0, 6, 0, 0, 0, 0, 66, 0, 38, 0, 0, 0, 0, 0, 0, 0, 0, 0, 0, 17, 0, 0, 5, 0, 0, 0, 0, 0, 57, 0, 0, 0, 28, 0, 0, 0, 36, 67, 0, 0, 0, 0, 11, 61, 0, 0, 0, 0, 0, 0, 0, 80, 0, 0, 19, 31, 0, 0, 71, 0, 21, 0, 0, 0, 0, 0, 0, 56, 0, 0, 0, 0, 0, 65, 0, 0, 0
|3, 59, 0, 0, 0, 0, 0, 0, 0, 0, 0, 0, 44, 0, 37, 0, 0, 0, 43, 0, 9, 40, 0, 0, 79, 0, 0, 0, 77, 2, 0, 66, 35, 22, 0, 0, 0, 0, 0, 21, 0, 0, 56, 0, 0, 1, 0, 0, 0, 0, 0, 0, 0, 0, 0, 0, 0, 0, 0, 0, 0, 0, 0, 0, 69, 0, 0, 0, 81, 0, 71, 0, 5, 0, 50, 0, 0, 0, 0, 0, 41
|0, 0, 0, 0, 0, 0, 0, 69, 0, 0, 0, 0, 6, 29, 54, 0, 0, 22, 0, 0, 10, 0, 0, 15, 0, 34, 71, 0, 0, 64, 0, 0, 0, 0, 0, 0, 0, 0, 0, 0, 0, 38, 0, 0, 4, 74, 0, 0, 8, 33, 0, 25, 0, 47, 40, 62, 0, 0, 0, 53, 58, 0, 0, 0, 0, 30, 0, 43, 0, 78, 0, 0, 0, 0, 0, 0, 0, 0, 0, 0, 0
|0, 0, 0, 0, 0, 0, 22, 0, 0, 53, 0, 0, 0, 0, 76, 0, 0, 65, 0, 0, 11, 3, 30, 0, 0, 0, 0, 8, 0, 78, 0, 0, 48, 0, 0, 0, 0, 0, 0, 0, 0, 0, 44, 0, 0, 0, 19, 0, 0, 0, 71, 0, 0, 43, 69, 0, 0, 0, 56, 0, 0, 45, 0, 0, 0, 0, 0, 10, 0, 0, 0, 7, 0, 0, 0, 79, 0, 0, 0, 0, 2
|0, 4, 0, 0, 31, 0, 76, 0, 0, 0, 0, 0, 0, 30, 32, 16, 0, 79, 0, 0, 0, 0, 33, 75, 67, 0, 51, 0, 0, 0, 0, 0, 5, 0, 26, 43, 17, 0, 0, 0, 22, 0, 0, 0, 0, 0, 0, 0, 0, 0, 0, 0, 29, 0, 0, 0, 28, 0, 74, 0, 0, 0, 9, 0, 0, 0, 20, 0, 37, 80, 0, 36, 0, 39, 0, 0, 66, 0, 13, 0, 0
|0, 50, 0, 0, 0, 0, 0, 0, 0, 20, 0, 0, 0, 12, 0, 0, 0, 0, 0, 25, 0, 0, 0, 78, 0, 81, 31, 0, 72, 0, 0, 0, 0, 0, 41, 18, 0, 0, 0, 80, 0, 0, 0, 30, 0, 10, 0, 0, 0, 0, 0, 0, 0, 0, 0, 11, 0, 0, 0, 0, 0, 0, 76, 59, 53, 0, 0, 0, 0, 0, 0, 0, 0, 58, 0, 0, 0, 61, 0, 64, 19
|0, 0, 0, 0, 0, 0, 81, 0, 0, 0, 0, 60, 0, 0, 13, 73, 75, 0, 0, 0, 0, 54, 0, 0, 19, 0, 20, 0, 0, 50, 0, 0, 0, 0, 0, 29, 0, 0, 0, 7, 1, 0, 66, 46, 79, 0, 55, 0, 0, 0, 0, 76, 0, 0, 0, 22, 32, 0, 0, 0, 33, 3, 25, 0, 44, 0, 0, 0, 0, 26, 0, 23, 0, 0, 0, 0, 0, 15, 0, 37, 0
|0, 11, 0, 0, 39, 0, 17, 0, 26, 0, 0, 9, 0, 63, 50, 15, 0, 0, 0, 0, 0, 0, 74, 23, 0, 0, 0, 0, 0, 0, 0, 59, 0, 21, 25, 0, 0, 69, 0, 0, 0, 0, 0, 0, 0, 0, 0, 37, 0, 0, 0, 14, 0, 0, 0, 20, 0, 0, 1, 0, 42, 0, 0, 0, 33, 0, 0, 0, 0, 54, 3, 0, 0, 0, 0, 0, 0, 0, 0, 0, 0|];