order = 9;
grid = [|0, 0, 0, 0, 0, 54, 0, 0, 0, 67, 0, 0, 0, 26, 45, 0, 0, 0, 0, 0, 0, 0, 29, 0, 0, 0, 0, 0, 9, 0, 49, 0, 14, 42, 43, 80, 10, 22, 0, 0, 1, 0, 70, 0, 0, 0, 0, 0, 0, 0, 0, 50, 0, 0, 0, 52, 8, 38, 65, 78, 0, 40, 0, 21, 0, 79, 0, 0, 75, 81, 20, 24, 0, 15, 69, 6, 59, 0, 16, 62, 0
|0, 0, 0, 78, 0, 56, 34, 0, 0, 0, 0, 2, 0, 0, 81, 3, 0, 0, 0, 55, 0, 0, 0, 0, 0, 0, 0, 0, 0, 0, 0, 33, 0, 0, 0, 0, 0, 0, 0, 0, 79, 0, 0, 0, 0, 0, 0, 0, 16, 0, 0, 0, 0, 58, 12, 0, 0, 0, 0, 0, 0, 0, 0, 0, 39, 52, 0, 0, 0, 13, 7, 0, 0, 0, 0, 0, 53, 0, 0, 8, 71
|0, 0, 0, 0, 0, 66, 15, 0, 17, 0, 0, 0, 27, 0, 0, 29, 37, 12, 0, 71, 0, 0, 20, 0, 23, 0, 0, 0, 21, 0, 0, 0, 0, 40, 30, 22, 19, 56, 0, 26, 0, 65, 0, 0, 0, 24, 0, 0, 35, 0, 0, 79, 0, 0, 0, 0, 0, 0, 62, 0, 50, 0, 0, 0, 0, 0, 44, 0, 0, 0, 76, 54, 0, 0, 0, 0, 0, 0, 0, 0, 13
|0, 0, 0, 0, 0, 0, 62, 0, 0, 25, 0, 0, 0, 0, 0, 0, 50, 0, 0, 0, 0, 0, 0, 0, 0, 21, 4, 72, 26, 0, 52, 0, 0, 8, 53, 1, 0, 0, 0, 0, 9, 42, 0, 0, 0, 0, 0, 0, 5, 0, 0, 0, 56, 0, 44, 0, 0, 0, 0, 58, 0, 0, 0, 0, 16, 0, 0, 0, 0, 0, 63, 0, 0, 0, 0, 68, 77, 0, 0, 54, 0
|0, 0, 0, 0, 0, 0, 0, 0, 0, 0, 0, 69, 0, 0, 75, 63, 0, 0, 0, 30, 0, 0, 0, 3, 0, 0, 37, 0, 71, 50, 78, 44, 0, 0, 61, 0, 0, 0, 0, 0, 67, 0, 0, 0, 0, 0, 40, 0, 0, 0, 0, 0, 42, 0, 53, 35, 0, 0, 0, 0, 0, 0, 0, 36, 0, 60, 0, 0, 0, 0, 0, 0, 79, 17, 0, 0, 0, 0, 48, 14, 0
|0, 64, 0, 0, 0, 0, 0, 0, 0, 0, 68, 15, 0, 7, 0, 0, 0, 0, 5, 14, 0, 0, 18, 0, 43, 0, 0, 0, 0, 0, 60, 0, 76, 0, 0, 0, 37, 47, 0, 0, 0, 0, 0, 0, 2, 0, 0, 0, 0, 66, 0, 0, 0, 44, 0, 0, 0, 34, 0, 0, 0, 0, 0, 0, 46, 71, 72, 3, 26, 50, 0, 0, 11, 25, 29, 20, 0, 23, 33, 67, 0
|0, 0, 0, 0, 0, 71, 0, 0, 0, 16, 0, 0, 0, 0, 0, 0, 0, 0, 0, 0, 27, 0, 0, 26, 17, 0, 0, 59, 0, 0, 0, 0, 0, 67, 2, 0, 0, 0, 0, 0, 0, 0, 0, 0, 0, 0, 14, 0, 60, 0, 0, 0, 0, 18, 0, 0, 0, 0, 0, 0, 0, 0, 75, 15, 0, 0, 0, 0, 37, 0, 0, 0, 0, 0, 0, 3, 0, 0, 0, 41, 56
|0, 0, 0, 0, 0, 33, 0, 39, 0, 0, 0, 0, 0, 0, 0, 0, 49, 0, 0, 0, 0, 0, 0, 0, 0, 0, 0, 65, 0, 0, 37, 29, 3, 0, 0, 0, 0, 0, 16, 15, 0, 0, 54, 0, 6, 0, 22, 26, 0, 71, 0, 57, 0, 0, 0, 0, 1, 0, 0, 67, 19, 0, 14, 27, 51, 0, 35, 0, 0, 5, 0, 0, 0, 0, 0, 0, 21, 0, 0, 0, 55
|21, 0, 0, 68, 0, 74, 0, 41, 0, 0, 28, 0, 0, 71, 0, 0, 60, 1, 53, 70, 79, 0, 0, 0, 0, 32, 0, 0, 0, 0, 0, 0, 0, 0, 0, 48, 0, 44, 24, 0, 0, 66, 0, 0, 46, 0, 0, 0, 0, 0, 0, 0, 0, 63, 0, 0, 0, 0, 0, 0, 6, 0, 0, 0, 61, 0, 0, 0, 0, 59, 0, 0, 12, 0, 0, 2, 0, 0, 0, 0, 73
|0, 45, 0, 0, 0, 0, 22, 0, 0, 78, 11, 0, 0, 0, 0, 64, 0, 0, 0, 63, 0, 43, 0, 0, 0, 0, 0, 0, 50, 0, 0, 0, 0, 37, 0, 0, 0, 0, 0, 73, 0, 0, 0, 0, 0, 14, 0, 8, 0, 58, 0, 15, 2, 0, 0, 60, 69, 28, 10, 66, 0, 0, 59, 0, 0, 0, 76, 34, 0, 0, 52, 70, 0, 0, 81, 0, 0, 0, 0, 0, 0
|0, 0, 0, 0, 0, 0, 0, 0, 8, 32, 0, 0, 71, 46, 37, 0, 80, 9, 0, 0, 6, 77, 0, 0, 0, 0, 0, 0, 0, 0, 70, 0, 65, 0, 0, 0, 0, 0, 48, 0, 0, 0, 21, 0, 0, 69, 28, 23, 1, 11, 0, 51, 30, 0, 73, 19, 0, 0, 78, 62, 72, 15, 0, 81, 14, 50, 0, 0, 0, 0, 54, 0, 0, 0, 0, 0, 0, 56, 0, 0, 24
|0, 0, 67, 0, 0, 0, 0, 0, 0, 19, 0, 0, 0, 79, 0, 0, 0, 0, 69, 0, 0, 0, 0, 0, 20, 0, 0, 53, 33, 0, 0, 42, 0, 35, 0, 0, 66, 57, 0, 0, 0, 34, 8, 0, 52, 0, 0, 70, 0, 0, 0, 0, 49, 71, 0, 32, 0, 0, 26, 63, 0, 0, 0, 5, 0, 0, 0, 0, 2, 3, 0, 68, 0, 0, 0, 0, 0, 0, 0, 0, 60
|20, 63, 50, 0, 32, 47, 53, 0, 5, 0, 0, 0, 0, 77, 0, 0, 0, 61, 51, 0, 0, 0, 49, 0, 58, 0, 0, 0, 45, 31, 0, 0, 38, 0, 0, 0, 0, 0, 0, 0, 59, 0, 0, 0, 0, 3, 0, 0, 0, 73, 0, 43, 0, 76, 0, 0, 0, 0, 0, 23, 0, 8, 52, 0, 0, 36, 24, 28, 0, 1, 0, 0, 0, 0, 0, 0, 0, 66, 44, 0, 34
|81, 0, 0, 0, 0, 0, 0, 24, 0, 0, 0, 0, 0, 0, 0, 0, 0, 0, 0, 0, 0, 0, 0, 0, 7, 56, 45, 25, 1, 0, 62, 0, 0, 0, 0, 40, 0, 11, 0, 0, 0, 28, 0, 0, 0, 0, 0, 0, 0, 0, 79, 0, 0, 57, 20, 0, 47, 55, 0, 0, 64, 4, 0, 0, 0, 0, 0, 0, 0, 30, 73, 0, 58, 0, 0, 0, 0, 0, 14, 0, 72
|0, 0, 0, 0, 0, 0, 0, 62, 0, 0, 0, 0, 0, 0, 0, 0, 0, 75, 3, 0, 2, 28, 0, 54, 0, 0, 0, 0, 0, 0, 0, 69, 34, 0, 39, 0, 30, 0, 0, 0, 0, 0, 9, 0, 0, 0, 0, 0, 0, 0, 0, 0, 0, 45, 0, 38, 0, 37, 0, 0, 0, 25, 0, 0, 0, 0, 0, 0, 23, 71, 0, 0, 59, 0, 31, 0, 0, 0, 0, 0, 15
|0, 0, 0, 13, 46, 0, 0, 0, 0, 0, 0, 0, 52, 0, 0, 0, 0, 0, 0, 24, 0, 0, 71, 0, 0, 0, 0, 11, 0, 0, 8, 0, 44, 0, 6, 0, 0, 0, 0, 0, 0, 0, 16, 0, 0, 9, 0, 0, 0, 0, 0, 0, 0, 0, 75, 53, 0, 0, 58, 0, 0, 12, 0, 0, 0, 0, 0, 59, 0, 0, 0, 0, 0, 0, 50, 0, 1, 20, 27, 0, 0
|0, 9, 6, 0, 3, 0, 0, 0, 0, 0, 73, 0, 0, 0, 0, 0, 0, 0, 0, 0, 0, 0, 0, 18, 0, 0, 78, 0, 0, 0, 56, 0, 0, 57, 0, 0, 0, 0, 31, 1, 10, 40, 0, 0, 0, 64, 55, 0, 0, 0, 39, 20, 37, 0, 67, 0, 35, 0, 14, 11, 0, 29, 0, 75, 0, 0, 0, 0, 0, 0, 0, 7, 0, 0, 0, 0, 0, 45, 8, 0, 0
|0, 0, 0, 0, 0, 0, 0, 0, 0, 0, 0, 0, 69, 0, 0, 0, 0, 0, 0, 0, 0, 0, 76, 0, 0, 0, 0, 0, 0, 0, 77, 0, 0, 0, 75, 0, 0, 0, 0, 0, 51, 0, 58, 0, 0, 80, 52, 54, 0, 0, 24, 66, 18, 0, 0, 2, 79, 0, 0, 0, 57, 0, 0, 0, 0, 0, 8, 0, 56, 0, 0, 0, 33, 0, 0, 0, 0, 4, 0, 0, 0
|23, 0, 0, 0, 61, 68, 0, 0, 0, 12, 0, 13, 0, 37, 0, 0, 16, 0, 0, 0, 0, 0, 0, 0, 0, 0, 0, 0, 58, 0, 0, 0, 5, 0, 0, 54, 0, 0, 0, 0, 0, 0, 44, 0, 0, 79, 10, 0, 0, 62, 0, 0, 0, 0, 0, 0, 0, 65, 0, 0, 0, 0, 49, 74, 0, 0, 42, 0, 15, 0, 0, 0, 0, 0, 26, 0, 0, 0, 0, 48, 78
|0, 0, 24, 44, 0, 0, 0, 0, 0, 0, 0, 0, 0, 0, 78, 0, 0, 0, 11, 0, 0, 0, 0, 0, 37, 0, 0, 31, 0, 0, 0, 0, 0, 0, 0, 0, 0, 21, 0, 0, 0, 58, 0, 57, 0, 0, 0, 33, 2, 9, 0, 0, 0, 0, 28, 0, 0, 0, 0, 17, 0, 7, 0, 0, 0, 66, 0, 62, 61, 35, 0, 59, 3, 60, 75, 0, 0, 0, 0, 0, 0
|16, 0, 0, 0, 0, 63, 65, 0, 0, 79, 0, 0, 0, 0, 68, 0, 0, 71, 44, 0, 0, 0, 0, 0, 0, 13, 0, 0, 67, 0, 0, 19, 30, 0, 0, 0, 0, 0, 0, 31, 0, 77, 0, 62, 0, 0, 0, 0, 0, 0, 0, 37, 0, 0, 0, 0, 0, 0, 0, 38, 0, 0, 0, 0, 0, 0, 0, 0, 1, 0, 56, 0, 0, 28, 0, 0, 0, 0, 34, 0, 0
|0, 0, 80, 0, 51, 0, 59, 75, 0, 31, 0, 0, 0, 0, 0, 0, 0, 0, 0, 10, 0, 0, 0, 0, 0, 0, 0, 0, 0, 0, 0, 78, 0, 0, 0, 0, 41, 0, 0, 8, 64, 0, 0, 27, 69, 67, 70, 0, 0, 0, 0, 0, 0, 0, 0, 76, 50, 0, 0, 0, 46, 0, 0, 0, 0, 0, 0, 0, 0, 0, 0, 0, 13, 20, 0, 12, 61, 0, 0, 0, 53
|47, 73, 12, 0, 2, 57, 0, 15, 0, 72, 0, 67, 0, 1, 0, 0, 41, 56, 0, 75, 0, 0, 0, 0, 0, 0, 7, 0, 34, 0, 0, 26, 0, 0, 0, 0, 0, 0, 45, 0, 0, 0, 0, 0, 0, 0, 0, 0, 0, 60, 0, 0, 0, 0, 0, 16, 51, 0, 0, 33, 30, 42, 54, 48, 0, 0, 0, 0, 32, 0, 0, 0, 0, 0, 0, 46, 0, 0, 0, 0, 0
|64, 0, 0, 0, 0, 0, 0, 79, 22, 0, 0, 51, 0, 0, 0, 9, 0, 32, 56, 0, 0, 40, 0, 0, 0, 0, 0, 0, 53, 33, 0, 0, 66, 0, 0, 0, 0, 0, 0, 0, 46, 13, 0, 0, 0, 41, 0, 57, 0, 0, 0, 0, 0, 0, 62, 0, 0, 0, 35, 34, 0, 0, 27, 0, 37, 0, 0, 0, 0, 18, 6, 0, 45, 44, 49, 63, 31, 0, 0, 0, 0
|52, 0, 76, 0, 0, 0, 78, 0, 0, 17, 0, 60, 24, 0, 0, 0, 0, 0, 0, 0, 0, 67, 0, 79, 0, 55, 68, 32, 0, 12, 0, 0, 0, 0, 15, 70, 0, 0, 0, 61, 0, 0, 23, 0, 0, 0, 0, 0, 0, 0, 63, 58, 0, 0, 47, 0, 31, 2, 0, 0, 0, 10, 0, 0, 4, 5, 0, 0, 0, 46, 0, 45, 0, 0, 0, 1, 0, 0, 0, 0, 0
|58, 0, 0, 0, 0, 10, 0, 0, 0, 75, 0, 0, 23, 0, 0, 0, 70, 30, 0, 38, 0, 0, 0, 0, 0, 0, 0, 0, 0, 0, 68, 0, 0, 0, 42, 0, 7, 0, 11, 0, 0, 0, 0, 2, 33, 0, 43, 0, 0, 49, 0, 0, 0, 0, 0, 40, 0, 25, 0, 0, 0, 0, 0, 0, 8, 0, 0, 63, 0, 0, 0, 0, 37, 6, 0, 0, 0, 0, 0, 51, 0
|18, 0, 0, 0, 21, 0, 0, 60, 0, 0, 0, 35, 80, 0, 0, 0, 61, 0, 0, 0, 0, 0, 0, 0, 0, 0, 0, 0, 51, 72, 38, 50, 0, 0, 0, 0, 0, 0, 0, 0, 0, 0, 0, 26, 28, 0, 0, 25, 22, 8, 0, 0, 0, 0, 0, 0, 59, 0, 37, 24, 29, 0, 32, 0, 12, 0, 0, 0, 3, 0, 0, 0, 0, 0, 0, 0, 2, 0, 9, 0, 11
|0, 0, 0, 0, 0, 4, 36, 0, 75, 13, 0, 0, 5, 50, 0, 0, 0, 0, 0, 19, 0, 0, 0, 0, 0, 0, 0, 67, 0, 79, 51, 0, 0, 0, 0, 0, 0, 0, 57, 0, 6, 0, 0, 0, 0, 0, 0, 0, 0, 0, 0, 23, 66, 0, 0, 0, 0, 0, 0, 0, 0, 0, 0, 73, 0, 0, 0, 7, 0, 0, 0, 0, 0, 70, 32, 0, 0, 65, 0, 45, 0
|0, 3, 45, 0, 0, 0, 0, 35, 0, 0, 0, 38, 0, 0, 0, 0, 0, 0, 0, 60, 0, 0, 43, 0, 0, 0, 0, 0, 78, 22, 2, 0, 17, 14, 5, 0, 0, 0, 0, 21, 0, 53, 15, 0, 0, 0, 67, 76, 0, 0, 0, 0, 0, 0, 4, 0, 0, 0, 16, 0, 0, 0, 68, 0, 0, 65, 0, 27, 0, 28, 0, 0, 62, 54, 0, 0, 0, 0, 0, 0, 0
|14, 0, 0, 0, 0, 0, 0, 0, 0, 48, 30, 0, 44, 0, 0, 75, 0, 0, 9, 35, 0, 0, 5, 0, 0, 0, 81, 37, 25, 80, 0, 6, 0, 0, 0, 29, 0, 0, 0, 0, 0, 0, 0, 0, 23, 0, 0, 0, 0, 0, 0, 78, 0, 0, 0, 0, 33, 0, 51, 57, 0, 13, 53, 0, 0, 0, 0, 0, 34, 0, 0, 0, 4, 43, 8, 10, 0, 40, 0, 66, 0
|77, 60, 62, 0, 0, 50, 71, 0, 48, 53, 0, 0, 0, 0, 0, 0, 0, 0, 0, 0, 24, 0, 0, 40, 0, 0, 0, 0, 0, 16, 0, 0, 70, 0, 0, 0, 0, 0, 0, 0, 0, 0, 0, 0, 61, 45, 34, 55, 9, 19, 0, 0, 0, 54, 0, 75, 0, 1, 0, 39, 0, 0, 0, 0, 0, 0, 0, 0, 80, 0, 47, 0, 52, 0, 51, 37, 0, 0, 73, 0, 0
|0, 37, 0, 0, 0, 0, 0, 0, 56, 0, 0, 20, 31, 66, 0, 0, 0, 0, 41, 1, 0, 0, 11, 47, 0, 16, 0, 27, 0, 0, 0, 75, 58, 71, 0, 0, 0, 78, 65, 69, 0, 0, 0, 0, 0, 0, 0, 0, 0, 7, 0, 0, 0, 0, 0, 0, 0, 22, 0, 0, 0, 23, 0, 0, 19, 0, 29, 79, 4, 64, 0, 0, 14, 0, 34, 59, 0, 0, 0, 50, 0
|0, 0, 0, 57, 52, 0, 0, 7, 0, 40, 0, 0, 0, 0, 0, 0, 0, 24, 30, 22, 0, 0, 17, 0, 77, 62, 0, 0, 0, 0, 50, 23, 41, 0, 60, 28, 0, 0, 5, 14, 0, 0, 0, 47, 0, 0, 2, 0, 0, 31, 0, 0, 13, 0, 0, 79, 0, 43, 0, 0, 0, 0, 0, 0, 0, 0, 0, 0, 0, 0, 49, 0, 56, 0, 0, 0, 64, 0, 0, 0, 0
|0, 10, 0, 0, 41, 0, 0, 34, 0, 0, 0, 0, 73, 35, 0, 0, 0, 0, 64, 0, 0, 0, 0, 0, 46, 59, 0, 0, 0, 11, 0, 0, 0, 0, 0, 0, 45, 0, 0, 0, 28, 50, 0, 0, 0, 0, 5, 0, 0, 0, 0, 0, 0, 0, 0, 0, 0, 0, 0, 0, 24, 65, 0, 0, 0, 0, 0, 0, 0, 42, 0, 0, 31, 0, 0, 0, 0, 0, 0, 0, 77
|0, 26, 0, 23, 0, 0, 81, 0, 58, 0, 0, 25, 0, 0, 0, 0, 0, 0, 0, 0, 0, 52, 0, 73, 0, 0, 0, 0, 0, 0, 42, 13, 0, 0, 49, 62, 0, 0, 0, 0, 16, 0, 0, 0, 0, 0, 30, 77, 0, 0, 0, 11, 0, 0, 0, 6, 0, 21, 31, 0, 0, 0, 0, 0, 60, 0, 0, 0, 41, 72, 0, 0, 22, 0, 0, 0, 0, 0, 0, 0, 0
|0, 0, 0, 47, 69, 0, 0, 8, 0, 0, 3, 0, 0, 0, 41, 0, 0, 0, 0, 67, 37, 54, 2, 53, 0, 0, 12, 39, 7, 0, 65, 0, 59, 0, 0, 19, 36, 0, 0, 0, 0, 56, 0, 0, 0, 0, 0, 0, 0, 0, 0, 0, 0, 0, 0, 58, 60, 0, 0, 30, 70, 0, 0, 0, 48, 77, 0, 46, 0, 0, 0, 20, 0, 5, 0, 0, 0, 28, 0, 76, 0
|25, 0, 23, 0, 71, 27, 0, 0, 10, 0, 0, 0, 0, 0, 0, 0, 76, 0, 0, 0, 0, 0, 0, 0, 0, 0, 0, 0, 0, 0, 0, 0, 22, 0, 0, 77, 0, 0, 0, 0, 0, 20, 0, 0, 3, 18, 0, 38, 0, 0, 0, 0, 0, 72, 68, 0, 0, 0, 0, 0, 0, 0, 48, 0, 0, 40, 0, 0, 7, 0, 9, 0, 0, 0, 12, 0, 0, 0, 0, 0, 45
|0, 0, 0, 0, 0, 0, 0, 0, 0, 0, 0, 0, 50, 78, 32, 0, 0, 0, 0, 0, 0, 0, 0, 0, 0, 0, 0, 0, 48, 0, 1, 51, 0, 34, 0, 0, 0, 68, 47, 35, 60, 0, 0, 0, 0, 0, 0, 0, 33, 0, 0, 25, 0, 0, 45, 0, 26, 0, 52, 69, 0, 18, 0, 0, 0, 2, 0, 0, 72, 29, 0, 0, 0, 7, 0, 80, 0, 0, 0, 0, 0
|0, 0, 0, 34, 0, 0, 68, 0, 0, 23, 0, 0, 0, 57, 53, 0, 0, 70, 0, 0, 0, 47, 39, 0, 18, 15, 0, 33, 0, 0, 0, 0, 0, 32, 0, 0, 0, 0, 0, 0, 0, 0, 0, 73, 0, 0, 0, 0, 0, 0, 0, 2, 0, 0, 0, 0, 0, 0, 0, 0, 65, 0, 0, 0, 0, 0, 51, 26, 0, 0, 0, 12, 0, 0, 0, 72, 60, 55, 0, 0, 0
|48, 0, 0, 0, 0, 49, 0, 0, 20, 0, 0, 0, 0, 0, 0, 0, 0, 52, 77, 26, 0, 0, 0, 23, 0, 0, 46, 0, 0, 0, 59, 0, 0, 0, 63, 0, 0, 0, 0, 0, 0, 18, 81, 0, 0, 0, 65, 0, 0, 0, 0, 22, 0, 0, 43, 0, 0, 40, 0, 0, 53, 0, 0, 0, 0, 0, 0, 0, 0, 21, 0, 0, 54, 0, 0, 0, 0, 0, 5, 0, 0
|0, 0, 0, 0, 0, 0, 0, 0, 0, 0, 0, 0, 0, 0, 0, 46, 44, 0, 0, 59, 0, 0, 79, 0, 42, 0, 70, 0, 0, 0, 0, 65, 0, 0, 0, 75, 0, 1, 0, 80, 0, 0, 0, 53, 0, 66, 51, 0, 0, 0, 5, 0, 0, 34, 49, 0, 0, 9, 23, 0, 0, 0, 0, 0, 0, 0, 0, 0, 0, 0, 58, 0, 0, 0, 24, 0, 0, 6, 76, 0, 0
|0, 22, 61, 9, 73, 0, 70, 0, 0, 0, 0, 0, 0, 40, 0, 0, 0, 26, 0, 0, 12, 0, 0, 0, 0, 0, 11, 7, 14, 30, 18, 0, 23, 49, 0, 36, 0, 0, 0, 0, 0, 63, 0, 0, 13, 58, 37, 0, 52, 0, 0, 0, 32, 0, 39, 21, 62, 0, 5, 0, 0, 0, 0, 0, 0, 41, 0, 48, 0, 38, 53, 42, 8, 81, 0, 0, 35, 0, 0, 77, 31
|45, 0, 4, 0, 0, 43, 0, 0, 26, 29, 0, 17, 0, 36, 0, 0, 0, 69, 55, 0, 31, 51, 0, 9, 0, 0, 1, 0, 0, 0, 0, 0, 8, 0, 80, 21, 0, 14, 38, 0, 2, 0, 0, 0, 0, 0, 0, 0, 0, 0, 0, 0, 0, 46, 0, 0, 0, 6, 0, 0, 0, 60, 0, 0, 0, 0, 0, 0, 0, 0, 0, 0, 0, 56, 0, 0, 0, 0, 0, 30, 52
|0, 0, 0, 0, 0, 0, 64, 0, 79, 0, 0, 0, 72, 0, 25, 0, 0, 0, 27, 20, 43, 0, 30, 0, 0, 0, 0, 0, 81, 0, 0, 0, 0, 0, 0, 0, 52, 0, 58, 29, 40, 0, 0, 0, 0, 0, 63, 0, 39, 0, 0, 54, 28, 48, 0, 22, 0, 0, 0, 0, 51, 0, 13, 0, 65, 0, 0, 0, 0, 57, 0, 62, 0, 0, 0, 21, 46, 0, 0, 4, 0
|0, 18, 0, 0, 0, 0, 38, 0, 0, 0, 80, 0, 0, 0, 0, 0, 0, 58, 7, 2, 0, 0, 0, 0, 0, 0, 0, 0, 70, 0, 0, 0, 0, 47, 46, 0, 0, 0, 0, 0, 56, 0, 0, 0, 0, 23, 0, 0, 0, 0, 0, 41, 53, 35, 0, 27, 0, 0, 0, 10, 0, 61, 0, 3, 13, 20, 0, 0, 0, 0, 0, 50, 0, 0, 0, 0, 0, 0, 0, 36, 0
|62, 0, 0, 0, 0, 0, 57, 0, 0, 49, 41, 0, 0, 0, 0, 0, 21, 0, 0, 0, 0, 27, 0, 0, 0, 0, 0, 22, 0, 0, 0, 0, 0, 0, 58, 0, 0, 34, 10, 59, 48, 0, 36, 0, 0, 8, 0, 0, 0, 0, 0, 45, 0, 37, 0, 0, 0, 0, 0, 0, 0, 44, 0, 0, 0, 4, 40, 47, 46, 52, 0, 0, 0, 0, 0, 0, 0, 0, 28, 0, 0
|0, 0, 0, 0, 0, 0, 0, 30, 0, 50, 0, 0, 77, 0, 0, 52, 12, 0, 54, 45, 0, 0, 0, 37, 0, 0, 0, 34, 0, 46, 0, 0, 0, 0, 0, 60, 0, 13, 0, 0, 71, 0, 31, 0, 0, 0, 0, 0, 0, 0, 0, 0, 23, 0, 42, 0, 0, 0, 0, 0, 0, 0, 0, 0, 0, 6, 0, 0, 0, 0, 0, 39, 0, 0, 0, 0, 43, 0, 0, 9, 0
|0, 81, 0, 37, 14, 59, 0, 46, 0, 3, 0, 0, 0, 0, 71, 47, 0, 0, 0, 0, 78, 0, 0, 1, 0, 0, 20, 0, 0, 65, 0, 25, 39, 12, 0, 0, 11, 74, 32, 30, 63, 41, 0, 49, 0, 0, 0, 0, 0, 0, 62, 5, 0, 0, 0, 68, 0, 60, 72, 0, 31, 0, 26, 42, 0, 0, 0, 0, 0, 0, 75, 0, 0, 0, 0, 69, 0, 80, 0, 0, 0
|0, 0, 66, 0, 0, 52, 0, 0, 0, 0, 0, 26, 0, 0, 40, 0, 64, 0, 0, 0, 0, 46, 0, 0, 0, 0, 0, 0, 0, 0, 0, 67, 0, 0, 0, 4, 0, 0, 0, 0, 0, 45, 47, 0, 80, 17, 0, 51, 29, 55, 0, 0, 74, 9, 50, 0, 19, 0, 0, 0, 0, 0, 6, 0, 7, 0, 0, 0, 0, 0, 0, 0, 0, 0, 0, 0, 65, 0, 0, 0, 0
|0, 0, 0, 0, 0, 51, 0, 0, 0, 0, 0, 46, 0, 0, 0, 60, 0, 4, 0, 0, 0, 0, 0, 0, 32, 18, 0, 0, 0, 0, 0, 41, 47, 0, 0, 0, 56, 40, 0, 0, 0, 81, 0, 70, 0, 0, 7, 58, 50, 0, 77, 0, 44, 0, 0, 0, 0, 39, 3, 0, 0, 0, 0, 0, 30, 0, 0, 0, 0, 0, 0, 80, 0, 0, 0, 0, 0, 0, 0, 24, 62
|0, 0, 0, 48, 27, 0, 0, 0, 21, 0, 0, 0, 0, 0, 0, 0, 0, 0, 0, 0, 0, 0, 0, 6, 39, 0, 40, 0, 32, 0, 0, 0, 20, 0, 0, 0, 0, 0, 0, 0, 53, 0, 0, 5, 0, 0, 0, 0, 0, 36, 61, 0, 75, 0, 0, 18, 0, 0, 0, 0, 12, 0, 0, 0, 0, 0, 0, 29, 51, 0, 0, 63, 0, 37, 44, 0, 33, 0, 26, 70, 74
|0, 0, 0, 0, 0, 0, 45, 0, 6, 0, 0, 0, 0, 22, 0, 0, 0, 0, 0, 0, 0, 0, 0, 0, 0, 0, 0, 0, 0, 0, 0, 0, 0, 0, 21, 0, 0, 0, 0, 0, 0, 0, 19, 0, 0, 0, 0, 0, 0, 33, 0, 0, 0, 0, 78, 0, 0, 0, 0, 0, 49, 0, 0, 0, 36, 0, 0, 10, 0, 0, 0, 0, 0, 0, 0, 0, 41, 0, 0, 0, 0
|0, 0, 0, 0, 0, 18, 0, 0, 41, 0, 0, 0, 81, 30, 0, 0, 0, 0, 0, 43, 0, 0, 0, 0, 0, 70, 0, 57, 0, 40, 0, 0, 0, 0, 0, 0, 0, 62, 75, 0, 0, 0, 0, 0, 0, 0, 0, 0, 21, 0, 0, 0, 0, 0, 0, 0, 0, 24, 0, 27, 0, 0, 0, 56, 77, 0, 0, 0, 60, 0, 0, 0, 55, 0, 0, 0, 0, 0, 1, 0, 0
|0, 0, 7, 0, 39, 34, 47, 0, 61, 1, 0, 0, 0, 0, 0, 0, 0, 0, 0, 80, 44, 0, 10, 0, 0, 0, 0, 0, 0, 0, 74, 52, 0, 0, 36, 0, 0, 64, 0, 0, 0, 4, 25, 18, 0, 30, 0, 0, 0, 38, 0, 0, 0, 0, 65, 54, 0, 0, 40, 15, 23, 67, 0, 0, 0, 37, 0, 69, 0, 12, 0, 0, 42, 0, 0, 0, 0, 73, 77, 0, 21
|0, 0, 75, 39, 0, 62, 0, 0, 0, 0, 0, 76, 0, 24, 0, 59, 0, 0, 0, 0, 0, 26, 0, 0, 0, 0, 0, 0, 0, 0, 0, 12, 0, 0, 71, 0, 0, 0, 0, 0, 7, 0, 0, 63, 0, 0, 21, 0, 0, 0, 60, 0, 0, 0, 0, 43, 0, 0, 0, 37, 0, 0, 79, 0, 0, 0, 0, 0, 0, 47, 0, 0, 0, 0, 72, 38, 29, 67, 0, 0, 0
|0, 0, 0, 0, 50, 81, 3, 0, 0, 45, 0, 0, 35, 65, 61, 0, 25, 78, 0, 0, 18, 53, 0, 0, 0, 66, 21, 23, 0, 0, 0, 20, 2, 79, 0, 24, 0, 0, 4, 77, 0, 0, 0, 41, 0, 0, 0, 0, 0, 0, 38, 0, 1, 0, 13, 0, 0, 80, 0, 8, 0, 14, 0, 0, 0, 29, 9, 0, 0, 0, 0, 0, 0, 0, 0, 0, 39, 76, 0, 0, 30
|0, 15, 0, 0, 78, 0, 0, 59, 0, 0, 1, 0, 0, 41, 77, 0, 0, 0, 0, 0, 0, 42, 0, 44, 0, 0, 0, 0, 37, 0, 4, 0, 0, 0, 66, 0, 0, 0, 23, 0, 38, 60, 0, 0, 79, 0, 0, 0, 0, 22, 0, 0, 0, 0, 0, 0, 0, 0, 21, 0, 0, 5, 29, 52, 0, 69, 0, 0, 0, 0, 0, 0, 35, 0, 74, 0, 0, 0, 0, 0, 0
|0, 0, 0, 52, 16, 0, 0, 0, 32, 0, 23, 0, 0, 0, 0, 0, 42, 64, 0, 28, 0, 0, 63, 0, 0, 46, 0, 0, 0, 0, 72, 0, 68, 0, 0, 25, 0, 0, 0, 0, 15, 0, 0, 0, 39, 0, 0, 0, 0, 5, 0, 0, 0, 0, 0, 0, 0, 75, 38, 0, 0, 0, 0, 0, 73, 21, 0, 0, 0, 0, 18, 0, 1, 0, 0, 0, 3, 19, 0, 0, 10
|63, 0, 0, 0, 0, 0, 11, 18, 0, 0, 0, 0, 79, 0, 36, 0, 0, 0, 0, 0, 0, 0, 45, 0, 0, 0, 9, 0, 0, 0, 0, 0, 0, 0, 32, 7, 0, 0, 55, 28, 0, 0, 0, 0, 0, 0, 68, 56, 0, 0, 73, 0, 0, 23, 0, 50, 0, 33, 0, 35, 0, 0, 0, 0, 0, 0, 0, 0, 0, 0, 22, 0, 0, 0, 0, 0, 37, 0, 0, 0, 0
|0, 0, 0, 0, 0, 0, 23, 26, 0, 60, 0, 0, 0, 0, 0, 0, 0, 0, 0, 74, 0, 0, 4, 0, 72, 0, 0, 0, 64, 59, 40, 0, 0, 0, 0, 0, 0, 0, 0, 0, 8, 51, 0, 0, 0, 0, 45, 16, 0, 76, 0, 70, 3, 0, 0, 0, 0, 0, 20, 0, 0, 0, 62, 44, 0, 0, 0, 0, 0, 65, 0, 0, 0, 0, 2, 17, 63, 7, 53, 0, 0
|0, 0, 0, 0, 0, 0, 0, 44, 54, 0, 50, 56, 0, 0, 15, 8, 0, 0, 0, 0, 0, 0, 0, 35, 0, 0, 39, 0, 0, 0, 41, 0, 0, 0, 52, 0, 0, 0, 18, 0, 0, 0, 0, 0, 0, 0, 0, 0, 30, 0, 0, 0, 0, 0, 0, 0, 0, 0, 0, 1, 76, 0, 0, 0, 10, 0, 78, 0, 40, 0, 0, 38, 49, 73, 0, 75, 0, 58, 0, 57, 0
|37, 0, 0, 0, 49, 76, 2, 0, 0, 30, 0, 52, 0, 0, 66, 13, 0, 0, 0, 0, 80, 0, 0, 0, 0, 0, 69, 8, 0, 61, 0, 0, 0, 43, 19, 0, 25, 72, 62, 0, 0, 3, 0, 0, 74, 0, 0, 0, 0, 0, 0, 0, 0, 0, 0, 0, 41, 0, 0, 0, 0, 77, 0, 0, 63, 0, 15, 0, 0, 4, 14, 1, 51, 0, 0, 0, 0, 0, 54, 31, 0
|0, 0, 0, 0, 0, 0, 0, 29, 47, 80, 57, 32, 0, 63, 46, 0, 48, 0, 0, 54, 0, 0, 37, 0, 6, 0, 19, 0, 0, 0, 0, 0, 0, 0, 0, 58, 0, 30, 0, 0, 33, 0, 0, 0, 0, 0, 0, 0, 36, 0, 0, 0, 0, 0, 0, 0, 0, 0, 0, 0, 78, 16, 0, 39, 0, 0, 5, 0, 0, 0, 23, 0, 0, 0, 0, 52, 0, 0, 0, 0, 0
|0, 0, 0, 0, 0, 8, 0, 9, 37, 0, 0, 0, 0, 44, 20, 16, 0, 0, 31, 0, 0, 0, 0, 0, 0, 0, 43, 0, 0, 41, 0, 72, 0, 63, 0, 0, 48, 0, 0, 0, 0, 25, 0, 58, 0, 0, 0, 0, 0, 0, 0, 71, 0, 80, 0, 0, 0, 26, 0, 0, 0, 0, 0, 65, 0, 0, 0, 0, 64, 0, 59, 0, 0, 77, 0, 70, 57, 49, 0, 60, 0
|0, 0, 0, 0, 26, 17, 0, 5, 0, 0, 0, 14, 0, 60, 0, 24, 0, 0, 0, 34, 0, 0, 0, 0, 68, 0, 0, 18, 0, 0, 0, 0, 40, 0, 0, 0, 0, 0, 0, 66, 0, 64, 0, 0, 36, 0, 0, 0, 0, 53, 13, 42, 0, 0, 0, 70, 0, 0, 74, 0, 22, 0, 0, 0, 0, 0, 0, 4, 0, 0, 0, 0, 0, 0, 0, 0, 0, 0, 0, 0, 0
|0, 0, 59, 64, 0, 0, 27, 0, 0, 0, 0, 0, 19, 0, 28, 0, 0, 15, 0, 0, 13, 0, 0, 0, 0, 0, 0, 0, 16, 26, 0, 0, 0, 0, 0, 0, 0, 0, 0, 53, 0, 0, 0, 1, 0, 0, 0, 0, 0, 0, 0, 0, 0, 0, 0, 0, 17, 0, 0, 48, 0, 81, 0, 0, 0, 23, 0, 0, 0, 76, 0, 0, 0, 45, 0, 74, 0, 0, 0, 0, 0
|38, 0, 0, 0, 0, 0, 0, 0, 13, 0, 0, 66, 46, 0, 0, 0, 0, 0, 15, 0, 64, 0, 73, 0, 0, 42, 0, 0, 0, 0, 30, 0, 49, 0, 28, 78, 5, 0, 0, 39, 0, 0, 0, 0, 0, 0, 0, 41, 68, 0, 0, 12, 0, 0, 79, 0, 0, 16, 0, 44, 0, 0, 0, 0, 0, 0, 0, 0, 0, 0, 0, 0, 0, 0, 0, 56, 0, 35, 36, 0, 22
|0, 0, 0, 22, 0, 0, 0, 0, 0, 0, 0, 0, 0, 0, 0, 0, 0, 63, 0, 0, 0, 4, 77, 0, 0, 0, 0, 0, 0, 0, 47, 7, 0, 0, 12, 0, 0, 0, 8, 0, 0, 0, 0, 0, 0, 20, 0, 0, 75, 0, 31, 56, 17, 0, 0, 0, 0, 0, 0, 25, 67, 0, 64, 0, 78, 0, 0, 5, 16, 0, 0, 0, 26, 72, 62, 0, 44, 0, 0, 1, 0
|0, 2, 0, 0, 0, 0, 0, 49, 0, 0, 72, 0, 0, 0, 0, 0, 0, 0, 58, 6, 1, 0, 0, 19, 0, 0, 50, 0, 0, 17, 73, 0, 0, 39, 0, 0, 62, 0, 0, 54, 20, 0, 0, 0, 51, 63, 0, 0, 0, 74, 0, 0, 0, 0, 0, 0, 0, 0, 15, 0, 0, 0, 0, 0, 26, 0, 0, 0, 0, 0, 0, 0, 9, 0, 48, 40, 0, 0, 0, 0, 0
|24, 0, 0, 0, 34, 0, 75, 0, 0, 0, 53, 0, 0, 74, 11, 58, 0, 0, 0, 0, 0, 0, 0, 0, 0, 0, 0, 66, 0, 0, 0, 0, 0, 0, 0, 0, 0, 65, 43, 0, 0, 61, 0, 3, 15, 0, 0, 0, 0, 2, 51, 0, 9, 7, 0, 59, 0, 63, 69, 0, 0, 0, 0, 0, 0, 0, 0, 56, 0, 67, 0, 25, 71, 0, 0, 0, 0, 0, 0, 0, 39
|61, 66, 0, 54, 0, 0, 0, 0, 0, 38, 0, 73, 0, 64, 0, 0, 75, 21, 76, 51, 0, 0, 8, 0, 0, 0, 0, 0, 2, 32, 20, 81, 45, 0, 56, 0, 0, 24, 0, 18, 0, 71, 40, 0, 14, 27, 26, 28, 25, 0, 0, 0, 0, 0, 0, 0, 0, 0, 0, 0, 0, 0, 0, 0, 0, 0, 0, 0, 0, 0, 0, 0, 0, 0, 63, 58, 0, 0, 0, 0, 0
|0, 0, 0, 0, 0, 35, 52, 32, 0, 0, 0, 0, 0, 0, 4, 0, 0, 0, 49, 0, 0, 0, 0, 0, 0, 0, 30, 0, 0, 0, 53, 48, 42, 0, 0, 0, 0, 0, 63, 0, 0, 0, 0, 0, 22, 0, 0, 0, 67, 45, 0, 16, 0, 1, 0, 0, 0, 68, 0, 0, 0, 73, 0, 0, 0, 14, 0, 38, 28, 0, 0, 19, 0, 0, 0, 0, 0, 10, 21, 0, 0
|0, 0, 0, 0, 0, 0, 79, 13, 0, 0, 0, 0, 0, 0, 0, 20, 55, 41, 23, 0, 0, 73, 0, 0, 0, 29, 0, 0, 8, 47, 45, 0, 0, 0, 0, 0, 0, 0, 0, 0, 0, 0, 46, 0, 0, 0, 0, 0, 0, 0, 0, 0, 0, 0, 24, 0, 0, 0, 43, 0, 0, 66, 0, 0, 0, 0, 0, 0, 0, 16, 38, 0, 65, 31, 61, 7, 0, 0, 69, 78, 0
|0, 0, 52, 0, 0, 0, 0, 47, 0, 46, 0, 0, 0, 0, 18, 0, 0, 48, 16, 0, 9, 0, 0, 13, 0, 0, 0, 0, 55, 0, 7, 0, 0, 0, 0, 51, 71, 2, 0, 0, 73, 0, 0, 0, 0, 0, 0, 3, 0, 0, 0, 0, 54, 0, 70, 0, 0, 0, 0, 0, 0, 0, 37, 0, 0, 0, 0, 32, 0, 0, 0, 0, 63, 34, 0, 0, 8, 77, 0, 0, 41
|0, 0, 72, 59, 0, 0, 0, 21, 43, 0, 0, 0, 0, 0, 73, 51, 26, 0, 0, 76, 0, 0, 62, 0, 28, 0, 0, 40, 0, 0, 48, 0, 32, 11, 0, 0, 0, 0, 19, 25, 0, 0, 0, 0, 57, 0, 0, 0, 79, 81, 0, 0, 0, 0, 0, 0, 0, 0, 0, 41, 13, 0, 0, 0, 0, 0, 23, 0, 52, 34, 0, 0, 0, 22, 0, 0, 0, 0, 29, 12, 0
|0, 0, 10, 0, 4, 0, 0, 0, 30, 0, 0, 0, 0, 0, 0, 77, 0, 0, 78, 0, 0, 0, 0, 0, 0, 43, 0, 0, 79, 0, 0, 0, 60, 0, 0, 39, 63, 36, 0, 76, 0, 68, 0, 0, 0, 0, 20, 0, 0, 16, 0, 0, 0, 0, 0, 0, 0, 0, 0, 0, 0, 0, 0, 0, 45, 0, 0, 0, 0, 0, 0, 28, 0, 0, 59, 42, 0, 0, 0, 0, 51
|0, 0, 0, 0, 0, 0, 31, 0, 0, 0, 0, 40, 0, 56, 0, 25, 78, 0, 0, 0, 0, 71, 0, 0, 70, 26, 0, 0, 0, 0, 0, 0, 0, 0, 0, 37, 0, 0, 52, 16, 0, 0, 0, 0, 0, 0, 38, 0, 0, 0, 0, 72, 0, 0, 0, 12, 0, 57, 0, 0, 0, 0, 65, 13, 0, 0, 77, 61, 0, 0, 66, 0, 0, 0, 0, 39, 6, 0, 0, 0, 18
|0, 0, 0, 65, 0, 0, 0, 0, 0, 22, 0, 0, 58, 0, 16, 0, 0, 7, 0, 0, 41, 0, 0, 0, 0, 0, 0, 0, 42, 27, 0, 0, 0, 17, 0, 76, 0, 0, 0, 0, 0, 0, 0, 0, 0, 0, 39, 36, 0, 0, 0, 0, 0, 0, 0, 0, 63, 20, 53, 40, 28, 71, 0, 29, 47, 8, 68, 0, 0, 0, 57, 0, 0, 0, 0, 0, 74, 0, 0, 0, 0
|0, 0, 0, 0, 0, 0, 39, 0, 0, 0, 0, 0, 47, 0, 60, 10, 0, 0, 0, 0, 55, 0, 0, 0, 0, 0, 56, 0, 0, 25, 75, 74, 0, 19, 78, 65, 0, 0, 0, 0, 0, 0, 28, 0, 0, 1, 0, 64, 0, 77, 0, 63, 35, 21, 0, 0, 0, 0, 68, 22, 0, 0, 80, 0, 0, 27, 0, 0, 0, 44, 46, 0, 0, 58, 11, 0, 23, 30, 0, 73, 20
|75, 34, 69, 42, 0, 0, 0, 0, 0, 0, 8, 0, 0, 0, 27, 0, 0, 0, 0, 0, 0, 0, 0, 46, 11, 22, 51, 15, 0, 71, 0, 0, 33, 0, 0, 0, 12, 0, 0, 4, 0, 74, 0, 0, 0, 52, 0, 0, 0, 0, 9, 0, 0, 0, 0, 62, 0, 0, 47, 0, 0, 0, 61, 0, 0, 0, 0, 0, 39, 0, 0, 78, 76, 0, 0, 0, 0, 37, 0, 0, 0
|50, 20, 0, 0, 0, 0, 0, 0, 0, 0, 0, 0, 1, 75, 0, 0, 0, 0, 12, 0, 52, 69, 0, 0, 0, 0, 0, 0, 0, 0, 0, 0, 81, 46, 0, 0, 0, 67, 66, 64, 0, 0, 0, 0, 0, 22, 0, 0, 0, 0, 0, 0, 41, 47, 19, 0, 0, 0, 0, 73, 16, 39, 0, 31, 0, 0, 0, 0, 0, 40, 0, 0, 0, 57, 0, 0, 0, 0, 24, 0, 0|];