order = 9;
grid = [|0, 0, 75, 0, 50, 0, 73, 70, 0, 4, 0, 0, 0, 8, 0, 0, 0, 16, 0, 61, 12, 0, 0, 0, 0, 44, 0, 0, 0, 0, 49, 32, 0, 21, 0, 57, 0, 35, 80, 0, 20, 0, 0, 0, 62, 0, 0, 0, 71, 9, 0, 0, 0, 29, 11, 40, 48, 36, 0, 0, 0, 0, 0, 63, 0, 0, 60, 0, 0, 0, 0, 0, 45, 0, 0, 0, 0, 0, 0, 0, 0
|0, 0, 0, 0, 0, 0, 0, 34, 31, 0, 0, 0, 0, 0, 23, 0, 0, 0, 0, 42, 0, 0, 0, 0, 37, 0, 0, 0, 0, 10, 0, 0, 2, 14, 0, 35, 0, 67, 41, 0, 0, 0, 22, 65, 36, 0, 0, 0, 24, 0, 0, 0, 0, 77, 0, 0, 0, 50, 0, 0, 0, 0, 0, 0, 0, 0, 0, 80, 0, 0, 0, 49, 58, 0, 0, 0, 61, 8, 16, 0, 15
|11, 0, 42, 19, 0, 0, 0, 59, 57, 49, 47, 0, 0, 0, 0, 14, 0, 0, 0, 46, 0, 4, 45, 40, 0, 3, 71, 0, 0, 51, 0, 61, 0, 0, 74, 0, 21, 0, 0, 0, 0, 0, 0, 0, 13, 0, 20, 0, 0, 30, 0, 0, 63, 0, 0, 0, 0, 0, 0, 0, 0, 0, 0, 0, 0, 0, 0, 5, 0, 0, 8, 35, 0, 68, 0, 0, 0, 0, 0, 9, 0
|0, 0, 0, 0, 0, 0, 0, 0, 0, 0, 0, 0, 6, 17, 0, 0, 0, 41, 67, 0, 0, 0, 0, 0, 0, 19, 0, 37, 24, 0, 0, 0, 48, 0, 8, 0, 66, 10, 0, 0, 0, 0, 0, 0, 0, 59, 0, 68, 0, 0, 0, 0, 16, 45, 0, 0, 0, 0, 0, 0, 63, 0, 0, 0, 23, 0, 12, 69, 0, 0, 0, 0, 32, 0, 0, 0, 0, 0, 21, 71, 42
|0, 38, 0, 0, 0, 0, 49, 20, 0, 63, 27, 0, 0, 0, 22, 0, 0, 0, 0, 0, 47, 34, 0, 0, 0, 0, 0, 0, 0, 0, 0, 6, 0, 54, 60, 0, 71, 0, 0, 0, 0, 72, 0, 74, 0, 0, 0, 0, 21, 0, 0, 66, 0, 0, 0, 0, 0, 64, 0, 51, 0, 0, 0, 75, 0, 42, 0, 0, 0, 0, 76, 0, 0, 0, 0, 0, 0, 0, 0, 0, 0
|0, 0, 0, 25, 0, 28, 7, 0, 56, 76, 0, 0, 12, 0, 0, 64, 21, 55, 0, 0, 0, 6, 0, 50, 0, 0, 0, 0, 0, 0, 72, 0, 68, 0, 69, 0, 0, 2, 0, 0, 0, 3, 9, 19, 0, 0, 60, 0, 0, 0, 58, 0, 0, 0, 0, 0, 0, 49, 0, 73, 0, 0, 0, 0, 0, 0, 0, 40, 0, 0, 0, 22, 0, 0, 77, 70, 46, 0, 0, 0, 0
|0, 0, 0, 0, 0, 0, 0, 0, 0, 53, 0, 20, 0, 0, 54, 61, 9, 51, 27, 0, 0, 16, 0, 0, 57, 0, 0, 0, 0, 0, 70, 0, 0, 0, 0, 66, 0, 0, 0, 0, 78, 77, 17, 0, 0, 0, 0, 0, 67, 0, 0, 0, 0, 0, 0, 0, 0, 62, 0, 0, 0, 2, 0, 0, 10, 0, 0, 32, 0, 58, 0, 0, 13, 0, 0, 0, 0, 0, 0, 0, 0
|0, 0, 37, 26, 0, 0, 65, 18, 0, 0, 0, 0, 0, 35, 0, 66, 0, 0, 0, 0, 0, 0, 0, 62, 0, 0, 0, 63, 0, 29, 0, 0, 0, 0, 0, 75, 0, 0, 58, 16, 0, 0, 0, 40, 0, 27, 13, 49, 0, 0, 0, 0, 0, 0, 0, 24, 0, 0, 0, 0, 0, 0, 7, 3, 0, 0, 54, 0, 0, 0, 0, 74, 28, 0, 0, 0, 0, 80, 0, 56, 0
|32, 0, 0, 0, 0, 0, 0, 0, 0, 70, 0, 0, 0, 0, 0, 3, 0, 58, 0, 0, 18, 0, 0, 23, 0, 0, 0, 0, 0, 0, 0, 0, 0, 0, 0, 0, 27, 0, 28, 0, 0, 0, 0, 81, 48, 0, 41, 0, 0, 11, 0, 0, 0, 76, 0, 78, 0, 0, 0, 44, 0, 0, 0, 0, 0, 53, 16, 0, 0, 0, 0, 0, 0, 0, 0, 0, 51, 0, 24, 0, 0
|0, 0, 40, 0, 0, 0, 22, 0, 0, 16, 0, 10, 0, 0, 36, 0, 1, 0, 0, 0, 35, 0, 0, 0, 33, 39, 0, 0, 0, 0, 79, 34, 77, 50, 53, 0, 59, 41, 69, 3, 7, 0, 67, 0, 0, 61, 0, 0, 47, 0, 0, 42, 0, 0, 0, 0, 11, 0, 26, 0, 0, 0, 0, 37, 0, 0, 0, 0, 0, 0, 0, 0, 0, 0, 0, 0, 0, 73, 0, 21, 45
|41, 0, 0, 0, 0, 0, 0, 0, 0, 79, 0, 0, 0, 0, 25, 43, 0, 0, 0, 66, 58, 0, 0, 71, 0, 0, 0, 0, 63, 0, 0, 23, 0, 0, 0, 0, 0, 0, 0, 0, 80, 4, 26, 0, 0, 64, 67, 54, 0, 0, 0, 0, 38, 28, 0, 0, 0, 0, 0, 0, 0, 0, 0, 0, 18, 0, 17, 0, 0, 0, 0, 72, 0, 62, 52, 0, 0, 76, 0, 0, 0
|81, 15, 45, 3, 0, 0, 0, 0, 0, 0, 0, 17, 71, 0, 11, 0, 0, 0, 0, 0, 0, 0, 30, 0, 0, 0, 0, 0, 0, 0, 0, 0, 0, 0, 0, 0, 0, 0, 0, 0, 0, 0, 0, 24, 0, 0, 0, 0, 50, 0, 0, 0, 0, 0, 0, 66, 0, 0, 51, 0, 70, 41, 0, 0, 0, 1, 0, 0, 8, 0, 31, 0, 0, 0, 0, 42, 0, 0, 0, 0, 0
|4, 0, 31, 39, 0, 48, 10, 53, 0, 12, 58, 0, 80, 33, 24, 18, 0, 0, 13, 0, 0, 49, 0, 0, 0, 0, 0, 64, 19, 2, 0, 70, 0, 0, 47, 21, 36, 45, 37, 0, 77, 62, 0, 0, 61, 78, 9, 0, 0, 0, 0, 0, 0, 0, 0, 29, 55, 0, 65, 0, 0, 0, 0, 0, 0, 0, 0, 0, 0, 0, 51, 52, 0, 0, 57, 0, 0, 0, 0, 0, 0
|0, 73, 49, 21, 34, 37, 26, 35, 0, 0, 0, 0, 8, 42, 59, 0, 0, 0, 0, 0, 0, 0, 15, 0, 0, 0, 0, 54, 27, 0, 0, 0, 25, 0, 0, 0, 0, 0, 0, 0, 0, 20, 79, 0, 0, 0, 0, 0, 5, 4, 0, 0, 0, 0, 6, 9, 0, 0, 52, 0, 0, 0, 44, 0, 0, 0, 0, 0, 0, 63, 80, 7, 0, 0, 0, 0, 0, 0, 0, 0, 0
|0, 0, 0, 0, 0, 0, 9, 0, 5, 0, 0, 61, 0, 0, 0, 0, 0, 21, 11, 0, 0, 60, 0, 0, 0, 29, 0, 0, 55, 43, 38, 0, 0, 0, 0, 7, 0, 0, 0, 0, 0, 0, 0, 72, 0, 0, 0, 0, 0, 68, 62, 0, 25, 0, 0, 0, 0, 0, 0, 15, 0, 19, 0, 0, 0, 13, 0, 0, 0, 45, 0, 39, 0, 2, 0, 64, 0, 0, 30, 0, 0
|0, 47, 0, 0, 0, 0, 0, 0, 0, 0, 9, 0, 49, 0, 62, 0, 41, 0, 0, 59, 0, 0, 0, 42, 0, 0, 0, 39, 0, 31, 0, 0, 45, 1, 0, 0, 0, 70, 0, 48, 0, 0, 0, 25, 0, 0, 30, 0, 7, 40, 74, 0, 0, 0, 0, 0, 0, 0, 0, 0, 0, 0, 3, 0, 0, 0, 0, 0, 0, 0, 0, 0, 26, 0, 0, 43, 56, 0, 0, 0, 0
|0, 0, 0, 75, 0, 0, 19, 0, 25, 0, 52, 0, 0, 0, 0, 81, 0, 14, 0, 0, 0, 0, 77, 56, 1, 10, 7, 8, 59, 42, 0, 0, 0, 0, 18, 0, 55, 0, 0, 43, 50, 0, 0, 39, 0, 73, 57, 0, 15, 60, 0, 0, 0, 0, 0, 0, 0, 0, 0, 0, 0, 0, 0, 0, 65, 0, 0, 21, 70, 5, 0, 0, 0, 0, 0, 63, 0, 0, 0, 11, 0
|63, 0, 14, 0, 0, 0, 0, 8, 0, 0, 0, 7, 3, 0, 0, 0, 54, 0, 0, 27, 0, 0, 0, 48, 19, 0, 43, 0, 0, 0, 0, 0, 0, 0, 0, 0, 35, 56, 66, 0, 0, 53, 0, 0, 0, 44, 0, 0, 0, 0, 0, 24, 39, 41, 57, 0, 0, 0, 0, 20, 59, 50, 0, 0, 0, 0, 0, 0, 0, 0, 0, 0, 0, 0, 0, 0, 0, 0, 0, 0, 0
|0, 3, 0, 0, 0, 0, 60, 0, 0, 20, 0, 0, 0, 54, 0, 0, 0, 43, 0, 64, 0, 0, 25, 0, 59, 0, 29, 0, 0, 26, 0, 35, 10, 0, 0, 0, 48, 0, 6, 0, 0, 0, 0, 0, 0, 0, 0, 0, 0, 18, 57, 75, 0, 39, 0, 0, 0, 37, 0, 0, 17, 0, 0, 76, 0, 0, 0, 0, 0, 0, 0, 33, 0, 0, 80, 0, 0, 0, 0, 1, 0
|0, 11, 0, 17, 35, 0, 0, 71, 0, 0, 44, 0, 0, 76, 0, 0, 0, 7, 0, 0, 0, 52, 0, 18, 28, 22, 0, 57, 0, 0, 0, 0, 0, 63, 0, 0, 0, 0, 0, 41, 0, 0, 30, 0, 0, 0, 15, 0, 0, 51, 13, 0, 59, 0, 0, 48, 0, 0, 67, 0, 29, 0, 23, 0, 0, 0, 25, 0, 0, 0, 0, 0, 0, 0, 0, 0, 0, 0, 0, 62, 0
|0, 0, 0, 0, 0, 0, 8, 0, 0, 0, 0, 3, 69, 0, 41, 0, 0, 0, 15, 36, 67, 0, 0, 0, 4, 0, 44, 0, 0, 59, 33, 77, 0, 0, 0, 14, 0, 0, 0, 73, 38, 0, 0, 0, 0, 21, 6, 0, 0, 5, 48, 0, 0, 0, 0, 0, 0, 0, 0, 18, 0, 0, 0, 0, 0, 0, 78, 0, 31, 0, 0, 0, 0, 0, 0, 20, 49, 0, 64, 0, 0
|45, 0, 0, 0, 0, 0, 0, 0, 52, 0, 0, 0, 0, 0, 16, 74, 0, 0, 76, 17, 0, 0, 0, 5, 2, 35, 6, 0, 62, 0, 0, 48, 0, 0, 0, 61, 29, 9, 0, 40, 0, 44, 7, 54, 0, 81, 64, 19, 0, 0, 65, 68, 0, 0, 28, 0, 0, 0, 0, 0, 50, 58, 0, 0, 0, 0, 0, 0, 0, 0, 0, 70, 0, 0, 15, 59, 0, 13, 34, 0, 0
|0, 0, 4, 38, 0, 54, 2, 0, 0, 0, 0, 0, 0, 65, 0, 0, 0, 0, 14, 72, 0, 78, 0, 0, 12, 0, 0, 0, 0, 0, 0, 74, 55, 32, 34, 0, 0, 47, 23, 0, 33, 0, 0, 0, 60, 0, 0, 0, 0, 0, 0, 0, 0, 0, 0, 0, 0, 24, 0, 59, 0, 0, 64, 0, 0, 20, 56, 0, 0, 0, 0, 0, 48, 0, 0, 35, 0, 0, 0, 0, 7
|48, 0, 0, 0, 0, 15, 0, 0, 0, 0, 59, 0, 0, 0, 0, 0, 56, 67, 40, 0, 0, 0, 0, 77, 0, 0, 0, 25, 0, 0, 17, 0, 0, 0, 0, 0, 0, 0, 0, 0, 68, 70, 0, 0, 5, 37, 0, 60, 38, 0, 3, 0, 0, 0, 0, 53, 0, 0, 62, 80, 81, 0, 0, 0, 0, 0, 0, 0, 23, 0, 0, 0, 0, 0, 30, 0, 0, 0, 0, 0, 0
|61, 0, 64, 0, 0, 0, 0, 0, 0, 0, 0, 0, 0, 75, 0, 0, 47, 0, 0, 0, 0, 7, 0, 30, 0, 0, 0, 0, 0, 0, 68, 0, 0, 73, 0, 46, 0, 0, 0, 0, 0, 0, 0, 53, 0, 12, 0, 40, 78, 0, 26, 0, 0, 0, 0, 0, 0, 0, 10, 0, 52, 0, 0, 34, 11, 0, 38, 0, 77, 0, 1, 0, 0, 0, 0, 0, 0, 0, 0, 0, 0
|0, 0, 0, 0, 0, 0, 0, 0, 0, 61, 0, 0, 45, 0, 0, 38, 0, 0, 0, 0, 0, 0, 0, 0, 0, 0, 0, 0, 16, 0, 0, 0, 0, 0, 0, 0, 0, 17, 0, 0, 65, 35, 18, 1, 0, 2, 32, 73, 53, 0, 0, 0, 22, 4, 8, 0, 0, 0, 60, 0, 0, 0, 0, 0, 9, 0, 59, 0, 0, 0, 27, 0, 0, 25, 0, 0, 44, 0, 52, 0, 0
|0, 0, 0, 0, 0, 0, 77, 0, 51, 0, 0, 0, 0, 0, 0, 0, 66, 0, 0, 0, 0, 0, 34, 0, 21, 75, 0, 5, 9, 58, 0, 0, 0, 0, 0, 0, 0, 0, 64, 59, 0, 0, 0, 63, 69, 79, 0, 0, 0, 0, 0, 0, 33, 0, 0, 0, 0, 0, 0, 0, 0, 0, 0, 0, 0, 24, 0, 0, 0, 0, 0, 0, 0, 0, 55, 0, 0, 0, 0, 17, 38
|0, 20, 48, 0, 79, 0, 0, 0, 0, 0, 61, 0, 0, 0, 0, 0, 0, 3, 0, 0, 0, 25, 0, 8, 66, 0, 0, 0, 2, 30, 0, 0, 0, 0, 29, 73, 53, 0, 0, 39, 0, 0, 0, 0, 68, 76, 0, 0, 0, 0, 50, 0, 0, 0, 22, 0, 0, 12, 0, 45, 15, 56, 63, 81, 1, 27, 0, 41, 0, 16, 6, 0, 0, 0, 0, 47, 0, 0, 0, 0, 0
|0, 0, 0, 36, 44, 47, 33, 0, 0, 0, 0, 0, 25, 20, 0, 7, 0, 0, 0, 0, 0, 0, 53, 22, 0, 23, 0, 0, 0, 0, 0, 60, 69, 0, 26, 0, 0, 30, 0, 0, 66, 0, 55, 0, 0, 0, 0, 0, 81, 0, 31, 78, 3, 0, 0, 0, 0, 0, 0, 0, 0, 51, 0, 0, 0, 0, 0, 0, 63, 0, 32, 0, 57, 0, 0, 0, 0, 59, 0, 15, 0
|0, 31, 21, 43, 0, 0, 0, 0, 0, 8, 19, 0, 0, 0, 0, 0, 0, 0, 0, 0, 0, 80, 0, 0, 0, 0, 0, 0, 0, 0, 0, 0, 0, 0, 0, 0, 74, 0, 29, 0, 0, 73, 0, 0, 0, 0, 0, 12, 33, 0, 0, 0, 0, 0, 0, 0, 0, 42, 0, 0, 0, 0, 0, 0, 0, 0, 0, 72, 0, 0, 0, 0, 0, 0, 0, 0, 0, 24, 0, 0, 0
|62, 50, 0, 0, 0, 0, 0, 0, 0, 66, 0, 16, 0, 26, 0, 68, 0, 0, 0, 0, 0, 0, 0, 0, 0, 12, 28, 0, 0, 0, 55, 0, 0, 0, 0, 51, 0, 0, 0, 60, 0, 0, 42, 0, 0, 7, 0, 0, 0, 0, 0, 0, 0, 0, 0, 0, 0, 0, 0, 78, 20, 0, 0, 0, 33, 0, 0, 0, 0, 10, 0, 0, 0, 74, 31, 0, 19, 0, 0, 27, 72
|0, 0, 0, 77, 13, 0, 0, 0, 65, 0, 18, 0, 55, 0, 33, 0, 0, 54, 0, 0, 0, 0, 0, 0, 0, 0, 0, 0, 0, 0, 7, 81, 0, 0, 0, 47, 8, 0, 0, 22, 0, 0, 0, 67, 0, 0, 0, 44, 0, 0, 0, 0, 0, 15, 10, 57, 0, 0, 0, 0, 71, 0, 0, 28, 0, 0, 51, 0, 0, 0, 0, 0, 0, 0, 0, 0, 39, 53, 0, 0, 25
|57, 80, 0, 0, 46, 22, 0, 0, 0, 74, 78, 4, 0, 58, 0, 0, 0, 63, 0, 52, 20, 0, 0, 0, 0, 0, 0, 40, 0, 14, 34, 0, 0, 0, 0, 0, 0, 61, 0, 76, 56, 0, 69, 0, 0, 0, 0, 0, 0, 47, 11, 72, 66, 13, 0, 17, 0, 26, 37, 0, 0, 27, 0, 0, 0, 0, 5, 0, 0, 0, 0, 0, 81, 0, 0, 0, 0, 0, 0, 0, 0
|0, 0, 0, 0, 26, 0, 3, 73, 0, 36, 0, 0, 47, 39, 0, 0, 32, 56, 0, 0, 0, 0, 0, 70, 0, 0, 0, 0, 50, 20, 0, 21, 0, 0, 0, 0, 0, 0, 0, 0, 0, 65, 0, 0, 0, 0, 0, 22, 0, 0, 0, 0, 0, 0, 13, 44, 76, 69, 0, 7, 0, 0, 31, 0, 55, 0, 57, 0, 0, 0, 0, 23, 0, 28, 4, 0, 0, 0, 0, 0, 0
|0, 0, 56, 11, 0, 0, 30, 0, 0, 73, 0, 15, 0, 0, 9, 72, 22, 71, 0, 69, 0, 0, 0, 0, 0, 0, 0, 0, 67, 0, 76, 0, 0, 0, 0, 0, 0, 0, 0, 0, 31, 0, 0, 4, 0, 0, 0, 0, 0, 0, 25, 18, 0, 0, 0, 6, 0, 0, 0, 0, 0, 0, 0, 0, 0, 35, 0, 0, 66, 0, 49, 44, 0, 0, 0, 55, 0, 0, 0, 0, 21
|0, 0, 0, 0, 74, 38, 0, 0, 0, 0, 0, 77, 0, 0, 1, 0, 0, 80, 0, 0, 39, 0, 0, 0, 78, 0, 0, 0, 10, 0, 0, 0, 0, 0, 48, 0, 0, 79, 0, 47, 0, 0, 50, 57, 7, 0, 36, 0, 0, 0, 0, 0, 0, 60, 0, 0, 0, 0, 0, 81, 0, 0, 0, 0, 0, 0, 0, 70, 0, 56, 22, 20, 0, 0, 0, 0, 52, 40, 44, 0, 0
|0, 35, 0, 0, 0, 0, 0, 0, 0, 0, 0, 1, 26, 0, 0, 62, 53, 0, 4, 0, 0, 0, 0, 0, 0, 80, 0, 0, 69, 0, 0, 0, 0, 79, 40, 0, 0, 55, 7, 0, 0, 48, 72, 0, 0, 0, 0, 9, 0, 0, 27, 0, 44, 0, 0, 0, 42, 39, 36, 0, 0, 0, 0, 0, 0, 0, 0, 0, 16, 0, 0, 0, 66, 0, 0, 0, 0, 78, 0, 0, 0
|56, 57, 0, 0, 0, 41, 0, 31, 0, 0, 0, 0, 59, 12, 0, 19, 10, 0, 46, 0, 0, 0, 0, 0, 17, 0, 55, 44, 0, 36, 0, 0, 0, 0, 35, 1, 0, 53, 0, 0, 0, 0, 0, 0, 0, 52, 0, 2, 0, 0, 0, 50, 21, 0, 0, 63, 27, 29, 0, 0, 69, 62, 75, 0, 0, 70, 0, 0, 74, 0, 0, 0, 0, 0, 0, 0, 0, 0, 0, 0, 58
|0, 34, 38, 0, 70, 0, 66, 6, 0, 0, 45, 0, 0, 0, 0, 0, 0, 0, 25, 11, 0, 0, 13, 0, 75, 47, 0, 49, 0, 0, 58, 0, 0, 8, 0, 0, 0, 3, 0, 46, 0, 0, 0, 0, 80, 0, 0, 67, 0, 0, 64, 0, 12, 72, 48, 71, 57, 44, 19, 0, 73, 0, 0, 0, 31, 0, 32, 0, 0, 0, 0, 0, 0, 0, 0, 0, 0, 28, 0, 0, 0
|0, 79, 0, 0, 48, 0, 1, 74, 0, 0, 75, 0, 0, 0, 0, 0, 3, 0, 0, 0, 56, 0, 0, 0, 0, 0, 9, 0, 0, 0, 0, 15, 0, 0, 0, 0, 69, 0, 81, 0, 0, 0, 0, 28, 20, 0, 37, 24, 0, 0, 59, 0, 40, 0, 41, 0, 0, 0, 0, 0, 0, 0, 80, 0, 71, 22, 47, 0, 0, 76, 10, 0, 0, 0, 0, 0, 0, 0, 0, 0, 50
|0, 0, 23, 20, 0, 0, 0, 0, 47, 0, 0, 21, 0, 0, 74, 0, 0, 0, 54, 0, 0, 0, 48, 0, 36, 0, 0, 0, 0, 0, 0, 66, 0, 0, 67, 0, 19, 0, 32, 0, 0, 0, 0, 11, 0, 0, 0, 75, 0, 0, 0, 71, 61, 0, 78, 77, 0, 0, 0, 0, 30, 81, 40, 0, 0, 0, 79, 0, 73, 8, 0, 80, 0, 49, 6, 0, 0, 0, 15, 0, 0
|0, 0, 0, 0, 0, 0, 75, 0, 3, 77, 0, 0, 34, 71, 0, 0, 79, 40, 0, 0, 57, 0, 21, 0, 0, 0, 0, 0, 22, 0, 48, 0, 0, 0, 81, 0, 0, 50, 0, 0, 45, 49, 0, 0, 70, 31, 0, 0, 0, 0, 0, 5, 0, 0, 0, 0, 0, 0, 4, 0, 0, 0, 0, 0, 19, 0, 27, 0, 0, 0, 0, 0, 0, 0, 43, 0, 0, 25, 36, 0, 0
|0, 65, 77, 0, 0, 0, 45, 0, 0, 0, 0, 0, 0, 0, 0, 0, 0, 0, 0, 31, 30, 0, 0, 0, 0, 0, 37, 0, 0, 0, 39, 0, 0, 59, 0, 0, 0, 0, 0, 29, 0, 43, 0, 14, 0, 58, 0, 0, 0, 7, 0, 0, 0, 0, 0, 0, 6, 0, 18, 0, 0, 0, 52, 0, 0, 0, 49, 0, 0, 0, 0, 0, 0, 10, 0, 0, 0, 0, 42, 2, 0
|0, 0, 2, 80, 0, 0, 44, 54, 14, 0, 0, 0, 0, 0, 0, 0, 0, 36, 0, 0, 0, 43, 65, 0, 0, 0, 0, 0, 0, 0, 0, 0, 73, 0, 0, 0, 77, 0, 9, 31, 0, 0, 0, 0, 0, 0, 3, 0, 0, 0, 0, 4, 0, 0, 0, 56, 0, 0, 0, 0, 0, 0, 0, 0, 0, 0, 0, 0, 17, 0, 0, 0, 0, 0, 64, 71, 0, 81, 0, 39, 0
|0, 26, 0, 0, 0, 0, 0, 0, 0, 0, 0, 0, 0, 51, 0, 0, 0, 0, 49, 0, 27, 0, 23, 0, 0, 76, 2, 17, 11, 0, 0, 65, 57, 0, 3, 62, 0, 0, 0, 54, 0, 18, 0, 0, 0, 0, 0, 0, 0, 43, 78, 0, 0, 22, 34, 0, 37, 15, 0, 72, 74, 0, 0, 0, 0, 0, 4, 53, 52, 0, 0, 0, 0, 0, 13, 79, 0, 56, 0, 0, 0
|0, 6, 0, 48, 0, 0, 50, 0, 71, 0, 0, 0, 0, 0, 65, 47, 0, 70, 63, 0, 0, 0, 0, 0, 0, 0, 0, 0, 15, 0, 0, 30, 78, 10, 0, 0, 0, 81, 0, 33, 29, 0, 0, 0, 0, 0, 0, 0, 0, 0, 0, 0, 37, 0, 0, 0, 7, 79, 0, 21, 26, 0, 53, 69, 0, 57, 0, 0, 22, 0, 0, 0, 0, 0, 0, 0, 34, 0, 0, 0, 0
|0, 0, 72, 0, 0, 0, 0, 0, 33, 0, 0, 0, 0, 10, 0, 0, 0, 31, 0, 0, 0, 0, 22, 0, 0, 0, 27, 0, 0, 0, 0, 0, 47, 36, 17, 0, 0, 0, 0, 0, 54, 0, 0, 0, 0, 6, 23, 0, 25, 0, 0, 0, 0, 0, 0, 76, 59, 0, 0, 0, 2, 0, 0, 78, 60, 0, 0, 0, 0, 0, 0, 0, 62, 43, 9, 0, 48, 0, 61, 57, 65
|0, 0, 0, 0, 81, 0, 0, 0, 78, 0, 0, 0, 0, 0, 0, 0, 0, 0, 20, 30, 0, 51, 61, 0, 0, 0, 15, 0, 0, 57, 0, 8, 0, 74, 50, 0, 0, 12, 0, 0, 0, 0, 1, 0, 0, 0, 0, 35, 0, 59, 60, 0, 0, 11, 0, 0, 46, 0, 0, 0, 0, 0, 27, 0, 0, 66, 0, 77, 0, 0, 0, 53, 0, 0, 0, 0, 37, 71, 0, 63, 18
|0, 0, 43, 68, 56, 32, 0, 0, 36, 0, 0, 0, 0, 41, 26, 20, 80, 0, 0, 0, 16, 0, 0, 0, 0, 0, 0, 31, 0, 0, 9, 0, 23, 27, 0, 0, 0, 0, 0, 0, 44, 0, 0, 13, 0, 75, 49, 0, 0, 0, 0, 0, 57, 0, 0, 39, 62, 0, 24, 0, 0, 17, 0, 0, 25, 0, 0, 8, 0, 0, 0, 0, 12, 0, 0, 0, 0, 0, 0, 81, 0
|2, 0, 0, 0, 38, 0, 0, 0, 0, 0, 0, 0, 0, 0, 0, 0, 0, 0, 21, 0, 72, 0, 0, 0, 10, 0, 0, 0, 35, 0, 0, 5, 0, 19, 0, 0, 0, 73, 0, 6, 0, 36, 0, 0, 0, 51, 33, 0, 0, 0, 0, 3, 0, 1, 0, 80, 8, 75, 56, 0, 0, 0, 68, 47, 0, 0, 67, 27, 0, 0, 0, 0, 0, 42, 0, 0, 50, 0, 0, 76, 20
|15, 41, 65, 0, 27, 17, 0, 40, 61, 0, 0, 0, 0, 0, 0, 60, 0, 0, 0, 0, 62, 0, 0, 4, 31, 0, 23, 0, 0, 16, 0, 58, 54, 0, 0, 76, 0, 0, 2, 0, 0, 0, 75, 0, 0, 0, 0, 0, 0, 52, 0, 0, 0, 0, 0, 50, 0, 0, 70, 0, 0, 57, 0, 49, 0, 0, 81, 0, 0, 38, 0, 34, 0, 0, 0, 56, 0, 67, 0, 0, 0
|0, 14, 28, 0, 0, 74, 12, 0, 20, 0, 0, 0, 15, 0, 0, 0, 0, 0, 0, 0, 26, 0, 0, 0, 0, 0, 0, 0, 0, 0, 0, 0, 0, 70, 0, 53, 56, 0, 0, 17, 37, 0, 0, 23, 0, 0, 0, 0, 0, 0, 0, 0, 0, 0, 0, 0, 0, 25, 0, 0, 0, 0, 0, 0, 0, 0, 0, 0, 0, 44, 54, 68, 79, 6, 27, 0, 0, 5, 0, 7, 0
|0, 0, 76, 62, 0, 0, 11, 0, 9, 0, 0, 0, 0, 74, 0, 0, 0, 0, 0, 0, 71, 0, 0, 47, 0, 0, 0, 0, 0, 0, 0, 0, 0, 12, 0, 0, 0, 0, 25, 0, 0, 34, 27, 0, 32, 0, 0, 0, 0, 0, 0, 0, 0, 0, 0, 0, 0, 14, 0, 0, 0, 0, 0, 0, 0, 51, 50, 23, 6, 0, 35, 0, 0, 36, 0, 0, 0, 0, 28, 0, 0
|0, 59, 0, 64, 0, 0, 0, 0, 0, 0, 0, 27, 0, 24, 0, 0, 33, 73, 0, 0, 78, 46, 0, 25, 0, 0, 69, 6, 0, 0, 45, 0, 0, 0, 0, 0, 28, 0, 22, 0, 0, 26, 0, 0, 0, 40, 54, 32, 13, 0, 0, 76, 0, 0, 0, 0, 67, 0, 0, 0, 0, 60, 0, 0, 0, 56, 0, 0, 0, 12, 0, 0, 75, 15, 0, 44, 80, 0, 55, 4, 23
|0, 60, 0, 81, 0, 0, 0, 0, 15, 0, 0, 63, 0, 73, 0, 0, 4, 0, 0, 65, 0, 74, 0, 0, 0, 0, 0, 67, 0, 0, 44, 0, 0, 0, 0, 0, 0, 0, 0, 0, 0, 1, 0, 0, 78, 11, 0, 58, 56, 21, 75, 0, 64, 0, 0, 0, 0, 51, 34, 40, 0, 61, 0, 0, 0, 0, 31, 7, 0, 0, 0, 24, 0, 47, 0, 0, 0, 0, 0, 0, 0
|0, 0, 0, 16, 0, 0, 54, 0, 0, 65, 53, 0, 0, 0, 0, 12, 0, 0, 0, 0, 33, 0, 50, 28, 0, 0, 0, 0, 26, 0, 46, 49, 0, 0, 77, 0, 0, 44, 0, 0, 15, 0, 74, 0, 0, 0, 0, 0, 0, 20, 17, 36, 0, 63, 19, 0, 0, 35, 0, 0, 0, 0, 0, 56, 0, 0, 0, 0, 0, 61, 0, 0, 0, 0, 0, 21, 0, 0, 0, 0, 0
|59, 0, 35, 12, 3, 0, 0, 0, 0, 0, 0, 0, 10, 0, 0, 0, 0, 0, 0, 0, 32, 0, 0, 0, 0, 0, 11, 0, 0, 41, 0, 0, 0, 15, 0, 0, 0, 0, 0, 0, 57, 6, 0, 66, 0, 0, 0, 0, 39, 0, 0, 81, 0, 0, 0, 0, 0, 0, 0, 0, 0, 0, 0, 42, 0, 0, 0, 0, 36, 52, 0, 0, 5, 69, 0, 0, 0, 0, 0, 0, 0
|46, 0, 0, 6, 0, 0, 74, 0, 41, 0, 0, 0, 0, 0, 72, 32, 7, 22, 18, 0, 0, 0, 0, 0, 23, 0, 0, 0, 0, 0, 21, 0, 34, 0, 0, 0, 0, 0, 0, 0, 0, 0, 0, 0, 26, 0, 0, 0, 0, 0, 51, 0, 0, 0, 2, 0, 0, 0, 59, 0, 12, 4, 0, 77, 0, 0, 43, 10, 39, 0, 47, 0, 15, 24, 0, 0, 0, 64, 65, 44, 0
|38, 0, 0, 0, 0, 0, 0, 28, 0, 0, 64, 0, 14, 21, 0, 69, 58, 0, 2, 0, 0, 12, 0, 0, 52, 0, 0, 78, 0, 0, 75, 0, 72, 0, 30, 0, 0, 0, 0, 0, 61, 31, 0, 55, 34, 33, 0, 0, 0, 0, 46, 0, 0, 0, 67, 0, 49, 0, 0, 0, 37, 1, 0, 23, 0, 0, 0, 0, 32, 0, 0, 0, 0, 0, 0, 0, 0, 0, 3, 0, 53
|22, 0, 0, 49, 0, 11, 20, 0, 0, 0, 0, 0, 29, 0, 39, 0, 0, 0, 0, 56, 79, 30, 0, 0, 0, 0, 0, 53, 0, 70, 63, 0, 0, 42, 0, 0, 0, 0, 65, 0, 0, 0, 0, 35, 0, 0, 0, 55, 32, 0, 24, 16, 0, 0, 0, 0, 10, 41, 0, 0, 0, 0, 15, 27, 0, 0, 0, 19, 0, 0, 0, 76, 25, 48, 68, 0, 0, 0, 18, 0, 34
|58, 32, 0, 0, 0, 65, 0, 0, 0, 0, 0, 0, 0, 1, 0, 59, 0, 0, 0, 70, 10, 0, 0, 0, 0, 7, 0, 0, 39, 64, 0, 47, 29, 0, 0, 81, 0, 0, 0, 0, 0, 0, 0, 52, 0, 54, 42, 27, 0, 0, 0, 0, 19, 0, 0, 0, 0, 31, 25, 0, 0, 0, 0, 53, 12, 0, 6, 0, 0, 0, 16, 0, 0, 9, 0, 77, 17, 45, 0, 0, 0
|0, 67, 0, 0, 0, 0, 0, 47, 0, 50, 0, 0, 0, 0, 0, 0, 0, 0, 41, 0, 0, 0, 38, 0, 0, 20, 0, 0, 0, 0, 37, 0, 65, 0, 0, 36, 14, 19, 33, 45, 22, 0, 21, 0, 73, 0, 0, 0, 79, 0, 0, 0, 0, 0, 0, 43, 0, 0, 17, 0, 0, 3, 0, 0, 0, 0, 0, 0, 0, 25, 0, 0, 0, 0, 72, 0, 0, 0, 35, 0, 0
|0, 0, 0, 0, 0, 61, 0, 0, 18, 0, 3, 0, 0, 0, 0, 0, 0, 49, 35, 0, 0, 0, 0, 0, 0, 31, 78, 0, 32, 0, 0, 0, 0, 0, 0, 0, 0, 0, 0, 24, 0, 0, 76, 56, 58, 0, 0, 0, 0, 0, 66, 0, 67, 0, 0, 0, 53, 16, 29, 63, 54, 0, 0, 0, 0, 73, 0, 0, 0, 0, 0, 0, 36, 33, 0, 0, 43, 0, 0, 12, 0
|0, 0, 0, 0, 0, 0, 0, 14, 46, 34, 55, 0, 0, 0, 73, 0, 0, 0, 0, 0, 0, 0, 0, 35, 39, 30, 79, 76, 5, 15, 0, 0, 0, 0, 0, 0, 0, 0, 0, 0, 0, 0, 0, 8, 0, 0, 0, 0, 0, 33, 61, 53, 0, 47, 0, 74, 38, 0, 45, 0, 1, 0, 77, 31, 0, 0, 0, 0, 56, 48, 0, 0, 0, 37, 0, 75, 0, 0, 0, 3, 0
|0, 0, 0, 0, 0, 0, 0, 0, 0, 72, 51, 0, 11, 77, 0, 0, 0, 0, 75, 0, 0, 0, 8, 0, 0, 0, 54, 43, 61, 0, 0, 0, 0, 0, 0, 0, 65, 28, 44, 20, 0, 0, 0, 0, 0, 0, 0, 0, 0, 0, 79, 0, 0, 0, 0, 0, 0, 4, 0, 35, 0, 0, 0, 19, 0, 0, 0, 0, 0, 0, 0, 0, 0, 0, 0, 16, 0, 0, 0, 48, 0
|76, 0, 0, 0, 0, 0, 0, 0, 0, 0, 0, 0, 65, 0, 0, 0, 67, 1, 0, 0, 0, 71, 0, 43, 0, 0, 4, 0, 31, 55, 41, 14, 0, 0, 0, 0, 0, 26, 0, 37, 0, 0, 0, 21, 25, 22, 0, 5, 0, 0, 0, 7, 0, 42, 44, 32, 0, 46, 0, 0, 0, 0, 0, 0, 0, 69, 20, 0, 27, 0, 28, 0, 0, 0, 0, 0, 0, 0, 0, 72, 12
|0, 12, 0, 0, 0, 0, 62, 0, 7, 0, 0, 0, 48, 0, 20, 0, 0, 24, 0, 0, 77, 2, 0, 0, 0, 50, 0, 79, 0, 0, 42, 26, 0, 0, 0, 38, 0, 0, 0, 0, 0, 15, 73, 0, 0, 39, 11, 52, 29, 0, 0, 0, 0, 0, 63, 30, 0, 0, 16, 75, 36, 0, 57, 0, 46, 0, 0, 0, 0, 78, 0, 0, 0, 0, 0, 0, 22, 0, 13, 0, 0
|0, 0, 0, 31, 0, 0, 0, 52, 0, 0, 2, 0, 0, 36, 0, 0, 0, 62, 66, 81, 74, 0, 0, 0, 70, 26, 21, 0, 3, 0, 13, 0, 16, 0, 51, 0, 54, 0, 0, 0, 0, 79, 0, 0, 12, 30, 0, 76, 0, 0, 0, 0, 27, 0, 0, 64, 0, 0, 0, 0, 10, 65, 0, 11, 0, 0, 0, 0, 18, 0, 59, 0, 0, 40, 23, 78, 0, 0, 0, 20, 55
|33, 0, 0, 0, 20, 0, 41, 0, 26, 25, 0, 14, 0, 0, 0, 0, 46, 32, 0, 0, 52, 27, 0, 0, 0, 0, 0, 0, 0, 0, 50, 0, 19, 23, 44, 65, 0, 0, 0, 0, 0, 0, 0, 48, 0, 0, 0, 0, 0, 67, 38, 0, 0, 0, 0, 0, 0, 0, 0, 8, 0, 0, 0, 0, 0, 0, 0, 0, 68, 47, 7, 0, 43, 29, 0, 0, 0, 11, 45, 0, 64
|47, 0, 0, 0, 0, 0, 0, 0, 0, 0, 0, 59, 0, 0, 0, 0, 0, 17, 61, 0, 46, 0, 0, 0, 20, 0, 0, 0, 54, 0, 0, 0, 0, 0, 75, 0, 0, 0, 42, 2, 0, 0, 0, 30, 43, 24, 63, 0, 0, 0, 34, 0, 55, 0, 0, 0, 79, 68, 0, 0, 0, 69, 0, 0, 0, 0, 0, 0, 49, 0, 0, 0, 35, 0, 0, 0, 0, 0, 31, 0, 39
|8, 0, 13, 54, 61, 0, 16, 57, 11, 0, 0, 33, 58, 0, 0, 0, 0, 0, 0, 62, 0, 18, 0, 32, 0, 0, 0, 0, 0, 47, 0, 0, 0, 0, 0, 0, 75, 0, 0, 66, 0, 39, 78, 0, 56, 68, 0, 0, 0, 0, 0, 65, 51, 0, 49, 0, 0, 0, 0, 70, 9, 0, 0, 0, 38, 30, 0, 0, 0, 0, 72, 6, 0, 0, 76, 0, 0, 0, 0, 24, 0
|0, 0, 0, 30, 0, 21, 0, 0, 43, 0, 0, 0, 74, 13, 53, 79, 42, 39, 0, 0, 0, 0, 0, 0, 0, 0, 0, 0, 0, 0, 0, 0, 0, 0, 36, 0, 0, 0, 0, 0, 0, 0, 0, 0, 0, 0, 0, 0, 0, 0, 54, 64, 78, 0, 0, 0, 0, 19, 0, 14, 0, 0, 0, 0, 0, 58, 0, 0, 0, 0, 66, 0, 17, 0, 0, 0, 0, 0, 0, 8, 0
|0, 78, 0, 14, 0, 2, 0, 63, 0, 0, 0, 0, 0, 55, 75, 0, 0, 0, 0, 38, 66, 0, 33, 0, 0, 17, 31, 0, 0, 0, 0, 0, 0, 0, 0, 0, 0, 0, 30, 0, 0, 0, 0, 0, 0, 0, 52, 57, 0, 0, 42, 0, 68, 0, 0, 0, 0, 0, 61, 0, 0, 0, 0, 36, 0, 0, 0, 0, 0, 0, 0, 37, 0, 0, 0, 72, 76, 0, 69, 0, 0
|0, 0, 0, 0, 0, 0, 0, 0, 0, 0, 0, 0, 0, 0, 64, 0, 29, 0, 0, 0, 0, 0, 44, 19, 0, 4, 0, 0, 28, 0, 0, 0, 0, 13, 0, 34, 0, 0, 0, 70, 0, 56, 0, 0, 0, 0, 0, 61, 0, 0, 0, 0, 0, 0, 0, 12, 0, 0, 15, 0, 0, 0, 6, 22, 0, 0, 26, 48, 30, 0, 46, 0, 0, 0, 59, 0, 0, 0, 0, 0, 0
|3, 0, 0, 71, 76, 0, 0, 0, 0, 0, 0, 12, 0, 0, 0, 1, 0, 0, 0, 25, 0, 0, 0, 80, 0, 14, 45, 72, 0, 0, 0, 0, 24, 17, 0, 64, 0, 0, 40, 0, 0, 0, 0, 0, 0, 43, 0, 0, 0, 38, 0, 0, 0, 0, 0, 0, 0, 0, 0, 0, 53, 0, 0, 10, 0, 0, 0, 0, 0, 0, 0, 0, 0, 0, 28, 50, 0, 0, 75, 0, 0
|64, 75, 0, 0, 0, 0, 0, 0, 0, 0, 0, 0, 0, 0, 0, 0, 74, 0, 0, 0, 0, 54, 6, 0, 61, 55, 40, 46, 0, 0, 0, 0, 0, 0, 0, 0, 45, 69, 0, 0, 0, 0, 0, 32, 0, 0, 50, 0, 0, 0, 19, 0, 0, 3, 0, 0, 31, 0, 0, 0, 0, 0, 0, 0, 0, 52, 77, 0, 0, 0, 12, 2, 23, 8, 0, 0, 0, 0, 78, 0, 36
|0, 0, 0, 0, 10, 0, 0, 56, 0, 67, 0, 52, 0, 47, 0, 73, 0, 0, 0, 1, 0, 0, 0, 63, 0, 72, 30, 61, 0, 45, 14, 0, 0, 0, 49, 0, 0, 0, 0, 0, 0, 68, 0, 0, 65, 0, 0, 0, 0, 0, 0, 0, 26, 78, 0, 0, 0, 0, 0, 0, 0, 0, 0, 0, 0, 44, 29, 75, 0, 0, 0, 0, 0, 0, 71, 57, 0, 0, 0, 0, 5
|54, 8, 0, 0, 24, 59, 0, 0, 0, 80, 0, 0, 0, 0, 0, 0, 0, 0, 0, 0, 0, 0, 79, 0, 0, 78, 0, 0, 0, 53, 0, 0, 5, 47, 71, 0, 39, 0, 0, 57, 0, 0, 0, 0, 0, 0, 7, 0, 51, 0, 0, 0, 0, 0, 0, 55, 0, 0, 0, 0, 0, 0, 19, 0, 0, 4, 0, 0, 0, 0, 58, 1, 29, 0, 0, 0, 60, 44, 0, 0, 0
|12, 0, 0, 0, 0, 39, 0, 0, 0, 23, 22, 0, 43, 0, 42, 0, 0, 53, 0, 57, 0, 0, 52, 0, 0, 74, 0, 0, 0, 8, 0, 0, 0, 0, 0, 0, 0, 18, 0, 7, 72, 0, 0, 0, 0, 0, 0, 0, 0, 0, 32, 0, 2, 5, 0, 0, 40, 0, 0, 0, 0, 0, 26, 0, 56, 0, 0, 0, 0, 0, 0, 0, 0, 0, 3, 0, 0, 0, 0, 0, 0
|0, 0, 0, 0, 0, 7, 0, 0, 30, 78, 77, 0, 81, 0, 0, 0, 51, 10, 22, 0, 28, 0, 2, 0, 0, 0, 0, 0, 0, 0, 59, 29, 0, 66, 0, 3, 79, 0, 0, 62, 0, 0, 0, 0, 64, 0, 0, 6, 0, 0, 0, 0, 8, 0, 20, 1, 0, 0, 0, 0, 0, 0, 35, 0, 0, 0, 0, 0, 60, 65, 25, 0, 0, 0, 42, 0, 16, 0, 0, 43, 0
|52, 0, 0, 0, 16, 0, 34, 0, 0, 0, 0, 62, 0, 0, 0, 41, 24, 0, 37, 0, 0, 0, 0, 0, 0, 0, 0, 30, 74, 0, 0, 55, 0, 0, 0, 0, 0, 0, 53, 0, 0, 54, 0, 78, 0, 0, 0, 0, 0, 0, 0, 15, 13, 0, 0, 0, 75, 0, 69, 67, 0, 0, 17, 70, 0, 0, 0, 0, 0, 0, 0, 32, 0, 38, 45, 46, 0, 0, 0, 65, 0|];