order = 9;
grid = [|0, 0, 0, 0, 76, 0, 0, 0, 0, 22, 0, 12, 0, 0, 0, 0, 0, 0, 0, 0, 0, 0, 0, 8, 0, 0, 60, 0, 49, 0, 34, 0, 0, 10, 0, 0, 0, 0, 46, 0, 0, 0, 0, 0, 0, 51, 0, 0, 0, 37, 0, 81, 0, 0, 0, 3, 0, 0, 0, 0, 39, 0, 0, 0, 0, 33, 32, 0, 0, 0, 19, 0, 0, 0, 0, 0, 0, 0, 0, 0, 0
|39, 0, 0, 0, 0, 0, 50, 48, 0, 21, 33, 0, 0, 0, 8, 4, 0, 0, 70, 0, 0, 0, 0, 81, 0, 0, 0, 0, 45, 22, 0, 3, 0, 0, 0, 42, 0, 0, 36, 28, 0, 0, 0, 0, 52, 0, 75, 0, 25, 2, 69, 0, 0, 13, 0, 0, 0, 0, 0, 23, 0, 0, 26, 0, 0, 0, 0, 0, 54, 0, 0, 0, 76, 0, 0, 0, 0, 0, 37, 0, 0
|0, 55, 20, 0, 0, 0, 0, 25, 28, 0, 0, 0, 0, 81, 0, 0, 0, 0, 0, 0, 0, 9, 0, 18, 0, 13, 0, 0, 43, 0, 0, 0, 0, 0, 37, 0, 0, 0, 0, 0, 0, 47, 33, 44, 3, 0, 0, 0, 76, 0, 0, 0, 0, 59, 0, 0, 0, 0, 0, 0, 77, 11, 0, 0, 0, 0, 26, 0, 30, 0, 10, 0, 0, 0, 54, 0, 0, 0, 0, 0, 12
|11, 0, 0, 16, 0, 0, 9, 0, 0, 0, 0, 0, 52, 0, 64, 0, 0, 0, 0, 0, 0, 0, 77, 0, 0, 0, 54, 0, 61, 13, 0, 74, 0, 0, 14, 0, 0, 0, 12, 0, 0, 0, 0, 0, 57, 0, 0, 0, 0, 0, 0, 0, 80, 0, 0, 0, 65, 78, 30, 56, 0, 0, 0, 0, 29, 0, 0, 68, 0, 55, 0, 0, 0, 15, 0, 0, 0, 7, 0, 0, 0
|0, 0, 0, 14, 0, 0, 0, 0, 0, 69, 0, 43, 0, 0, 44, 0, 0, 26, 0, 0, 0, 59, 36, 0, 0, 0, 0, 0, 0, 0, 7, 29, 0, 0, 38, 27, 0, 0, 0, 76, 0, 0, 54, 0, 0, 0, 9, 0, 0, 0, 41, 33, 0, 0, 0, 0, 1, 0, 34, 0, 47, 74, 0, 0, 0, 0, 0, 0, 0, 0, 0, 0, 77, 0, 0, 0, 0, 0, 58, 0, 0
|0, 42, 0, 0, 0, 0, 0, 0, 0, 0, 0, 0, 0, 17, 0, 0, 20, 0, 0, 0, 0, 0, 0, 45, 0, 10, 0, 0, 0, 0, 77, 0, 6, 0, 0, 0, 0, 0, 34, 51, 73, 0, 0, 0, 0, 8, 63, 0, 18, 0, 0, 0, 53, 0, 0, 0, 0, 79, 24, 0, 9, 7, 43, 0, 0, 0, 12, 0, 16, 0, 50, 0, 41, 0, 28, 0, 0, 21, 40, 0, 0
|64, 21, 0, 0, 45, 61, 0, 0, 0, 0, 18, 0, 0, 0, 25, 0, 0, 3, 17, 53, 0, 0, 43, 0, 44, 0, 0, 67, 0, 0, 0, 0, 0, 0, 0, 0, 0, 27, 0, 72, 0, 0, 0, 0, 0, 0, 1, 0, 0, 71, 0, 0, 74, 0, 35, 14, 33, 0, 52, 0, 0, 0, 12, 0, 81, 0, 0, 0, 0, 6, 0, 0, 0, 0, 0, 0, 0, 0, 0, 47, 0
|0, 0, 0, 22, 0, 0, 15, 0, 0, 0, 0, 0, 78, 0, 0, 0, 0, 41, 0, 0, 0, 65, 0, 6, 0, 0, 0, 51, 0, 0, 0, 47, 0, 0, 0, 28, 58, 0, 67, 0, 0, 0, 0, 0, 0, 27, 0, 34, 52, 77, 0, 0, 73, 0, 0, 0, 20, 31, 0, 0, 0, 2, 81, 0, 0, 0, 0, 60, 43, 0, 72, 0, 14, 0, 0, 0, 0, 3, 0, 0, 0
|24, 0, 0, 0, 0, 5, 0, 40, 0, 0, 0, 0, 0, 42, 0, 0, 0, 51, 0, 0, 4, 0, 0, 0, 0, 47, 0, 0, 0, 0, 0, 58, 20, 54, 0, 76, 63, 62, 81, 0, 0, 25, 0, 15, 0, 0, 43, 0, 0, 0, 31, 0, 0, 0, 0, 59, 64, 0, 0, 0, 0, 0, 0, 0, 0, 0, 0, 0, 21, 0, 0, 0, 0, 9, 0, 0, 0, 0, 0, 0, 0
|0, 0, 0, 0, 0, 0, 0, 0, 0, 39, 0, 0, 0, 0, 26, 0, 0, 0, 0, 0, 0, 0, 0, 0, 0, 0, 0, 0, 0, 0, 0, 54, 0, 0, 0, 8, 0, 23, 0, 59, 80, 0, 0, 0, 0, 18, 0, 0, 14, 0, 77, 0, 0, 0, 0, 0, 63, 0, 81, 0, 0, 0, 0, 0, 75, 0, 35, 0, 0, 0, 36, 0, 0, 0, 79, 0, 0, 0, 44, 15, 0
|17, 0, 0, 0, 54, 64, 0, 0, 52, 0, 80, 0, 0, 0, 0, 29, 0, 0, 0, 56, 0, 0, 15, 24, 0, 0, 0, 44, 0, 0, 0, 0, 30, 0, 0, 0, 0, 32, 11, 0, 0, 57, 0, 0, 0, 0, 0, 0, 0, 0, 0, 2, 81, 0, 77, 0, 0, 75, 0, 0, 13, 70, 18, 39, 0, 0, 0, 0, 0, 0, 65, 0, 0, 6, 0, 22, 0, 73, 0, 9, 5
|0, 0, 24, 29, 0, 0, 41, 0, 60, 0, 0, 42, 0, 0, 0, 75, 0, 0, 0, 38, 0, 0, 0, 0, 51, 0, 0, 23, 0, 77, 46, 0, 0, 0, 0, 0, 0, 31, 65, 0, 0, 0, 0, 78, 0, 0, 21, 0, 0, 0, 0, 28, 36, 0, 0, 56, 43, 0, 0, 9, 0, 0, 0, 68, 0, 0, 0, 0, 0, 0, 0, 0, 45, 0, 80, 0, 0, 13, 0, 0, 20
|0, 0, 0, 0, 20, 0, 0, 0, 0, 0, 0, 0, 59, 0, 0, 0, 0, 52, 0, 0, 0, 0, 0, 0, 0, 0, 0, 0, 57, 0, 0, 0, 22, 0, 0, 0, 35, 60, 3, 77, 0, 0, 0, 0, 0, 45, 13, 0, 44, 0, 0, 0, 9, 0, 0, 0, 17, 0, 29, 39, 0, 0, 0, 0, 0, 28, 0, 0, 56, 0, 0, 0, 0, 0, 32, 67, 0, 46, 0, 0, 0
|0, 37, 0, 0, 58, 26, 0, 0, 62, 51, 0, 0, 0, 0, 22, 0, 0, 0, 0, 0, 0, 0, 0, 0, 0, 0, 0, 0, 0, 45, 0, 0, 4, 0, 70, 0, 0, 41, 43, 0, 0, 0, 25, 0, 21, 30, 0, 0, 15, 54, 0, 0, 0, 0, 65, 0, 27, 0, 68, 0, 20, 0, 0, 46, 0, 0, 0, 0, 0, 0, 66, 0, 0, 63, 72, 16, 39, 33, 0, 34, 0
|0, 0, 0, 0, 0, 0, 0, 0, 0, 0, 0, 65, 57, 0, 0, 53, 32, 0, 0, 0, 0, 66, 0, 0, 60, 0, 41, 0, 0, 35, 0, 0, 0, 0, 19, 0, 0, 0, 0, 0, 16, 0, 2, 22, 14, 0, 33, 71, 0, 0, 0, 8, 0, 56, 79, 0, 0, 1, 73, 0, 72, 0, 0, 0, 0, 0, 0, 0, 12, 0, 24, 43, 0, 0, 0, 77, 0, 0, 50, 55, 0
|66, 0, 0, 25, 0, 80, 0, 0, 0, 37, 0, 0, 0, 0, 21, 10, 81, 0, 0, 0, 0, 0, 0, 0, 0, 0, 0, 0, 0, 0, 59, 0, 24, 0, 0, 0, 0, 54, 0, 27, 13, 0, 0, 0, 0, 0, 0, 0, 0, 74, 0, 0, 0, 0, 0, 0, 5, 19, 0, 0, 0, 71, 4, 0, 0, 0, 0, 0, 0, 0, 0, 0, 0, 0, 35, 62, 0, 0, 68, 0, 0
|0, 0, 0, 0, 0, 55, 0, 0, 0, 43, 60, 0, 30, 62, 0, 0, 0, 0, 77, 0, 0, 0, 67, 10, 0, 0, 0, 71, 0, 0, 0, 14, 39, 50, 63, 0, 5, 0, 0, 0, 15, 0, 0, 20, 0, 0, 0, 0, 57, 0, 0, 0, 0, 0, 0, 0, 2, 0, 0, 0, 24, 35, 0, 78, 0, 0, 0, 0, 0, 31, 37, 0, 0, 0, 0, 49, 54, 81, 59, 0, 0
|0, 0, 0, 4, 71, 69, 67, 0, 0, 0, 0, 0, 2, 0, 0, 0, 0, 0, 0, 0, 28, 0, 0, 0, 0, 0, 0, 0, 0, 0, 60, 0, 38, 0, 0, 51, 0, 0, 0, 0, 0, 56, 0, 0, 0, 0, 0, 0, 0, 0, 53, 0, 0, 0, 34, 0, 57, 0, 6, 0, 0, 0, 0, 0, 52, 7, 0, 14, 0, 40, 0, 0, 24, 0, 12, 0, 0, 0, 61, 0, 0
|40, 60, 22, 0, 24, 0, 0, 32, 0, 0, 0, 61, 0, 0, 0, 0, 0, 0, 0, 0, 74, 0, 0, 0, 36, 18, 42, 0, 2, 0, 29, 0, 10, 1, 0, 44, 0, 0, 27, 0, 0, 0, 0, 71, 48, 79, 0, 0, 0, 3, 80, 0, 0, 0, 0, 66, 53, 0, 0, 0, 0, 58, 0, 0, 0, 0, 0, 0, 0, 0, 0, 0, 78, 0, 0, 43, 0, 45, 0, 59, 63
|0, 0, 29, 81, 0, 14, 77, 4, 0, 0, 0, 6, 0, 0, 30, 35, 57, 1, 0, 0, 0, 0, 0, 0, 12, 41, 15, 69, 0, 0, 0, 0, 54, 0, 0, 63, 0, 0, 38, 66, 59, 0, 70, 0, 22, 33, 0, 51, 68, 0, 40, 0, 0, 0, 0, 0, 0, 0, 0, 0, 80, 16, 48, 75, 0, 0, 3, 0, 20, 23, 0, 0, 79, 0, 10, 0, 55, 0, 0, 17, 0
|0, 0, 0, 17, 0, 44, 0, 75, 2, 0, 0, 0, 0, 67, 0, 0, 8, 10, 4, 0, 61, 0, 0, 0, 0, 0, 0, 0, 9, 0, 0, 0, 0, 76, 0, 0, 0, 0, 0, 0, 0, 0, 0, 54, 0, 16, 0, 0, 0, 70, 39, 0, 0, 0, 30, 0, 49, 0, 0, 0, 0, 60, 0, 27, 0, 0, 0, 0, 18, 0, 0, 0, 0, 0, 0, 0, 0, 0, 80, 35, 0
|1, 0, 48, 0, 0, 0, 0, 26, 20, 80, 0, 69, 47, 0, 0, 0, 0, 0, 0, 0, 0, 33, 62, 40, 0, 0, 0, 12, 0, 0, 0, 0, 0, 0, 66, 77, 0, 0, 63, 0, 75, 0, 0, 45, 0, 34, 0, 2, 0, 0, 0, 44, 61, 0, 55, 0, 0, 0, 0, 18, 36, 0, 0, 60, 0, 0, 0, 0, 0, 0, 39, 0, 0, 0, 0, 0, 0, 0, 0, 0, 0
|0, 0, 0, 0, 0, 0, 0, 62, 0, 52, 0, 0, 0, 0, 31, 54, 0, 0, 0, 0, 0, 0, 0, 0, 2, 0, 35, 28, 0, 0, 0, 0, 0, 0, 16, 65, 73, 0, 50, 39, 0, 0, 0, 0, 0, 0, 0, 0, 0, 0, 0, 0, 0, 0, 0, 0, 78, 0, 0, 0, 0, 20, 22, 0, 0, 0, 0, 0, 71, 0, 0, 0, 0, 0, 0, 0, 40, 47, 0, 0, 0
|0, 0, 0, 41, 0, 79, 0, 0, 0, 65, 0, 0, 60, 0, 0, 0, 4, 0, 0, 0, 0, 20, 0, 0, 0, 23, 0, 70, 0, 0, 24, 0, 8, 0, 0, 0, 0, 37, 0, 0, 11, 61, 0, 2, 67, 0, 0, 9, 46, 32, 0, 0, 42, 30, 7, 0, 0, 0, 0, 76, 28, 0, 0, 74, 38, 0, 0, 78, 0, 0, 0, 53, 0, 0, 73, 0, 0, 0, 0, 1, 0
|0, 0, 0, 57, 0, 0, 0, 0, 0, 0, 22, 36, 0, 0, 62, 0, 0, 40, 19, 0, 0, 0, 0, 9, 0, 0, 73, 79, 0, 0, 56, 4, 0, 33, 0, 34, 0, 0, 72, 81, 0, 0, 0, 14, 0, 67, 0, 0, 0, 13, 0, 71, 35, 0, 6, 0, 0, 25, 43, 0, 10, 38, 0, 0, 48, 61, 0, 0, 0, 69, 0, 0, 0, 2, 0, 58, 0, 0, 0, 0, 0
|69, 0, 0, 0, 0, 0, 0, 67, 0, 16, 2, 0, 24, 0, 0, 19, 0, 15, 68, 0, 48, 0, 58, 79, 0, 0, 65, 0, 0, 61, 0, 0, 0, 31, 0, 0, 0, 52, 0, 0, 0, 0, 0, 0, 0, 0, 0, 73, 41, 0, 0, 49, 23, 0, 0, 0, 0, 45, 0, 0, 75, 0, 40, 0, 0, 0, 0, 0, 17, 4, 0, 0, 37, 0, 9, 0, 0, 0, 0, 0, 25
|46, 0, 0, 0, 0, 0, 0, 0, 0, 0, 0, 0, 0, 55, 0, 0, 0, 0, 0, 0, 0, 78, 0, 0, 0, 0, 0, 0, 0, 0, 40, 0, 60, 7, 0, 0, 0, 0, 29, 0, 0, 0, 47, 51, 0, 0, 0, 15, 24, 45, 0, 0, 10, 28, 0, 0, 0, 0, 3, 0, 0, 59, 0, 21, 0, 0, 0, 2, 0, 0, 0, 0, 32, 66, 0, 0, 0, 0, 0, 0, 0
|0, 35, 0, 0, 41, 0, 0, 0, 0, 0, 67, 4, 0, 64, 0, 0, 0, 0, 73, 0, 68, 0, 0, 48, 45, 0, 0, 0, 0, 0, 0, 0, 0, 0, 0, 0, 0, 0, 0, 0, 31, 0, 0, 24, 0, 0, 0, 0, 0, 0, 0, 0, 0, 0, 0, 10, 0, 43, 0, 0, 0, 80, 0, 0, 0, 0, 0, 0, 0, 0, 0, 71, 13, 1, 0, 0, 5, 0, 66, 52, 0
|0, 0, 0, 64, 47, 0, 0, 11, 10, 0, 0, 17, 0, 0, 0, 12, 0, 49, 0, 0, 0, 0, 0, 76, 0, 31, 3, 14, 8, 0, 0, 0, 0, 0, 0, 0, 0, 0, 0, 0, 20, 0, 0, 0, 56, 0, 0, 0, 0, 0, 23, 0, 60, 0, 33, 0, 0, 0, 0, 0, 0, 0, 34, 0, 0, 0, 0, 0, 0, 43, 0, 0, 75, 0, 30, 61, 35, 0, 0, 0, 0
|0, 0, 0, 20, 28, 0, 0, 0, 43, 0, 30, 0, 48, 0, 36, 0, 0, 0, 54, 61, 19, 41, 0, 0, 24, 69, 1, 0, 0, 0, 21, 0, 18, 0, 0, 59, 72, 0, 0, 10, 0, 0, 71, 0, 0, 17, 65, 0, 78, 7, 0, 31, 66, 0, 0, 0, 0, 56, 0, 0, 0, 0, 0, 0, 60, 0, 75, 64, 0, 0, 0, 42, 80, 0, 0, 45, 0, 0, 0, 0, 0
|0, 0, 0, 0, 0, 0, 0, 0, 0, 0, 0, 0, 40, 0, 55, 0, 0, 0, 15, 80, 0, 0, 51, 0, 0, 0, 0, 35, 54, 0, 0, 75, 79, 0, 0, 0, 29, 58, 0, 0, 67, 0, 0, 12, 0, 0, 0, 28, 36, 0, 32, 10, 0, 0, 0, 0, 0, 42, 0, 0, 0, 46, 0, 0, 0, 0, 0, 8, 0, 0, 0, 0, 0, 0, 0, 0, 0, 49, 0, 0, 0
|0, 58, 0, 0, 0, 54, 0, 0, 0, 0, 10, 0, 0, 0, 0, 0, 0, 0, 0, 0, 0, 0, 79, 70, 34, 0, 0, 0, 0, 0, 6, 13, 76, 0, 0, 0, 0, 75, 0, 0, 0, 0, 0, 0, 0, 0, 71, 0, 0, 0, 0, 0, 0, 0, 0, 19, 24, 5, 0, 0, 78, 0, 0, 56, 0, 0, 0, 26, 0, 41, 0, 1, 0, 0, 0, 0, 64, 0, 0, 0, 0
|9, 6, 0, 0, 0, 78, 0, 0, 0, 0, 0, 63, 56, 0, 0, 0, 0, 0, 0, 0, 25, 62, 0, 0, 0, 37, 0, 80, 0, 0, 0, 0, 81, 0, 0, 0, 0, 45, 0, 41, 0, 0, 3, 0, 0, 0, 57, 0, 75, 11, 35, 24, 0, 16, 0, 0, 0, 0, 0, 0, 23, 0, 0, 0, 77, 73, 0, 13, 39, 0, 34, 0, 19, 20, 0, 0, 0, 0, 22, 0, 0
|0, 0, 0, 0, 0, 7, 34, 51, 0, 0, 0, 22, 0, 0, 0, 0, 0, 73, 0, 75, 39, 0, 59, 60, 0, 0, 0, 0, 0, 20, 71, 0, 44, 0, 0, 0, 0, 49, 0, 0, 0, 0, 0, 68, 0, 0, 42, 1, 0, 0, 46, 0, 0, 0, 0, 0, 0, 0, 0, 0, 0, 61, 6, 0, 0, 69, 45, 0, 78, 0, 0, 0, 0, 54, 0, 32, 0, 0, 16, 0, 0
|42, 0, 59, 0, 0, 0, 0, 0, 0, 0, 0, 0, 0, 69, 29, 0, 78, 0, 0, 0, 0, 0, 0, 0, 47, 0, 0, 5, 0, 16, 0, 0, 0, 0, 0, 0, 30, 0, 0, 0, 0, 0, 0, 66, 0, 63, 0, 0, 0, 0, 0, 0, 77, 0, 64, 36, 0, 65, 35, 0, 1, 9, 0, 67, 0, 0, 68, 31, 0, 72, 0, 0, 0, 0, 0, 73, 0, 0, 0, 0, 0
|0, 0, 0, 71, 0, 75, 0, 66, 0, 15, 0, 80, 0, 14, 0, 0, 0, 0, 0, 0, 0, 0, 0, 0, 0, 0, 16, 0, 0, 30, 0, 0, 0, 58, 0, 0, 4, 0, 0, 0, 57, 0, 0, 0, 0, 0, 47, 79, 74, 19, 0, 0, 0, 2, 54, 0, 0, 41, 0, 0, 31, 0, 0, 0, 0, 3, 61, 0, 38, 0, 59, 0, 36, 0, 0, 0, 0, 0, 63, 60, 0
|0, 0, 0, 80, 0, 0, 0, 0, 0, 0, 0, 70, 22, 0, 0, 0, 0, 0, 0, 79, 0, 0, 19, 7, 77, 46, 38, 32, 0, 52, 68, 44, 0, 0, 0, 0, 0, 35, 55, 48, 0, 8, 0, 0, 0, 0, 23, 0, 0, 0, 0, 75, 0, 0, 0, 78, 26, 0, 0, 0, 0, 0, 0, 0, 0, 71, 0, 0, 0, 0, 0, 18, 9, 0, 33, 0, 0, 37, 0, 0, 0
|58, 0, 0, 0, 0, 0, 0, 9, 0, 0, 0, 0, 35, 0, 10, 0, 0, 0, 0, 0, 0, 0, 0, 37, 0, 0, 23, 0, 0, 0, 0, 0, 0, 0, 0, 0, 0, 70, 0, 0, 0, 0, 0, 0, 0, 0, 24, 36, 65, 0, 0, 0, 0, 0, 0, 73, 72, 0, 0, 0, 0, 55, 0, 0, 1, 13, 0, 0, 0, 77, 0, 0, 0, 0, 0, 0, 26, 0, 0, 41, 0
|0, 0, 60, 0, 0, 43, 0, 0, 0, 0, 27, 49, 0, 0, 42, 0, 0, 0, 0, 0, 12, 0, 81, 0, 0, 0, 0, 48, 0, 0, 0, 0, 0, 0, 57, 0, 0, 0, 0, 20, 0, 0, 0, 1, 0, 0, 0, 77, 0, 0, 28, 0, 0, 0, 0, 0, 0, 76, 0, 0, 0, 0, 74, 0, 0, 21, 47, 37, 0, 0, 0, 26, 0, 0, 31, 35, 0, 0, 39, 0, 0
|0, 0, 79, 0, 0, 0, 0, 0, 0, 0, 0, 59, 43, 37, 0, 6, 0, 0, 0, 29, 73, 70, 0, 0, 64, 0, 45, 0, 0, 0, 0, 18, 0, 0, 0, 0, 62, 0, 28, 46, 0, 0, 0, 36, 0, 0, 0, 0, 17, 63, 0, 0, 0, 0, 22, 60, 0, 0, 0, 0, 0, 32, 0, 0, 0, 0, 0, 0, 0, 0, 0, 14, 0, 0, 5, 0, 0, 0, 24, 0, 0
|0, 0, 0, 0, 0, 0, 0, 6, 0, 57, 0, 46, 0, 47, 0, 3, 56, 0, 52, 0, 15, 71, 0, 0, 21, 9, 0, 0, 13, 25, 63, 0, 0, 0, 0, 35, 0, 26, 80, 0, 33, 0, 0, 0, 24, 81, 41, 78, 0, 22, 16, 0, 5, 0, 18, 0, 0, 34, 0, 0, 0, 0, 0, 0, 20, 0, 42, 0, 0, 32, 0, 0, 10, 0, 0, 1, 0, 0, 27, 2, 58
|63, 0, 27, 0, 0, 0, 0, 0, 0, 0, 0, 0, 69, 0, 7, 0, 0, 0, 0, 0, 26, 0, 0, 0, 0, 0, 0, 0, 0, 46, 8, 0, 0, 0, 51, 56, 0, 0, 0, 0, 0, 0, 0, 0, 0, 0, 0, 68, 0, 42, 30, 0, 0, 0, 0, 0, 0, 0, 0, 77, 0, 0, 0, 0, 0, 0, 0, 0, 0, 0, 80, 0, 0, 0, 0, 0, 0, 0, 74, 0, 0
|76, 0, 0, 0, 11, 0, 68, 0, 78, 24, 0, 0, 0, 0, 0, 0, 0, 29, 62, 0, 40, 39, 0, 0, 0, 0, 0, 22, 0, 0, 0, 0, 1, 53, 0, 0, 0, 0, 0, 67, 0, 0, 0, 0, 71, 0, 80, 27, 0, 0, 45, 0, 0, 0, 0, 0, 79, 0, 0, 0, 66, 0, 0, 0, 0, 72, 0, 0, 0, 7, 0, 0, 0, 52, 34, 17, 0, 56, 0, 57, 0
|37, 0, 70, 0, 10, 0, 20, 15, 0, 0, 0, 0, 0, 0, 0, 0, 0, 0, 0, 28, 33, 35, 0, 0, 0, 0, 0, 0, 0, 0, 0, 0, 61, 0, 0, 0, 0, 0, 0, 0, 76, 0, 11, 0, 32, 0, 0, 0, 69, 0, 0, 9, 0, 0, 0, 0, 7, 0, 0, 0, 0, 0, 23, 5, 74, 0, 0, 0, 0, 0, 57, 46, 0, 47, 3, 0, 0, 48, 0, 0, 4
|67, 0, 74, 0, 0, 46, 0, 0, 0, 31, 0, 0, 18, 0, 0, 0, 28, 0, 0, 0, 0, 0, 47, 0, 0, 0, 63, 0, 0, 0, 0, 0, 0, 0, 0, 0, 0, 0, 0, 52, 0, 0, 0, 9, 41, 0, 0, 0, 0, 44, 33, 60, 0, 0, 0, 0, 0, 0, 0, 0, 0, 81, 0, 0, 0, 0, 0, 0, 0, 79, 0, 0, 0, 0, 0, 0, 0, 19, 75, 6, 29
|8, 24, 0, 55, 0, 0, 74, 0, 0, 0, 0, 51, 0, 0, 0, 0, 44, 47, 0, 21, 0, 79, 0, 0, 0, 40, 0, 0, 35, 0, 0, 69, 0, 0, 0, 0, 0, 0, 0, 0, 0, 0, 0, 0, 0, 0, 61, 0, 0, 0, 0, 27, 58, 0, 0, 0, 0, 22, 0, 0, 50, 0, 0, 0, 0, 19, 28, 0, 0, 17, 0, 41, 0, 57, 39, 0, 0, 63, 29, 65, 52
|0, 0, 40, 61, 0, 27, 0, 0, 0, 0, 0, 0, 45, 0, 16, 81, 0, 0, 0, 0, 76, 0, 17, 80, 0, 0, 0, 0, 0, 0, 44, 6, 0, 63, 21, 11, 0, 0, 0, 71, 0, 0, 39, 58, 0, 37, 36, 0, 73, 0, 0, 4, 0, 69, 0, 0, 0, 0, 0, 0, 0, 18, 0, 0, 0, 0, 0, 0, 0, 0, 0, 0, 0, 0, 0, 0, 0, 0, 0, 12, 14
|0, 14, 0, 0, 0, 0, 47, 0, 69, 0, 0, 58, 0, 0, 0, 61, 76, 32, 0, 0, 0, 0, 66, 0, 0, 0, 0, 0, 0, 0, 0, 0, 0, 0, 33, 13, 77, 0, 17, 29, 56, 0, 0, 0, 15, 0, 0, 74, 0, 0, 0, 0, 48, 0, 1, 0, 0, 0, 46, 52, 0, 21, 0, 0, 0, 0, 0, 0, 6, 0, 0, 0, 59, 0, 0, 0, 0, 0, 0, 0, 0
|0, 22, 0, 0, 73, 0, 58, 0, 0, 0, 0, 0, 0, 43, 0, 0, 0, 0, 0, 0, 0, 0, 0, 0, 0, 50, 8, 9, 0, 0, 0, 0, 0, 0, 56, 75, 81, 0, 0, 69, 0, 32, 0, 23, 0, 0, 0, 41, 0, 18, 0, 0, 3, 0, 0, 0, 0, 0, 0, 0, 0, 72, 0, 31, 40, 0, 60, 53, 46, 0, 2, 0, 0, 0, 0, 0, 0, 67, 0, 0, 0
|0, 10, 13, 39, 0, 0, 0, 28, 0, 38, 0, 0, 8, 0, 0, 0, 0, 0, 61, 0, 0, 0, 0, 0, 56, 0, 19, 0, 0, 0, 0, 0, 0, 0, 0, 5, 0, 0, 51, 0, 0, 0, 0, 0, 0, 0, 0, 0, 0, 0, 70, 0, 0, 77, 24, 0, 0, 49, 48, 14, 0, 0, 0, 62, 0, 0, 43, 0, 0, 0, 0, 0, 60, 0, 0, 0, 0, 36, 54, 44, 0
|0, 0, 0, 0, 0, 0, 0, 0, 44, 4, 7, 0, 66, 57, 3, 0, 31, 0, 0, 54, 0, 0, 0, 0, 0, 12, 10, 0, 0, 0, 0, 0, 0, 0, 0, 0, 0, 0, 20, 0, 0, 0, 38, 42, 0, 2, 0, 0, 22, 24, 8, 0, 0, 0, 0, 0, 0, 6, 11, 17, 0, 0, 0, 1, 0, 0, 0, 18, 76, 0, 0, 0, 0, 0, 0, 0, 28, 79, 47, 77, 73
|56, 0, 66, 0, 0, 0, 0, 0, 0, 0, 0, 53, 0, 0, 0, 46, 50, 0, 48, 0, 0, 0, 69, 0, 0, 65, 0, 0, 0, 0, 0, 0, 0, 0, 0, 78, 70, 0, 0, 0, 0, 16, 0, 55, 0, 0, 0, 0, 32, 0, 0, 0, 0, 0, 0, 76, 0, 0, 0, 0, 0, 0, 44, 0, 7, 68, 0, 0, 0, 38, 0, 63, 18, 0, 0, 0, 0, 0, 9, 0, 0
|0, 0, 0, 0, 80, 0, 0, 53, 0, 0, 9, 40, 0, 0, 0, 0, 77, 0, 0, 0, 0, 0, 0, 16, 0, 64, 68, 0, 60, 0, 36, 0, 0, 18, 0, 3, 76, 0, 25, 0, 0, 0, 0, 0, 27, 49, 0, 57, 0, 17, 0, 0, 0, 0, 0, 0, 0, 0, 65, 0, 63, 5, 33, 0, 72, 0, 0, 59, 73, 0, 0, 0, 0, 0, 75, 56, 0, 11, 0, 13, 48
|0, 0, 0, 0, 0, 3, 0, 17, 48, 0, 0, 0, 0, 0, 0, 37, 22, 0, 0, 0, 51, 0, 0, 0, 0, 0, 0, 0, 0, 0, 0, 0, 0, 0, 0, 57, 0, 0, 21, 0, 0, 2, 19, 60, 0, 0, 0, 0, 0, 0, 0, 39, 47, 0, 0, 0, 0, 0, 0, 0, 0, 69, 16, 0, 0, 80, 0, 30, 0, 0, 0, 25, 0, 0, 76, 0, 0, 32, 0, 0, 0
|13, 69, 0, 58, 62, 0, 3, 0, 33, 0, 76, 20, 0, 18, 0, 0, 0, 0, 0, 0, 0, 0, 9, 44, 0, 0, 40, 0, 81, 32, 0, 0, 0, 0, 0, 22, 7, 0, 0, 0, 27, 26, 43, 61, 66, 0, 0, 0, 0, 0, 0, 77, 0, 19, 78, 37, 0, 0, 21, 74, 0, 0, 0, 0, 0, 0, 0, 0, 0, 0, 0, 0, 0, 0, 0, 0, 0, 0, 10, 0, 0
|47, 0, 57, 43, 0, 12, 65, 61, 0, 79, 0, 0, 0, 0, 0, 14, 0, 0, 0, 15, 0, 5, 0, 0, 0, 63, 78, 0, 0, 0, 0, 0, 58, 0, 0, 0, 0, 39, 4, 0, 0, 0, 0, 0, 40, 0, 68, 0, 54, 0, 0, 0, 0, 0, 0, 0, 46, 0, 0, 0, 81, 10, 0, 0, 0, 42, 76, 0, 0, 0, 26, 0, 0, 0, 0, 0, 0, 0, 0, 22, 0
|0, 0, 0, 40, 0, 50, 0, 0, 0, 0, 0, 0, 0, 25, 0, 0, 0, 0, 45, 0, 77, 0, 0, 2, 26, 33, 53, 0, 14, 56, 37, 9, 0, 0, 0, 0, 0, 21, 0, 0, 0, 0, 0, 0, 0, 76, 0, 30, 0, 0, 0, 0, 0, 57, 0, 0, 38, 0, 0, 4, 0, 0, 80, 64, 0, 0, 0, 58, 35, 34, 0, 48, 0, 67, 0, 0, 75, 24, 0, 0, 0
|0, 0, 0, 0, 14, 60, 0, 0, 64, 0, 0, 38, 0, 0, 0, 0, 0, 0, 0, 10, 0, 0, 0, 0, 30, 66, 0, 26, 0, 0, 0, 0, 3, 0, 79, 47, 0, 0, 0, 0, 78, 20, 0, 0, 0, 0, 0, 0, 37, 56, 0, 0, 0, 0, 23, 0, 0, 0, 0, 0, 0, 0, 0, 50, 0, 0, 67, 0, 0, 0, 49, 0, 1, 40, 0, 0, 77, 0, 0, 0, 35
|0, 0, 0, 35, 0, 0, 0, 76, 27, 30, 21, 0, 62, 7, 0, 50, 0, 0, 0, 0, 34, 0, 0, 57, 0, 0, 0, 0, 0, 0, 0, 0, 2, 66, 15, 0, 0, 0, 0, 0, 12, 58, 36, 77, 69, 24, 8, 70, 0, 0, 0, 0, 0, 0, 0, 42, 0, 0, 0, 0, 0, 47, 0, 0, 28, 0, 0, 0, 13, 0, 0, 79, 0, 80, 0, 0, 0, 0, 0, 0, 26
|68, 30, 0, 0, 21, 0, 0, 0, 32, 0, 53, 0, 0, 0, 0, 0, 0, 0, 0, 71, 0, 0, 0, 0, 0, 0, 14, 0, 76, 0, 0, 0, 0, 0, 0, 0, 0, 0, 60, 0, 0, 59, 0, 0, 72, 12, 0, 0, 0, 26, 0, 0, 0, 0, 17, 0, 0, 0, 0, 0, 0, 0, 50, 0, 0, 1, 25, 0, 0, 2, 0, 0, 0, 36, 0, 0, 0, 0, 51, 0, 0
|0, 74, 0, 0, 26, 0, 7, 0, 0, 0, 0, 0, 10, 0, 0, 44, 0, 0, 0, 0, 67, 0, 0, 0, 0, 60, 0, 24, 40, 0, 0, 0, 0, 46, 13, 0, 23, 47, 0, 0, 0, 0, 0, 0, 0, 0, 0, 14, 0, 0, 0, 0, 0, 0, 0, 0, 0, 0, 0, 0, 0, 63, 0, 12, 55, 0, 0, 80, 0, 0, 54, 0, 0, 0, 41, 0, 0, 6, 0, 50, 0
|0, 0, 0, 66, 0, 10, 56, 54, 0, 26, 0, 55, 0, 58, 2, 24, 0, 0, 0, 46, 0, 0, 0, 50, 37, 0, 0, 0, 0, 0, 30, 0, 0, 0, 23, 70, 71, 17, 0, 0, 42, 1, 0, 0, 51, 0, 0, 0, 27, 0, 61, 72, 0, 0, 52, 0, 0, 0, 0, 0, 0, 0, 0, 33, 0, 0, 0, 0, 0, 0, 78, 0, 0, 16, 62, 12, 0, 0, 73, 0, 0
|0, 17, 0, 0, 0, 0, 5, 72, 75, 0, 0, 0, 0, 0, 34, 0, 0, 0, 36, 0, 0, 0, 0, 0, 0, 0, 0, 0, 0, 67, 25, 0, 41, 0, 0, 0, 0, 0, 0, 0, 0, 0, 0, 0, 0, 0, 2, 0, 31, 0, 0, 0, 0, 40, 0, 30, 0, 0, 0, 0, 0, 0, 0, 65, 0, 0, 0, 0, 4, 81, 43, 0, 0, 0, 52, 0, 79, 0, 48, 69, 0
|0, 72, 35, 0, 0, 0, 0, 81, 0, 44, 0, 0, 0, 0, 0, 36, 0, 4, 12, 0, 0, 0, 0, 0, 0, 38, 0, 53, 22, 68, 0, 0, 0, 0, 0, 31, 0, 0, 1, 0, 0, 0, 0, 34, 0, 0, 0, 0, 0, 0, 55, 47, 21, 0, 0, 58, 0, 0, 80, 41, 0, 0, 0, 0, 0, 75, 0, 0, 65, 0, 0, 0, 0, 0, 13, 0, 0, 0, 78, 0, 0
|33, 0, 34, 0, 37, 47, 0, 0, 53, 0, 0, 15, 0, 56, 0, 43, 0, 0, 3, 0, 79, 0, 0, 0, 76, 0, 0, 0, 0, 0, 0, 0, 0, 0, 0, 0, 0, 0, 0, 0, 0, 0, 0, 81, 0, 32, 0, 39, 0, 0, 0, 0, 0, 64, 59, 0, 0, 68, 0, 69, 0, 54, 0, 73, 0, 0, 5, 0, 77, 0, 0, 0, 27, 0, 0, 0, 0, 0, 0, 0, 46
|0, 0, 0, 0, 0, 0, 55, 0, 0, 6, 0, 0, 71, 0, 0, 0, 0, 64, 0, 77, 0, 0, 28, 36, 0, 0, 0, 0, 0, 72, 0, 0, 0, 0, 0, 54, 0, 0, 0, 0, 0, 0, 0, 0, 0, 0, 0, 0, 0, 0, 0, 0, 0, 76, 0, 0, 0, 2, 0, 0, 3, 1, 0, 0, 0, 0, 0, 0, 0, 0, 0, 0, 0, 22, 53, 0, 45, 0, 41, 0, 50
|0, 26, 54, 0, 0, 0, 0, 0, 19, 0, 0, 30, 16, 0, 0, 0, 0, 0, 32, 5, 43, 0, 44, 34, 0, 0, 0, 0, 0, 0, 17, 0, 0, 6, 0, 0, 0, 0, 61, 68, 0, 0, 59, 0, 37, 73, 0, 0, 0, 31, 2, 0, 0, 67, 0, 79, 0, 27, 18, 0, 0, 49, 55, 0, 0, 0, 0, 72, 10, 0, 0, 0, 0, 12, 0, 0, 0, 0, 0, 0, 0
|43, 0, 0, 0, 0, 17, 80, 0, 51, 0, 3, 19, 0, 0, 0, 0, 55, 0, 0, 40, 53, 0, 0, 0, 59, 11, 0, 0, 0, 0, 0, 0, 0, 0, 42, 2, 10, 0, 14, 18, 0, 65, 0, 0, 35, 0, 58, 26, 77, 0, 50, 0, 79, 0, 0, 0, 0, 0, 4, 13, 48, 0, 0, 0, 0, 0, 0, 0, 0, 64, 0, 0, 63, 75, 8, 0, 0, 0, 62, 0, 0
|77, 12, 0, 0, 0, 0, 31, 0, 18, 48, 0, 78, 0, 0, 0, 22, 0, 25, 0, 58, 0, 74, 0, 54, 0, 0, 0, 0, 0, 0, 41, 0, 0, 0, 39, 32, 0, 0, 0, 0, 0, 69, 0, 0, 0, 0, 0, 0, 0, 0, 27, 0, 68, 0, 0, 0, 0, 0, 0, 6, 0, 0, 0, 9, 37, 55, 13, 0, 0, 0, 0, 21, 0, 0, 66, 30, 2, 0, 0, 0, 0
|0, 0, 0, 11, 69, 0, 0, 0, 0, 0, 1, 0, 26, 65, 0, 58, 21, 0, 0, 0, 23, 0, 0, 0, 0, 0, 0, 0, 0, 48, 0, 37, 0, 0, 18, 0, 2, 0, 8, 0, 0, 0, 27, 0, 12, 0, 0, 46, 0, 61, 0, 0, 0, 71, 0, 43, 0, 0, 0, 78, 0, 0, 0, 0, 3, 0, 0, 44, 0, 0, 14, 0, 0, 0, 0, 0, 0, 20, 0, 0, 59
|50, 66, 0, 0, 0, 0, 13, 3, 0, 0, 0, 0, 0, 0, 40, 0, 54, 60, 0, 48, 0, 0, 0, 0, 0, 0, 0, 0, 0, 0, 14, 0, 0, 0, 69, 71, 0, 0, 31, 45, 0, 77, 28, 0, 0, 59, 0, 0, 33, 0, 0, 11, 17, 6, 0, 21, 47, 64, 0, 0, 0, 0, 42, 23, 0, 0, 0, 0, 0, 0, 30, 0, 0, 35, 57, 0, 37, 68, 0, 0, 0
|0, 0, 0, 0, 59, 0, 0, 0, 0, 75, 0, 76, 77, 61, 47, 0, 10, 13, 33, 0, 0, 0, 7, 0, 0, 0, 0, 0, 65, 0, 0, 0, 21, 0, 62, 79, 66, 0, 0, 0, 0, 0, 0, 43, 0, 0, 0, 0, 0, 0, 0, 0, 0, 78, 29, 0, 50, 0, 0, 0, 0, 26, 0, 0, 0, 0, 0, 0, 0, 11, 0, 0, 0, 0, 0, 0, 0, 71, 17, 0, 0
|0, 57, 0, 0, 0, 53, 0, 0, 0, 56, 0, 0, 0, 0, 0, 28, 0, 69, 0, 0, 50, 0, 0, 0, 0, 0, 39, 0, 0, 0, 0, 0, 0, 0, 0, 0, 0, 0, 0, 54, 0, 5, 0, 0, 0, 77, 0, 0, 2, 30, 0, 0, 0, 0, 0, 0, 0, 0, 0, 0, 0, 27, 46, 0, 64, 0, 0, 17, 0, 0, 1, 0, 0, 0, 0, 23, 0, 0, 0, 0, 3
|20, 0, 41, 0, 0, 6, 0, 58, 16, 0, 0, 68, 0, 72, 4, 0, 0, 70, 0, 0, 14, 0, 0, 0, 0, 22, 5, 0, 0, 0, 0, 0, 0, 0, 49, 0, 0, 0, 73, 0, 0, 67, 0, 0, 0, 9, 11, 61, 64, 75, 0, 13, 0, 42, 0, 0, 0, 0, 0, 0, 0, 0, 0, 18, 21, 0, 55, 0, 50, 52, 0, 0, 0, 33, 0, 0, 12, 0, 0, 10, 0
|3, 59, 0, 48, 0, 65, 0, 14, 63, 64, 0, 0, 44, 24, 0, 0, 7, 78, 43, 55, 0, 0, 0, 0, 79, 49, 0, 0, 0, 0, 0, 0, 0, 0, 0, 80, 0, 0, 0, 21, 70, 0, 0, 0, 0, 1, 17, 0, 67, 68, 73, 0, 0, 0, 0, 4, 0, 30, 0, 72, 0, 0, 39, 0, 69, 16, 31, 61, 0, 0, 71, 0, 0, 0, 50, 0, 0, 76, 25, 27, 41
|18, 0, 0, 0, 72, 0, 28, 69, 0, 0, 0, 0, 0, 0, 0, 0, 5, 0, 66, 16, 0, 2, 0, 0, 0, 0, 71, 0, 46, 64, 76, 65, 55, 0, 0, 0, 0, 77, 0, 0, 0, 0, 0, 0, 4, 74, 48, 0, 8, 0, 0, 0, 63, 0, 40, 62, 0, 17, 36, 0, 58, 79, 21, 0, 9, 30, 0, 0, 67, 0, 0, 13, 0, 0, 0, 0, 57, 52, 49, 7, 0
|0, 0, 0, 0, 0, 0, 0, 0, 0, 53, 0, 0, 0, 1, 76, 0, 0, 0, 60, 0, 11, 0, 30, 26, 0, 0, 52, 8, 0, 78, 0, 0, 0, 9, 0, 0, 0, 0, 0, 0, 0, 42, 0, 49, 61, 0, 0, 0, 0, 0, 71, 0, 0, 43, 0, 13, 0, 18, 56, 0, 64, 0, 0, 34, 0, 25, 0, 0, 0, 75, 15, 0, 0, 0, 0, 0, 73, 0, 0, 16, 2
|0, 0, 0, 0, 0, 0, 0, 0, 0, 0, 0, 0, 0, 0, 32, 0, 0, 0, 0, 0, 38, 53, 33, 0, 67, 0, 0, 0, 70, 0, 42, 0, 0, 0, 26, 0, 0, 0, 41, 0, 22, 18, 8, 0, 0, 0, 0, 0, 34, 0, 0, 0, 29, 0, 0, 0, 28, 61, 0, 2, 0, 0, 0, 0, 0, 0, 0, 57, 37, 0, 0, 36, 0, 0, 0, 47, 0, 54, 13, 0, 0
|0, 0, 33, 32, 0, 0, 44, 24, 0, 20, 0, 0, 0, 12, 0, 0, 0, 0, 0, 25, 70, 0, 0, 0, 0, 0, 0, 0, 0, 0, 0, 38, 0, 0, 41, 0, 0, 71, 0, 0, 0, 29, 16, 30, 0, 0, 0, 0, 0, 23, 0, 0, 0, 0, 43, 0, 0, 0, 55, 15, 49, 0, 76, 0, 0, 4, 0, 0, 0, 65, 0, 0, 0, 0, 0, 0, 0, 61, 46, 0, 0
|0, 0, 0, 0, 0, 56, 81, 70, 34, 71, 17, 0, 0, 80, 13, 0, 0, 57, 0, 0, 0, 0, 0, 0, 19, 0, 0, 0, 0, 0, 0, 0, 40, 0, 0, 0, 0, 0, 0, 0, 1, 0, 0, 46, 0, 0, 0, 0, 0, 0, 58, 0, 0, 0, 0, 0, 32, 0, 0, 0, 33, 0, 25, 0, 0, 11, 0, 35, 0, 0, 0, 0, 6, 0, 78, 0, 0, 0, 0, 37, 0
|52, 0, 0, 0, 39, 0, 0, 0, 0, 0, 0, 0, 0, 0, 50, 0, 0, 35, 0, 0, 0, 0, 0, 0, 0, 0, 0, 0, 0, 10, 0, 0, 0, 21, 0, 0, 55, 0, 78, 31, 0, 0, 0, 0, 76, 0, 70, 0, 0, 0, 0, 0, 0, 0, 0, 0, 0, 0, 0, 0, 42, 0, 0, 0, 0, 40, 79, 5, 0, 0, 3, 72, 0, 53, 0, 0, 0, 0, 0, 0, 0|];