order = 9;
grid = [|0, 0, 0, 0, 62, 0, 0, 0, 79, 0, 68, 0, 0, 46, 0, 0, 0, 0, 28, 0, 25, 0, 0, 7, 0, 3, 0, 0, 0, 0, 0, 0, 53, 0, 36, 69, 8, 0, 0, 58, 0, 76, 0, 26, 14, 0, 20, 49, 9, 17, 0, 0, 0, 55, 0, 0, 6, 0, 0, 0, 0, 0, 0, 0, 0, 0, 80, 0, 13, 77, 0, 0, 61, 0, 27, 0, 0, 1, 78, 4, 23
|0, 0, 0, 0, 13, 0, 0, 26, 49, 0, 0, 39, 78, 0, 0, 0, 0, 77, 0, 0, 0, 0, 0, 0, 0, 68, 0, 0, 0, 0, 65, 30, 23, 12, 0, 21, 0, 0, 66, 0, 63, 37, 0, 52, 0, 45, 0, 0, 0, 0, 48, 0, 56, 0, 0, 0, 80, 38, 0, 25, 0, 0, 18, 20, 0, 41, 15, 67, 0, 60, 0, 0, 0, 0, 0, 9, 0, 0, 0, 0, 0
|0, 0, 0, 0, 9, 21, 0, 0, 0, 0, 11, 0, 62, 26, 8, 0, 35, 0, 0, 45, 0, 44, 0, 0, 0, 0, 0, 0, 5, 0, 0, 0, 0, 60, 0, 0, 0, 10, 0, 75, 0, 0, 0, 0, 0, 39, 0, 0, 36, 70, 63, 0, 0, 0, 0, 0, 37, 0, 0, 0, 0, 23, 47, 0, 72, 0, 79, 0, 0, 0, 0, 33, 0, 20, 12, 24, 0, 0, 0, 0, 0
|0, 0, 0, 47, 37, 43, 59, 0, 0, 0, 0, 0, 0, 0, 21, 0, 0, 0, 8, 0, 0, 0, 0, 0, 0, 0, 0, 0, 0, 0, 10, 4, 45, 0, 9, 24, 0, 0, 0, 0, 0, 0, 0, 0, 72, 29, 0, 0, 0, 33, 0, 12, 0, 58, 0, 76, 0, 26, 0, 54, 0, 0, 39, 0, 0, 19, 0, 0, 0, 0, 0, 25, 0, 0, 0, 2, 0, 0, 80, 0, 0
|6, 0, 0, 0, 8, 0, 75, 0, 3, 0, 0, 0, 0, 52, 55, 0, 0, 0, 31, 0, 0, 0, 0, 0, 0, 0, 0, 59, 0, 0, 0, 27, 0, 2, 0, 0, 0, 0, 0, 0, 0, 0, 0, 0, 0, 0, 54, 0, 0, 0, 0, 0, 0, 0, 0, 0, 21, 22, 56, 0, 0, 0, 0, 28, 0, 57, 0, 0, 0, 0, 51, 0, 34, 0, 0, 0, 0, 16, 0, 0, 0
|0, 19, 0, 0, 0, 0, 0, 0, 0, 0, 27, 0, 10, 0, 6, 0, 14, 0, 65, 0, 0, 0, 12, 32, 0, 0, 0, 33, 0, 0, 0, 0, 58, 0, 46, 0, 0, 0, 59, 56, 44, 0, 57, 0, 0, 0, 0, 0, 0, 0, 0, 0, 0, 7, 73, 0, 0, 1, 0, 61, 49, 0, 0, 48, 0, 4, 0, 76, 0, 0, 24, 29, 0, 0, 0, 0, 0, 0, 0, 63, 17
|0, 2, 0, 0, 0, 0, 23, 0, 0, 0, 0, 19, 70, 0, 0, 0, 0, 36, 73, 0, 74, 81, 59, 0, 0, 52, 11, 0, 0, 0, 0, 42, 0, 8, 0, 0, 67, 0, 0, 0, 28, 22, 0, 25, 0, 0, 0, 5, 0, 0, 0, 0, 0, 18, 0, 31, 0, 58, 33, 45, 16, 0, 0, 0, 0, 0, 0, 56, 0, 0, 0, 0, 0, 30, 0, 47, 0, 7, 49, 0, 0
|36, 80, 4, 33, 1, 57, 0, 0, 11, 0, 0, 0, 0, 0, 0, 32, 0, 0, 0, 13, 0, 0, 0, 0, 0, 22, 75, 0, 0, 0, 0, 77, 0, 0, 0, 0, 0, 46, 0, 0, 0, 0, 74, 0, 0, 52, 44, 61, 0, 43, 37, 79, 0, 0, 0, 7, 0, 0, 0, 50, 0, 28, 0, 0, 0, 0, 63, 0, 0, 0, 9, 0, 69, 59, 0, 0, 0, 0, 0, 29, 0
|48, 0, 32, 0, 10, 63, 0, 0, 58, 0, 0, 33, 81, 0, 0, 0, 0, 73, 0, 0, 23, 0, 0, 0, 0, 0, 0, 0, 0, 0, 66, 11, 0, 0, 34, 0, 29, 0, 0, 0, 0, 0, 0, 0, 0, 35, 6, 57, 28, 0, 38, 65, 21, 0, 0, 0, 20, 27, 0, 3, 0, 75, 0, 0, 0, 64, 0, 0, 0, 18, 0, 42, 0, 0, 0, 0, 0, 0, 56, 0, 0
|13, 0, 43, 0, 0, 0, 0, 0, 0, 0, 0, 0, 55, 0, 38, 0, 0, 0, 0, 0, 0, 0, 0, 0, 0, 0, 0, 0, 0, 0, 64, 0, 0, 28, 0, 0, 0, 15, 3, 0, 0, 0, 0, 78, 2, 0, 0, 0, 0, 0, 0, 81, 0, 61, 0, 0, 0, 69, 0, 62, 0, 0, 0, 0, 0, 0, 0, 0, 0, 33, 76, 0, 0, 0, 0, 0, 0, 24, 0, 0, 0
|0, 0, 0, 4, 73, 52, 0, 57, 0, 0, 0, 0, 0, 0, 0, 0, 0, 0, 37, 0, 0, 0, 9, 74, 23, 0, 61, 34, 33, 0, 0, 59, 0, 24, 7, 0, 10, 0, 0, 0, 68, 0, 0, 0, 21, 0, 0, 0, 0, 0, 17, 0, 26, 29, 0, 28, 0, 0, 0, 0, 55, 0, 0, 0, 0, 0, 0, 0, 64, 19, 0, 16, 0, 79, 0, 11, 0, 75, 0, 0, 0
|50, 0, 0, 0, 0, 0, 30, 0, 55, 0, 63, 22, 0, 0, 52, 42, 43, 0, 57, 0, 0, 28, 58, 0, 0, 27, 0, 47, 4, 0, 0, 0, 37, 0, 0, 41, 0, 0, 0, 0, 0, 0, 0, 66, 0, 0, 48, 19, 74, 8, 0, 0, 15, 0, 0, 1, 0, 0, 10, 0, 61, 0, 46, 12, 53, 0, 39, 0, 0, 0, 0, 0, 0, 0, 0, 6, 0, 0, 29, 0, 0
|0, 0, 0, 8, 0, 0, 0, 22, 0, 0, 18, 0, 0, 59, 0, 0, 62, 40, 15, 0, 0, 0, 0, 67, 0, 0, 0, 0, 0, 0, 0, 0, 77, 0, 0, 0, 12, 81, 0, 28, 0, 0, 0, 0, 0, 0, 0, 6, 0, 0, 0, 0, 0, 0, 0, 0, 0, 0, 0, 34, 0, 70, 0, 0, 0, 0, 75, 0, 0, 0, 0, 21, 0, 0, 25, 64, 0, 0, 38, 0, 63
|0, 47, 0, 0, 0, 15, 0, 80, 0, 0, 0, 0, 61, 4, 0, 0, 0, 65, 0, 0, 0, 0, 0, 0, 0, 51, 64, 0, 13, 0, 0, 0, 0, 66, 0, 73, 58, 0, 29, 0, 70, 0, 0, 75, 0, 60, 0, 22, 0, 49, 56, 39, 0, 67, 0, 20, 45, 0, 0, 0, 0, 0, 0, 0, 0, 0, 0, 43, 0, 0, 37, 0, 0, 0, 0, 0, 7, 0, 28, 0, 0
|0, 0, 0, 0, 0, 0, 0, 39, 9, 81, 0, 0, 44, 29, 0, 0, 0, 0, 13, 0, 66, 0, 0, 0, 0, 0, 0, 54, 0, 0, 0, 55, 0, 0, 0, 71, 0, 49, 22, 0, 0, 0, 0, 0, 0, 0, 0, 0, 0, 0, 32, 0, 0, 0, 0, 0, 0, 0, 0, 0, 0, 80, 0, 0, 0, 62, 0, 0, 77, 0, 0, 0, 0, 0, 0, 46, 0, 0, 0, 14, 76
|0, 0, 0, 0, 0, 0, 0, 0, 0, 0, 16, 15, 6, 0, 0, 0, 0, 79, 0, 1, 0, 52, 0, 21, 0, 0, 0, 40, 8, 0, 32, 0, 0, 0, 0, 27, 25, 0, 0, 26, 0, 0, 62, 0, 0, 0, 0, 0, 0, 73, 0, 0, 0, 70, 0, 64, 31, 49, 0, 0, 0, 0, 65, 0, 0, 0, 13, 36, 0, 0, 61, 0, 53, 35, 57, 0, 0, 0, 0, 0, 0
|0, 0, 54, 77, 63, 65, 11, 0, 0, 0, 0, 0, 0, 0, 0, 66, 0, 0, 0, 49, 46, 0, 0, 0, 0, 0, 0, 29, 0, 0, 72, 0, 61, 0, 1, 0, 47, 80, 0, 0, 0, 31, 23, 39, 0, 79, 35, 12, 0, 0, 0, 0, 2, 0, 0, 0, 0, 0, 0, 0, 0, 0, 0, 0, 0, 0, 0, 10, 0, 0, 0, 0, 9, 0, 51, 0, 27, 0, 0, 0, 43
|72, 0, 0, 0, 0, 0, 0, 3, 78, 0, 0, 0, 0, 0, 0, 0, 41, 0, 0, 29, 0, 0, 0, 0, 45, 69, 0, 12, 0, 0, 20, 43, 0, 0, 0, 0, 9, 11, 0, 0, 0, 19, 33, 76, 0, 0, 0, 21, 0, 0, 59, 10, 0, 0, 0, 54, 14, 0, 0, 60, 0, 0, 15, 0, 49, 0, 0, 0, 0, 34, 0, 0, 0, 0, 0, 48, 0, 0, 18, 17, 0
|0, 0, 44, 0, 0, 58, 0, 37, 0, 0, 0, 0, 0, 0, 0, 75, 13, 0, 0, 11, 0, 7, 0, 0, 0, 0, 0, 68, 0, 74, 0, 24, 29, 0, 0, 0, 45, 0, 55, 0, 0, 0, 77, 0, 0, 0, 0, 0, 60, 0, 0, 0, 0, 0, 31, 0, 69, 65, 0, 0, 27, 30, 40, 73, 0, 0, 71, 49, 0, 47, 0, 0, 0, 0, 0, 0, 34, 80, 0, 46, 0
|22, 25, 0, 0, 0, 0, 0, 0, 32, 21, 1, 62, 37, 0, 0, 0, 0, 30, 0, 0, 0, 0, 0, 0, 20, 0, 0, 46, 60, 0, 0, 8, 0, 9, 0, 81, 7, 0, 73, 68, 0, 0, 29, 58, 0, 63, 0, 13, 31, 0, 0, 0, 0, 0, 49, 0, 0, 0, 0, 0, 0, 19, 0, 0, 77, 0, 0, 0, 0, 0, 0, 0, 0, 0, 0, 0, 0, 2, 0, 0, 0
|0, 0, 0, 0, 0, 0, 71, 0, 0, 0, 0, 28, 0, 22, 0, 14, 0, 0, 10, 50, 0, 12, 24, 8, 0, 0, 0, 0, 0, 0, 0, 0, 0, 30, 5, 3, 0, 0, 0, 0, 76, 0, 0, 65, 0, 0, 21, 0, 0, 18, 46, 0, 0, 6, 0, 0, 0, 13, 0, 29, 38, 0, 54, 0, 0, 55, 1, 0, 0, 0, 75, 0, 0, 0, 0, 16, 26, 0, 42, 0, 0
|18, 49, 14, 78, 0, 50, 0, 0, 17, 0, 0, 0, 0, 0, 43, 11, 0, 0, 0, 21, 36, 0, 0, 0, 0, 0, 0, 0, 76, 59, 0, 0, 20, 0, 0, 0, 56, 62, 0, 61, 0, 0, 0, 0, 31, 0, 0, 40, 0, 0, 2, 0, 0, 0, 0, 0, 0, 0, 0, 46, 0, 0, 0, 30, 0, 0, 0, 0, 0, 67, 74, 0, 0, 0, 0, 0, 53, 0, 1, 0, 51
|43, 0, 0, 27, 0, 38, 0, 54, 0, 76, 2, 68, 74, 24, 47, 0, 0, 0, 0, 0, 0, 0, 0, 0, 0, 0, 0, 0, 0, 0, 0, 0, 13, 53, 35, 0, 0, 60, 0, 25, 0, 0, 39, 70, 0, 0, 0, 0, 0, 0, 22, 0, 0, 0, 20, 0, 5, 44, 0, 0, 33, 0, 0, 45, 0, 58, 0, 72, 9, 0, 0, 14, 75, 0, 0, 0, 0, 40, 0, 0, 0
|0, 34, 0, 0, 0, 0, 0, 19, 0, 0, 0, 58, 5, 0, 42, 4, 39, 0, 0, 0, 0, 0, 0, 0, 0, 75, 0, 0, 0, 33, 27, 0, 0, 0, 0, 0, 0, 47, 0, 54, 0, 0, 0, 0, 0, 0, 0, 32, 0, 0, 0, 28, 0, 24, 68, 0, 0, 0, 0, 0, 0, 0, 0, 52, 0, 0, 0, 0, 10, 0, 0, 0, 18, 0, 50, 0, 0, 62, 0, 60, 0
|0, 35, 21, 0, 0, 0, 0, 0, 45, 0, 0, 56, 79, 0, 0, 6, 71, 0, 0, 0, 63, 0, 0, 0, 0, 74, 49, 0, 0, 0, 37, 64, 0, 39, 0, 28, 0, 0, 0, 0, 0, 0, 0, 0, 16, 0, 0, 14, 0, 0, 0, 0, 0, 33, 0, 43, 36, 75, 0, 0, 0, 0, 0, 0, 0, 7, 19, 0, 0, 0, 46, 0, 0, 47, 0, 0, 0, 0, 0, 0, 0
|0, 28, 0, 9, 65, 5, 0, 51, 0, 0, 0, 0, 0, 60, 0, 0, 32, 0, 78, 0, 0, 0, 54, 16, 22, 0, 0, 0, 70, 0, 67, 0, 0, 0, 0, 0, 0, 0, 0, 0, 0, 41, 0, 81, 0, 0, 0, 0, 0, 0, 0, 56, 0, 30, 47, 0, 0, 35, 0, 0, 0, 79, 61, 40, 0, 0, 0, 6, 0, 0, 0, 0, 0, 0, 0, 0, 0, 0, 14, 0, 38
|46, 0, 0, 75, 81, 0, 0, 0, 0, 0, 0, 0, 0, 0, 0, 0, 0, 18, 30, 48, 0, 0, 0, 0, 0, 0, 62, 0, 0, 22, 0, 0, 0, 0, 0, 0, 0, 0, 36, 0, 0, 0, 5, 80, 0, 12, 0, 0, 67, 0, 0, 0, 0, 0, 17, 0, 0, 0, 2, 0, 0, 0, 14, 0, 0, 50, 11, 0, 0, 0, 0, 57, 79, 0, 10, 0, 0, 0, 0, 0, 0
|0, 0, 0, 3, 0, 0, 34, 5, 0, 0, 0, 0, 0, 33, 0, 0, 0, 0, 0, 0, 0, 0, 0, 0, 0, 0, 0, 0, 46, 0, 30, 0, 0, 0, 0, 0, 0, 0, 0, 55, 0, 0, 28, 0, 60, 0, 0, 0, 0, 0, 15, 0, 50, 0, 0, 0, 0, 0, 0, 0, 0, 0, 0, 77, 12, 44, 0, 41, 0, 57, 0, 0, 0, 0, 23, 0, 40, 0, 0, 0, 16
|0, 18, 64, 0, 57, 0, 0, 11, 0, 0, 0, 0, 13, 0, 0, 81, 0, 28, 3, 79, 0, 0, 0, 0, 0, 0, 0, 0, 38, 0, 0, 0, 0, 0, 0, 61, 0, 0, 0, 20, 0, 0, 0, 0, 0, 0, 0, 0, 0, 0, 0, 46, 0, 0, 80, 21, 0, 68, 0, 0, 0, 0, 0, 0, 35, 31, 0, 0, 0, 0, 0, 53, 0, 0, 0, 0, 0, 0, 67, 0, 0
|69, 0, 0, 0, 0, 0, 0, 0, 0, 40, 0, 0, 0, 0, 27, 0, 0, 0, 18, 0, 0, 64, 0, 38, 0, 62, 0, 67, 31, 2, 0, 6, 0, 34, 0, 0, 76, 0, 70, 0, 0, 0, 80, 14, 22, 42, 0, 0, 0, 0, 0, 4, 0, 0, 0, 0, 0, 0, 0, 0, 19, 47, 0, 0, 10, 61, 72, 20, 0, 0, 0, 32, 0, 0, 0, 0, 0, 0, 0, 0, 1
|0, 0, 0, 80, 0, 0, 0, 0, 0, 68, 0, 0, 0, 0, 0, 15, 0, 0, 0, 0, 0, 75, 0, 1, 0, 31, 21, 0, 0, 0, 0, 56, 0, 0, 54, 0, 79, 0, 23, 0, 0, 38, 0, 0, 0, 0, 0, 0, 58, 0, 0, 0, 57, 44, 0, 0, 0, 0, 0, 7, 0, 0, 6, 0, 0, 0, 0, 0, 22, 0, 0, 0, 0, 14, 0, 69, 0, 10, 4, 0, 0
|0, 0, 0, 0, 0, 0, 28, 0, 53, 55, 39, 0, 36, 19, 0, 0, 0, 0, 0, 14, 44, 9, 0, 15, 0, 0, 0, 0, 0, 0, 0, 23, 0, 0, 0, 0, 0, 0, 6, 0, 0, 52, 51, 0, 8, 81, 38, 0, 0, 0, 0, 0, 0, 0, 0, 0, 0, 45, 59, 0, 0, 0, 0, 21, 0, 0, 0, 11, 0, 75, 34, 0, 0, 0, 78, 0, 72, 0, 48, 0, 0
|0, 0, 0, 0, 0, 29, 0, 0, 67, 0, 0, 14, 35, 0, 0, 0, 0, 0, 0, 33, 0, 27, 0, 0, 16, 73, 0, 0, 42, 0, 0, 0, 0, 0, 3, 59, 0, 0, 0, 32, 56, 15, 45, 0, 0, 0, 80, 0, 0, 0, 0, 0, 0, 47, 0, 0, 74, 0, 25, 66, 75, 0, 0, 0, 4, 0, 0, 9, 0, 0, 26, 0, 0, 31, 8, 0, 0, 65, 0, 18, 0
|71, 0, 76, 2, 0, 0, 0, 30, 0, 26, 4, 49, 0, 0, 0, 0, 0, 0, 0, 0, 0, 0, 46, 0, 0, 0, 59, 0, 78, 0, 16, 0, 28, 19, 0, 0, 0, 0, 0, 0, 0, 0, 0, 0, 0, 0, 0, 0, 0, 0, 31, 0, 12, 21, 1, 0, 0, 55, 0, 0, 0, 0, 0, 0, 0, 0, 0, 0, 62, 0, 39, 0, 0, 0, 81, 0, 0, 0, 0, 0, 0
|15, 38, 0, 0, 32, 0, 44, 58, 0, 0, 0, 0, 9, 65, 0, 3, 0, 0, 4, 41, 34, 0, 5, 0, 0, 0, 10, 0, 75, 53, 50, 35, 63, 0, 0, 74, 0, 0, 12, 81, 26, 0, 0, 0, 0, 59, 0, 20, 0, 0, 0, 0, 36, 73, 0, 27, 0, 0, 0, 0, 0, 0, 2, 0, 0, 0, 0, 0, 0, 0, 55, 0, 0, 0, 17, 19, 0, 30, 76, 70, 0
|23, 55, 0, 0, 0, 0, 4, 0, 0, 61, 0, 18, 0, 0, 0, 48, 0, 0, 24, 0, 0, 0, 0, 0, 0, 0, 0, 57, 51, 0, 0, 0, 0, 0, 0, 0, 75, 0, 0, 0, 0, 0, 0, 0, 0, 0, 39, 0, 0, 67, 0, 26, 0, 0, 0, 70, 0, 78, 32, 0, 0, 0, 36, 0, 28, 0, 25, 73, 0, 0, 0, 0, 0, 0, 2, 0, 0, 0, 50, 0, 64
|0, 0, 0, 0, 55, 0, 0, 0, 0, 0, 34, 0, 28, 0, 0, 0, 0, 0, 38, 0, 15, 0, 0, 0, 0, 35, 0, 0, 69, 0, 74, 53, 0, 0, 57, 0, 0, 50, 72, 0, 0, 0, 0, 0, 0, 14, 0, 62, 0, 0, 0, 0, 0, 68, 0, 0, 63, 0, 0, 81, 56, 29, 0, 10, 0, 0, 0, 0, 0, 0, 0, 0, 0, 0, 0, 0, 0, 0, 0, 16, 48
|0, 0, 1, 0, 59, 0, 0, 0, 0, 15, 0, 0, 0, 0, 0, 0, 0, 0, 0, 0, 0, 33, 48, 0, 0, 0, 0, 0, 0, 0, 0, 17, 0, 0, 0, 0, 40, 53, 0, 0, 80, 0, 0, 0, 67, 0, 37, 0, 0, 0, 0, 0, 0, 46, 7, 0, 0, 62, 0, 0, 0, 0, 0, 0, 0, 0, 76, 23, 44, 0, 0, 55, 41, 39, 0, 22, 0, 0, 0, 0, 71
|0, 26, 0, 0, 61, 0, 64, 34, 0, 0, 12, 0, 0, 0, 0, 0, 0, 0, 0, 30, 0, 0, 55, 0, 0, 80, 0, 2, 0, 0, 56, 0, 0, 0, 0, 0, 0, 0, 0, 0, 0, 0, 0, 36, 0, 0, 0, 0, 21, 0, 0, 0, 40, 0, 54, 0, 0, 0, 76, 0, 73, 0, 0, 0, 60, 0, 0, 0, 0, 0, 0, 0, 23, 81, 0, 17, 0, 51, 0, 0, 0
|0, 0, 2, 17, 0, 79, 0, 43, 0, 73, 30, 0, 0, 0, 0, 71, 46, 25, 0, 0, 37, 11, 0, 0, 0, 0, 0, 0, 40, 0, 0, 0, 4, 0, 0, 0, 0, 0, 58, 41, 0, 0, 0, 0, 68, 64, 0, 0, 47, 0, 55, 0, 0, 0, 0, 32, 0, 0, 66, 27, 44, 0, 0, 0, 0, 0, 0, 0, 0, 15, 0, 78, 20, 77, 0, 0, 0, 0, 0, 0, 0
|0, 11, 0, 52, 0, 73, 0, 16, 57, 0, 0, 0, 0, 0, 0, 55, 24, 6, 0, 0, 0, 0, 0, 0, 79, 0, 71, 0, 62, 72, 0, 0, 0, 0, 0, 0, 0, 0, 0, 0, 69, 56, 0, 0, 76, 38, 0, 8, 18, 0, 0, 0, 45, 0, 0, 0, 0, 0, 47, 0, 0, 5, 0, 0, 0, 43, 0, 0, 0, 0, 66, 77, 30, 0, 0, 67, 0, 3, 0, 0, 0
|0, 0, 0, 0, 0, 0, 56, 0, 63, 0, 0, 0, 67, 23, 0, 0, 0, 0, 39, 0, 4, 0, 0, 10, 0, 0, 0, 37, 0, 0, 0, 0, 0, 0, 33, 19, 0, 73, 0, 0, 0, 46, 71, 0, 0, 0, 17, 50, 0, 66, 0, 57, 0, 69, 0, 0, 0, 0, 21, 43, 0, 0, 0, 0, 0, 0, 0, 7, 0, 0, 0, 72, 0, 0, 0, 0, 0, 0, 26, 55, 54
|0, 75, 0, 0, 14, 0, 48, 0, 0, 0, 0, 0, 56, 40, 17, 0, 18, 2, 0, 0, 0, 0, 73, 42, 0, 47, 0, 35, 0, 0, 0, 0, 60, 0, 30, 50, 11, 0, 0, 0, 0, 61, 0, 0, 45, 0, 0, 15, 0, 44, 0, 54, 0, 0, 10, 71, 0, 0, 0, 22, 0, 0, 0, 0, 0, 0, 0, 0, 0, 58, 62, 0, 72, 0, 0, 38, 29, 6, 25, 0, 0
|0, 0, 0, 38, 0, 0, 0, 24, 0, 0, 0, 0, 50, 44, 1, 0, 0, 0, 0, 0, 0, 76, 0, 0, 0, 0, 0, 0, 0, 0, 0, 0, 52, 0, 0, 0, 0, 0, 0, 0, 0, 0, 0, 0, 0, 0, 19, 36, 0, 0, 0, 67, 0, 0, 0, 46, 58, 0, 0, 0, 0, 0, 78, 0, 0, 0, 2, 0, 0, 0, 0, 0, 43, 0, 37, 0, 69, 53, 0, 0, 0
|0, 0, 0, 0, 0, 71, 0, 10, 0, 0, 0, 0, 0, 76, 81, 0, 0, 72, 0, 0, 0, 68, 0, 53, 0, 0, 19, 39, 0, 0, 0, 58, 0, 0, 16, 77, 0, 0, 0, 29, 0, 0, 0, 21, 18, 0, 0, 0, 0, 59, 0, 60, 0, 35, 0, 0, 0, 0, 0, 37, 0, 33, 12, 67, 0, 49, 0, 0, 0, 0, 57, 0, 0, 0, 0, 0, 0, 15, 2, 0, 47
|0, 53, 0, 0, 0, 0, 0, 74, 50, 0, 0, 63, 0, 0, 0, 0, 0, 0, 0, 0, 0, 0, 0, 0, 7, 0, 0, 30, 14, 0, 26, 0, 0, 0, 0, 46, 52, 0, 35, 40, 0, 0, 0, 0, 38, 10, 0, 54, 0, 0, 0, 0, 0, 0, 0, 0, 0, 0, 0, 0, 64, 0, 0, 0, 0, 0, 57, 0, 0, 42, 0, 0, 0, 15, 0, 65, 39, 8, 22, 0, 0
|54, 9, 17, 26, 0, 0, 0, 78, 0, 0, 59, 71, 53, 14, 0, 0, 25, 0, 0, 22, 16, 2, 69, 0, 0, 56, 0, 0, 21, 0, 0, 0, 0, 0, 0, 65, 0, 0, 79, 0, 0, 36, 0, 0, 5, 0, 81, 58, 0, 0, 0, 77, 0, 0, 0, 33, 0, 0, 0, 0, 68, 42, 29, 0, 0, 0, 0, 39, 67, 0, 0, 0, 0, 57, 0, 0, 63, 0, 55, 40, 10
|0, 8, 0, 68, 0, 0, 0, 7, 16, 12, 72, 2, 0, 18, 0, 64, 0, 0, 0, 81, 61, 0, 0, 0, 0, 0, 9, 0, 0, 0, 0, 67, 0, 0, 0, 0, 22, 0, 0, 62, 0, 0, 0, 28, 0, 48, 0, 0, 0, 0, 42, 0, 35, 0, 0, 0, 0, 66, 0, 78, 0, 0, 25, 0, 0, 0, 0, 0, 0, 0, 0, 58, 0, 52, 0, 34, 0, 0, 0, 0, 27
|0, 0, 46, 0, 0, 0, 0, 0, 75, 0, 79, 37, 0, 0, 0, 0, 0, 0, 55, 0, 0, 57, 74, 0, 0, 19, 0, 0, 0, 0, 0, 47, 0, 0, 0, 62, 0, 0, 21, 0, 24, 50, 0, 0, 0, 0, 0, 0, 0, 0, 0, 31, 0, 0, 0, 0, 0, 0, 0, 0, 3, 58, 0, 0, 0, 0, 0, 54, 60, 0, 0, 20, 0, 71, 28, 77, 0, 0, 30, 78, 0
|0, 36, 69, 70, 0, 32, 0, 79, 81, 28, 23, 0, 0, 0, 0, 19, 0, 0, 6, 0, 13, 0, 0, 41, 0, 78, 0, 25, 9, 0, 0, 0, 0, 0, 0, 0, 0, 7, 0, 0, 60, 58, 0, 0, 0, 0, 0, 0, 0, 0, 0, 0, 64, 0, 0, 0, 0, 0, 0, 0, 51, 57, 0, 0, 0, 12, 0, 44, 33, 10, 71, 0, 59, 0, 0, 0, 48, 0, 72, 0, 49
|0, 0, 0, 42, 0, 0, 0, 0, 0, 0, 0, 0, 0, 0, 0, 0, 0, 0, 0, 0, 0, 0, 0, 59, 0, 0, 0, 0, 0, 28, 35, 79, 68, 0, 15, 0, 0, 0, 0, 0, 81, 0, 0, 0, 0, 0, 74, 0, 0, 0, 0, 0, 0, 0, 0, 49, 0, 0, 5, 0, 0, 36, 32, 0, 0, 46, 0, 0, 0, 30, 0, 0, 0, 0, 7, 0, 0, 44, 41, 0, 0
|0, 0, 0, 55, 27, 0, 0, 0, 0, 10, 66, 0, 58, 62, 34, 0, 0, 0, 0, 0, 14, 51, 15, 0, 60, 0, 35, 3, 0, 0, 0, 0, 74, 0, 0, 8, 0, 0, 0, 0, 0, 0, 4, 0, 0, 0, 59, 46, 0, 0, 0, 0, 0, 37, 65, 0, 0, 43, 0, 77, 0, 0, 21, 0, 0, 0, 0, 0, 0, 0, 0, 1, 42, 0, 0, 50, 0, 76, 81, 0, 0
|0, 0, 0, 0, 0, 0, 0, 0, 59, 0, 0, 73, 0, 38, 0, 22, 60, 0, 0, 0, 65, 0, 0, 0, 0, 0, 0, 0, 0, 64, 45, 0, 0, 0, 0, 0, 43, 0, 0, 0, 0, 0, 46, 0, 10, 67, 0, 27, 0, 15, 0, 21, 0, 0, 62, 0, 0, 0, 14, 4, 0, 0, 0, 0, 68, 77, 0, 0, 3, 0, 0, 0, 0, 33, 79, 0, 0, 0, 0, 23, 0
|0, 0, 0, 0, 0, 0, 66, 0, 0, 11, 0, 0, 0, 0, 0, 8, 0, 0, 75, 10, 0, 0, 0, 0, 0, 0, 0, 0, 20, 0, 52, 0, 42, 0, 0, 38, 0, 0, 0, 0, 0, 0, 14, 0, 0, 56, 0, 0, 0, 0, 0, 16, 0, 0, 50, 0, 34, 0, 0, 76, 23, 0, 0, 22, 0, 0, 0, 0, 74, 0, 0, 0, 0, 0, 19, 0, 0, 0, 0, 24, 0
|79, 0, 0, 0, 23, 0, 0, 0, 0, 0, 0, 0, 0, 0, 0, 0, 0, 31, 42, 0, 77, 0, 0, 61, 30, 18, 0, 0, 0, 60, 0, 0, 0, 38, 0, 0, 0, 0, 39, 0, 71, 0, 0, 0, 37, 0, 0, 68, 0, 0, 0, 0, 63, 0, 0, 16, 32, 0, 0, 0, 0, 0, 0, 0, 15, 0, 0, 0, 0, 0, 8, 0, 78, 0, 47, 0, 6, 0, 0, 0, 0
|38, 0, 0, 37, 36, 0, 0, 0, 0, 44, 21, 16, 0, 20, 14, 62, 79, 0, 52, 0, 0, 0, 0, 0, 0, 66, 0, 0, 0, 0, 0, 0, 75, 35, 0, 0, 0, 45, 41, 19, 77, 80, 0, 32, 0, 0, 2, 0, 33, 47, 65, 34, 0, 0, 0, 0, 18, 51, 0, 0, 0, 50, 27, 0, 9, 0, 58, 60, 0, 31, 6, 0, 0, 0, 29, 0, 64, 0, 7, 0, 0
|0, 0, 0, 81, 0, 0, 35, 14, 0, 0, 0, 0, 0, 0, 0, 58, 0, 0, 0, 32, 0, 0, 0, 34, 0, 39, 80, 0, 73, 0, 0, 0, 0, 0, 0, 0, 72, 0, 0, 0, 75, 0, 0, 0, 48, 61, 0, 0, 0, 23, 52, 0, 0, 0, 0, 0, 0, 0, 0, 0, 0, 0, 26, 0, 37, 0, 0, 0, 0, 53, 0, 0, 0, 51, 45, 0, 0, 0, 0, 77, 0
|0, 0, 6, 65, 0, 0, 0, 4, 0, 0, 0, 35, 0, 51, 0, 0, 0, 0, 0, 0, 0, 73, 81, 60, 9, 0, 0, 0, 0, 0, 36, 0, 0, 0, 0, 0, 33, 0, 0, 0, 17, 0, 0, 0, 0, 0, 1, 26, 0, 0, 0, 0, 0, 0, 0, 0, 76, 0, 0, 12, 0, 0, 0, 0, 0, 0, 0, 0, 0, 0, 0, 0, 0, 0, 0, 0, 0, 0, 0, 72, 0
|0, 0, 57, 56, 0, 25, 0, 0, 0, 0, 0, 0, 0, 0, 23, 61, 0, 33, 0, 0, 0, 0, 0, 37, 0, 0, 0, 0, 0, 0, 12, 0, 0, 29, 0, 0, 0, 0, 0, 34, 36, 4, 47, 0, 0, 78, 16, 60, 0, 0, 0, 0, 62, 0, 3, 0, 0, 0, 0, 0, 0, 0, 73, 38, 0, 0, 48, 64, 0, 0, 67, 0, 0, 5, 35, 70, 0, 0, 0, 0, 0
|0, 0, 0, 0, 0, 0, 26, 0, 33, 0, 0, 0, 0, 0, 28, 0, 0, 0, 0, 16, 0, 58, 0, 0, 70, 0, 0, 27, 0, 0, 0, 0, 0, 41, 0, 80, 0, 0, 0, 0, 0, 0, 0, 0, 0, 0, 0, 0, 0, 0, 0, 29, 0, 0, 0, 0, 0, 60, 0, 30, 0, 0, 0, 43, 0, 17, 36, 25, 0, 0, 0, 0, 0, 63, 0, 0, 0, 0, 79, 10, 39
|0, 0, 0, 0, 0, 0, 0, 69, 0, 3, 0, 34, 0, 0, 0, 0, 0, 0, 0, 0, 0, 0, 0, 0, 0, 29, 26, 0, 0, 0, 0, 0, 0, 5, 67, 16, 0, 43, 60, 30, 54, 0, 0, 0, 59, 0, 0, 0, 0, 0, 0, 0, 79, 0, 0, 0, 0, 0, 35, 0, 20, 0, 0, 0, 0, 0, 0, 0, 0, 27, 2, 0, 0, 0, 22, 0, 0, 32, 65, 38, 0
|0, 27, 0, 58, 45, 40, 0, 0, 0, 48, 0, 0, 0, 0, 0, 12, 0, 0, 0, 0, 0, 0, 72, 56, 0, 0, 36, 0, 0, 77, 0, 0, 0, 0, 0, 0, 0, 0, 0, 38, 0, 0, 0, 0, 0, 37, 0, 0, 0, 21, 81, 5, 0, 4, 0, 61, 0, 23, 0, 49, 0, 0, 0, 0, 32, 0, 0, 0, 34, 0, 0, 35, 55, 9, 0, 1, 0, 0, 0, 75, 0
|0, 76, 0, 0, 80, 0, 0, 29, 34, 0, 0, 0, 0, 0, 0, 2, 0, 0, 0, 0, 0, 0, 0, 0, 0, 38, 67, 0, 0, 43, 0, 62, 0, 0, 0, 0, 23, 52, 0, 0, 0, 0, 15, 0, 0, 7, 18, 0, 0, 0, 0, 70, 20, 0, 0, 0, 0, 0, 0, 0, 11, 0, 53, 0, 0, 0, 0, 0, 0, 0, 0, 71, 0, 46, 58, 0, 0, 50, 0, 25, 0
|0, 5, 0, 0, 0, 0, 0, 0, 0, 0, 0, 0, 0, 13, 0, 0, 0, 34, 25, 18, 51, 0, 0, 0, 0, 16, 0, 0, 0, 0, 0, 0, 35, 0, 0, 0, 0, 70, 0, 0, 0, 0, 0, 77, 0, 0, 0, 0, 0, 0, 0, 0, 14, 60, 0, 0, 0, 15, 0, 0, 0, 0, 50, 0, 78, 0, 0, 0, 0, 52, 0, 0, 0, 32, 0, 0, 0, 0, 33, 0, 75
|0, 0, 0, 0, 0, 0, 22, 0, 0, 0, 0, 54, 0, 81, 0, 0, 0, 0, 23, 0, 5, 66, 40, 43, 0, 48, 0, 45, 63, 0, 69, 0, 0, 0, 0, 0, 27, 0, 0, 0, 34, 0, 0, 0, 0, 0, 0, 59, 2, 0, 0, 58, 0, 78, 0, 0, 29, 0, 77, 53, 0, 0, 0, 0, 0, 28, 0, 19, 0, 6, 0, 0, 0, 0, 0, 0, 57, 0, 0, 0, 0
|0, 0, 65, 0, 0, 53, 0, 0, 0, 0, 0, 0, 0, 0, 0, 0, 0, 0, 0, 0, 0, 0, 21, 30, 63, 0, 0, 0, 0, 0, 0, 0, 32, 0, 0, 0, 0, 0, 0, 51, 0, 0, 56, 0, 71, 0, 0, 0, 0, 16, 0, 0, 0, 0, 26, 0, 0, 14, 0, 0, 0, 0, 74, 0, 0, 0, 0, 0, 5, 0, 60, 0, 0, 76, 59, 0, 0, 0, 0, 0, 0
|0, 0, 0, 32, 24, 0, 0, 0, 0, 72, 17, 0, 0, 21, 0, 0, 0, 0, 0, 0, 11, 61, 0, 29, 50, 64, 0, 0, 0, 0, 33, 0, 0, 70, 80, 0, 0, 0, 5, 0, 0, 0, 0, 0, 69, 0, 71, 0, 0, 0, 0, 6, 0, 0, 8, 0, 0, 7, 0, 58, 0, 0, 43, 81, 0, 68, 0, 59, 0, 0, 49, 0, 13, 45, 0, 0, 0, 63, 74, 0, 0
|0, 48, 0, 0, 68, 13, 0, 0, 0, 0, 0, 0, 0, 0, 0, 0, 0, 0, 0, 8, 0, 0, 1, 0, 0, 0, 34, 0, 0, 30, 0, 0, 0, 0, 0, 0, 0, 41, 0, 12, 0, 0, 52, 3, 0, 0, 0, 7, 25, 61, 5, 0, 0, 56, 0, 0, 0, 0, 0, 0, 0, 0, 70, 0, 0, 0, 0, 0, 0, 79, 0, 0, 0, 0, 0, 51, 0, 14, 0, 0, 0
|0, 54, 0, 0, 0, 37, 0, 0, 0, 0, 0, 70, 0, 0, 0, 0, 0, 0, 9, 0, 53, 0, 0, 0, 55, 0, 0, 0, 77, 5, 0, 0, 46, 0, 0, 0, 0, 39, 0, 0, 0, 23, 0, 18, 0, 0, 0, 0, 34, 0, 0, 73, 32, 81, 0, 3, 0, 0, 17, 0, 28, 0, 0, 58, 0, 0, 0, 0, 0, 0, 41, 0, 0, 0, 0, 0, 25, 0, 0, 20, 0
|0, 0, 0, 0, 60, 0, 0, 0, 0, 0, 0, 38, 0, 0, 10, 0, 0, 0, 27, 0, 0, 0, 31, 73, 0, 0, 32, 0, 49, 25, 0, 0, 0, 0, 0, 26, 0, 17, 63, 13, 0, 0, 0, 15, 0, 0, 0, 72, 0, 0, 0, 68, 43, 0, 37, 78, 0, 0, 0, 16, 0, 6, 35, 0, 0, 0, 45, 0, 0, 0, 0, 0, 2, 0, 0, 81, 0, 70, 47, 67, 0
|0, 4, 63, 0, 0, 6, 0, 0, 0, 0, 19, 0, 0, 0, 0, 0, 0, 0, 0, 0, 0, 45, 0, 81, 0, 0, 0, 9, 0, 0, 8, 0, 0, 10, 60, 34, 36, 0, 0, 0, 0, 44, 0, 0, 0, 0, 24, 0, 0, 0, 67, 40, 0, 0, 22, 0, 0, 0, 73, 0, 0, 66, 0, 0, 47, 13, 0, 74, 14, 0, 0, 75, 0, 0, 15, 37, 0, 0, 0, 0, 77
|0, 0, 0, 11, 0, 0, 0, 0, 0, 0, 0, 0, 0, 66, 0, 0, 0, 0, 0, 0, 22, 0, 70, 0, 0, 14, 0, 0, 0, 0, 0, 0, 3, 0, 0, 0, 81, 0, 0, 0, 30, 47, 72, 53, 9, 0, 0, 0, 37, 0, 0, 75, 46, 0, 55, 52, 0, 0, 0, 33, 0, 0, 0, 0, 0, 0, 0, 0, 0, 0, 0, 4, 0, 0, 0, 0, 0, 0, 0, 0, 62
|0, 0, 0, 71, 5, 0, 0, 0, 39, 0, 43, 81, 0, 0, 0, 50, 6, 0, 0, 0, 24, 0, 0, 0, 0, 0, 0, 78, 0, 0, 9, 0, 0, 0, 0, 0, 55, 0, 0, 36, 37, 0, 20, 0, 0, 0, 0, 0, 0, 0, 0, 33, 0, 42, 0, 68, 0, 0, 0, 28, 0, 0, 0, 0, 19, 48, 0, 0, 0, 73, 18, 0, 12, 27, 0, 0, 66, 74, 0, 0, 0
|31, 0, 0, 23, 0, 11, 0, 0, 26, 0, 0, 0, 0, 0, 0, 67, 0, 0, 0, 0, 0, 5, 0, 0, 0, 77, 0, 0, 29, 69, 55, 0, 0, 0, 0, 0, 0, 0, 0, 76, 0, 0, 0, 0, 0, 71, 0, 81, 0, 0, 43, 0, 65, 0, 0, 0, 24, 0, 15, 44, 0, 62, 0, 0, 22, 0, 38, 0, 0, 0, 0, 54, 19, 0, 0, 0, 0, 59, 0, 0, 0
|0, 0, 59, 0, 0, 0, 0, 0, 0, 0, 0, 0, 0, 0, 0, 0, 0, 0, 0, 0, 0, 0, 68, 58, 0, 0, 0, 0, 15, 71, 0, 0, 0, 25, 0, 0, 0, 21, 0, 0, 0, 0, 81, 74, 0, 0, 0, 79, 0, 7, 69, 0, 0, 57, 12, 0, 0, 0, 0, 0, 0, 0, 23, 36, 43, 0, 0, 0, 0, 0, 0, 0, 0, 64, 63, 0, 0, 0, 0, 0, 0
|0, 0, 0, 0, 0, 0, 0, 0, 70, 0, 52, 36, 0, 31, 0, 0, 0, 51, 0, 39, 0, 0, 18, 0, 0, 0, 15, 0, 48, 14, 0, 0, 0, 0, 0, 0, 4, 0, 45, 0, 53, 27, 0, 0, 0, 0, 22, 38, 0, 0, 0, 0, 6, 12, 41, 0, 0, 42, 61, 0, 71, 0, 0, 5, 64, 26, 0, 34, 0, 0, 0, 69, 0, 0, 40, 43, 0, 0, 20, 0, 50
|0, 0, 47, 0, 0, 0, 0, 0, 0, 0, 0, 46, 0, 0, 16, 0, 0, 0, 0, 34, 0, 0, 0, 0, 0, 0, 0, 28, 10, 0, 0, 0, 57, 0, 0, 0, 0, 0, 0, 0, 0, 0, 0, 0, 0, 0, 15, 0, 59, 0, 0, 0, 0, 0, 53, 60, 0, 0, 18, 0, 0, 0, 0, 0, 39, 0, 0, 0, 0, 0, 0, 0, 36, 22, 4, 0, 0, 48, 70, 11, 0
|0, 0, 81, 20, 0, 44, 0, 0, 0, 0, 56, 0, 0, 0, 0, 33, 0, 0, 0, 0, 9, 0, 80, 11, 0, 0, 60, 0, 0, 61, 59, 0, 0, 0, 0, 0, 0, 35, 0, 49, 72, 0, 0, 0, 39, 0, 0, 0, 4, 48, 0, 0, 0, 0, 0, 0, 64, 0, 78, 0, 0, 31, 22, 0, 0, 0, 0, 62, 0, 0, 0, 0, 71, 0, 0, 0, 0, 0, 0, 0, 0
|0, 0, 22, 0, 52, 0, 0, 0, 0, 0, 0, 0, 21, 71, 0, 0, 0, 0, 76, 61, 0, 0, 0, 63, 0, 0, 0, 0, 0, 0, 0, 0, 0, 0, 0, 0, 0, 54, 0, 59, 18, 0, 12, 0, 73, 0, 0, 0, 39, 0, 0, 0, 67, 75, 48, 0, 0, 0, 46, 0, 0, 0, 66, 4, 0, 79, 0, 0, 0, 0, 0, 0, 16, 0, 0, 0, 0, 0, 37, 0, 34
|0, 0, 0, 0, 0, 0, 0, 0, 0, 0, 0, 0, 0, 0, 2, 73, 0, 0, 0, 51, 0, 0, 8, 0, 0, 0, 20, 0, 0, 0, 13, 0, 11, 0, 38, 0, 0, 0, 31, 71, 0, 0, 0, 0, 0, 0, 0, 17, 0, 0, 62, 0, 0, 34, 0, 0, 0, 0, 0, 0, 0, 0, 0, 0, 25, 0, 0, 32, 0, 0, 0, 44, 5, 0, 0, 0, 80, 69, 0, 0, 0
|0, 74, 55, 28, 0, 0, 0, 0, 0, 60, 0, 0, 39, 0, 0, 0, 0, 0, 21, 78, 71, 0, 45, 0, 0, 0, 23, 0, 0, 0, 46, 0, 0, 33, 0, 0, 63, 0, 0, 79, 0, 43, 0, 0, 0, 0, 36, 0, 0, 0, 0, 0, 0, 5, 70, 14, 0, 73, 0, 0, 0, 0, 0, 0, 0, 0, 0, 0, 0, 81, 0, 0, 52, 0, 31, 0, 0, 17, 8, 0, 0|];