order = 9;
grid = [|0, 0, 13, 0, 64, 0, 27, 16, 0, 0, 0, 0, 74, 0, 65, 0, 29, 60, 6, 0, 47, 55, 18, 0, 0, 0, 0, 0, 0, 0, 3, 66, 0, 0, 28, 0, 0, 0, 0, 70, 0, 21, 0, 0, 0, 0, 0, 0, 0, 44, 54, 0, 36, 0, 0, 37, 0, 38, 0, 52, 0, 71, 79, 0, 68, 69, 0, 0, 0, 0, 0, 0, 0, 0, 0, 45, 26, 0, 0, 0, 0
|0, 0, 0, 44, 28, 0, 11, 42, 0, 57, 0, 0, 0, 0, 0, 0, 0, 18, 21, 33, 0, 0, 0, 77, 16, 0, 35, 0, 0, 0, 51, 0, 0, 0, 0, 0, 0, 0, 0, 78, 19, 0, 0, 68, 0, 0, 0, 76, 0, 0, 63, 0, 0, 0, 0, 3, 0, 0, 0, 69, 47, 26, 0, 0, 0, 30, 0, 0, 81, 45, 0, 0, 0, 0, 0, 0, 0, 0, 0, 25, 0
|0, 0, 0, 0, 0, 0, 17, 79, 51, 75, 1, 46, 0, 0, 0, 0, 6, 49, 0, 68, 0, 0, 36, 0, 0, 0, 0, 0, 25, 0, 0, 40, 0, 0, 0, 64, 0, 0, 0, 0, 0, 0, 74, 0, 63, 30, 0, 0, 66, 33, 0, 0, 0, 0, 0, 72, 45, 80, 67, 0, 0, 0, 0, 37, 0, 23, 0, 0, 0, 0, 0, 0, 11, 0, 53, 0, 0, 0, 0, 0, 0
|0, 0, 0, 3, 0, 0, 63, 0, 0, 0, 44, 0, 25, 0, 0, 64, 0, 0, 0, 0, 0, 51, 0, 0, 0, 0, 0, 0, 53, 0, 0, 0, 0, 0, 0, 47, 0, 34, 0, 0, 0, 0, 65, 0, 14, 80, 0, 0, 0, 0, 13, 4, 0, 67, 0, 0, 28, 21, 0, 12, 0, 0, 0, 74, 17, 0, 77, 0, 0, 0, 0, 59, 0, 31, 0, 0, 60, 0, 39, 0, 0
|0, 0, 33, 0, 0, 0, 0, 0, 0, 0, 50, 0, 0, 78, 0, 0, 39, 16, 0, 81, 3, 54, 0, 44, 0, 0, 0, 0, 0, 67, 0, 0, 0, 0, 80, 21, 0, 0, 0, 0, 0, 0, 0, 0, 0, 0, 0, 0, 0, 0, 0, 0, 79, 37, 0, 0, 0, 19, 0, 0, 48, 0, 0, 0, 26, 0, 0, 14, 55, 65, 0, 0, 0, 36, 66, 47, 0, 69, 0, 0, 0
|43, 0, 0, 0, 0, 0, 0, 66, 81, 0, 5, 0, 0, 0, 0, 30, 71, 0, 0, 34, 0, 26, 0, 0, 0, 0, 52, 0, 0, 0, 0, 0, 0, 0, 61, 0, 50, 0, 42, 0, 0, 0, 0, 0, 0, 0, 62, 0, 46, 0, 0, 0, 0, 0, 0, 54, 0, 0, 0, 0, 15, 0, 0, 20, 0, 0, 0, 0, 0, 79, 0, 0, 76, 74, 0, 0, 0, 0, 0, 18, 0
|0, 0, 19, 8, 47, 0, 12, 0, 0, 55, 0, 0, 0, 0, 0, 0, 0, 0, 0, 0, 0, 0, 58, 20, 0, 0, 0, 0, 0, 0, 0, 0, 74, 60, 0, 9, 0, 48, 0, 0, 0, 0, 0, 0, 17, 0, 0, 0, 56, 0, 0, 0, 0, 0, 0, 0, 0, 0, 75, 0, 0, 51, 0, 0, 18, 36, 78, 0, 52, 0, 0, 6, 0, 0, 0, 0, 0, 0, 16, 0, 67
|0, 75, 0, 0, 0, 0, 0, 32, 0, 81, 0, 0, 0, 0, 0, 0, 0, 34, 67, 66, 0, 27, 0, 0, 0, 0, 0, 8, 0, 0, 78, 0, 0, 0, 0, 37, 0, 0, 77, 0, 18, 0, 0, 0, 0, 69, 0, 0, 7, 0, 45, 0, 0, 0, 0, 0, 42, 0, 0, 64, 4, 0, 0, 0, 3, 0, 19, 62, 1, 0, 15, 50, 46, 6, 0, 0, 51, 0, 0, 0, 22
|0, 54, 1, 0, 0, 0, 0, 80, 0, 0, 52, 0, 15, 26, 0, 0, 7, 0, 0, 0, 50, 0, 0, 0, 0, 0, 75, 0, 62, 59, 0, 0, 65, 0, 41, 0, 0, 49, 0, 0, 0, 0, 0, 23, 0, 60, 0, 0, 78, 0, 0, 0, 0, 0, 0, 35, 0, 0, 0, 0, 0, 0, 0, 76, 0, 43, 0, 46, 5, 29, 24, 8, 0, 0, 3, 0, 0, 0, 0, 0, 73
|6, 0, 0, 0, 66, 0, 32, 0, 12, 0, 47, 45, 46, 3, 27, 0, 0, 0, 39, 0, 0, 31, 0, 0, 0, 0, 0, 21, 0, 0, 36, 0, 0, 0, 68, 0, 0, 0, 0, 0, 0, 0, 0, 30, 0, 0, 8, 0, 54, 0, 7, 0, 0, 0, 0, 0, 0, 0, 0, 0, 0, 0, 4, 70, 0, 0, 0, 0, 0, 0, 38, 0, 56, 0, 0, 0, 0, 0, 0, 0, 16
|22, 19, 0, 0, 0, 55, 50, 0, 0, 0, 0, 0, 34, 0, 0, 0, 0, 0, 0, 69, 0, 0, 0, 0, 0, 0, 0, 14, 0, 0, 72, 0, 0, 0, 0, 0, 1, 0, 0, 0, 0, 59, 21, 4, 8, 0, 0, 0, 0, 0, 0, 0, 0, 0, 54, 58, 63, 0, 46, 0, 0, 11, 6, 3, 0, 0, 45, 0, 0, 0, 0, 0, 0, 0, 28, 0, 0, 0, 41, 0, 0
|0, 5, 0, 69, 0, 0, 0, 0, 0, 0, 0, 0, 0, 0, 0, 61, 53, 0, 0, 0, 0, 0, 64, 0, 11, 0, 63, 0, 0, 80, 0, 71, 0, 0, 42, 0, 9, 0, 0, 0, 32, 0, 0, 0, 0, 0, 0, 0, 0, 0, 0, 0, 0, 0, 81, 0, 41, 0, 17, 0, 0, 0, 0, 0, 27, 0, 0, 0, 0, 0, 0, 0, 0, 0, 0, 12, 0, 50, 0, 0, 0
|0, 35, 16, 80, 27, 0, 37, 0, 0, 0, 62, 0, 0, 40, 39, 9, 0, 0, 51, 57, 24, 0, 0, 0, 50, 0, 23, 0, 3, 0, 8, 0, 0, 0, 0, 0, 68, 0, 0, 0, 0, 0, 0, 0, 0, 0, 0, 72, 0, 0, 20, 0, 0, 0, 15, 0, 0, 66, 56, 0, 60, 21, 0, 0, 0, 0, 0, 0, 0, 0, 0, 0, 69, 0, 0, 0, 30, 0, 0, 0, 65
|0, 81, 2, 0, 61, 0, 0, 0, 3, 0, 0, 0, 78, 12, 0, 0, 0, 0, 0, 27, 55, 59, 43, 0, 0, 0, 0, 58, 50, 0, 0, 0, 0, 0, 0, 0, 53, 0, 0, 36, 72, 60, 0, 7, 0, 0, 0, 17, 0, 0, 77, 0, 22, 79, 45, 0, 0, 0, 0, 0, 0, 8, 0, 0, 0, 0, 0, 0, 44, 0, 0, 5, 0, 0, 39, 19, 70, 0, 0, 0, 0
|28, 0, 0, 34, 0, 18, 65, 0, 0, 0, 0, 0, 0, 0, 0, 20, 0, 0, 13, 0, 0, 0, 0, 29, 0, 0, 26, 0, 0, 0, 0, 0, 0, 0, 60, 41, 24, 58, 0, 0, 64, 0, 81, 0, 43, 35, 0, 40, 0, 0, 0, 21, 19, 69, 31, 0, 76, 61, 72, 0, 0, 0, 0, 0, 0, 0, 63, 0, 0, 0, 33, 0, 7, 0, 38, 0, 0, 0, 0, 0, 55
|0, 0, 72, 0, 79, 0, 0, 0, 0, 0, 33, 2, 76, 0, 0, 0, 0, 21, 0, 0, 22, 0, 0, 0, 0, 0, 0, 0, 0, 0, 0, 0, 0, 0, 0, 0, 0, 51, 61, 0, 0, 47, 54, 0, 0, 0, 0, 0, 0, 3, 0, 0, 0, 0, 0, 0, 9, 0, 0, 0, 0, 7, 0, 48, 0, 0, 0, 32, 24, 0, 62, 0, 0, 0, 0, 0, 0, 0, 64, 0, 0
|38, 0, 26, 0, 0, 0, 0, 10, 0, 0, 0, 0, 0, 0, 63, 0, 72, 0, 0, 0, 0, 45, 0, 21, 0, 0, 0, 0, 0, 0, 24, 0, 0, 31, 81, 70, 0, 0, 27, 34, 0, 0, 0, 0, 0, 0, 0, 0, 0, 0, 0, 37, 0, 61, 78, 0, 0, 0, 0, 0, 75, 0, 0, 65, 0, 0, 47, 0, 18, 39, 0, 0, 0, 0, 0, 0, 0, 43, 0, 0, 0
|4, 0, 0, 0, 0, 9, 0, 0, 8, 0, 0, 0, 51, 0, 0, 0, 0, 31, 0, 0, 0, 0, 0, 0, 1, 36, 0, 27, 0, 79, 0, 16, 0, 38, 10, 0, 0, 37, 0, 0, 0, 0, 17, 0, 0, 0, 0, 81, 0, 0, 0, 41, 71, 0, 0, 0, 0, 26, 0, 0, 0, 47, 64, 78, 0, 0, 21, 0, 0, 50, 76, 22, 0, 54, 0, 48, 34, 63, 0, 0, 0
|66, 0, 0, 0, 0, 0, 77, 0, 0, 0, 0, 49, 0, 0, 0, 72, 16, 0, 0, 65, 6, 0, 0, 0, 0, 0, 0, 0, 0, 0, 40, 28, 0, 0, 0, 31, 0, 0, 0, 0, 29, 57, 0, 0, 20, 8, 0, 0, 11, 0, 62, 0, 23, 14, 41, 0, 0, 0, 24, 0, 0, 81, 0, 0, 0, 42, 0, 0, 0, 25, 45, 54, 0, 0, 0, 0, 55, 0, 12, 3, 26
|0, 53, 0, 0, 0, 0, 58, 0, 0, 0, 0, 51, 0, 0, 23, 0, 0, 0, 0, 0, 0, 0, 13, 0, 77, 0, 0, 0, 0, 0, 0, 0, 0, 6, 7, 0, 0, 0, 45, 0, 31, 69, 8, 0, 0, 79, 0, 0, 0, 0, 0, 5, 0, 0, 0, 0, 0, 36, 76, 0, 0, 0, 78, 0, 0, 52, 38, 0, 0, 0, 0, 0, 0, 46, 54, 0, 0, 24, 0, 0, 4
|57, 0, 0, 0, 0, 0, 72, 29, 0, 0, 0, 60, 0, 4, 0, 0, 0, 0, 8, 0, 0, 0, 44, 0, 0, 0, 0, 0, 0, 0, 0, 0, 0, 0, 0, 0, 0, 0, 0, 62, 0, 0, 55, 0, 0, 0, 0, 0, 21, 56, 52, 0, 0, 38, 69, 0, 0, 0, 0, 80, 0, 0, 0, 0, 0, 18, 0, 0, 0, 0, 0, 0, 0, 0, 9, 0, 0, 19, 0, 0, 0
|0, 0, 0, 0, 0, 0, 0, 0, 0, 0, 75, 31, 0, 0, 0, 33, 0, 8, 0, 0, 0, 0, 69, 0, 0, 0, 45, 0, 0, 0, 58, 0, 0, 0, 64, 38, 0, 0, 0, 0, 42, 0, 35, 22, 51, 0, 0, 37, 0, 0, 0, 0, 0, 0, 0, 50, 52, 0, 0, 0, 0, 0, 0, 0, 0, 0, 0, 68, 0, 80, 34, 0, 0, 0, 0, 0, 0, 0, 0, 0, 0
|9, 0, 0, 0, 0, 0, 0, 0, 0, 0, 0, 42, 47, 0, 0, 0, 0, 0, 0, 26, 0, 24, 0, 0, 0, 0, 0, 0, 0, 0, 0, 0, 72, 3, 46, 0, 0, 0, 23, 41, 5, 0, 4, 37, 79, 0, 74, 10, 0, 0, 0, 0, 0, 32, 0, 0, 0, 0, 0, 0, 0, 38, 20, 0, 58, 0, 1, 0, 27, 0, 0, 43, 0, 0, 25, 0, 0, 71, 0, 48, 0
|0, 42, 0, 0, 2, 0, 20, 74, 21, 0, 0, 0, 1, 6, 0, 0, 52, 0, 0, 0, 48, 0, 0, 53, 0, 78, 0, 30, 0, 0, 0, 69, 0, 8, 0, 43, 0, 73, 0, 0, 0, 0, 0, 0, 0, 0, 75, 36, 41, 0, 0, 0, 57, 46, 0, 11, 40, 70, 66, 0, 45, 0, 0, 0, 0, 0, 32, 0, 0, 0, 0, 0, 29, 58, 0, 56, 67, 0, 0, 60, 0
|0, 0, 0, 0, 0, 0, 0, 0, 0, 0, 0, 3, 0, 0, 0, 40, 0, 0, 23, 38, 0, 0, 0, 0, 0, 4, 0, 25, 36, 41, 0, 0, 62, 0, 0, 0, 33, 60, 0, 0, 0, 0, 0, 0, 50, 54, 6, 0, 0, 0, 68, 0, 0, 70, 73, 0, 0, 0, 42, 0, 0, 0, 0, 0, 48, 0, 0, 53, 0, 0, 0, 0, 0, 0, 0, 0, 22, 0, 0, 0, 0
|0, 0, 35, 0, 0, 0, 39, 0, 0, 0, 19, 0, 65, 27, 0, 0, 0, 0, 0, 73, 0, 0, 0, 70, 0, 0, 0, 0, 0, 0, 74, 24, 0, 0, 0, 68, 80, 0, 0, 54, 0, 0, 0, 10, 0, 12, 44, 0, 0, 7, 0, 0, 0, 0, 28, 0, 0, 0, 0, 0, 13, 0, 0, 0, 0, 11, 0, 0, 0, 0, 0, 0, 0, 0, 0, 62, 0, 0, 0, 0, 0
|0, 0, 7, 0, 0, 0, 0, 51, 28, 0, 0, 0, 0, 0, 0, 37, 0, 67, 0, 0, 18, 0, 42, 0, 0, 0, 0, 0, 11, 0, 0, 0, 0, 4, 0, 0, 0, 0, 0, 0, 0, 0, 0, 0, 0, 0, 0, 0, 0, 0, 61, 25, 0, 3, 26, 0, 0, 0, 0, 0, 71, 0, 0, 0, 0, 62, 0, 0, 0, 0, 2, 33, 30, 0, 0, 0, 0, 0, 72, 0, 0
|52, 0, 0, 70, 0, 0, 0, 0, 60, 0, 0, 0, 0, 0, 0, 34, 0, 62, 0, 25, 16, 0, 66, 9, 26, 0, 0, 0, 0, 20, 0, 0, 0, 0, 0, 0, 0, 75, 0, 0, 0, 64, 0, 0, 0, 0, 0, 0, 0, 0, 0, 0, 0, 0, 0, 0, 8, 0, 59, 0, 0, 0, 0, 23, 0, 76, 0, 0, 0, 0, 0, 0, 0, 30, 0, 81, 0, 0, 0, 0, 0
|0, 0, 12, 13, 9, 0, 40, 0, 0, 0, 0, 0, 50, 0, 0, 38, 48, 0, 0, 0, 64, 0, 0, 8, 0, 0, 24, 0, 0, 0, 34, 60, 0, 19, 0, 0, 0, 0, 0, 0, 0, 0, 0, 0, 26, 0, 52, 31, 0, 0, 0, 0, 0, 0, 0, 0, 0, 0, 0, 0, 33, 0, 0, 0, 0, 0, 0, 0, 47, 0, 0, 0, 0, 0, 0, 0, 74, 23, 0, 0, 0
|30, 0, 0, 0, 0, 0, 0, 28, 0, 0, 0, 43, 0, 0, 31, 54, 67, 0, 0, 0, 36, 0, 65, 0, 68, 0, 7, 64, 1, 0, 0, 32, 0, 58, 0, 0, 0, 0, 35, 0, 52, 41, 0, 8, 44, 0, 0, 38, 0, 0, 15, 19, 0, 0, 0, 0, 0, 0, 14, 26, 0, 29, 0, 0, 59, 0, 0, 78, 0, 0, 0, 0, 0, 0, 0, 0, 0, 0, 0, 0, 0
|0, 0, 0, 0, 0, 0, 0, 35, 0, 1, 0, 0, 17, 0, 0, 55, 0, 0, 0, 0, 0, 0, 0, 0, 0, 0, 27, 0, 0, 0, 0, 0, 8, 0, 0, 0, 0, 0, 0, 81, 0, 0, 0, 0, 0, 0, 0, 24, 0, 0, 0, 0, 0, 0, 75, 0, 0, 42, 36, 0, 0, 56, 0, 0, 0, 0, 30, 0, 0, 0, 0, 74, 0, 59, 0, 0, 41, 0, 0, 0, 0
|0, 0, 0, 20, 0, 0, 0, 43, 0, 0, 0, 0, 0, 68, 0, 78, 60, 0, 0, 0, 0, 0, 0, 0, 0, 0, 0, 0, 0, 0, 0, 0, 0, 56, 0, 0, 0, 0, 37, 69, 0, 0, 0, 0, 6, 0, 0, 35, 0, 49, 0, 0, 0, 0, 0, 0, 0, 79, 0, 0, 0, 0, 41, 0, 0, 0, 0, 48, 71, 0, 0, 0, 0, 50, 19, 0, 0, 0, 0, 0, 0
|79, 0, 0, 0, 68, 0, 0, 0, 1, 4, 24, 0, 0, 0, 0, 0, 0, 0, 15, 0, 17, 0, 0, 76, 0, 0, 0, 0, 0, 0, 0, 77, 0, 0, 39, 0, 0, 0, 0, 67, 0, 28, 0, 0, 0, 0, 0, 21, 0, 0, 0, 14, 0, 0, 0, 0, 27, 49, 52, 61, 0, 0, 0, 60, 0, 0, 0, 36, 34, 0, 13, 0, 0, 0, 33, 31, 6, 0, 45, 0, 18
|0, 0, 0, 75, 25, 0, 51, 0, 0, 0, 0, 0, 0, 0, 44, 0, 0, 26, 0, 0, 0, 0, 77, 71, 0, 0, 0, 0, 31, 0, 0, 0, 0, 0, 0, 0, 0, 0, 0, 72, 0, 0, 0, 0, 65, 0, 17, 0, 1, 0, 33, 0, 0, 80, 0, 74, 37, 40, 0, 50, 0, 4, 0, 32, 0, 0, 0, 43, 0, 0, 0, 0, 0, 0, 0, 0, 0, 60, 0, 0, 0
|0, 0, 0, 0, 0, 0, 0, 0, 0, 0, 0, 0, 0, 0, 13, 32, 3, 40, 0, 0, 5, 0, 0, 0, 0, 0, 0, 0, 0, 16, 43, 33, 0, 0, 0, 24, 0, 54, 0, 2, 0, 0, 0, 56, 53, 0, 0, 0, 0, 0, 46, 0, 0, 0, 0, 10, 23, 0, 0, 0, 0, 17, 0, 25, 0, 0, 66, 0, 0, 6, 0, 4, 0, 78, 0, 0, 0, 0, 0, 0, 48
|56, 37, 0, 0, 0, 0, 0, 0, 65, 23, 0, 19, 0, 0, 0, 0, 0, 0, 20, 0, 0, 4, 0, 69, 38, 81, 6, 0, 0, 0, 27, 0, 0, 0, 71, 0, 0, 0, 0, 58, 0, 0, 79, 0, 0, 0, 0, 0, 50, 0, 0, 0, 0, 0, 13, 0, 0, 64, 0, 73, 0, 0, 67, 52, 8, 0, 31, 0, 33, 15, 0, 0, 0, 0, 0, 0, 0, 0, 0, 0, 0
|0, 0, 52, 79, 0, 67, 0, 1, 0, 0, 0, 0, 0, 0, 77, 0, 0, 54, 0, 0, 0, 0, 0, 0, 0, 0, 0, 60, 21, 24, 0, 0, 71, 0, 0, 0, 35, 0, 59, 0, 0, 0, 75, 16, 7, 0, 0, 0, 0, 73, 0, 47, 0, 0, 0, 41, 0, 0, 0, 15, 0, 39, 0, 0, 0, 3, 0, 65, 0, 0, 0, 0, 0, 0, 0, 0, 17, 0, 0, 0, 25
|0, 0, 0, 71, 0, 45, 0, 0, 0, 0, 0, 0, 59, 0, 0, 3, 0, 0, 0, 0, 49, 28, 0, 0, 0, 46, 0, 0, 0, 69, 0, 23, 0, 0, 0, 10, 0, 0, 0, 0, 0, 43, 5, 0, 0, 0, 0, 15, 0, 0, 0, 0, 0, 0, 0, 0, 0, 0, 0, 31, 0, 0, 47, 62, 0, 53, 11, 0, 0, 0, 0, 0, 0, 0, 0, 0, 0, 0, 0, 0, 44
|0, 0, 0, 0, 56, 73, 0, 0, 54, 0, 0, 0, 0, 0, 0, 0, 0, 0, 0, 0, 0, 0, 0, 32, 80, 0, 0, 2, 12, 0, 65, 0, 64, 0, 13, 51, 0, 0, 0, 0, 44, 25, 6, 0, 24, 55, 67, 0, 57, 0, 0, 0, 0, 26, 0, 0, 0, 77, 0, 0, 0, 0, 37, 0, 0, 0, 0, 79, 0, 0, 0, 45, 52, 5, 0, 39, 31, 0, 30, 47, 71
|0, 0, 0, 0, 0, 0, 0, 6, 0, 0, 0, 0, 13, 28, 0, 0, 0, 0, 43, 0, 0, 34, 0, 0, 0, 0, 0, 68, 0, 38, 41, 0, 0, 81, 0, 0, 0, 0, 0, 56, 0, 0, 0, 0, 0, 0, 10, 0, 23, 0, 0, 0, 0, 0, 0, 79, 0, 0, 1, 75, 0, 64, 36, 0, 66, 46, 0, 7, 73, 0, 0, 0, 0, 0, 0, 0, 20, 0, 0, 11, 0
|0, 0, 11, 31, 0, 51, 0, 0, 53, 0, 69, 0, 0, 2, 0, 0, 0, 0, 0, 0, 67, 61, 0, 0, 0, 0, 0, 46, 0, 0, 0, 74, 0, 0, 30, 25, 77, 0, 0, 0, 0, 0, 0, 58, 0, 0, 0, 7, 44, 54, 0, 0, 0, 0, 0, 9, 4, 43, 35, 0, 52, 0, 0, 0, 0, 0, 0, 0, 0, 0, 0, 0, 15, 0, 0, 70, 0, 0, 0, 0, 0
|0, 0, 20, 33, 0, 0, 0, 0, 40, 0, 0, 0, 6, 0, 0, 0, 46, 0, 0, 0, 0, 0, 0, 47, 0, 0, 0, 34, 0, 56, 0, 0, 0, 0, 0, 14, 78, 0, 0, 0, 0, 0, 0, 0, 41, 0, 0, 64, 0, 19, 0, 2, 77, 0, 7, 0, 0, 0, 0, 72, 0, 0, 0, 0, 15, 75, 0, 0, 0, 0, 0, 69, 1, 27, 0, 0, 0, 0, 0, 0, 0
|23, 0, 0, 0, 0, 0, 0, 8, 14, 0, 0, 0, 0, 0, 0, 0, 0, 47, 0, 0, 0, 0, 0, 0, 0, 0, 0, 11, 16, 26, 0, 29, 0, 0, 0, 0, 74, 46, 0, 49, 0, 48, 0, 0, 0, 37, 0, 0, 0, 0, 0, 0, 75, 34, 0, 0, 0, 0, 0, 0, 0, 0, 0, 0, 0, 0, 0, 28, 0, 56, 1, 0, 0, 0, 0, 0, 0, 0, 0, 0, 0
|0, 0, 0, 0, 43, 4, 0, 0, 0, 0, 0, 22, 0, 32, 0, 0, 0, 0, 0, 48, 0, 0, 0, 15, 0, 0, 0, 44, 0, 0, 0, 80, 0, 0, 0, 0, 0, 0, 0, 0, 0, 0, 0, 61, 0, 31, 0, 0, 72, 11, 0, 0, 0, 0, 12, 0, 0, 0, 0, 0, 0, 0, 0, 0, 0, 0, 0, 0, 0, 0, 0, 13, 0, 18, 69, 37, 0, 0, 0, 0, 0
|0, 77, 0, 0, 75, 0, 0, 0, 0, 0, 0, 0, 0, 0, 0, 0, 4, 11, 0, 0, 0, 0, 54, 25, 0, 1, 0, 0, 0, 0, 0, 0, 0, 0, 0, 50, 0, 21, 0, 51, 0, 0, 71, 0, 23, 0, 45, 0, 0, 0, 0, 0, 0, 53, 0, 61, 62, 0, 0, 0, 0, 0, 0, 0, 0, 59, 0, 0, 2, 24, 0, 72, 0, 0, 0, 0, 81, 41, 48, 0, 0
|47, 55, 76, 32, 0, 21, 69, 0, 0, 0, 39, 0, 0, 0, 15, 0, 0, 0, 0, 0, 0, 0, 20, 0, 0, 0, 0, 5, 41, 0, 0, 79, 0, 0, 35, 53, 0, 0, 0, 0, 56, 17, 0, 0, 0, 0, 70, 60, 0, 0, 0, 75, 42, 0, 0, 0, 0, 52, 0, 0, 0, 0, 0, 0, 0, 0, 0, 0, 8, 0, 80, 67, 0, 65, 0, 73, 0, 0, 2, 6, 0
|0, 0, 0, 38, 0, 0, 0, 0, 0, 0, 70, 0, 29, 0, 0, 0, 0, 6, 0, 0, 4, 0, 0, 66, 0, 0, 0, 45, 48, 0, 0, 0, 16, 43, 0, 0, 0, 0, 0, 0, 0, 0, 0, 0, 9, 0, 0, 0, 0, 35, 21, 0, 0, 64, 0, 0, 67, 0, 34, 8, 0, 0, 0, 0, 0, 0, 0, 0, 0, 57, 19, 0, 0, 0, 0, 0, 37, 74, 0, 10, 58
|70, 0, 0, 51, 0, 0, 46, 0, 0, 38, 76, 0, 0, 0, 78, 0, 64, 0, 54, 0, 0, 0, 0, 0, 0, 0, 62, 0, 0, 0, 0, 0, 0, 44, 77, 20, 0, 53, 0, 0, 11, 0, 0, 34, 0, 65, 19, 4, 0, 0, 37, 12, 58, 68, 0, 0, 43, 0, 13, 0, 0, 0, 0, 0, 0, 0, 0, 71, 0, 0, 0, 0, 32, 0, 59, 0, 0, 67, 0, 0, 0
|0, 0, 0, 0, 0, 0, 0, 0, 0, 0, 0, 0, 54, 0, 14, 0, 0, 80, 0, 24, 0, 0, 67, 73, 57, 0, 0, 0, 0, 70, 0, 0, 0, 0, 0, 72, 0, 77, 0, 23, 0, 0, 47, 0, 0, 39, 0, 0, 0, 59, 74, 0, 0, 0, 71, 0, 0, 0, 0, 0, 0, 0, 0, 58, 20, 79, 6, 0, 0, 0, 0, 0, 0, 0, 41, 0, 0, 0, 0, 69, 11
|64, 0, 0, 53, 0, 77, 0, 3, 0, 67, 0, 0, 33, 0, 0, 13, 0, 0, 75, 47, 0, 0, 26, 0, 0, 0, 0, 0, 0, 36, 0, 0, 0, 0, 0, 28, 0, 0, 0, 46, 71, 0, 0, 24, 0, 41, 23, 22, 0, 69, 0, 0, 0, 17, 0, 0, 0, 0, 0, 38, 0, 0, 0, 0, 65, 0, 0, 0, 0, 0, 50, 0, 0, 0, 0, 52, 0, 0, 43, 0, 0
|0, 0, 0, 0, 0, 0, 0, 0, 59, 0, 0, 0, 0, 42, 32, 0, 0, 19, 0, 0, 71, 25, 0, 0, 0, 43, 0, 1, 54, 0, 0, 0, 0, 0, 0, 30, 3, 0, 0, 60, 0, 0, 69, 21, 0, 0, 66, 56, 47, 0, 0, 72, 14, 0, 17, 0, 22, 0, 0, 0, 73, 0, 0, 0, 0, 0, 0, 0, 0, 0, 10, 0, 0, 16, 0, 0, 50, 0, 0, 55, 0
|0, 0, 28, 45, 0, 0, 57, 0, 0, 0, 0, 0, 77, 0, 0, 0, 44, 53, 0, 0, 0, 0, 0, 0, 0, 32, 17, 0, 0, 0, 0, 37, 0, 0, 59, 58, 0, 0, 0, 0, 0, 0, 0, 0, 27, 0, 0, 79, 0, 0, 0, 0, 0, 36, 0, 0, 11, 0, 0, 0, 0, 14, 0, 0, 0, 5, 0, 12, 0, 0, 0, 0, 25, 0, 0, 0, 23, 0, 0, 0, 0
|0, 0, 0, 0, 58, 0, 0, 0, 0, 0, 0, 0, 0, 37, 0, 0, 0, 0, 5, 31, 0, 0, 78, 0, 0, 0, 0, 0, 0, 0, 4, 0, 0, 0, 50, 32, 0, 0, 0, 0, 0, 63, 0, 49, 25, 76, 0, 0, 0, 57, 0, 6, 0, 0, 0, 0, 0, 0, 0, 0, 0, 33, 0, 0, 0, 0, 0, 64, 0, 0, 0, 47, 0, 42, 26, 0, 9, 13, 77, 0, 24
|1, 0, 0, 0, 0, 61, 22, 0, 52, 0, 48, 68, 0, 0, 0, 0, 0, 0, 0, 0, 0, 16, 0, 0, 79, 55, 0, 38, 51, 0, 0, 73, 0, 12, 0, 0, 37, 0, 0, 0, 0, 35, 43, 0, 0, 0, 0, 67, 0, 0, 44, 0, 45, 0, 0, 0, 50, 0, 0, 0, 32, 0, 0, 0, 0, 0, 0, 0, 0, 3, 14, 0, 0, 0, 81, 30, 0, 0, 7, 0, 0
|15, 0, 73, 55, 0, 0, 0, 0, 0, 0, 0, 0, 0, 0, 0, 0, 0, 0, 66, 0, 81, 0, 0, 0, 0, 0, 0, 36, 17, 0, 20, 0, 0, 10, 18, 0, 0, 0, 22, 13, 0, 7, 0, 46, 68, 0, 0, 49, 0, 0, 0, 51, 6, 0, 0, 0, 72, 0, 0, 0, 0, 0, 32, 0, 16, 14, 54, 0, 0, 43, 0, 75, 0, 0, 0, 0, 80, 27, 0, 0, 0
|0, 0, 0, 0, 65, 59, 6, 0, 0, 33, 58, 0, 0, 0, 0, 0, 0, 44, 26, 0, 0, 11, 70, 16, 0, 0, 42, 0, 0, 0, 63, 0, 24, 0, 0, 0, 0, 72, 0, 0, 0, 4, 0, 0, 0, 0, 0, 0, 32, 0, 39, 0, 0, 0, 0, 0, 15, 0, 0, 0, 0, 0, 61, 0, 80, 0, 0, 81, 0, 0, 0, 77, 0, 43, 0, 0, 0, 0, 0, 0, 0
|0, 14, 79, 66, 0, 28, 53, 0, 0, 0, 41, 7, 0, 0, 81, 35, 36, 24, 0, 0, 0, 0, 0, 65, 0, 0, 0, 78, 5, 4, 0, 0, 40, 0, 0, 0, 0, 0, 0, 0, 0, 0, 0, 62, 67, 0, 0, 48, 0, 0, 0, 0, 0, 0, 0, 70, 71, 0, 39, 45, 0, 0, 0, 0, 0, 0, 0, 0, 59, 0, 0, 0, 58, 33, 0, 17, 0, 12, 74, 34, 0
|0, 0, 0, 36, 0, 0, 0, 0, 0, 0, 17, 72, 60, 0, 0, 0, 0, 0, 0, 0, 0, 76, 0, 0, 0, 0, 47, 0, 30, 0, 0, 0, 0, 32, 51, 0, 0, 0, 0, 79, 0, 0, 15, 44, 0, 0, 0, 0, 0, 0, 0, 52, 1, 0, 0, 0, 53, 0, 0, 21, 18, 0, 13, 0, 0, 9, 0, 0, 0, 0, 0, 0, 3, 0, 65, 0, 0, 0, 0, 0, 0
|0, 0, 81, 0, 0, 70, 0, 67, 0, 0, 55, 75, 43, 0, 0, 77, 0, 0, 0, 36, 0, 0, 0, 6, 59, 0, 0, 0, 39, 0, 0, 7, 9, 21, 0, 0, 27, 0, 0, 0, 0, 11, 0, 0, 0, 0, 0, 0, 0, 58, 0, 56, 0, 15, 0, 46, 0, 0, 0, 0, 0, 78, 0, 38, 0, 72, 0, 0, 0, 0, 60, 0, 0, 0, 14, 18, 68, 0, 0, 0, 0
|0, 0, 0, 0, 0, 0, 0, 0, 0, 0, 64, 80, 73, 14, 0, 0, 20, 0, 0, 0, 0, 0, 0, 0, 0, 23, 0, 0, 0, 0, 55, 38, 81, 0, 0, 0, 0, 0, 24, 0, 0, 0, 0, 0, 0, 0, 5, 0, 0, 68, 67, 42, 47, 0, 0, 0, 0, 0, 41, 56, 0, 27, 2, 0, 0, 39, 0, 30, 0, 0, 0, 0, 36, 0, 0, 0, 0, 0, 69, 0, 0
|0, 38, 45, 0, 0, 0, 0, 0, 0, 0, 0, 0, 0, 59, 0, 0, 0, 0, 0, 0, 53, 0, 0, 0, 0, 0, 32, 43, 37, 46, 50, 48, 60, 0, 0, 0, 0, 0, 0, 30, 21, 0, 0, 0, 0, 0, 0, 0, 64, 65, 0, 63, 11, 73, 0, 0, 0, 74, 0, 0, 36, 0, 0, 57, 0, 25, 0, 0, 35, 19, 0, 0, 0, 0, 2, 0, 76, 0, 0, 72, 0
|0, 0, 0, 0, 34, 0, 0, 41, 57, 0, 11, 0, 0, 18, 66, 63, 0, 0, 14, 0, 0, 17, 0, 0, 0, 10, 0, 0, 0, 0, 53, 31, 80, 0, 0, 3, 25, 0, 69, 0, 77, 54, 0, 0, 0, 0, 0, 44, 0, 0, 0, 0, 26, 78, 0, 0, 0, 0, 0, 67, 55, 6, 0, 79, 0, 0, 36, 0, 0, 0, 5, 0, 0, 0, 7, 42, 0, 0, 71, 0, 0
|0, 0, 0, 29, 0, 0, 0, 0, 0, 0, 13, 0, 0, 67, 0, 49, 0, 0, 0, 0, 0, 0, 0, 0, 0, 0, 0, 59, 0, 0, 0, 0, 0, 73, 15, 75, 0, 0, 8, 0, 33, 40, 0, 0, 0, 0, 0, 0, 0, 0, 0, 36, 0, 66, 0, 0, 0, 54, 0, 0, 0, 0, 0, 0, 0, 0, 0, 0, 0, 0, 0, 44, 0, 81, 0, 61, 0, 0, 0, 0, 0
|0, 57, 42, 0, 0, 0, 0, 4, 0, 18, 3, 35, 0, 0, 0, 0, 70, 0, 0, 0, 0, 0, 0, 0, 0, 0, 0, 0, 78, 9, 46, 0, 38, 0, 21, 39, 0, 14, 51, 0, 50, 0, 0, 0, 69, 15, 54, 41, 29, 0, 0, 0, 0, 81, 0, 0, 0, 56, 0, 0, 0, 73, 0, 0, 0, 0, 0, 0, 0, 0, 0, 0, 0, 37, 0, 0, 45, 72, 0, 33, 0
|0, 44, 54, 0, 0, 0, 49, 36, 0, 0, 37, 0, 0, 0, 34, 0, 0, 4, 0, 0, 0, 5, 0, 0, 0, 0, 0, 0, 0, 0, 28, 18, 10, 0, 79, 0, 0, 0, 0, 0, 0, 73, 0, 0, 0, 0, 0, 0, 0, 0, 0, 0, 8, 43, 23, 0, 0, 0, 9, 0, 0, 0, 19, 0, 0, 0, 0, 0, 0, 0, 64, 52, 0, 0, 0, 22, 0, 7, 60, 12, 14
|0, 0, 60, 0, 0, 0, 0, 0, 0, 0, 0, 0, 0, 63, 0, 0, 0, 0, 0, 76, 0, 0, 0, 0, 0, 0, 0, 0, 0, 31, 0, 0, 0, 0, 0, 0, 0, 0, 68, 0, 54, 0, 0, 0, 0, 0, 0, 0, 0, 0, 0, 48, 0, 25, 0, 0, 0, 28, 0, 0, 80, 44, 0, 0, 1, 12, 24, 0, 0, 0, 43, 10, 0, 9, 0, 0, 0, 0, 0, 36, 0
|0, 0, 0, 0, 0, 0, 33, 0, 55, 62, 0, 0, 19, 0, 0, 0, 0, 76, 41, 60, 0, 65, 0, 0, 0, 0, 0, 0, 72, 0, 0, 0, 0, 0, 0, 8, 21, 0, 0, 39, 61, 2, 0, 77, 0, 0, 0, 0, 0, 0, 0, 9, 0, 75, 0, 52, 0, 0, 15, 0, 0, 0, 0, 56, 0, 49, 0, 0, 6, 0, 0, 40, 50, 44, 20, 0, 0, 0, 67, 0, 27
|0, 0, 0, 0, 62, 0, 5, 0, 0, 0, 54, 48, 0, 0, 0, 0, 0, 0, 0, 0, 0, 0, 0, 55, 13, 0, 0, 0, 0, 0, 0, 0, 4, 76, 0, 81, 0, 0, 18, 1, 0, 0, 49, 67, 0, 63, 0, 0, 0, 0, 0, 0, 37, 50, 0, 22, 79, 0, 0, 0, 0, 61, 34, 0, 0, 0, 68, 0, 0, 0, 0, 0, 0, 0, 46, 3, 0, 0, 0, 0, 52
|20, 0, 43, 12, 21, 0, 0, 0, 0, 0, 0, 26, 0, 72, 24, 31, 0, 0, 68, 0, 0, 0, 0, 0, 0, 14, 0, 0, 0, 0, 0, 0, 0, 49, 0, 0, 30, 0, 16, 0, 0, 0, 0, 59, 0, 0, 0, 0, 0, 0, 56, 44, 0, 0, 0, 69, 17, 0, 0, 0, 0, 0, 50, 71, 75, 0, 0, 27, 0, 37, 0, 78, 0, 38, 80, 0, 0, 0, 0, 0, 0
|0, 0, 0, 0, 40, 0, 0, 81, 0, 7, 0, 0, 9, 60, 0, 0, 45, 0, 0, 0, 0, 0, 0, 0, 0, 0, 58, 0, 0, 5, 0, 15, 0, 0, 0, 0, 79, 43, 44, 0, 10, 0, 0, 80, 0, 0, 4, 0, 0, 0, 0, 31, 0, 39, 0, 0, 0, 65, 0, 51, 76, 0, 0, 0, 0, 35, 0, 0, 32, 0, 25, 30, 0, 0, 61, 0, 0, 62, 0, 0, 0
|0, 0, 0, 0, 0, 13, 9, 0, 64, 43, 0, 0, 0, 0, 40, 0, 8, 0, 0, 23, 0, 0, 0, 67, 0, 6, 0, 0, 0, 3, 0, 55, 0, 0, 0, 22, 0, 0, 0, 0, 0, 66, 0, 5, 70, 0, 0, 0, 74, 0, 0, 0, 0, 0, 0, 0, 35, 47, 0, 0, 21, 0, 0, 15, 0, 0, 79, 0, 0, 0, 0, 0, 0, 0, 0, 0, 0, 0, 0, 0, 0
|67, 80, 29, 48, 0, 66, 0, 0, 0, 14, 15, 0, 20, 13, 0, 5, 74, 0, 18, 0, 0, 0, 39, 0, 33, 0, 8, 42, 0, 0, 0, 0, 0, 24, 0, 0, 41, 64, 0, 0, 7, 0, 0, 47, 0, 0, 0, 0, 0, 0, 38, 0, 0, 0, 2, 0, 36, 11, 0, 0, 0, 0, 0, 0, 0, 0, 0, 0, 0, 54, 0, 0, 0, 56, 0, 0, 0, 0, 79, 0, 6
|53, 0, 0, 0, 0, 0, 0, 0, 0, 0, 0, 30, 0, 0, 0, 0, 0, 0, 0, 0, 0, 47, 0, 0, 0, 15, 55, 33, 69, 0, 29, 3, 63, 0, 0, 0, 0, 4, 60, 0, 0, 0, 0, 0, 0, 49, 0, 0, 0, 0, 16, 0, 0, 0, 34, 44, 0, 45, 2, 0, 0, 0, 35, 0, 0, 0, 65, 67, 26, 0, 0, 0, 0, 0, 22, 57, 0, 0, 0, 0, 42
|0, 41, 0, 0, 0, 0, 45, 0, 47, 46, 26, 0, 0, 0, 73, 15, 0, 79, 22, 0, 0, 0, 0, 0, 0, 0, 67, 0, 35, 0, 0, 53, 0, 0, 0, 0, 0, 0, 49, 0, 0, 10, 64, 0, 0, 1, 0, 13, 0, 0, 0, 0, 0, 54, 4, 0, 0, 0, 29, 0, 0, 0, 0, 18, 30, 8, 0, 0, 0, 51, 0, 62, 61, 0, 0, 0, 25, 0, 0, 0, 70
|44, 79, 0, 60, 0, 0, 0, 0, 0, 0, 21, 0, 0, 36, 0, 0, 0, 0, 0, 0, 0, 48, 0, 0, 0, 40, 74, 24, 0, 0, 67, 0, 0, 0, 0, 0, 65, 0, 0, 0, 0, 0, 0, 73, 0, 0, 0, 0, 17, 0, 0, 0, 0, 0, 0, 55, 0, 0, 49, 32, 50, 23, 0, 0, 0, 0, 0, 0, 0, 9, 0, 0, 0, 11, 0, 38, 0, 0, 33, 0, 0
|76, 0, 78, 0, 0, 31, 0, 0, 73, 0, 0, 0, 0, 74, 11, 0, 0, 0, 0, 80, 0, 63, 0, 0, 10, 0, 70, 81, 0, 0, 1, 8, 0, 28, 0, 5, 34, 33, 0, 57, 0, 0, 0, 0, 0, 0, 0, 0, 0, 0, 0, 0, 12, 22, 0, 21, 0, 0, 37, 0, 79, 0, 0, 0, 45, 6, 0, 16, 25, 0, 0, 0, 0, 0, 0, 0, 66, 54, 27, 0, 0
|0, 0, 0, 0, 13, 3, 0, 0, 0, 0, 0, 0, 0, 0, 0, 0, 0, 0, 0, 0, 0, 0, 1, 68, 62, 0, 4, 23, 0, 0, 45, 9, 0, 11, 0, 57, 0, 81, 0, 48, 79, 8, 0, 0, 0, 0, 39, 0, 0, 38, 0, 0, 0, 0, 0, 0, 0, 0, 0, 0, 0, 0, 0, 0, 0, 0, 0, 0, 0, 0, 0, 0, 0, 0, 71, 15, 0, 0, 0, 50, 0
|0, 0, 0, 4, 0, 0, 0, 52, 0, 28, 0, 27, 0, 54, 0, 71, 0, 51, 0, 59, 0, 0, 0, 72, 0, 0, 0, 0, 18, 0, 47, 0, 0, 26, 0, 0, 0, 45, 67, 22, 20, 0, 0, 0, 0, 46, 0, 0, 36, 0, 0, 0, 35, 0, 0, 0, 0, 81, 58, 0, 0, 1, 0, 0, 79, 0, 0, 0, 0, 0, 0, 0, 6, 0, 0, 0, 0, 0, 0, 0, 0
|0, 0, 0, 0, 0, 0, 0, 50, 0, 0, 0, 0, 0, 0, 0, 0, 35, 0, 0, 0, 61, 42, 12, 36, 0, 0, 0, 0, 64, 0, 0, 0, 0, 0, 49, 0, 39, 0, 0, 0, 16, 77, 53, 52, 0, 0, 0, 0, 0, 5, 41, 0, 63, 62, 0, 0, 0, 0, 0, 0, 0, 0, 0, 0, 0, 0, 0, 0, 0, 58, 0, 0, 34, 0, 0, 0, 0, 0, 46, 0, 0
|29, 0, 0, 2, 0, 37, 67, 34, 0, 0, 0, 0, 0, 0, 0, 0, 0, 48, 38, 0, 0, 0, 0, 14, 0, 0, 0, 0, 0, 42, 0, 0, 0, 0, 40, 27, 0, 7, 0, 0, 0, 0, 11, 0, 0, 0, 21, 0, 0, 8, 3, 68, 0, 9, 0, 0, 0, 0, 0, 0, 0, 0, 0, 33, 31, 0, 15, 0, 0, 0, 0, 0, 0, 47, 0, 0, 0, 0, 35, 0, 0
|8, 0, 0, 65, 74, 0, 0, 0, 0, 0, 0, 13, 40, 0, 80, 0, 0, 0, 79, 0, 0, 0, 0, 0, 29, 0, 0, 0, 0, 25, 0, 0, 0, 0, 0, 56, 0, 5, 0, 27, 0, 0, 0, 0, 59, 0, 81, 0, 24, 0, 0, 0, 0, 0, 30, 33, 0, 0, 0, 70, 0, 0, 0, 0, 0, 0, 0, 0, 0, 0, 22, 0, 0, 0, 55, 64, 0, 18, 0, 41, 0|];