order = 9;
grid = [|55, 0, 0, 72, 0, 22, 0, 0, 9, 0, 0, 15, 0, 0, 0, 0, 0, 0, 0, 41, 0, 0, 0, 0, 0, 0, 0, 16, 0, 0, 0, 0, 0, 74, 0, 30, 0, 45, 0, 0, 0, 0, 53, 0, 0, 0, 0, 36, 0, 31, 32, 0, 0, 0, 51, 0, 0, 24, 0, 67, 23, 71, 0, 0, 0, 0, 0, 0, 63, 0, 0, 0, 0, 76, 0, 0, 0, 17, 0, 44, 81
|0, 0, 0, 0, 0, 0, 17, 0, 59, 30, 0, 0, 12, 0, 0, 0, 16, 21, 0, 0, 0, 0, 27, 0, 0, 0, 0, 0, 77, 0, 0, 0, 25, 0, 0, 0, 0, 0, 57, 78, 68, 62, 0, 0, 0, 0, 0, 64, 0, 0, 0, 0, 0, 0, 0, 0, 0, 37, 0, 0, 0, 44, 0, 0, 0, 0, 0, 0, 32, 0, 0, 53, 0, 0, 33, 0, 0, 4, 0, 0, 0
|0, 70, 0, 26, 0, 8, 0, 0, 0, 0, 0, 0, 51, 0, 72, 0, 0, 0, 0, 43, 0, 17, 0, 0, 0, 0, 0, 0, 4, 59, 0, 0, 31, 0, 0, 0, 37, 14, 0, 0, 0, 39, 66, 0, 0, 25, 0, 0, 0, 0, 18, 16, 0, 0, 0, 0, 0, 28, 77, 48, 3, 0, 0, 78, 1, 0, 0, 45, 0, 0, 0, 0, 0, 0, 0, 20, 0, 67, 0, 0, 0
|0, 0, 0, 0, 48, 0, 69, 0, 0, 0, 0, 0, 0, 60, 0, 0, 36, 0, 0, 0, 0, 0, 0, 50, 0, 0, 0, 0, 73, 0, 8, 65, 0, 0, 0, 38, 0, 0, 1, 0, 32, 31, 9, 29, 23, 0, 81, 0, 0, 0, 0, 22, 0, 0, 0, 0, 0, 7, 0, 0, 0, 0, 0, 0, 0, 25, 28, 0, 0, 26, 17, 0, 59, 0, 0, 0, 0, 77, 0, 0, 15
|0, 20, 0, 78, 0, 0, 60, 0, 38, 0, 74, 0, 0, 0, 0, 0, 0, 0, 19, 0, 0, 76, 0, 30, 0, 0, 0, 0, 0, 75, 0, 0, 0, 39, 0, 0, 0, 0, 7, 0, 0, 40, 10, 0, 0, 0, 47, 0, 17, 0, 6, 0, 0, 12, 0, 64, 0, 2, 0, 0, 0, 70, 0, 0, 69, 8, 65, 0, 14, 49, 0, 0, 0, 11, 0, 0, 0, 0, 0, 0, 13
|0, 0, 0, 0, 80, 0, 37, 0, 51, 0, 0, 0, 0, 28, 0, 0, 0, 0, 0, 0, 0, 0, 0, 0, 0, 0, 0, 0, 76, 0, 0, 0, 32, 0, 64, 0, 77, 15, 0, 54, 71, 0, 16, 0, 0, 0, 3, 0, 0, 0, 0, 74, 0, 0, 62, 0, 0, 0, 0, 0, 0, 0, 0, 0, 0, 0, 0, 0, 0, 0, 0, 0, 0, 0, 0, 23, 12, 0, 0, 0, 0
|0, 0, 0, 36, 0, 3, 0, 6, 0, 39, 44, 0, 0, 0, 41, 0, 0, 0, 34, 0, 0, 0, 0, 0, 0, 0, 0, 0, 0, 0, 0, 48, 0, 0, 54, 0, 0, 0, 0, 0, 0, 79, 24, 12, 0, 59, 0, 37, 0, 0, 65, 0, 0, 0, 0, 0, 0, 1, 17, 19, 0, 0, 0, 77, 47, 0, 60, 0, 0, 31, 0, 71, 64, 0, 7, 0, 0, 0, 0, 0, 0
|0, 32, 0, 0, 0, 0, 0, 0, 0, 0, 0, 61, 0, 0, 0, 0, 0, 0, 0, 0, 0, 0, 0, 6, 0, 42, 0, 0, 41, 44, 28, 26, 21, 0, 0, 0, 0, 72, 49, 36, 0, 0, 8, 0, 51, 0, 0, 0, 0, 0, 40, 0, 0, 0, 0, 0, 0, 31, 0, 39, 66, 4, 63, 0, 0, 0, 55, 0, 0, 12, 0, 24, 0, 0, 0, 80, 14, 0, 0, 78, 0
|0, 0, 31, 0, 57, 61, 74, 62, 10, 80, 0, 47, 0, 0, 29, 0, 0, 19, 7, 0, 0, 0, 0, 44, 23, 0, 8, 0, 0, 0, 79, 37, 0, 6, 0, 0, 52, 0, 0, 0, 0, 0, 0, 0, 4, 0, 0, 0, 0, 0, 0, 55, 78, 0, 42, 15, 45, 56, 0, 60, 0, 0, 0, 0, 0, 0, 0, 0, 0, 0, 36, 0, 0, 0, 0, 21, 0, 27, 46, 73, 0
|0, 8, 0, 0, 27, 0, 0, 0, 66, 61, 0, 0, 63, 0, 74, 0, 0, 31, 0, 0, 72, 0, 0, 0, 49, 0, 0, 40, 0, 0, 0, 0, 0, 0, 48, 73, 4, 76, 17, 3, 29, 0, 0, 0, 0, 0, 0, 25, 58, 21, 0, 0, 0, 0, 75, 0, 65, 15, 0, 0, 11, 2, 41, 0, 26, 55, 78, 77, 28, 42, 80, 0, 0, 5, 0, 59, 81, 0, 0, 0, 0
|7, 0, 78, 0, 0, 0, 0, 32, 0, 18, 19, 0, 40, 0, 0, 0, 0, 0, 0, 0, 2, 0, 0, 81, 0, 0, 0, 6, 0, 0, 0, 0, 0, 35, 43, 0, 0, 0, 0, 21, 0, 0, 0, 0, 0, 0, 0, 24, 53, 0, 55, 4, 0, 67, 79, 0, 0, 58, 51, 0, 49, 0, 0, 0, 0, 0, 0, 11, 0, 0, 0, 45, 72, 80, 71, 0, 0, 47, 0, 0, 17
|0, 0, 0, 0, 0, 14, 10, 61, 49, 0, 0, 0, 0, 0, 0, 0, 29, 0, 0, 0, 56, 0, 0, 0, 0, 0, 0, 0, 0, 0, 0, 7, 0, 64, 0, 0, 9, 0, 78, 0, 67, 34, 77, 47, 0, 0, 74, 0, 0, 0, 59, 0, 0, 0, 0, 45, 0, 0, 0, 0, 0, 0, 35, 32, 0, 0, 0, 0, 0, 0, 0, 0, 20, 36, 0, 0, 0, 0, 0, 0, 0
|0, 18, 0, 0, 0, 0, 53, 0, 0, 59, 0, 23, 62, 0, 0, 0, 32, 26, 0, 0, 0, 0, 0, 0, 12, 14, 0, 0, 13, 81, 65, 0, 3, 28, 61, 0, 0, 42, 58, 45, 0, 0, 80, 0, 11, 0, 64, 72, 0, 0, 15, 0, 0, 73, 1, 0, 67, 0, 0, 17, 0, 0, 0, 0, 0, 34, 0, 43, 0, 0, 0, 0, 40, 0, 0, 31, 52, 33, 21, 0, 0
|0, 0, 0, 42, 0, 52, 45, 36, 0, 0, 0, 20, 0, 0, 0, 77, 0, 0, 0, 0, 0, 0, 0, 0, 0, 0, 0, 0, 0, 0, 5, 17, 12, 0, 0, 0, 0, 0, 0, 0, 0, 0, 0, 0, 0, 34, 9, 0, 0, 0, 0, 0, 0, 0, 0, 3, 0, 0, 0, 0, 0, 25, 0, 0, 0, 21, 0, 0, 0, 0, 0, 0, 56, 0, 0, 15, 13, 0, 0, 0, 0
|0, 0, 0, 11, 77, 0, 0, 0, 0, 0, 78, 0, 71, 34, 0, 41, 39, 45, 0, 47, 42, 0, 0, 24, 0, 0, 1, 0, 60, 0, 0, 53, 0, 0, 0, 58, 0, 0, 0, 43, 64, 0, 49, 65, 0, 0, 0, 0, 19, 0, 0, 29, 0, 79, 0, 7, 0, 0, 73, 0, 14, 0, 0, 0, 3, 0, 0, 0, 0, 22, 0, 8, 18, 0, 23, 0, 0, 0, 0, 0, 0
|40, 0, 0, 73, 60, 0, 0, 0, 0, 0, 0, 0, 38, 0, 0, 0, 69, 48, 0, 70, 0, 0, 46, 0, 0, 0, 58, 55, 67, 0, 0, 75, 0, 0, 0, 0, 0, 18, 0, 62, 0, 0, 0, 0, 0, 23, 0, 0, 11, 0, 0, 0, 0, 0, 61, 0, 0, 0, 0, 0, 27, 0, 0, 0, 41, 0, 0, 0, 17, 1, 52, 0, 77, 0, 0, 0, 0, 0, 28, 0, 0
|0, 13, 80, 0, 0, 0, 46, 0, 0, 0, 0, 0, 0, 21, 43, 0, 0, 15, 0, 0, 0, 0, 0, 0, 0, 0, 38, 76, 0, 0, 0, 0, 42, 0, 36, 0, 0, 31, 59, 20, 0, 0, 0, 0, 0, 0, 5, 0, 0, 0, 0, 0, 0, 41, 0, 0, 0, 29, 0, 0, 0, 0, 0, 0, 0, 6, 40, 0, 49, 0, 50, 0, 0, 0, 68, 0, 55, 12, 0, 0, 0
|0, 0, 0, 0, 0, 0, 0, 0, 0, 0, 0, 0, 0, 0, 3, 51, 0, 17, 76, 69, 50, 0, 0, 0, 21, 0, 0, 8, 0, 0, 0, 0, 0, 10, 0, 0, 0, 0, 0, 39, 6, 57, 0, 0, 0, 42, 0, 56, 61, 0, 0, 70, 0, 0, 0, 0, 0, 0, 0, 0, 0, 59, 32, 0, 20, 0, 0, 0, 36, 0, 54, 46, 78, 0, 0, 0, 0, 75, 0, 0, 0
|0, 0, 0, 62, 67, 81, 0, 57, 0, 0, 38, 0, 0, 0, 32, 23, 0, 0, 12, 64, 0, 78, 16, 0, 0, 0, 0, 0, 0, 76, 0, 0, 15, 50, 0, 44, 47, 0, 0, 0, 72, 0, 0, 0, 1, 0, 0, 0, 40, 0, 0, 0, 0, 0, 0, 0, 0, 0, 46, 0, 68, 0, 36, 0, 0, 39, 66, 0, 0, 60, 0, 0, 0, 31, 0, 0, 0, 0, 55, 0, 0
|0, 0, 0, 0, 23, 80, 0, 0, 17, 0, 0, 0, 59, 0, 0, 74, 0, 20, 0, 0, 0, 0, 49, 0, 0, 0, 76, 0, 0, 0, 38, 0, 0, 0, 47, 0, 22, 0, 0, 60, 77, 15, 0, 31, 0, 7, 0, 81, 50, 5, 0, 0, 0, 2, 0, 0, 0, 0, 0, 0, 0, 0, 8, 0, 0, 72, 0, 0, 0, 0, 0, 0, 0, 0, 0, 58, 0, 39, 1, 0, 0
|0, 0, 0, 35, 55, 38, 25, 0, 0, 0, 62, 0, 0, 29, 0, 0, 0, 0, 0, 0, 71, 31, 54, 0, 0, 32, 51, 23, 1, 0, 0, 16, 60, 0, 0, 0, 46, 0, 0, 0, 0, 0, 65, 0, 0, 0, 11, 47, 0, 0, 0, 0, 0, 0, 80, 0, 0, 20, 0, 64, 0, 0, 12, 0, 0, 0, 0, 0, 0, 0, 77, 21, 52, 28, 0, 0, 68, 0, 0, 0, 9
|0, 60, 0, 0, 72, 40, 0, 0, 0, 0, 0, 0, 0, 0, 67, 0, 0, 0, 69, 0, 0, 38, 0, 0, 0, 65, 68, 0, 49, 0, 45, 0, 0, 0, 0, 0, 0, 0, 0, 14, 0, 0, 0, 51, 0, 0, 0, 0, 1, 0, 0, 0, 0, 17, 0, 0, 0, 0, 0, 0, 0, 0, 0, 0, 0, 0, 0, 0, 0, 0, 81, 2, 19, 0, 0, 0, 0, 0, 0, 0, 0
|0, 0, 1, 0, 0, 44, 27, 12, 0, 0, 58, 63, 0, 46, 0, 0, 22, 0, 0, 0, 0, 0, 0, 0, 0, 4, 0, 0, 0, 0, 0, 0, 0, 0, 0, 0, 0, 0, 0, 0, 0, 0, 20, 0, 2, 0, 0, 0, 0, 0, 0, 0, 31, 0, 0, 0, 7, 0, 15, 9, 0, 0, 0, 0, 0, 75, 0, 0, 43, 56, 0, 18, 0, 0, 67, 0, 41, 0, 0, 0, 0
|0, 0, 0, 0, 0, 9, 0, 0, 0, 0, 0, 0, 36, 0, 0, 0, 77, 18, 62, 0, 0, 0, 59, 0, 0, 30, 0, 70, 0, 0, 0, 46, 0, 69, 0, 0, 10, 0, 33, 0, 0, 0, 0, 0, 13, 0, 0, 0, 0, 55, 0, 0, 0, 0, 0, 65, 0, 54, 0, 2, 0, 0, 28, 0, 24, 0, 0, 6, 31, 0, 0, 0, 0, 57, 45, 0, 0, 0, 7, 22, 0
|0, 0, 48, 0, 64, 0, 0, 2, 0, 0, 0, 0, 24, 0, 0, 0, 45, 0, 22, 0, 0, 0, 0, 1, 0, 0, 0, 0, 0, 0, 40, 32, 0, 0, 0, 10, 0, 0, 0, 0, 0, 56, 0, 0, 0, 0, 0, 0, 0, 0, 0, 0, 0, 0, 0, 42, 69, 13, 0, 0, 0, 0, 0, 51, 27, 58, 0, 0, 20, 0, 0, 0, 0, 0, 0, 79, 0, 0, 0, 0, 18
|0, 0, 0, 20, 0, 75, 32, 13, 0, 0, 0, 0, 0, 12, 0, 0, 0, 41, 23, 36, 0, 0, 0, 0, 0, 0, 0, 0, 25, 0, 0, 0, 0, 0, 0, 0, 0, 0, 0, 76, 8, 0, 0, 0, 0, 0, 0, 60, 0, 0, 78, 0, 0, 0, 0, 0, 0, 0, 55, 71, 35, 0, 0, 0, 0, 0, 0, 0, 9, 0, 0, 10, 66, 72, 0, 0, 0, 0, 50, 0, 0
|10, 69, 73, 0, 61, 31, 0, 0, 14, 0, 0, 0, 0, 0, 70, 0, 0, 0, 39, 63, 0, 0, 19, 0, 75, 37, 0, 0, 28, 71, 0, 41, 0, 0, 0, 2, 0, 0, 0, 0, 78, 0, 0, 0, 0, 0, 6, 0, 0, 0, 0, 34, 0, 0, 17, 0, 0, 0, 0, 0, 0, 0, 0, 0, 0, 45, 46, 0, 0, 76, 0, 26, 0, 0, 0, 33, 0, 11, 0, 0, 0
|0, 12, 0, 75, 33, 20, 0, 0, 0, 57, 0, 0, 0, 0, 55, 0, 0, 0, 0, 0, 66, 0, 14, 0, 0, 44, 0, 0, 0, 0, 76, 56, 0, 32, 0, 0, 0, 81, 25, 28, 0, 0, 0, 0, 0, 0, 0, 62, 45, 0, 0, 0, 0, 0, 27, 0, 0, 0, 0, 0, 0, 35, 0, 73, 0, 77, 0, 0, 0, 0, 0, 0, 71, 39, 4, 11, 0, 0, 0, 0, 23
|60, 74, 69, 0, 31, 0, 0, 0, 0, 0, 8, 0, 0, 20, 0, 0, 0, 13, 0, 0, 0, 65, 0, 0, 0, 0, 0, 51, 0, 0, 0, 0, 0, 1, 0, 0, 0, 0, 50, 0, 0, 68, 0, 0, 42, 78, 7, 0, 75, 0, 56, 0, 30, 0, 0, 11, 0, 25, 76, 16, 0, 0, 0, 0, 0, 0, 0, 9, 0, 0, 0, 0, 0, 0, 0, 0, 0, 0, 0, 0, 0
|0, 53, 0, 0, 0, 0, 0, 0, 0, 0, 17, 26, 0, 0, 0, 0, 1, 0, 13, 76, 0, 0, 0, 0, 74, 21, 42, 43, 0, 0, 0, 0, 0, 0, 80, 9, 0, 0, 0, 46, 0, 0, 0, 0, 0, 15, 0, 0, 0, 0, 0, 48, 0, 36, 0, 0, 47, 0, 0, 0, 52, 39, 50, 0, 0, 20, 0, 72, 0, 27, 49, 0, 0, 55, 75, 0, 0, 0, 0, 54, 0
|29, 17, 0, 0, 0, 0, 0, 0, 0, 0, 0, 0, 65, 0, 0, 48, 0, 0, 72, 0, 0, 0, 9, 0, 0, 0, 0, 0, 46, 0, 0, 25, 0, 0, 0, 0, 0, 7, 0, 0, 0, 0, 31, 77, 0, 0, 34, 0, 0, 0, 0, 73, 0, 0, 24, 10, 0, 0, 0, 0, 69, 79, 0, 0, 0, 0, 0, 0, 1, 0, 58, 42, 0, 0, 5, 0, 78, 0, 0, 2, 0
|0, 0, 28, 0, 0, 0, 0, 0, 0, 0, 30, 59, 0, 0, 0, 0, 21, 0, 0, 0, 0, 0, 0, 0, 0, 0, 0, 0, 0, 10, 55, 0, 0, 0, 0, 0, 0, 0, 0, 51, 58, 0, 60, 38, 0, 0, 0, 0, 0, 0, 11, 0, 0, 0, 0, 9, 13, 0, 0, 0, 0, 0, 0, 56, 0, 0, 75, 0, 0, 0, 47, 0, 0, 0, 41, 69, 0, 0, 0, 0, 52
|0, 0, 0, 0, 0, 25, 0, 52, 0, 0, 0, 0, 0, 50, 19, 34, 5, 0, 55, 0, 0, 0, 0, 0, 4, 0, 0, 0, 0, 0, 0, 0, 16, 30, 0, 0, 39, 57, 0, 0, 37, 0, 78, 0, 0, 58, 60, 0, 72, 77, 0, 0, 9, 27, 7, 6, 0, 0, 0, 0, 0, 0, 74, 0, 0, 0, 0, 69, 0, 0, 0, 0, 12, 49, 0, 0, 79, 0, 0, 45, 0
|80, 0, 0, 38, 0, 0, 0, 7, 0, 0, 6, 0, 0, 16, 75, 61, 0, 79, 0, 0, 49, 0, 67, 68, 0, 35, 50, 74, 0, 0, 0, 0, 0, 17, 0, 0, 0, 0, 0, 0, 69, 0, 0, 0, 0, 0, 0, 57, 46, 76, 66, 43, 0, 71, 22, 77, 0, 0, 64, 0, 0, 0, 0, 0, 0, 31, 37, 40, 0, 0, 0, 0, 0, 0, 70, 0, 0, 0, 0, 0, 0
|0, 0, 0, 0, 37, 0, 0, 0, 81, 0, 0, 0, 0, 0, 0, 64, 0, 0, 0, 51, 0, 0, 0, 0, 0, 69, 0, 27, 0, 0, 0, 13, 0, 0, 0, 0, 0, 0, 0, 0, 0, 0, 23, 0, 0, 0, 0, 19, 0, 0, 0, 0, 0, 49, 0, 44, 20, 0, 65, 0, 54, 0, 0, 0, 0, 0, 0, 0, 0, 29, 0, 0, 0, 0, 0, 0, 35, 0, 0, 1, 33
|0, 0, 0, 67, 0, 0, 0, 0, 0, 29, 0, 0, 0, 31, 53, 0, 0, 0, 6, 19, 0, 0, 0, 0, 0, 36, 10, 0, 0, 0, 24, 0, 0, 0, 0, 0, 0, 0, 22, 0, 0, 0, 61, 0, 0, 0, 8, 0, 0, 0, 0, 0, 0, 0, 0, 55, 0, 0, 21, 0, 56, 80, 0, 0, 0, 0, 0, 0, 54, 0, 30, 0, 0, 0, 0, 0, 0, 0, 0, 0, 0
|0, 0, 49, 21, 0, 64, 0, 72, 0, 0, 63, 0, 0, 0, 12, 0, 0, 42, 0, 0, 76, 0, 0, 0, 0, 52, 17, 3, 27, 0, 0, 0, 0, 0, 0, 0, 60, 0, 0, 0, 0, 0, 0, 0, 0, 0, 0, 30, 0, 8, 0, 0, 0, 66, 0, 46, 38, 0, 0, 13, 73, 7, 0, 0, 53, 0, 31, 58, 0, 0, 0, 0, 0, 0, 0, 0, 10, 0, 0, 0, 0
|4, 0, 71, 33, 0, 0, 48, 0, 0, 77, 0, 0, 0, 0, 51, 37, 0, 56, 0, 45, 0, 40, 0, 26, 0, 0, 0, 0, 22, 0, 0, 49, 0, 0, 0, 0, 0, 0, 0, 0, 0, 0, 0, 0, 0, 0, 57, 61, 0, 0, 63, 0, 0, 0, 0, 12, 0, 0, 50, 27, 0, 0, 0, 47, 0, 0, 0, 0, 0, 0, 0, 0, 0, 0, 72, 75, 39, 53, 62, 0, 0
|1, 46, 0, 0, 0, 0, 0, 56, 0, 0, 0, 60, 0, 0, 0, 0, 0, 0, 5, 57, 51, 0, 0, 0, 0, 31, 75, 0, 0, 0, 0, 21, 0, 0, 0, 20, 0, 0, 42, 17, 0, 0, 0, 41, 0, 0, 0, 70, 0, 0, 0, 0, 23, 13, 0, 0, 19, 0, 44, 24, 0, 0, 77, 0, 0, 0, 7, 0, 0, 69, 0, 0, 73, 0, 25, 54, 0, 0, 52, 32, 47
|14, 22, 16, 0, 0, 0, 0, 0, 58, 0, 65, 0, 0, 49, 25, 0, 0, 47, 59, 77, 68, 0, 8, 0, 0, 61, 27, 0, 0, 1, 0, 73, 0, 0, 0, 35, 0, 0, 0, 23, 0, 0, 0, 0, 0, 28, 0, 41, 78, 0, 46, 0, 0, 11, 0, 0, 2, 0, 0, 55, 0, 75, 4, 0, 0, 0, 32, 0, 0, 0, 15, 0, 0, 0, 0, 12, 0, 5, 0, 0, 64
|0, 0, 0, 0, 35, 60, 0, 0, 0, 0, 0, 0, 21, 0, 0, 0, 0, 0, 0, 0, 0, 0, 0, 0, 38, 0, 0, 0, 33, 46, 0, 0, 0, 0, 51, 0, 0, 47, 0, 0, 0, 0, 0, 0, 0, 0, 0, 0, 0, 0, 0, 26, 0, 64, 0, 0, 0, 0, 0, 0, 0, 48, 0, 0, 0, 0, 0, 0, 0, 5, 0, 9, 34, 1, 0, 49, 0, 0, 0, 0, 30
|32, 0, 0, 0, 0, 55, 62, 0, 0, 5, 0, 0, 0, 0, 0, 20, 31, 58, 0, 0, 18, 0, 66, 74, 11, 13, 44, 0, 70, 0, 0, 0, 0, 0, 0, 0, 75, 0, 39, 10, 0, 0, 0, 0, 0, 0, 38, 0, 0, 0, 0, 0, 0, 0, 0, 0, 80, 64, 0, 69, 0, 65, 0, 0, 0, 0, 19, 0, 0, 63, 0, 28, 0, 0, 0, 51, 0, 0, 0, 3, 0
|0, 0, 0, 0, 0, 0, 0, 0, 0, 0, 73, 0, 0, 38, 0, 0, 27, 22, 42, 0, 0, 60, 50, 29, 0, 0, 0, 57, 64, 0, 25, 0, 0, 0, 0, 0, 32, 11, 0, 69, 0, 0, 35, 0, 0, 54, 0, 0, 4, 0, 0, 0, 0, 0, 0, 0, 0, 0, 59, 0, 0, 17, 47, 30, 0, 0, 20, 0, 0, 0, 0, 0, 7, 0, 9, 0, 43, 0, 0, 0, 44
|73, 0, 0, 0, 0, 11, 44, 0, 5, 0, 0, 0, 1, 0, 79, 0, 0, 0, 0, 0, 0, 0, 0, 0, 62, 0, 0, 0, 0, 0, 80, 0, 0, 0, 8, 40, 0, 53, 0, 29, 63, 0, 59, 0, 52, 0, 0, 7, 0, 25, 0, 19, 0, 56, 0, 0, 0, 0, 0, 0, 72, 0, 0, 0, 36, 0, 54, 0, 0, 0, 0, 0, 2, 6, 0, 0, 0, 0, 0, 0, 0
|76, 0, 0, 15, 43, 0, 0, 0, 0, 0, 0, 0, 0, 0, 0, 0, 0, 0, 0, 0, 0, 21, 0, 0, 0, 0, 19, 11, 44, 0, 0, 62, 0, 0, 0, 45, 0, 0, 31, 0, 0, 0, 0, 0, 0, 0, 12, 0, 68, 0, 0, 0, 0, 58, 54, 1, 51, 0, 0, 41, 0, 0, 0, 0, 0, 0, 0, 66, 39, 0, 75, 0, 0, 0, 48, 0, 0, 8, 0, 0, 79
|0, 0, 0, 0, 0, 0, 0, 0, 32, 0, 21, 0, 0, 0, 0, 72, 0, 0, 0, 0, 0, 0, 0, 5, 0, 0, 0, 0, 2, 0, 0, 0, 0, 0, 19, 64, 31, 0, 0, 0, 40, 0, 68, 66, 0, 0, 15, 75, 0, 0, 0, 0, 59, 0, 0, 0, 0, 0, 0, 0, 0, 0, 9, 0, 78, 67, 0, 0, 0, 0, 0, 0, 0, 0, 0, 65, 0, 0, 51, 36, 0
|0, 0, 0, 57, 0, 0, 0, 0, 0, 26, 0, 0, 27, 19, 0, 80, 8, 0, 0, 0, 44, 0, 17, 51, 79, 76, 0, 7, 61, 0, 0, 59, 0, 0, 22, 74, 65, 0, 0, 42, 0, 73, 0, 0, 30, 0, 0, 38, 10, 0, 0, 0, 71, 0, 68, 78, 0, 0, 12, 11, 0, 0, 0, 0, 43, 0, 0, 0, 53, 0, 0, 0, 0, 0, 0, 0, 32, 81, 0, 0, 70
|0, 0, 22, 0, 0, 15, 65, 33, 35, 0, 0, 0, 47, 6, 0, 24, 0, 50, 0, 32, 0, 0, 0, 34, 0, 0, 3, 80, 0, 0, 0, 40, 54, 0, 0, 69, 81, 0, 62, 0, 0, 0, 0, 55, 5, 0, 0, 0, 0, 0, 0, 78, 77, 19, 0, 0, 0, 0, 0, 0, 0, 0, 0, 0, 0, 79, 0, 0, 0, 0, 0, 0, 0, 0, 2, 0, 71, 66, 0, 0, 25
|47, 0, 43, 13, 0, 48, 39, 0, 0, 28, 12, 10, 0, 0, 0, 0, 76, 73, 0, 0, 0, 0, 71, 0, 0, 0, 0, 0, 0, 56, 0, 0, 0, 0, 0, 46, 0, 0, 0, 1, 0, 0, 0, 0, 67, 55, 0, 49, 0, 0, 0, 41, 0, 0, 0, 0, 0, 36, 0, 0, 0, 0, 0, 0, 0, 0, 4, 0, 0, 0, 0, 0, 0, 77, 0, 0, 15, 0, 0, 0, 59
|0, 0, 4, 0, 46, 78, 68, 0, 0, 0, 0, 0, 49, 0, 59, 0, 0, 0, 0, 39, 40, 0, 0, 0, 0, 0, 0, 0, 55, 72, 47, 0, 0, 0, 0, 0, 79, 0, 0, 80, 0, 16, 6, 7, 0, 0, 0, 14, 0, 0, 73, 0, 32, 0, 0, 0, 10, 0, 0, 81, 0, 0, 57, 0, 0, 0, 0, 5, 0, 0, 0, 0, 0, 0, 0, 0, 0, 0, 0, 0, 0
|0, 0, 10, 70, 0, 0, 0, 0, 0, 0, 0, 4, 0, 0, 0, 0, 43, 0, 56, 0, 0, 0, 0, 72, 37, 0, 0, 0, 0, 0, 0, 9, 0, 0, 0, 0, 0, 0, 0, 24, 26, 0, 38, 0, 0, 0, 0, 0, 80, 0, 0, 0, 0, 0, 25, 0, 16, 74, 0, 0, 0, 64, 0, 49, 0, 47, 0, 0, 0, 0, 0, 77, 0, 0, 0, 0, 45, 46, 42, 0, 0
|0, 0, 0, 0, 0, 0, 0, 0, 0, 0, 0, 0, 0, 18, 0, 0, 0, 0, 0, 0, 19, 47, 0, 0, 0, 0, 0, 0, 0, 0, 14, 0, 26, 31, 0, 0, 20, 50, 0, 0, 0, 22, 0, 0, 0, 0, 0, 43, 0, 58, 0, 0, 46, 5, 0, 0, 0, 65, 0, 76, 0, 0, 0, 0, 0, 0, 3, 81, 0, 0, 0, 0, 0, 44, 0, 0, 1, 0, 0, 0, 0
|31, 0, 0, 1, 0, 0, 0, 0, 60, 0, 0, 14, 0, 0, 81, 0, 0, 67, 0, 0, 64, 0, 0, 0, 0, 0, 9, 0, 17, 0, 70, 0, 77, 0, 0, 0, 15, 0, 32, 0, 28, 44, 0, 0, 0, 0, 0, 0, 0, 0, 0, 0, 0, 30, 0, 80, 0, 0, 42, 0, 0, 22, 51, 0, 0, 0, 2, 27, 72, 33, 76, 0, 57, 0, 0, 0, 58, 62, 41, 0, 53
|0, 0, 0, 0, 0, 0, 55, 0, 0, 0, 0, 0, 0, 3, 0, 0, 57, 0, 0, 0, 0, 0, 0, 0, 0, 0, 22, 0, 21, 0, 0, 0, 0, 0, 0, 12, 0, 0, 0, 72, 4, 0, 33, 13, 0, 0, 0, 0, 2, 0, 0, 0, 0, 0, 40, 32, 75, 77, 7, 50, 0, 0, 0, 0, 62, 56, 0, 0, 0, 0, 0, 0, 16, 0, 0, 0, 27, 68, 80, 0, 0
|0, 0, 55, 59, 0, 45, 38, 0, 72, 0, 0, 0, 6, 0, 0, 50, 0, 61, 0, 21, 0, 67, 35, 9, 0, 0, 0, 0, 0, 0, 48, 0, 0, 18, 0, 54, 0, 0, 0, 0, 0, 0, 19, 0, 43, 0, 0, 0, 0, 56, 0, 0, 0, 0, 0, 0, 27, 57, 0, 0, 29, 0, 0, 0, 0, 71, 0, 0, 33, 0, 62, 0, 0, 12, 0, 0, 8, 0, 70, 0, 0
|0, 0, 79, 41, 0, 0, 57, 0, 44, 0, 0, 0, 64, 81, 0, 45, 0, 0, 18, 0, 0, 0, 0, 0, 26, 29, 0, 0, 16, 0, 0, 0, 38, 0, 0, 0, 0, 0, 0, 0, 0, 0, 0, 0, 0, 0, 0, 0, 12, 0, 0, 0, 67, 0, 0, 0, 0, 0, 0, 63, 9, 0, 0, 34, 0, 0, 39, 22, 80, 0, 0, 0, 14, 0, 0, 0, 0, 24, 0, 0, 1
|0, 3, 9, 0, 0, 0, 0, 0, 68, 0, 0, 0, 39, 0, 0, 0, 0, 0, 0, 0, 0, 4, 0, 42, 0, 72, 12, 0, 8, 0, 0, 70, 0, 63, 52, 57, 0, 0, 0, 0, 13, 0, 0, 28, 53, 0, 0, 80, 0, 0, 0, 0, 25, 40, 0, 0, 0, 0, 0, 61, 43, 50, 38, 0, 64, 7, 0, 0, 0, 0, 41, 0, 0, 0, 0, 0, 0, 69, 0, 0, 22
|0, 0, 46, 54, 51, 0, 11, 0, 0, 52, 53, 0, 0, 0, 0, 18, 0, 0, 0, 0, 0, 0, 23, 0, 0, 0, 0, 65, 0, 0, 0, 42, 0, 44, 56, 0, 0, 27, 0, 0, 22, 0, 69, 0, 0, 64, 0, 0, 0, 0, 0, 14, 0, 0, 0, 0, 0, 80, 0, 0, 12, 0, 0, 0, 0, 0, 49, 0, 0, 0, 6, 0, 0, 17, 21, 0, 31, 0, 0, 0, 0
|0, 0, 62, 0, 0, 0, 0, 30, 0, 0, 57, 56, 0, 0, 0, 9, 0, 0, 0, 81, 1, 0, 0, 0, 0, 0, 36, 0, 0, 0, 0, 0, 0, 12, 0, 0, 42, 0, 0, 0, 31, 0, 0, 0, 0, 0, 27, 0, 0, 0, 0, 0, 0, 0, 0, 24, 0, 68, 0, 79, 0, 0, 54, 0, 0, 0, 76, 29, 69, 0, 0, 51, 63, 0, 0, 28, 0, 13, 0, 10, 35
|0, 0, 64, 0, 0, 0, 0, 0, 0, 0, 0, 0, 0, 68, 42, 79, 35, 63, 54, 0, 0, 22, 20, 62, 0, 28, 0, 73, 0, 0, 0, 27, 0, 76, 0, 0, 0, 0, 0, 0, 21, 23, 0, 70, 32, 0, 0, 31, 0, 0, 72, 0, 0, 81, 0, 0, 30, 66, 0, 0, 44, 13, 0, 0, 0, 0, 17, 0, 0, 0, 0, 0, 0, 0, 0, 0, 0, 49, 0, 39, 0
|0, 0, 0, 0, 76, 1, 0, 20, 0, 0, 0, 0, 0, 24, 0, 12, 41, 0, 0, 0, 0, 5, 0, 0, 17, 0, 11, 0, 79, 0, 0, 0, 0, 0, 0, 81, 0, 0, 0, 25, 0, 0, 0, 0, 0, 0, 0, 0, 0, 70, 0, 0, 0, 0, 0, 69, 0, 0, 8, 6, 46, 0, 0, 28, 0, 0, 72, 16, 23, 0, 0, 0, 62, 0, 0, 0, 26, 9, 0, 0, 0
|15, 0, 0, 0, 58, 0, 0, 0, 0, 38, 66, 71, 0, 67, 0, 1, 0, 0, 14, 0, 0, 73, 0, 0, 0, 0, 0, 0, 0, 51, 0, 23, 0, 21, 0, 0, 50, 0, 8, 0, 0, 81, 79, 0, 0, 0, 0, 0, 18, 0, 0, 0, 0, 48, 0, 0, 0, 0, 0, 0, 41, 32, 0, 0, 9, 36, 0, 0, 0, 47, 0, 0, 55, 0, 0, 0, 0, 61, 11, 68, 0
|0, 65, 13, 0, 0, 32, 70, 0, 0, 0, 0, 0, 0, 0, 0, 8, 0, 33, 0, 0, 6, 0, 0, 0, 0, 79, 0, 0, 29, 0, 0, 0, 0, 0, 71, 0, 0, 61, 0, 67, 0, 0, 0, 0, 0, 0, 0, 68, 0, 26, 0, 0, 5, 0, 23, 0, 0, 0, 0, 0, 18, 73, 0, 0, 0, 0, 0, 0, 0, 74, 0, 0, 0, 0, 0, 0, 0, 34, 76, 52, 0
|0, 0, 0, 0, 0, 0, 0, 0, 0, 65, 81, 0, 0, 0, 0, 26, 24, 57, 0, 56, 45, 70, 0, 0, 0, 0, 0, 0, 0, 0, 0, 38, 0, 0, 59, 11, 0, 0, 27, 0, 0, 20, 0, 60, 39, 10, 0, 53, 0, 30, 0, 0, 0, 0, 6, 72, 0, 0, 0, 7, 0, 0, 34, 0, 0, 0, 0, 0, 0, 0, 0, 48, 0, 73, 0, 0, 0, 0, 0, 0, 41
|0, 59, 0, 0, 73, 0, 31, 0, 50, 0, 9, 0, 0, 0, 11, 0, 0, 29, 24, 0, 65, 0, 0, 0, 0, 0, 0, 0, 0, 0, 0, 0, 34, 0, 0, 76, 0, 66, 0, 79, 0, 0, 0, 53, 0, 0, 0, 0, 0, 37, 0, 0, 0, 0, 64, 71, 0, 0, 0, 0, 0, 0, 43, 0, 28, 15, 0, 63, 18, 45, 4, 0, 0, 0, 0, 0, 77, 0, 0, 0, 56
|0, 0, 0, 0, 0, 0, 0, 0, 0, 0, 35, 0, 0, 0, 0, 0, 18, 27, 0, 0, 80, 49, 44, 0, 0, 5, 0, 0, 0, 66, 0, 51, 20, 0, 74, 0, 55, 0, 72, 0, 7, 0, 62, 0, 47, 0, 0, 21, 0, 0, 0, 0, 3, 0, 0, 0, 0, 0, 0, 37, 0, 0, 56, 0, 0, 61, 0, 0, 0, 0, 0, 68, 0, 0, 0, 0, 0, 0, 12, 0, 0
|0, 21, 0, 71, 0, 0, 0, 45, 0, 0, 0, 0, 0, 0, 1, 0, 0, 0, 0, 53, 60, 0, 33, 0, 0, 19, 20, 25, 65, 41, 0, 0, 0, 0, 0, 0, 0, 0, 0, 0, 9, 0, 34, 56, 0, 16, 0, 15, 0, 0, 0, 0, 43, 0, 0, 18, 0, 0, 47, 0, 0, 0, 0, 0, 0, 24, 0, 49, 0, 79, 0, 0, 37, 0, 0, 0, 0, 0, 5, 0, 0
|0, 0, 0, 53, 0, 0, 0, 0, 0, 0, 0, 0, 0, 42, 0, 56, 0, 0, 0, 0, 0, 0, 0, 0, 0, 51, 61, 0, 37, 0, 0, 0, 0, 9, 0, 0, 0, 0, 5, 65, 0, 0, 0, 0, 0, 0, 0, 23, 0, 0, 0, 77, 0, 0, 0, 0, 0, 0, 0, 26, 16, 66, 0, 0, 54, 69, 22, 0, 13, 2, 0, 0, 0, 24, 29, 0, 0, 0, 0, 47, 0
|0, 10, 0, 0, 0, 0, 0, 0, 69, 0, 0, 34, 0, 0, 62, 0, 0, 0, 63, 0, 23, 2, 0, 40, 0, 0, 0, 0, 19, 0, 0, 0, 0, 71, 0, 28, 0, 3, 0, 52, 0, 49, 75, 0, 0, 0, 18, 0, 79, 0, 0, 0, 0, 0, 0, 0, 0, 0, 0, 0, 81, 12, 0, 0, 0, 0, 0, 0, 0, 0, 0, 0, 0, 0, 0, 0, 65, 0, 0, 33, 0
|0, 0, 0, 66, 0, 0, 0, 0, 0, 20, 0, 0, 0, 7, 0, 14, 0, 0, 78, 0, 0, 62, 0, 0, 0, 0, 0, 0, 0, 0, 0, 0, 23, 0, 0, 0, 0, 0, 0, 2, 0, 0, 0, 32, 0, 0, 67, 0, 0, 36, 0, 0, 76, 0, 0, 0, 17, 0, 4, 0, 1, 0, 0, 0, 81, 60, 27, 0, 0, 44, 0, 64, 0, 75, 0, 0, 18, 0, 69, 0, 0
|0, 52, 0, 0, 0, 0, 0, 0, 0, 15, 0, 0, 0, 0, 0, 0, 0, 0, 4, 0, 8, 75, 0, 0, 0, 38, 37, 0, 43, 0, 0, 0, 0, 0, 31, 1, 0, 0, 0, 18, 0, 0, 0, 0, 0, 0, 80, 0, 29, 81, 0, 0, 57, 0, 0, 0, 0, 0, 20, 0, 0, 0, 61, 17, 32, 10, 0, 0, 0, 0, 0, 73, 44, 0, 0, 74, 49, 36, 0, 0, 34
|44, 0, 36, 0, 20, 0, 0, 0, 0, 17, 0, 79, 30, 0, 0, 47, 0, 32, 0, 7, 0, 0, 0, 0, 0, 15, 0, 0, 0, 67, 0, 0, 2, 0, 46, 80, 0, 0, 0, 81, 0, 0, 0, 0, 0, 0, 0, 0, 0, 0, 0, 0, 56, 0, 0, 0, 60, 0, 53, 0, 0, 0, 0, 0, 0, 26, 0, 0, 0, 77, 0, 40, 0, 54, 0, 0, 0, 0, 38, 0, 0
|0, 62, 0, 0, 14, 0, 0, 0, 0, 21, 0, 0, 0, 0, 0, 0, 0, 0, 0, 0, 74, 0, 40, 0, 48, 0, 28, 0, 58, 0, 51, 0, 0, 0, 0, 0, 0, 20, 0, 73, 57, 0, 0, 0, 0, 80, 0, 0, 0, 0, 0, 0, 70, 0, 30, 0, 44, 34, 0, 32, 0, 0, 0, 6, 0, 17, 0, 0, 0, 0, 0, 0, 49, 0, 1, 0, 0, 0, 0, 0, 24
|0, 0, 8, 55, 0, 0, 5, 0, 0, 64, 0, 0, 22, 4, 0, 30, 0, 0, 20, 0, 0, 0, 0, 0, 0, 0, 0, 0, 0, 0, 0, 0, 0, 27, 0, 18, 0, 0, 0, 0, 0, 0, 71, 0, 78, 0, 0, 0, 51, 38, 0, 0, 0, 0, 13, 0, 0, 0, 48, 0, 0, 0, 37, 0, 0, 0, 0, 14, 65, 25, 29, 54, 0, 53, 0, 0, 0, 0, 0, 0, 0
|38, 2, 0, 0, 0, 0, 0, 0, 0, 24, 0, 0, 32, 14, 52, 0, 0, 51, 0, 0, 77, 0, 0, 75, 0, 0, 0, 0, 0, 0, 0, 43, 0, 49, 0, 72, 0, 48, 60, 0, 56, 0, 0, 30, 0, 5, 0, 0, 0, 74, 0, 0, 0, 39, 0, 19, 0, 55, 71, 0, 0, 0, 0, 13, 0, 0, 21, 0, 0, 53, 0, 61, 0, 0, 50, 0, 0, 0, 37, 66, 0
|0, 0, 0, 0, 0, 0, 0, 42, 0, 0, 0, 0, 0, 77, 7, 0, 3, 37, 0, 0, 0, 0, 0, 0, 0, 1, 0, 0, 71, 0, 11, 0, 39, 0, 0, 0, 0, 0, 0, 0, 0, 0, 0, 68, 24, 0, 66, 0, 44, 0, 0, 0, 0, 0, 0, 23, 0, 0, 0, 0, 62, 0, 0, 10, 46, 0, 0, 0, 56, 0, 63, 4, 0, 27, 0, 0, 0, 21, 0, 0, 0
|0, 0, 30, 0, 32, 0, 0, 0, 0, 0, 0, 57, 0, 66, 34, 0, 0, 0, 0, 0, 0, 0, 0, 14, 0, 3, 0, 0, 48, 0, 12, 0, 0, 0, 0, 0, 0, 0, 10, 5, 0, 4, 0, 64, 19, 0, 0, 0, 0, 79, 7, 0, 0, 0, 63, 49, 59, 61, 0, 15, 0, 0, 0, 50, 71, 0, 0, 0, 0, 0, 0, 0, 0, 65, 0, 35, 0, 0, 0, 0, 0
|79, 0, 0, 58, 10, 0, 36, 27, 76, 63, 0, 74, 0, 0, 71, 0, 0, 0, 0, 55, 0, 0, 47, 0, 0, 0, 0, 0, 0, 0, 0, 0, 0, 0, 0, 0, 11, 0, 0, 0, 0, 0, 0, 0, 0, 0, 78, 2, 65, 0, 0, 0, 0, 54, 28, 0, 77, 6, 0, 0, 0, 16, 0, 60, 0, 0, 0, 0, 0, 0, 0, 0, 61, 0, 73, 0, 34, 52, 0, 0, 39
|48, 51, 0, 64, 0, 17, 61, 0, 0, 78, 0, 0, 0, 0, 0, 46, 0, 0, 0, 67, 15, 0, 62, 0, 63, 0, 7, 0, 0, 0, 0, 0, 0, 5, 0, 0, 0, 0, 23, 9, 0, 0, 29, 72, 0, 0, 0, 0, 0, 57, 0, 30, 12, 0, 56, 0, 0, 0, 0, 0, 0, 0, 0, 0, 0, 0, 0, 2, 0, 0, 0, 0, 28, 0, 0, 0, 70, 6, 0, 0, 55
|34, 0, 0, 0, 0, 0, 0, 0, 15, 45, 0, 0, 13, 43, 0, 0, 0, 0, 46, 0, 37, 0, 0, 0, 0, 0, 0, 63, 80, 0, 0, 0, 0, 0, 0, 0, 61, 0, 65, 6, 0, 0, 0, 0, 0, 0, 19, 0, 0, 0, 64, 0, 0, 0, 81, 58, 0, 0, 0, 35, 0, 0, 5, 0, 0, 0, 0, 0, 0, 0, 0, 59, 22, 0, 0, 0, 0, 0, 0, 0, 40
|0, 73, 0, 44, 0, 0, 0, 65, 54, 0, 0, 0, 0, 59, 61, 0, 0, 0, 0, 17, 5, 50, 34, 0, 22, 12, 60, 0, 0, 0, 0, 0, 0, 0, 0, 0, 0, 55, 0, 0, 0, 38, 26, 33, 0, 0, 0, 52, 42, 0, 8, 71, 0, 46, 0, 0, 1, 0, 31, 20, 75, 0, 2, 0, 66, 0, 0, 0, 3, 0, 32, 0, 68, 0, 0, 56, 0, 48, 77, 0, 0|];