order = 9;
grid = [|69, 0, 0, 0, 0, 30, 0, 1, 0, 38, 0, 0, 20, 0, 0, 0, 0, 28, 0, 0, 0, 4, 0, 0, 0, 35, 9, 0, 0, 0, 0, 0, 0, 0, 0, 0, 0, 0, 0, 47, 0, 0, 0, 0, 70, 76, 0, 0, 53, 22, 0, 0, 15, 0, 0, 0, 0, 0, 51, 0, 42, 0, 49, 45, 0, 5, 0, 21, 0, 0, 0, 41, 0, 63, 0, 10, 12, 0, 0, 0, 0
|63, 11, 0, 0, 0, 0, 0, 37, 0, 29, 8, 0, 0, 45, 0, 0, 0, 0, 42, 0, 0, 0, 0, 62, 53, 0, 58, 0, 54, 0, 51, 50, 0, 0, 64, 69, 0, 0, 0, 0, 0, 0, 0, 59, 0, 0, 0, 0, 55, 0, 34, 30, 0, 41, 27, 79, 0, 0, 0, 0, 0, 0, 0, 0, 0, 0, 0, 0, 66, 0, 38, 0, 61, 0, 0, 0, 68, 71, 43, 0, 0
|0, 0, 0, 0, 0, 0, 46, 0, 0, 0, 0, 0, 0, 69, 6, 33, 0, 1, 0, 0, 80, 45, 0, 0, 79, 0, 37, 59, 0, 0, 0, 0, 0, 36, 0, 0, 0, 0, 0, 23, 30, 15, 0, 0, 0, 77, 0, 14, 81, 47, 0, 13, 0, 0, 18, 0, 21, 38, 0, 12, 0, 0, 0, 0, 0, 78, 0, 7, 0, 58, 0, 0, 35, 0, 0, 0, 53, 0, 0, 0, 42
|22, 8, 52, 0, 43, 0, 0, 53, 0, 0, 0, 0, 0, 0, 32, 0, 0, 0, 0, 0, 0, 44, 0, 61, 0, 0, 0, 1, 0, 0, 74, 0, 0, 18, 72, 0, 76, 0, 2, 0, 69, 0, 0, 0, 0, 0, 0, 0, 0, 0, 62, 0, 0, 0, 0, 0, 0, 0, 0, 0, 0, 0, 31, 35, 36, 15, 4, 67, 0, 37, 0, 0, 0, 17, 66, 54, 0, 0, 0, 65, 0
|0, 0, 0, 35, 0, 0, 0, 0, 77, 24, 27, 65, 51, 10, 22, 56, 7, 14, 0, 69, 66, 40, 0, 0, 0, 0, 0, 58, 15, 0, 53, 0, 0, 0, 0, 55, 0, 49, 81, 0, 0, 37, 0, 0, 62, 0, 0, 71, 0, 25, 59, 36, 0, 0, 0, 0, 0, 0, 0, 0, 0, 2, 33, 0, 0, 0, 28, 61, 0, 0, 0, 72, 0, 0, 0, 38, 19, 0, 0, 0, 0
|0, 0, 0, 0, 45, 0, 0, 0, 0, 0, 0, 0, 0, 0, 76, 47, 0, 0, 0, 0, 31, 0, 1, 0, 59, 0, 0, 33, 0, 0, 0, 57, 3, 0, 19, 0, 22, 43, 5, 80, 0, 0, 0, 0, 56, 0, 0, 0, 16, 54, 24, 51, 11, 0, 0, 63, 0, 15, 0, 32, 0, 0, 7, 0, 49, 30, 68, 62, 0, 53, 0, 14, 0, 0, 55, 29, 0, 0, 0, 0, 0
|23, 0, 0, 0, 62, 0, 0, 29, 0, 0, 0, 0, 0, 42, 0, 21, 0, 0, 0, 65, 81, 0, 64, 0, 0, 76, 0, 9, 0, 0, 0, 0, 0, 0, 0, 0, 0, 0, 0, 48, 0, 0, 24, 13, 0, 72, 50, 0, 0, 0, 0, 0, 0, 0, 0, 5, 0, 0, 0, 0, 0, 0, 0, 57, 0, 0, 0, 0, 31, 0, 0, 0, 0, 0, 0, 8, 0, 0, 0, 0, 0
|3, 0, 0, 79, 12, 0, 0, 70, 5, 0, 0, 37, 0, 0, 0, 0, 0, 0, 0, 0, 6, 72, 0, 0, 0, 0, 0, 0, 81, 0, 0, 0, 0, 0, 0, 0, 0, 0, 0, 0, 0, 51, 0, 0, 52, 0, 0, 0, 0, 0, 0, 0, 0, 0, 34, 0, 0, 0, 0, 16, 0, 0, 0, 0, 0, 0, 77, 0, 0, 0, 0, 23, 0, 0, 0, 13, 0, 0, 0, 50, 0
|0, 0, 51, 0, 0, 0, 0, 0, 0, 0, 0, 0, 0, 0, 0, 41, 0, 0, 0, 0, 0, 0, 0, 0, 27, 0, 0, 68, 0, 0, 0, 0, 37, 0, 60, 0, 0, 0, 0, 65, 0, 6, 63, 45, 0, 57, 28, 0, 0, 0, 56, 40, 23, 0, 0, 35, 0, 22, 0, 0, 0, 70, 0, 0, 43, 0, 0, 0, 0, 24, 46, 33, 0, 73, 26, 0, 9, 64, 0, 0, 0
|0, 0, 0, 40, 0, 0, 0, 0, 0, 55, 0, 0, 0, 0, 45, 0, 44, 0, 0, 49, 0, 0, 46, 0, 0, 36, 75, 0, 0, 0, 69, 0, 0, 0, 0, 2, 23, 8, 0, 0, 38, 22, 0, 0, 0, 0, 5, 65, 0, 42, 0, 9, 0, 0, 64, 0, 0, 58, 31, 0, 78, 0, 0, 0, 39, 35, 0, 24, 67, 7, 0, 12, 54, 0, 0, 0, 0, 0, 0, 56, 0
|0, 53, 0, 31, 0, 0, 0, 51, 0, 19, 0, 17, 0, 0, 52, 0, 0, 67, 0, 0, 72, 0, 0, 0, 0, 0, 40, 0, 66, 0, 0, 0, 0, 50, 0, 46, 0, 0, 55, 0, 0, 0, 0, 0, 0, 0, 0, 32, 0, 12, 0, 0, 54, 0, 15, 0, 0, 0, 77, 0, 0, 0, 0, 34, 0, 0, 75, 0, 63, 0, 0, 0, 37, 23, 71, 0, 0, 0, 0, 41, 0
|62, 0, 0, 0, 0, 0, 0, 45, 0, 23, 0, 36, 0, 0, 10, 0, 0, 0, 0, 0, 32, 0, 53, 0, 0, 0, 0, 0, 47, 0, 0, 68, 0, 0, 0, 64, 9, 25, 0, 0, 40, 0, 0, 0, 73, 0, 46, 0, 48, 0, 0, 58, 74, 0, 0, 0, 71, 13, 54, 0, 0, 5, 0, 8, 70, 0, 78, 81, 0, 61, 0, 0, 0, 67, 0, 0, 0, 42, 60, 0, 44
|0, 0, 0, 0, 0, 0, 0, 0, 0, 0, 0, 0, 64, 0, 0, 0, 0, 0, 0, 0, 0, 31, 44, 0, 41, 0, 68, 0, 0, 0, 81, 0, 0, 37, 0, 0, 0, 35, 46, 0, 0, 0, 51, 0, 12, 0, 30, 0, 78, 0, 0, 0, 71, 0, 67, 0, 49, 26, 0, 0, 7, 0, 0, 0, 55, 29, 23, 0, 0, 57, 0, 0, 0, 0, 0, 0, 4, 0, 34, 0, 0
|0, 0, 0, 73, 0, 0, 0, 0, 0, 31, 3, 0, 2, 0, 0, 0, 0, 0, 0, 0, 25, 0, 42, 0, 0, 0, 0, 0, 0, 0, 24, 18, 0, 0, 80, 0, 0, 54, 0, 59, 0, 0, 0, 63, 4, 0, 0, 0, 0, 0, 0, 0, 0, 0, 0, 66, 0, 0, 0, 0, 0, 0, 0, 46, 0, 0, 0, 0, 0, 0, 0, 62, 0, 0, 78, 0, 0, 0, 38, 0, 9
|0, 78, 0, 58, 80, 0, 42, 0, 0, 0, 0, 66, 49, 0, 0, 0, 73, 0, 0, 0, 45, 0, 3, 0, 33, 0, 0, 0, 0, 0, 0, 0, 0, 0, 0, 8, 0, 0, 13, 0, 0, 75, 26, 10, 0, 0, 23, 0, 0, 0, 47, 0, 0, 15, 61, 44, 0, 14, 0, 65, 0, 0, 0, 0, 0, 19, 0, 0, 0, 68, 0, 0, 77, 0, 28, 0, 29, 74, 0, 0, 0
|0, 1, 0, 0, 0, 0, 0, 0, 0, 0, 0, 21, 0, 0, 16, 30, 0, 0, 0, 0, 0, 0, 47, 66, 0, 0, 71, 0, 0, 0, 67, 77, 0, 48, 0, 17, 0, 68, 0, 0, 0, 0, 0, 0, 0, 0, 0, 0, 0, 0, 4, 0, 22, 62, 0, 0, 0, 0, 0, 42, 0, 0, 51, 76, 31, 45, 38, 0, 15, 0, 14, 0, 0, 0, 33, 0, 0, 0, 63, 0, 0
|67, 7, 0, 26, 0, 0, 0, 0, 0, 62, 0, 0, 48, 41, 0, 27, 80, 0, 1, 0, 0, 0, 77, 0, 0, 0, 0, 0, 0, 0, 0, 72, 20, 44, 40, 0, 0, 42, 0, 0, 0, 0, 0, 0, 0, 2, 0, 0, 0, 0, 3, 0, 0, 0, 0, 0, 53, 0, 0, 33, 23, 0, 28, 21, 0, 0, 13, 79, 0, 0, 0, 0, 0, 43, 0, 0, 64, 32, 0, 0, 0
|0, 0, 0, 0, 0, 0, 0, 0, 63, 46, 0, 0, 0, 0, 79, 0, 0, 78, 0, 0, 0, 0, 0, 8, 0, 64, 2, 0, 0, 0, 0, 58, 0, 0, 0, 0, 77, 0, 20, 34, 0, 0, 0, 0, 0, 0, 0, 81, 70, 0, 44, 0, 0, 0, 0, 22, 0, 0, 0, 52, 0, 0, 0, 30, 0, 0, 48, 0, 0, 0, 0, 0, 0, 0, 0, 61, 49, 0, 0, 39, 0
|0, 0, 0, 0, 0, 0, 0, 3, 0, 18, 0, 0, 31, 0, 27, 0, 0, 0, 0, 0, 0, 0, 0, 0, 0, 58, 5, 0, 0, 0, 0, 33, 0, 73, 0, 0, 0, 0, 35, 0, 0, 0, 0, 0, 78, 0, 0, 0, 0, 6, 0, 0, 0, 0, 0, 0, 0, 0, 0, 0, 0, 0, 0, 0, 0, 0, 0, 71, 0, 14, 56, 68, 0, 4, 0, 0, 0, 0, 57, 0, 0
|43, 0, 56, 0, 21, 22, 0, 0, 0, 0, 0, 59, 0, 77, 0, 0, 5, 0, 0, 13, 0, 57, 0, 0, 71, 0, 0, 0, 0, 0, 0, 0, 0, 0, 0, 0, 0, 0, 0, 0, 0, 0, 0, 0, 0, 75, 0, 0, 0, 0, 0, 0, 0, 0, 0, 0, 32, 0, 33, 0, 0, 0, 25, 44, 0, 0, 0, 0, 64, 0, 0, 0, 0, 0, 37, 0, 0, 45, 0, 38, 0
|0, 0, 0, 0, 35, 51, 0, 5, 0, 1, 0, 0, 73, 0, 0, 0, 14, 54, 0, 0, 0, 0, 0, 0, 0, 0, 0, 21, 77, 9, 0, 0, 0, 49, 31, 57, 0, 0, 60, 0, 0, 0, 0, 0, 59, 0, 0, 36, 0, 0, 8, 46, 0, 3, 0, 0, 0, 0, 0, 0, 0, 0, 37, 0, 0, 48, 0, 0, 0, 0, 6, 0, 0, 0, 0, 43, 62, 33, 0, 0, 0
|0, 0, 0, 0, 0, 74, 57, 0, 0, 34, 0, 50, 72, 0, 0, 0, 0, 0, 0, 18, 0, 54, 29, 0, 0, 0, 0, 0, 0, 0, 0, 43, 0, 15, 0, 0, 65, 0, 0, 0, 80, 0, 0, 26, 6, 0, 0, 0, 0, 0, 0, 0, 0, 0, 48, 0, 60, 0, 63, 0, 0, 0, 0, 7, 0, 0, 0, 0, 70, 0, 37, 5, 23, 0, 8, 73, 0, 0, 0, 28, 0
|0, 0, 0, 0, 0, 0, 0, 0, 61, 57, 52, 0, 65, 0, 0, 0, 0, 0, 0, 0, 0, 0, 0, 0, 0, 0, 16, 0, 0, 0, 6, 0, 0, 0, 0, 0, 69, 0, 0, 0, 0, 0, 28, 0, 0, 0, 49, 0, 10, 0, 79, 0, 45, 0, 0, 0, 29, 0, 0, 58, 0, 75, 40, 0, 0, 0, 0, 0, 17, 2, 0, 39, 0, 0, 0, 0, 0, 55, 0, 0, 0
|0, 0, 0, 0, 0, 0, 0, 64, 58, 0, 0, 30, 0, 0, 0, 0, 41, 19, 0, 0, 0, 0, 0, 0, 0, 0, 0, 0, 0, 42, 0, 0, 0, 34, 0, 0, 0, 0, 0, 0, 25, 0, 0, 0, 0, 0, 81, 0, 57, 29, 53, 18, 0, 0, 0, 0, 0, 0, 0, 0, 52, 15, 0, 0, 33, 0, 74, 0, 27, 0, 0, 0, 63, 20, 0, 0, 0, 16, 0, 0, 49
|0, 0, 0, 0, 53, 0, 54, 0, 0, 0, 0, 0, 79, 0, 0, 29, 0, 0, 0, 0, 0, 0, 0, 0, 0, 0, 0, 66, 12, 0, 0, 45, 0, 0, 65, 0, 0, 0, 0, 13, 0, 0, 0, 0, 44, 0, 0, 0, 0, 0, 0, 0, 0, 0, 73, 28, 0, 0, 7, 0, 39, 76, 3, 0, 0, 0, 0, 25, 0, 43, 21, 0, 0, 77, 69, 0, 0, 5, 0, 67, 0
|44, 0, 0, 0, 0, 0, 0, 32, 69, 0, 7, 40, 74, 0, 0, 0, 0, 0, 8, 0, 59, 0, 50, 11, 0, 2, 0, 0, 0, 0, 0, 0, 0, 0, 24, 0, 0, 0, 0, 0, 0, 0, 0, 29, 0, 28, 0, 0, 0, 0, 0, 0, 0, 0, 0, 80, 0, 0, 0, 0, 0, 56, 0, 0, 0, 0, 0, 46, 26, 73, 0, 0, 0, 34, 0, 0, 58, 0, 0, 0, 0
|0, 0, 0, 0, 0, 0, 0, 40, 37, 0, 0, 4, 0, 16, 0, 17, 0, 0, 72, 0, 0, 0, 0, 0, 0, 0, 0, 80, 75, 0, 0, 0, 25, 0, 0, 0, 3, 0, 0, 22, 0, 2, 14, 0, 0, 0, 0, 0, 0, 0, 0, 0, 0, 0, 20, 61, 0, 0, 79, 34, 21, 42, 0, 51, 0, 0, 32, 0, 0, 0, 0, 31, 76, 0, 0, 0, 0, 26, 29, 0, 0
|0, 0, 64, 60, 0, 7, 0, 58, 12, 0, 74, 8, 11, 0, 0, 0, 0, 23, 9, 6, 0, 0, 0, 0, 35, 0, 14, 72, 0, 0, 0, 15, 0, 0, 0, 76, 0, 0, 49, 0, 0, 0, 0, 0, 0, 0, 0, 0, 0, 51, 0, 0, 0, 0, 19, 0, 0, 16, 0, 38, 0, 69, 65, 0, 0, 0, 2, 0, 39, 0, 70, 0, 0, 0, 0, 0, 0, 0, 55, 44, 81
|0, 0, 0, 0, 0, 0, 71, 0, 0, 17, 0, 79, 52, 0, 0, 0, 67, 45, 0, 0, 55, 25, 28, 0, 0, 0, 0, 0, 0, 0, 0, 0, 54, 29, 63, 0, 0, 16, 0, 73, 58, 44, 31, 39, 0, 1, 0, 0, 0, 0, 0, 0, 0, 0, 0, 0, 0, 0, 0, 70, 0, 3, 0, 0, 0, 62, 0, 65, 78, 0, 80, 37, 0, 0, 0, 0, 0, 8, 10, 0, 0
|0, 15, 55, 4, 31, 0, 0, 0, 73, 0, 28, 27, 0, 0, 0, 0, 0, 0, 0, 0, 0, 0, 20, 67, 0, 0, 0, 52, 0, 0, 0, 0, 75, 0, 0, 66, 45, 0, 0, 0, 12, 0, 48, 0, 36, 0, 0, 0, 0, 41, 0, 0, 0, 0, 0, 0, 0, 62, 0, 0, 0, 14, 0, 0, 0, 0, 0, 0, 0, 6, 0, 0, 0, 0, 70, 0, 0, 0, 0, 0, 0
|0, 0, 0, 33, 0, 0, 0, 0, 0, 0, 0, 0, 0, 70, 0, 0, 0, 0, 57, 0, 74, 0, 0, 0, 0, 0, 0, 0, 0, 0, 0, 35, 0, 5, 37, 0, 0, 0, 0, 26, 0, 0, 55, 67, 0, 0, 0, 0, 0, 0, 0, 15, 0, 0, 0, 81, 0, 29, 0, 0, 0, 0, 0, 72, 0, 0, 0, 0, 0, 0, 0, 0, 0, 0, 0, 0, 41, 0, 68, 16, 71
|0, 48, 75, 67, 0, 0, 0, 0, 50, 0, 31, 0, 0, 33, 0, 0, 0, 0, 0, 0, 78, 0, 66, 26, 0, 0, 39, 69, 0, 0, 0, 47, 6, 8, 53, 0, 0, 0, 0, 0, 35, 0, 0, 0, 0, 0, 42, 0, 0, 0, 36, 55, 0, 0, 23, 0, 0, 0, 0, 79, 0, 0, 0, 20, 0, 0, 0, 0, 0, 63, 1, 0, 0, 0, 40, 80, 0, 0, 0, 46, 0
|0, 3, 0, 0, 57, 0, 41, 28, 32, 0, 47, 0, 14, 0, 0, 15, 0, 53, 0, 0, 0, 69, 0, 0, 21, 0, 44, 34, 0, 45, 0, 0, 0, 0, 81, 0, 43, 0, 0, 18, 0, 0, 9, 0, 0, 0, 0, 0, 0, 77, 13, 0, 0, 8, 0, 0, 0, 30, 59, 1, 0, 0, 0, 0, 76, 0, 5, 11, 0, 0, 0, 58, 0, 0, 0, 79, 0, 4, 0, 0, 0
|0, 61, 20, 0, 1, 5, 35, 0, 53, 77, 0, 0, 0, 0, 0, 0, 0, 0, 0, 42, 62, 0, 0, 18, 30, 0, 60, 0, 0, 0, 0, 0, 0, 0, 3, 0, 28, 70, 41, 75, 51, 0, 0, 0, 0, 0, 32, 27, 0, 0, 25, 0, 0, 0, 0, 0, 0, 0, 6, 0, 48, 0, 0, 0, 0, 0, 29, 0, 0, 54, 0, 0, 45, 0, 63, 0, 76, 0, 0, 0, 0
|0, 0, 0, 0, 66, 40, 0, 0, 0, 0, 0, 57, 68, 61, 0, 0, 59, 0, 0, 0, 58, 0, 0, 0, 0, 0, 0, 0, 0, 1, 30, 20, 0, 32, 0, 0, 0, 0, 0, 0, 0, 27, 0, 0, 38, 0, 39, 0, 49, 0, 0, 14, 48, 33, 0, 37, 0, 0, 0, 54, 0, 0, 0, 15, 24, 71, 41, 0, 16, 0, 18, 0, 0, 0, 0, 0, 0, 0, 0, 0, 21
|70, 0, 23, 2, 26, 81, 0, 0, 17, 36, 44, 0, 4, 76, 54, 58, 0, 0, 0, 12, 0, 29, 0, 1, 0, 0, 0, 0, 0, 0, 0, 0, 0, 0, 0, 0, 20, 0, 0, 15, 0, 0, 37, 0, 0, 0, 0, 0, 45, 0, 0, 0, 0, 0, 0, 0, 0, 61, 0, 0, 50, 0, 41, 0, 0, 0, 0, 0, 0, 0, 0, 64, 49, 28, 0, 0, 69, 0, 0, 48, 0
|0, 0, 0, 0, 17, 4, 0, 0, 0, 15, 13, 1, 0, 0, 0, 31, 21, 0, 64, 0, 0, 48, 0, 63, 18, 0, 29, 0, 65, 74, 0, 0, 0, 0, 0, 16, 0, 0, 76, 0, 0, 0, 0, 0, 0, 0, 0, 0, 0, 0, 0, 0, 0, 56, 0, 0, 0, 0, 3, 0, 0, 0, 0, 0, 12, 81, 0, 0, 0, 0, 0, 7, 0, 27, 0, 0, 39, 0, 0, 0, 0
|0, 0, 0, 0, 0, 13, 0, 0, 0, 0, 10, 0, 0, 0, 0, 0, 0, 0, 0, 0, 1, 0, 11, 0, 50, 0, 0, 0, 61, 41, 0, 0, 0, 80, 0, 0, 15, 77, 39, 0, 32, 25, 70, 52, 0, 0, 0, 69, 0, 64, 0, 0, 0, 0, 43, 0, 0, 5, 0, 0, 0, 22, 0, 65, 0, 0, 0, 0, 0, 19, 0, 38, 56, 0, 3, 0, 2, 0, 0, 0, 8
|0, 0, 0, 62, 56, 0, 0, 69, 0, 45, 0, 0, 0, 0, 0, 52, 0, 0, 0, 0, 0, 0, 0, 2, 0, 0, 73, 0, 0, 0, 0, 0, 33, 0, 0, 0, 0, 0, 18, 0, 0, 0, 0, 60, 0, 0, 68, 0, 0, 0, 0, 0, 0, 0, 0, 71, 0, 0, 0, 64, 34, 0, 0, 36, 0, 0, 0, 0, 80, 0, 0, 17, 0, 0, 6, 0, 46, 0, 0, 0, 0
|0, 0, 0, 0, 0, 18, 37, 0, 64, 6, 0, 32, 17, 0, 0, 81, 51, 0, 0, 0, 0, 0, 49, 0, 61, 0, 0, 77, 68, 0, 0, 0, 0, 0, 46, 0, 0, 78, 79, 0, 0, 0, 0, 42, 0, 65, 0, 0, 11, 0, 0, 12, 30, 0, 0, 8, 0, 63, 25, 0, 0, 0, 0, 0, 0, 0, 0, 41, 0, 72, 0, 0, 0, 0, 35, 52, 0, 0, 0, 0, 24
|0, 0, 27, 14, 34, 0, 60, 0, 0, 0, 0, 0, 0, 2, 0, 0, 77, 0, 69, 0, 0, 0, 0, 0, 0, 52, 0, 6, 0, 11, 0, 0, 55, 0, 0, 18, 0, 0, 0, 0, 0, 57, 0, 0, 0, 0, 0, 0, 24, 0, 0, 0, 50, 0, 33, 0, 0, 0, 0, 0, 19, 35, 36, 0, 0, 0, 40, 0, 0, 0, 0, 0, 0, 0, 0, 0, 0, 0, 66, 0, 0
|0, 39, 48, 61, 0, 0, 0, 30, 0, 76, 0, 0, 0, 0, 59, 0, 0, 0, 46, 0, 0, 12, 0, 0, 0, 80, 0, 0, 56, 0, 0, 0, 0, 0, 0, 0, 0, 0, 0, 0, 43, 0, 0, 0, 31, 42, 57, 0, 0, 0, 0, 72, 67, 0, 52, 0, 0, 0, 0, 0, 68, 0, 0, 0, 0, 0, 69, 70, 0, 0, 0, 0, 0, 51, 0, 0, 0, 0, 65, 0, 0
|0, 12, 81, 0, 52, 0, 0, 0, 33, 0, 54, 0, 38, 0, 0, 0, 0, 0, 67, 0, 0, 0, 0, 0, 5, 45, 0, 0, 63, 0, 0, 0, 0, 0, 23, 51, 64, 0, 0, 17, 0, 0, 13, 0, 0, 0, 0, 0, 0, 0, 80, 2, 0, 0, 0, 0, 0, 0, 37, 0, 0, 0, 0, 73, 0, 0, 0, 0, 6, 78, 39, 0, 28, 59, 0, 69, 0, 0, 0, 0, 77
|0, 0, 0, 0, 42, 0, 0, 0, 0, 0, 0, 0, 0, 0, 0, 0, 55, 0, 0, 0, 0, 0, 72, 0, 0, 0, 0, 0, 52, 0, 0, 22, 0, 0, 0, 0, 0, 37, 0, 0, 0, 0, 45, 69, 51, 0, 0, 76, 0, 0, 0, 0, 0, 0, 0, 0, 16, 0, 80, 46, 0, 6, 0, 31, 0, 33, 18, 0, 68, 0, 0, 0, 38, 78, 0, 64, 0, 0, 1, 71, 20
|0, 0, 0, 0, 47, 0, 0, 7, 0, 0, 0, 0, 0, 0, 0, 0, 0, 36, 0, 0, 0, 0, 0, 0, 0, 0, 0, 37, 32, 0, 0, 0, 0, 0, 17, 0, 0, 0, 0, 0, 0, 0, 0, 0, 0, 0, 0, 0, 19, 40, 60, 0, 0, 0, 0, 0, 0, 0, 0, 0, 67, 0, 0, 0, 45, 0, 56, 43, 0, 0, 44, 0, 0, 21, 0, 0, 0, 0, 0, 0, 0
|0, 0, 0, 0, 0, 80, 0, 0, 0, 0, 66, 0, 0, 0, 0, 65, 0, 0, 59, 0, 2, 0, 0, 78, 0, 0, 0, 0, 23, 24, 1, 12, 0, 76, 0, 0, 0, 0, 0, 62, 0, 0, 0, 0, 41, 0, 0, 0, 0, 0, 0, 8, 0, 0, 60, 67, 0, 0, 0, 55, 0, 0, 0, 0, 0, 0, 0, 38, 0, 0, 58, 0, 81, 0, 68, 34, 17, 57, 0, 42, 0
|0, 0, 41, 0, 0, 15, 0, 0, 0, 0, 0, 34, 0, 0, 0, 0, 0, 30, 63, 56, 79, 0, 0, 29, 0, 0, 26, 0, 0, 43, 0, 0, 0, 0, 0, 0, 0, 0, 75, 0, 0, 0, 0, 54, 0, 0, 0, 53, 0, 0, 0, 0, 0, 0, 0, 0, 81, 0, 0, 0, 0, 0, 47, 0, 0, 0, 0, 0, 25, 0, 31, 0, 0, 0, 4, 18, 27, 0, 0, 0, 61
|0, 32, 0, 27, 0, 0, 63, 0, 0, 0, 33, 41, 0, 0, 0, 7, 0, 0, 53, 0, 37, 66, 0, 0, 0, 0, 0, 0, 5, 34, 0, 0, 0, 0, 0, 40, 4, 0, 0, 49, 67, 0, 78, 23, 48, 60, 75, 0, 0, 56, 65, 0, 46, 0, 0, 0, 0, 45, 71, 0, 0, 0, 0, 0, 0, 0, 0, 39, 20, 36, 52, 0, 0, 44, 0, 0, 22, 0, 0, 0, 0
|0, 35, 0, 21, 49, 0, 0, 0, 0, 74, 0, 25, 76, 0, 57, 0, 0, 0, 0, 0, 68, 0, 0, 55, 0, 0, 69, 0, 0, 0, 0, 44, 0, 77, 0, 0, 0, 32, 0, 9, 15, 29, 43, 51, 81, 0, 0, 0, 0, 37, 0, 64, 0, 0, 22, 34, 0, 8, 0, 0, 0, 4, 0, 0, 79, 26, 12, 0, 0, 0, 0, 0, 0, 0, 24, 0, 60, 0, 0, 59, 0
|0, 0, 0, 46, 0, 0, 0, 0, 34, 0, 0, 35, 45, 0, 0, 0, 0, 39, 30, 1, 0, 50, 71, 0, 0, 0, 0, 0, 25, 8, 0, 0, 0, 0, 0, 0, 0, 0, 65, 0, 0, 0, 0, 0, 0, 0, 72, 0, 23, 0, 0, 47, 78, 0, 0, 7, 17, 0, 0, 0, 0, 0, 0, 0, 0, 0, 0, 14, 10, 0, 0, 0, 62, 0, 0, 70, 0, 0, 64, 26, 0
|0, 0, 0, 0, 73, 62, 0, 0, 0, 78, 0, 0, 0, 0, 0, 0, 64, 0, 0, 0, 0, 0, 0, 0, 0, 0, 0, 0, 0, 37, 35, 0, 68, 3, 56, 81, 24, 31, 0, 0, 74, 52, 0, 40, 0, 58, 0, 0, 0, 0, 0, 0, 0, 0, 0, 0, 0, 0, 0, 0, 0, 0, 0, 0, 51, 0, 0, 34, 0, 0, 0, 0, 25, 0, 79, 0, 0, 0, 0, 6, 23
|59, 0, 0, 3, 0, 65, 0, 2, 0, 0, 0, 0, 0, 0, 0, 22, 27, 0, 54, 0, 0, 81, 0, 7, 45, 0, 0, 0, 48, 0, 0, 0, 0, 0, 0, 42, 0, 28, 34, 0, 50, 0, 0, 0, 16, 79, 0, 73, 33, 0, 15, 0, 24, 0, 0, 0, 0, 0, 0, 9, 0, 0, 68, 0, 5, 0, 0, 0, 53, 0, 40, 0, 0, 0, 52, 39, 0, 0, 0, 0, 0
|0, 0, 0, 12, 23, 0, 0, 0, 0, 0, 0, 0, 0, 0, 0, 0, 0, 0, 0, 0, 0, 49, 60, 0, 0, 41, 0, 0, 0, 0, 75, 21, 0, 0, 0, 26, 0, 0, 0, 0, 0, 0, 0, 0, 0, 80, 0, 66, 40, 0, 0, 0, 34, 0, 0, 0, 0, 0, 0, 0, 3, 0, 0, 0, 0, 0, 8, 44, 0, 0, 0, 0, 0, 0, 0, 0, 35, 0, 0, 0, 0
|0, 0, 0, 0, 37, 0, 0, 0, 0, 63, 59, 69, 0, 0, 0, 8, 0, 0, 0, 0, 52, 64, 0, 5, 0, 0, 0, 28, 73, 51, 0, 0, 0, 0, 0, 0, 0, 0, 0, 0, 0, 0, 2, 0, 0, 0, 0, 0, 17, 32, 0, 35, 0, 0, 70, 78, 0, 0, 0, 41, 6, 0, 0, 0, 0, 0, 0, 0, 0, 0, 0, 0, 0, 71, 56, 50, 0, 0, 0, 0, 0
|0, 31, 0, 63, 60, 0, 48, 0, 0, 33, 0, 0, 0, 0, 0, 0, 22, 0, 0, 0, 10, 0, 0, 27, 0, 0, 79, 30, 0, 0, 0, 0, 0, 0, 0, 59, 1, 0, 0, 0, 0, 0, 0, 0, 0, 0, 0, 0, 0, 0, 21, 0, 0, 0, 0, 0, 0, 56, 0, 0, 0, 71, 0, 0, 0, 43, 0, 19, 0, 77, 16, 0, 39, 0, 9, 0, 0, 0, 0, 29, 37
|0, 0, 58, 6, 0, 0, 0, 0, 0, 0, 0, 0, 39, 35, 0, 57, 0, 0, 34, 0, 0, 0, 0, 0, 0, 13, 0, 0, 0, 0, 0, 16, 0, 0, 2, 10, 0, 0, 0, 0, 0, 81, 7, 44, 27, 29, 38, 0, 0, 75, 41, 0, 0, 0, 53, 0, 0, 0, 0, 0, 0, 45, 0, 5, 66, 0, 52, 0, 36, 0, 0, 0, 0, 0, 0, 0, 0, 0, 0, 0, 0
|47, 0, 0, 0, 0, 0, 0, 0, 0, 0, 25, 0, 26, 0, 0, 77, 0, 0, 78, 0, 0, 0, 0, 0, 0, 0, 36, 0, 50, 0, 0, 51, 1, 0, 0, 0, 0, 80, 63, 0, 0, 0, 0, 5, 0, 24, 0, 0, 0, 14, 31, 0, 0, 45, 42, 0, 0, 60, 67, 0, 0, 33, 0, 0, 18, 28, 0, 0, 49, 0, 0, 40, 0, 0, 0, 0, 0, 0, 62, 0, 0
|0, 69, 0, 0, 3, 0, 0, 25, 66, 0, 43, 80, 0, 0, 19, 59, 76, 0, 0, 0, 12, 0, 52, 0, 0, 0, 0, 0, 0, 0, 21, 38, 28, 0, 0, 0, 0, 62, 23, 0, 0, 0, 0, 20, 0, 0, 55, 0, 0, 0, 0, 0, 65, 0, 63, 0, 0, 0, 0, 0, 0, 0, 0, 0, 0, 0, 0, 0, 81, 11, 0, 0, 7, 2, 0, 0, 0, 0, 0, 24, 0
|0, 70, 77, 0, 0, 29, 0, 0, 0, 58, 0, 28, 0, 0, 0, 0, 36, 61, 0, 0, 0, 53, 0, 0, 0, 0, 0, 0, 72, 0, 0, 0, 27, 4, 0, 71, 50, 22, 56, 0, 0, 0, 0, 0, 0, 0, 20, 0, 0, 0, 48, 33, 0, 0, 0, 0, 79, 3, 78, 68, 0, 0, 0, 0, 0, 0, 44, 0, 0, 12, 47, 42, 0, 0, 0, 51, 43, 0, 0, 69, 0
|0, 62, 0, 0, 0, 0, 0, 0, 0, 0, 50, 0, 0, 0, 66, 6, 8, 0, 0, 0, 43, 16, 0, 0, 0, 0, 0, 0, 0, 0, 0, 69, 0, 0, 0, 63, 0, 52, 0, 12, 0, 0, 0, 0, 0, 0, 0, 0, 0, 58, 0, 0, 0, 0, 0, 23, 0, 0, 0, 0, 0, 80, 0, 9, 59, 0, 17, 0, 0, 0, 0, 0, 33, 0, 0, 0, 0, 44, 0, 36, 0
|37, 0, 0, 0, 30, 0, 12, 0, 0, 0, 55, 0, 0, 0, 0, 18, 69, 2, 0, 0, 0, 0, 0, 70, 0, 0, 62, 0, 0, 49, 0, 0, 0, 0, 33, 0, 57, 0, 0, 0, 77, 0, 0, 0, 0, 0, 0, 0, 0, 0, 0, 0, 0, 4, 0, 0, 58, 0, 76, 0, 0, 0, 75, 0, 35, 1, 71, 32, 0, 0, 0, 0, 0, 65, 0, 22, 28, 0, 0, 0, 10
|45, 0, 4, 57, 0, 0, 65, 0, 0, 0, 0, 0, 0, 0, 0, 0, 0, 32, 28, 31, 0, 0, 0, 0, 0, 0, 0, 0, 20, 0, 0, 24, 34, 75, 0, 0, 0, 0, 16, 0, 49, 0, 0, 0, 43, 0, 7, 0, 0, 9, 0, 0, 62, 0, 50, 0, 35, 0, 0, 36, 22, 0, 81, 0, 0, 0, 0, 76, 37, 15, 53, 8, 0, 0, 0, 0, 63, 0, 0, 0, 78
|49, 44, 80, 0, 14, 0, 0, 0, 72, 0, 0, 0, 0, 20, 78, 62, 56, 3, 77, 33, 42, 19, 0, 0, 0, 0, 0, 0, 26, 0, 0, 52, 0, 0, 0, 0, 0, 0, 51, 0, 8, 21, 0, 0, 61, 0, 0, 37, 0, 59, 71, 0, 68, 0, 66, 0, 0, 0, 0, 0, 9, 0, 0, 0, 0, 0, 0, 58, 0, 10, 0, 0, 27, 0, 0, 81, 31, 0, 23, 0, 74
|0, 81, 0, 0, 36, 64, 0, 31, 0, 0, 15, 0, 0, 0, 30, 0, 62, 0, 70, 2, 0, 0, 0, 0, 0, 0, 0, 0, 0, 0, 25, 0, 17, 0, 0, 21, 0, 0, 37, 7, 63, 0, 0, 0, 55, 0, 0, 0, 0, 0, 0, 0, 0, 0, 65, 0, 0, 0, 0, 0, 0, 0, 0, 0, 0, 0, 0, 0, 0, 0, 26, 0, 11, 0, 0, 0, 47, 22, 0, 0, 0
|0, 76, 63, 0, 0, 0, 0, 12, 0, 47, 0, 0, 0, 0, 0, 67, 6, 0, 0, 0, 0, 0, 0, 0, 0, 75, 23, 51, 0, 0, 0, 0, 0, 0, 0, 14, 0, 39, 50, 0, 9, 0, 0, 0, 79, 0, 0, 10, 52, 0, 0, 0, 0, 72, 0, 0, 70, 7, 0, 0, 0, 0, 0, 77, 46, 0, 0, 0, 0, 0, 78, 0, 71, 0, 0, 57, 15, 0, 24, 61, 2
|0, 0, 0, 0, 25, 68, 0, 0, 0, 27, 0, 0, 0, 13, 0, 0, 0, 0, 0, 4, 0, 0, 14, 72, 0, 18, 0, 0, 49, 0, 0, 0, 74, 0, 29, 45, 75, 0, 6, 40, 5, 77, 0, 0, 0, 32, 79, 0, 0, 11, 0, 0, 0, 0, 0, 0, 0, 39, 0, 0, 0, 47, 0, 0, 0, 0, 0, 42, 0, 23, 59, 0, 21, 0, 51, 0, 0, 0, 0, 7, 28
|17, 0, 0, 0, 0, 0, 1, 0, 0, 0, 0, 0, 16, 8, 36, 0, 0, 18, 47, 30, 0, 0, 48, 12, 0, 0, 0, 0, 3, 0, 39, 0, 0, 0, 0, 58, 73, 0, 14, 0, 0, 0, 0, 0, 0, 45, 0, 0, 0, 0, 50, 0, 0, 0, 0, 0, 33, 0, 43, 6, 26, 0, 0, 0, 0, 37, 64, 0, 0, 0, 28, 0, 0, 0, 27, 0, 0, 0, 0, 52, 0
|58, 0, 0, 0, 51, 72, 0, 0, 29, 0, 0, 26, 0, 63, 0, 0, 0, 24, 0, 0, 61, 0, 0, 0, 0, 33, 0, 12, 0, 0, 0, 5, 0, 0, 0, 0, 0, 0, 54, 0, 45, 0, 35, 0, 0, 0, 37, 28, 0, 0, 75, 0, 16, 0, 76, 0, 0, 0, 0, 0, 0, 0, 0, 0, 0, 0, 0, 0, 0, 0, 65, 0, 70, 0, 0, 0, 0, 0, 0, 43, 4
|0, 0, 11, 0, 0, 0, 0, 41, 0, 0, 0, 58, 40, 0, 77, 0, 0, 0, 0, 0, 0, 0, 56, 36, 0, 8, 0, 70, 0, 0, 22, 0, 7, 0, 30, 0, 10, 0, 0, 0, 78, 0, 16, 0, 0, 0, 80, 0, 0, 0, 66, 0, 33, 25, 0, 0, 3, 0, 0, 0, 0, 53, 59, 0, 21, 0, 63, 74, 0, 0, 57, 0, 29, 50, 0, 44, 72, 0, 0, 23, 0
|0, 0, 0, 30, 0, 0, 70, 0, 47, 0, 22, 81, 25, 0, 11, 0, 0, 0, 29, 0, 0, 0, 0, 0, 0, 0, 0, 0, 0, 0, 0, 65, 59, 0, 41, 0, 0, 0, 0, 0, 0, 0, 18, 0, 69, 78, 0, 0, 0, 17, 0, 76, 0, 0, 0, 0, 0, 34, 4, 0, 0, 63, 0, 0, 0, 12, 72, 53, 73, 0, 45, 66, 75, 38, 0, 0, 6, 0, 0, 33, 39
|39, 33, 0, 0, 0, 0, 0, 0, 0, 0, 0, 0, 0, 14, 5, 0, 28, 0, 37, 0, 51, 10, 0, 0, 0, 0, 0, 0, 0, 0, 0, 0, 0, 0, 0, 38, 0, 0, 0, 64, 0, 11, 0, 0, 0, 44, 0, 0, 77, 0, 0, 0, 0, 0, 0, 29, 0, 50, 0, 62, 0, 0, 0, 0, 0, 56, 0, 17, 0, 0, 13, 0, 0, 12, 54, 0, 78, 0, 0, 0, 0
|13, 0, 74, 52, 19, 27, 40, 54, 0, 41, 0, 70, 0, 0, 0, 49, 3, 0, 0, 0, 0, 42, 0, 69, 0, 59, 25, 78, 0, 0, 0, 8, 0, 0, 50, 0, 0, 0, 33, 58, 0, 0, 0, 43, 29, 0, 0, 30, 0, 0, 23, 56, 20, 0, 45, 0, 0, 28, 0, 0, 0, 12, 0, 38, 6, 0, 55, 0, 0, 39, 0, 79, 0, 37, 0, 0, 10, 0, 0, 0, 0
|0, 0, 0, 0, 0, 0, 0, 0, 54, 40, 0, 0, 0, 0, 37, 0, 0, 0, 75, 0, 0, 36, 62, 0, 0, 0, 0, 79, 0, 27, 0, 0, 0, 0, 18, 11, 0, 0, 53, 0, 0, 56, 6, 35, 0, 0, 0, 77, 30, 0, 78, 0, 0, 0, 0, 0, 0, 0, 0, 0, 0, 0, 0, 0, 0, 0, 0, 26, 61, 0, 0, 0, 0, 0, 0, 0, 51, 0, 17, 21, 0
|0, 0, 21, 0, 0, 0, 0, 63, 0, 0, 14, 0, 30, 0, 0, 0, 79, 0, 0, 0, 0, 0, 0, 17, 0, 0, 0, 39, 0, 57, 0, 0, 0, 0, 0, 0, 74, 64, 0, 24, 33, 0, 0, 19, 28, 67, 0, 4, 0, 80, 0, 16, 27, 5, 36, 62, 0, 42, 0, 0, 38, 0, 0, 0, 0, 0, 0, 0, 0, 0, 0, 0, 0, 0, 0, 0, 0, 0, 0, 0, 0
|53, 0, 0, 0, 0, 46, 30, 0, 0, 50, 0, 0, 0, 0, 0, 0, 0, 0, 0, 0, 0, 67, 12, 38, 72, 0, 42, 0, 0, 0, 0, 31, 0, 0, 0, 13, 0, 0, 0, 0, 0, 0, 15, 47, 0, 0, 71, 0, 0, 0, 32, 0, 0, 66, 59, 0, 0, 0, 48, 0, 63, 0, 0, 0, 44, 0, 22, 0, 0, 1, 0, 55, 69, 0, 0, 0, 0, 78, 0, 34, 0
|0, 0, 38, 0, 0, 0, 61, 0, 0, 0, 0, 0, 0, 0, 0, 0, 0, 0, 65, 37, 0, 59, 74, 71, 0, 0, 0, 0, 0, 0, 26, 0, 0, 1, 0, 12, 0, 18, 0, 8, 0, 0, 0, 9, 0, 0, 0, 0, 0, 0, 0, 0, 0, 0, 0, 0, 50, 0, 0, 0, 0, 0, 0, 0, 0, 17, 0, 10, 19, 0, 66, 0, 44, 0, 0, 0, 0, 0, 4, 14, 0
|0, 0, 0, 47, 0, 66, 0, 0, 0, 0, 0, 20, 0, 0, 0, 0, 0, 0, 0, 57, 0, 79, 81, 0, 0, 0, 0, 61, 6, 38, 0, 0, 0, 17, 0, 0, 0, 23, 0, 0, 0, 0, 54, 0, 0, 0, 0, 62, 0, 0, 2, 26, 0, 0, 0, 3, 28, 37, 22, 67, 64, 0, 0, 0, 75, 69, 0, 0, 33, 0, 0, 73, 0, 0, 0, 60, 52, 0, 45, 0, 35
|0, 0, 0, 0, 0, 0, 0, 0, 0, 0, 39, 0, 7, 0, 0, 36, 0, 58, 23, 68, 0, 63, 0, 51, 0, 0, 77, 0, 74, 0, 0, 0, 66, 64, 0, 0, 0, 0, 0, 60, 0, 0, 0, 0, 0, 73, 0, 0, 54, 0, 0, 0, 12, 0, 0, 0, 0, 0, 0, 0, 33, 0, 0, 62, 56, 0, 24, 0, 0, 0, 0, 32, 0, 26, 0, 71, 50, 0, 0, 70, 0
|32, 0, 0, 0, 50, 60, 0, 0, 0, 0, 0, 24, 0, 81, 69, 0, 38, 0, 0, 58, 54, 0, 0, 73, 0, 0, 0, 0, 0, 0, 29, 0, 51, 0, 0, 49, 0, 20, 78, 0, 0, 0, 1, 0, 0, 33, 45, 21, 0, 0, 57, 0, 0, 0, 8, 55, 0, 74, 0, 0, 0, 16, 0, 0, 0, 0, 0, 0, 0, 0, 12, 0, 0, 25, 0, 0, 61, 0, 0, 0, 76
|0, 0, 0, 0, 40, 17, 0, 0, 0, 0, 71, 46, 0, 0, 0, 0, 0, 0, 49, 26, 7, 0, 0, 80, 0, 47, 0, 0, 0, 0, 0, 28, 0, 0, 0, 0, 0, 0, 0, 38, 0, 0, 5, 0, 0, 0, 36, 0, 0, 0, 0, 0, 31, 0, 0, 0, 0, 21, 10, 0, 24, 0, 0, 0, 41, 0, 0, 0, 4, 0, 0, 0, 0, 0, 0, 0, 0, 0, 0, 57, 75
|0, 0, 73, 15, 0, 0, 0, 0, 39, 53, 0, 74, 0, 0, 41, 0, 0, 0, 0, 0, 0, 20, 0, 45, 0, 0, 0, 0, 0, 0, 0, 0, 0, 33, 0, 0, 0, 0, 0, 43, 0, 0, 0, 11, 0, 38, 0, 24, 0, 0, 0, 19, 0, 68, 1, 0, 0, 0, 0, 40, 0, 81, 0, 6, 23, 0, 21, 0, 18, 0, 0, 0, 59, 0, 0, 0, 0, 0, 9, 0, 0|];