order = 9;
grid = [|0, 0, 51, 33, 45, 13, 0, 0, 0, 0, 0, 9, 0, 49, 74, 68, 0, 0, 37, 0, 20, 0, 28, 0, 0, 76, 0, 0, 21, 0, 0, 0, 0, 0, 0, 0, 0, 0, 1, 0, 0, 12, 0, 24, 61, 0, 11, 0, 0, 19, 27, 0, 0, 0, 59, 79, 0, 80, 0, 0, 0, 43, 0, 0, 0, 46, 50, 0, 40, 35, 0, 0, 8, 0, 78, 58, 0, 0, 0, 15, 0
|38, 0, 0, 46, 0, 0, 0, 0, 49, 0, 0, 65, 0, 35, 0, 0, 0, 0, 58, 0, 0, 0, 0, 18, 0, 0, 0, 0, 3, 0, 28, 0, 0, 0, 73, 0, 78, 0, 0, 36, 0, 0, 79, 74, 0, 0, 6, 12, 0, 0, 0, 0, 0, 0, 0, 2, 5, 0, 0, 55, 0, 0, 20, 47, 0, 71, 0, 0, 0, 0, 0, 0, 0, 0, 0, 13, 30, 0, 62, 0, 0
|0, 0, 73, 57, 0, 0, 0, 0, 0, 0, 0, 0, 0, 0, 0, 0, 0, 64, 0, 0, 0, 0, 0, 0, 0, 0, 0, 20, 0, 0, 0, 55, 32, 0, 46, 8, 0, 9, 0, 0, 0, 66, 0, 41, 0, 0, 0, 0, 0, 0, 0, 0, 0, 0, 0, 0, 39, 50, 0, 0, 0, 0, 0, 0, 0, 1, 0, 0, 16, 0, 0, 0, 0, 0, 0, 4, 61, 70, 0, 0, 0
|62, 17, 0, 0, 0, 56, 0, 0, 0, 0, 0, 0, 0, 0, 57, 0, 0, 0, 0, 47, 0, 0, 0, 0, 0, 0, 0, 0, 0, 63, 0, 11, 4, 0, 0, 0, 0, 0, 0, 0, 0, 54, 7, 0, 0, 2, 40, 0, 0, 49, 20, 0, 0, 0, 0, 0, 30, 0, 67, 0, 0, 0, 0, 0, 0, 0, 0, 0, 0, 33, 0, 78, 32, 0, 0, 42, 0, 0, 0, 29, 0
|0, 0, 0, 20, 0, 64, 18, 0, 0, 0, 47, 33, 0, 0, 34, 0, 3, 0, 0, 0, 0, 14, 0, 7, 0, 0, 0, 0, 0, 0, 0, 31, 12, 72, 0, 0, 23, 0, 22, 0, 0, 68, 0, 48, 0, 74, 0, 0, 0, 0, 46, 28, 79, 0, 36, 0, 0, 0, 0, 0, 1, 26, 0, 55, 0, 69, 0, 0, 0, 0, 13, 0, 0, 50, 0, 0, 0, 0, 0, 0, 0
|0, 0, 0, 0, 0, 0, 0, 0, 6, 0, 0, 75, 8, 0, 0, 14, 0, 0, 0, 0, 78, 0, 0, 0, 46, 56, 0, 0, 0, 25, 50, 49, 0, 0, 74, 53, 51, 0, 59, 17, 3, 29, 0, 64, 77, 0, 0, 0, 0, 0, 0, 0, 0, 0, 0, 0, 0, 13, 0, 4, 0, 81, 48, 0, 0, 23, 34, 0, 0, 0, 0, 0, 0, 0, 38, 0, 55, 0, 0, 0, 0
|0, 0, 0, 0, 61, 0, 0, 54, 21, 0, 0, 78, 0, 0, 0, 0, 0, 0, 0, 0, 0, 0, 0, 0, 0, 0, 0, 5, 57, 41, 0, 62, 58, 0, 0, 30, 67, 0, 0, 18, 32, 39, 71, 0, 0, 0, 0, 51, 0, 0, 0, 36, 15, 75, 0, 0, 0, 0, 28, 0, 0, 16, 0, 0, 0, 7, 20, 0, 72, 0, 0, 31, 0, 0, 0, 26, 0, 0, 34, 65, 0
|0, 26, 9, 0, 0, 0, 0, 0, 40, 0, 17, 19, 0, 0, 0, 0, 59, 0, 0, 0, 38, 0, 74, 0, 0, 0, 0, 0, 0, 0, 61, 0, 0, 0, 0, 0, 0, 15, 0, 0, 0, 0, 28, 58, 0, 0, 0, 0, 0, 0, 0, 0, 0, 30, 0, 77, 0, 0, 46, 0, 41, 71, 0, 0, 22, 68, 0, 0, 0, 37, 0, 12, 0, 0, 0, 56, 0, 63, 0, 39, 0
|0, 0, 31, 0, 0, 79, 0, 0, 0, 0, 0, 0, 0, 46, 0, 0, 0, 0, 0, 41, 23, 0, 0, 26, 0, 61, 0, 0, 0, 0, 0, 60, 0, 0, 0, 27, 0, 21, 0, 81, 0, 44, 0, 0, 5, 0, 0, 70, 10, 0, 53, 24, 0, 0, 0, 0, 0, 52, 0, 0, 3, 0, 0, 0, 0, 0, 0, 0, 0, 80, 0, 0, 40, 0, 0, 0, 66, 0, 0, 0, 0
|0, 0, 0, 80, 0, 0, 48, 0, 0, 0, 0, 0, 0, 0, 0, 0, 21, 0, 0, 0, 0, 53, 0, 0, 0, 22, 11, 0, 0, 0, 65, 0, 0, 0, 31, 0, 0, 25, 0, 0, 0, 67, 14, 28, 81, 0, 0, 0, 0, 0, 0, 0, 0, 0, 0, 61, 63, 0, 0, 0, 0, 19, 5, 0, 0, 50, 0, 0, 71, 0, 0, 0, 0, 76, 0, 0, 0, 0, 77, 13, 0
|0, 44, 70, 54, 0, 58, 0, 0, 3, 0, 0, 17, 0, 0, 0, 0, 73, 0, 0, 0, 24, 0, 26, 49, 21, 59, 0, 0, 0, 0, 7, 9, 0, 0, 77, 64, 0, 0, 0, 0, 0, 0, 0, 60, 0, 0, 10, 0, 0, 0, 0, 0, 0, 0, 0, 22, 0, 34, 0, 0, 0, 0, 0, 0, 0, 52, 0, 65, 0, 0, 0, 0, 81, 0, 0, 0, 0, 0, 0, 0, 0
|53, 36, 0, 0, 0, 0, 0, 0, 0, 0, 0, 0, 0, 34, 0, 0, 0, 0, 4, 0, 0, 0, 0, 0, 0, 0, 0, 41, 0, 0, 0, 0, 43, 0, 0, 0, 0, 77, 0, 0, 0, 0, 0, 0, 46, 0, 27, 0, 0, 73, 0, 0, 0, 0, 0, 0, 66, 0, 0, 0, 0, 0, 0, 0, 0, 0, 0, 0, 0, 24, 0, 7, 1, 20, 0, 62, 0, 6, 0, 54, 30
|0, 0, 0, 0, 0, 0, 41, 0, 0, 0, 0, 0, 0, 43, 2, 0, 0, 0, 0, 0, 0, 0, 42, 0, 0, 6, 0, 0, 0, 8, 0, 0, 51, 0, 0, 0, 0, 0, 0, 0, 23, 0, 0, 0, 0, 50, 0, 0, 0, 7, 0, 0, 0, 0, 0, 0, 0, 0, 33, 0, 0, 0, 0, 0, 49, 0, 11, 0, 0, 0, 0, 0, 37, 35, 0, 0, 69, 22, 68, 0, 48
|0, 0, 0, 0, 52, 0, 0, 0, 0, 0, 0, 0, 0, 0, 46, 41, 0, 15, 0, 0, 0, 44, 0, 0, 0, 0, 13, 0, 0, 0, 0, 0, 0, 0, 17, 22, 0, 0, 0, 0, 0, 43, 0, 7, 0, 23, 0, 0, 53, 0, 0, 0, 47, 0, 75, 0, 79, 9, 0, 0, 27, 78, 81, 20, 0, 0, 0, 0, 0, 0, 25, 0, 0, 0, 74, 0, 28, 0, 0, 24, 31
|0, 0, 26, 0, 0, 0, 0, 8, 69, 0, 0, 0, 0, 53, 0, 0, 0, 0, 0, 0, 0, 0, 60, 0, 0, 0, 63, 0, 0, 54, 0, 0, 0, 78, 6, 0, 0, 0, 0, 10, 0, 0, 0, 51, 0, 64, 14, 80, 0, 0, 0, 17, 0, 0, 0, 0, 0, 0, 0, 0, 0, 0, 52, 0, 0, 32, 0, 0, 31, 0, 0, 0, 0, 0, 0, 71, 70, 0, 0, 0, 0
|0, 0, 0, 28, 43, 0, 0, 0, 7, 0, 0, 0, 0, 0, 0, 0, 0, 0, 0, 0, 0, 36, 0, 0, 0, 0, 0, 10, 0, 0, 0, 52, 0, 0, 0, 0, 0, 48, 71, 0, 0, 0, 8, 9, 0, 41, 0, 0, 0, 0, 0, 13, 0, 42, 0, 0, 0, 0, 0, 11, 0, 0, 0, 0, 0, 0, 0, 0, 6, 29, 61, 0, 0, 3, 0, 17, 21, 0, 0, 0, 0
|37, 0, 21, 0, 0, 22, 0, 0, 29, 79, 0, 0, 0, 30, 0, 55, 58, 0, 80, 78, 72, 0, 0, 0, 0, 0, 0, 0, 0, 20, 0, 45, 0, 0, 0, 0, 0, 17, 0, 0, 0, 76, 0, 0, 0, 0, 0, 16, 0, 1, 56, 69, 51, 0, 31, 0, 0, 0, 13, 0, 0, 0, 0, 0, 9, 0, 0, 0, 0, 0, 0, 0, 0, 43, 0, 0, 0, 0, 2, 0, 0
|63, 0, 0, 0, 0, 0, 0, 6, 0, 0, 0, 72, 33, 0, 0, 0, 0, 11, 0, 0, 0, 0, 0, 0, 0, 31, 0, 0, 5, 0, 36, 58, 39, 0, 0, 0, 0, 69, 0, 79, 0, 52, 44, 0, 0, 77, 61, 38, 15, 46, 0, 0, 0, 0, 0, 76, 0, 0, 0, 0, 0, 0, 0, 54, 80, 0, 0, 0, 0, 0, 18, 0, 0, 0, 10, 0, 0, 0, 0, 0, 0
|19, 0, 72, 32, 0, 68, 0, 0, 0, 0, 0, 0, 0, 0, 0, 0, 0, 0, 0, 62, 0, 0, 20, 21, 0, 0, 16, 67, 0, 0, 0, 1, 0, 0, 58, 0, 0, 71, 0, 0, 0, 0, 0, 0, 0, 15, 0, 0, 0, 33, 55, 41, 0, 0, 0, 0, 0, 43, 0, 0, 0, 36, 0, 0, 0, 0, 0, 0, 0, 0, 0, 0, 35, 0, 0, 0, 0, 29, 7, 17, 0
|6, 34, 47, 69, 0, 0, 0, 39, 0, 0, 73, 0, 67, 41, 4, 0, 0, 0, 55, 0, 0, 52, 0, 0, 0, 7, 0, 18, 8, 0, 0, 0, 0, 0, 0, 0, 0, 12, 0, 28, 0, 0, 0, 57, 0, 0, 0, 14, 0, 0, 0, 0, 0, 0, 0, 0, 0, 0, 3, 66, 9, 0, 0, 42, 24, 0, 0, 0, 0, 0, 0, 0, 76, 0, 0, 0, 37, 0, 81, 0, 0
|0, 0, 0, 0, 0, 57, 4, 62, 15, 30, 0, 0, 0, 24, 52, 25, 0, 0, 0, 9, 0, 0, 0, 0, 0, 40, 0, 0, 23, 0, 0, 0, 0, 0, 76, 6, 74, 56, 70, 0, 53, 0, 0, 0, 0, 0, 0, 68, 0, 0, 0, 18, 7, 0, 0, 0, 60, 0, 0, 16, 0, 0, 0, 0, 0, 44, 0, 0, 0, 0, 79, 33, 0, 0, 0, 8, 0, 41, 0, 0, 0
|0, 75, 0, 16, 0, 11, 46, 0, 56, 45, 0, 0, 64, 0, 26, 19, 80, 0, 0, 0, 0, 0, 0, 0, 31, 0, 54, 0, 0, 0, 55, 0, 0, 0, 0, 0, 0, 0, 6, 0, 0, 38, 0, 0, 0, 0, 0, 0, 61, 40, 0, 23, 0, 0, 0, 0, 0, 79, 72, 0, 0, 8, 0, 0, 0, 48, 0, 0, 0, 0, 0, 0, 0, 0, 70, 0, 0, 52, 60, 0, 0
|0, 0, 0, 0, 60, 48, 0, 21, 0, 27, 0, 0, 0, 0, 0, 0, 0, 0, 0, 0, 0, 29, 0, 0, 37, 0, 32, 19, 0, 0, 0, 0, 56, 0, 13, 0, 0, 0, 0, 69, 0, 0, 0, 17, 0, 0, 0, 4, 0, 0, 0, 0, 0, 0, 11, 0, 0, 75, 0, 80, 0, 0, 0, 0, 0, 0, 73, 9, 0, 0, 36, 14, 0, 2, 15, 0, 0, 28, 0, 34, 0
|0, 0, 29, 0, 77, 0, 0, 55, 0, 56, 0, 50, 0, 0, 0, 0, 0, 6, 0, 0, 43, 0, 0, 0, 0, 68, 39, 0, 0, 60, 40, 17, 80, 31, 0, 0, 0, 0, 0, 59, 0, 0, 48, 10, 54, 0, 0, 24, 0, 0, 73, 9, 11, 0, 0, 0, 58, 67, 0, 0, 0, 0, 0, 0, 0, 0, 16, 21, 0, 0, 47, 28, 0, 78, 42, 0, 0, 0, 0, 0, 0
|0, 0, 41, 0, 0, 0, 0, 52, 36, 72, 0, 0, 0, 0, 0, 43, 0, 23, 53, 80, 69, 48, 0, 47, 0, 25, 79, 50, 0, 0, 29, 0, 0, 42, 0, 0, 0, 81, 0, 0, 67, 0, 0, 0, 0, 0, 34, 0, 0, 37, 0, 0, 0, 46, 0, 0, 0, 0, 0, 18, 6, 0, 35, 0, 0, 30, 0, 0, 39, 0, 71, 55, 0, 0, 66, 0, 0, 14, 0, 22, 0
|0, 0, 0, 0, 30, 70, 0, 0, 0, 0, 0, 0, 76, 0, 75, 5, 0, 31, 24, 6, 0, 0, 0, 0, 28, 0, 0, 0, 0, 0, 0, 0, 0, 53, 68, 41, 0, 61, 0, 47, 0, 0, 0, 0, 0, 0, 0, 0, 0, 2, 0, 78, 19, 60, 54, 0, 0, 0, 4, 0, 0, 0, 34, 0, 0, 0, 0, 66, 0, 18, 0, 80, 0, 0, 16, 9, 0, 0, 0, 23, 0
|0, 0, 79, 17, 0, 0, 0, 0, 0, 0, 0, 0, 0, 0, 1, 0, 60, 53, 0, 23, 11, 19, 0, 36, 42, 0, 0, 0, 34, 0, 0, 0, 21, 24, 66, 0, 0, 0, 0, 0, 0, 0, 0, 0, 0, 0, 65, 0, 0, 10, 13, 43, 56, 0, 74, 41, 28, 0, 0, 0, 46, 0, 0, 0, 0, 3, 0, 25, 0, 0, 0, 0, 0, 55, 0, 0, 0, 0, 30, 40, 44
|47, 0, 20, 0, 19, 16, 0, 0, 0, 0, 0, 36, 0, 0, 0, 0, 0, 0, 0, 65, 2, 0, 0, 0, 0, 0, 0, 0, 42, 0, 0, 10, 0, 0, 0, 0, 0, 0, 68, 0, 0, 0, 0, 8, 67, 71, 0, 0, 0, 0, 0, 0, 0, 0, 0, 66, 81, 0, 0, 0, 0, 0, 41, 0, 51, 24, 0, 0, 18, 0, 69, 74, 0, 0, 79, 0, 0, 0, 0, 26, 7
|0, 0, 0, 0, 57, 0, 0, 0, 0, 0, 0, 0, 0, 45, 0, 0, 0, 14, 20, 0, 58, 17, 0, 0, 75, 23, 38, 0, 0, 0, 0, 24, 0, 55, 0, 0, 0, 0, 0, 0, 0, 0, 0, 27, 0, 0, 0, 33, 0, 0, 0, 4, 0, 50, 0, 0, 3, 0, 0, 0, 73, 0, 0, 0, 0, 0, 0, 81, 0, 34, 0, 52, 62, 47, 54, 0, 0, 2, 72, 0, 0
|0, 0, 0, 0, 0, 0, 0, 30, 0, 0, 0, 52, 78, 13, 0, 0, 0, 0, 60, 69, 0, 62, 31, 0, 0, 0, 3, 8, 0, 0, 0, 0, 0, 0, 7, 70, 0, 47, 20, 23, 0, 0, 38, 0, 0, 0, 0, 0, 44, 0, 0, 0, 65, 0, 0, 26, 16, 0, 40, 0, 0, 67, 0, 9, 0, 0, 66, 0, 0, 55, 80, 0, 0, 33, 63, 5, 0, 0, 0, 0, 0
|27, 23, 0, 0, 0, 0, 0, 0, 0, 0, 0, 0, 2, 0, 17, 0, 0, 0, 0, 0, 74, 0, 0, 0, 0, 0, 0, 9, 20, 77, 0, 40, 0, 0, 0, 19, 0, 0, 0, 46, 0, 0, 81, 56, 0, 35, 0, 0, 68, 62, 0, 21, 0, 0, 0, 48, 0, 0, 12, 0, 0, 0, 0, 0, 0, 65, 0, 0, 0, 0, 72, 0, 0, 1, 61, 25, 8, 0, 0, 58, 0
|77, 0, 0, 62, 40, 0, 0, 0, 0, 0, 23, 61, 48, 55, 0, 0, 7, 5, 78, 0, 59, 16, 22, 4, 57, 0, 6, 0, 0, 0, 0, 0, 0, 71, 0, 75, 0, 0, 0, 0, 0, 0, 0, 25, 0, 0, 0, 0, 0, 0, 0, 0, 0, 0, 0, 0, 0, 0, 0, 72, 0, 34, 0, 0, 0, 0, 0, 20, 68, 0, 0, 13, 0, 0, 45, 0, 17, 0, 10, 0, 0
|0, 48, 0, 4, 0, 43, 0, 0, 0, 0, 58, 0, 0, 71, 0, 1, 0, 49, 30, 51, 63, 0, 8, 0, 0, 0, 0, 69, 0, 47, 78, 0, 0, 0, 0, 67, 0, 5, 0, 0, 0, 0, 0, 0, 0, 0, 0, 27, 0, 0, 0, 0, 0, 38, 0, 54, 0, 32, 0, 61, 0, 0, 0, 0, 0, 0, 0, 0, 0, 16, 0, 60, 0, 0, 0, 0, 0, 0, 0, 0, 37
|0, 0, 0, 0, 0, 14, 0, 72, 0, 0, 35, 0, 21, 77, 0, 0, 0, 73, 0, 0, 0, 0, 0, 0, 0, 0, 0, 0, 18, 0, 0, 0, 0, 0, 0, 0, 0, 0, 0, 57, 10, 0, 0, 30, 0, 0, 48, 0, 0, 0, 67, 0, 0, 0, 4, 0, 0, 0, 20, 0, 0, 17, 0, 0, 0, 0, 0, 37, 0, 0, 8, 0, 0, 0, 0, 0, 38, 0, 0, 0, 28
|0, 31, 67, 0, 66, 52, 0, 0, 0, 0, 0, 10, 62, 3, 0, 0, 0, 0, 19, 27, 0, 0, 0, 0, 0, 24, 0, 64, 0, 0, 0, 32, 0, 0, 0, 0, 0, 0, 72, 65, 77, 0, 50, 53, 0, 0, 0, 20, 0, 17, 0, 0, 0, 5, 14, 0, 55, 0, 0, 0, 0, 0, 0, 0, 0, 0, 0, 33, 0, 0, 41, 0, 13, 36, 0, 0, 22, 0, 43, 0, 0
|0, 0, 0, 0, 0, 0, 0, 64, 2, 0, 0, 40, 0, 0, 0, 0, 0, 0, 0, 0, 0, 0, 0, 0, 0, 0, 0, 0, 0, 0, 0, 30, 27, 1, 0, 0, 0, 0, 0, 0, 0, 0, 0, 0, 0, 11, 0, 0, 0, 0, 7, 51, 0, 0, 0, 0, 35, 56, 57, 0, 0, 0, 0, 0, 19, 0, 0, 0, 0, 0, 0, 0, 0, 0, 0, 0, 0, 0, 0, 50, 0
|31, 73, 19, 0, 0, 0, 38, 0, 0, 0, 0, 0, 0, 0, 0, 0, 68, 39, 11, 0, 0, 0, 3, 0, 41, 0, 0, 0, 0, 0, 0, 0, 0, 0, 42, 49, 0, 26, 0, 80, 0, 0, 0, 77, 23, 0, 51, 15, 0, 50, 0, 57, 0, 0, 0, 0, 17, 70, 0, 0, 29, 0, 44, 0, 48, 0, 0, 0, 33, 74, 0, 47, 0, 0, 6, 0, 0, 24, 0, 81, 64
|74, 63, 0, 0, 0, 0, 0, 0, 0, 0, 0, 16, 72, 64, 0, 0, 0, 0, 0, 14, 0, 0, 0, 0, 0, 0, 0, 0, 0, 0, 10, 19, 0, 0, 0, 0, 0, 67, 8, 12, 0, 0, 6, 0, 13, 0, 0, 0, 0, 0, 0, 0, 0, 0, 0, 0, 0, 0, 54, 0, 0, 69, 0, 0, 0, 0, 0, 0, 0, 0, 0, 57, 0, 0, 53, 0, 0, 68, 33, 0, 0
|22, 0, 0, 0, 0, 0, 0, 0, 0, 0, 0, 0, 55, 40, 0, 0, 0, 36, 64, 0, 0, 0, 0, 0, 33, 0, 0, 0, 0, 0, 41, 0, 3, 0, 52, 0, 0, 0, 0, 0, 30, 17, 32, 59, 71, 0, 0, 0, 0, 13, 63, 10, 0, 78, 0, 0, 0, 21, 0, 0, 0, 39, 0, 0, 31, 0, 0, 18, 38, 42, 0, 61, 44, 0, 7, 76, 26, 0, 9, 0, 0
|0, 0, 77, 0, 0, 0, 12, 0, 0, 0, 0, 0, 0, 2, 0, 0, 0, 0, 76, 0, 32, 69, 0, 0, 0, 0, 0, 71, 0, 0, 23, 0, 0, 73, 0, 0, 0, 0, 0, 0, 0, 0, 0, 72, 0, 46, 0, 6, 0, 0, 0, 0, 0, 74, 67, 47, 0, 0, 0, 0, 0, 61, 16, 0, 0, 0, 15, 3, 0, 79, 0, 0, 0, 40, 0, 0, 0, 42, 0, 80, 0
|0, 66, 0, 0, 0, 0, 5, 0, 0, 0, 0, 6, 0, 27, 0, 0, 30, 0, 0, 31, 47, 0, 0, 71, 26, 16, 0, 32, 0, 0, 53, 0, 0, 0, 35, 0, 4, 20, 0, 41, 15, 34, 3, 0, 0, 0, 0, 37, 0, 81, 0, 2, 0, 49, 24, 8, 1, 0, 0, 0, 19, 11, 0, 0, 0, 0, 0, 0, 0, 0, 0, 0, 0, 12, 0, 0, 0, 0, 78, 0, 0
|0, 69, 0, 0, 0, 0, 0, 0, 0, 0, 0, 0, 0, 0, 0, 0, 0, 0, 72, 46, 0, 77, 0, 0, 0, 0, 0, 0, 0, 64, 0, 0, 0, 18, 0, 0, 0, 0, 0, 0, 48, 56, 0, 55, 0, 59, 0, 39, 0, 0, 61, 22, 0, 0, 0, 0, 0, 6, 0, 73, 20, 0, 0, 0, 0, 25, 36, 30, 0, 0, 0, 23, 0, 0, 0, 0, 0, 74, 0, 0, 0
|0, 0, 68, 0, 0, 49, 71, 0, 0, 0, 48, 0, 0, 0, 33, 0, 0, 54, 0, 7, 0, 59, 0, 0, 81, 28, 19, 0, 0, 0, 13, 0, 0, 0, 0, 0, 0, 24, 0, 0, 0, 37, 0, 0, 0, 0, 0, 0, 0, 0, 4, 32, 0, 0, 0, 0, 0, 0, 63, 3, 0, 25, 0, 40, 0, 0, 0, 41, 0, 0, 0, 0, 0, 0, 30, 0, 36, 0, 0, 0, 72
|0, 0, 0, 0, 24, 0, 0, 0, 0, 0, 15, 0, 0, 0, 67, 18, 0, 80, 0, 0, 6, 0, 75, 0, 0, 0, 0, 0, 0, 0, 0, 0, 0, 57, 0, 0, 0, 0, 0, 25, 0, 0, 0, 0, 0, 0, 73, 0, 17, 5, 0, 45, 0, 68, 0, 30, 0, 0, 0, 0, 0, 0, 0, 0, 0, 0, 62, 0, 0, 12, 0, 2, 0, 11, 1, 0, 0, 61, 0, 41, 0
|0, 0, 0, 0, 0, 0, 0, 0, 8, 0, 59, 0, 0, 0, 0, 0, 0, 0, 0, 0, 0, 0, 0, 50, 0, 0, 44, 0, 0, 81, 72, 0, 46, 0, 0, 0, 45, 73, 0, 70, 61, 0, 0, 0, 35, 0, 0, 0, 0, 0, 26, 0, 54, 0, 49, 0, 32, 37, 0, 0, 0, 0, 38, 0, 78, 0, 0, 52, 34, 0, 0, 0, 0, 39, 0, 0, 0, 0, 0, 21, 0
|55, 0, 0, 0, 0, 0, 0, 0, 0, 0, 56, 0, 19, 0, 0, 0, 2, 0, 0, 0, 0, 0, 43, 0, 35, 0, 0, 0, 0, 0, 22, 0, 29, 0, 0, 0, 1, 0, 0, 44, 0, 36, 0, 0, 0, 0, 15, 0, 27, 0, 0, 50, 24, 0, 0, 59, 0, 0, 0, 0, 45, 0, 0, 76, 0, 11, 0, 0, 54, 70, 4, 0, 0, 64, 3, 10, 75, 0, 0, 30, 0
|5, 1, 15, 0, 31, 73, 0, 0, 0, 0, 0, 0, 50, 0, 69, 0, 0, 65, 0, 0, 81, 42, 0, 0, 0, 0, 72, 0, 0, 0, 0, 59, 0, 0, 0, 0, 0, 0, 0, 0, 0, 0, 49, 0, 27, 0, 74, 0, 0, 0, 0, 0, 17, 8, 6, 0, 0, 0, 16, 0, 0, 0, 29, 28, 0, 0, 0, 78, 21, 0, 0, 0, 0, 0, 0, 0, 0, 43, 55, 7, 0
|0, 0, 0, 49, 0, 26, 0, 0, 64, 0, 0, 58, 70, 0, 0, 0, 0, 0, 31, 11, 0, 5, 77, 73, 0, 0, 0, 0, 0, 0, 0, 0, 69, 3, 0, 0, 19, 0, 0, 0, 54, 0, 0, 81, 21, 20, 0, 0, 0, 0, 0, 0, 0, 52, 22, 0, 0, 0, 0, 0, 0, 0, 74, 0, 0, 0, 0, 47, 9, 0, 0, 56, 0, 0, 0, 0, 60, 45, 63, 0, 0
|43, 0, 0, 24, 0, 51, 0, 74, 0, 36, 5, 44, 0, 0, 8, 47, 0, 0, 0, 0, 55, 9, 0, 75, 78, 48, 60, 0, 0, 6, 30, 0, 0, 0, 19, 0, 0, 0, 0, 42, 0, 0, 26, 23, 0, 68, 2, 11, 79, 16, 64, 0, 21, 33, 0, 0, 0, 0, 0, 0, 0, 0, 0, 0, 0, 0, 0, 0, 41, 0, 0, 34, 0, 0, 0, 0, 29, 0, 0, 32, 0
|0, 0, 25, 0, 0, 0, 68, 0, 0, 0, 0, 0, 0, 0, 0, 4, 38, 0, 0, 0, 0, 0, 6, 0, 0, 0, 0, 56, 62, 0, 0, 0, 0, 0, 0, 0, 46, 28, 0, 0, 59, 0, 58, 0, 12, 7, 0, 45, 0, 26, 0, 0, 0, 0, 0, 0, 27, 0, 0, 0, 0, 0, 0, 49, 0, 14, 0, 48, 60, 0, 0, 77, 0, 0, 0, 0, 0, 0, 0, 0, 0
|21, 33, 60, 0, 0, 0, 0, 0, 0, 0, 0, 45, 0, 14, 0, 49, 81, 0, 36, 0, 0, 0, 68, 23, 13, 0, 20, 0, 0, 7, 0, 0, 1, 0, 0, 0, 0, 0, 69, 0, 0, 72, 0, 0, 74, 0, 0, 18, 0, 0, 0, 0, 22, 0, 48, 35, 0, 11, 0, 32, 55, 53, 39, 66, 0, 0, 0, 0, 46, 0, 40, 37, 0, 0, 0, 34, 0, 0, 0, 0, 8
|0, 16, 0, 0, 71, 0, 78, 36, 20, 0, 0, 35, 0, 0, 0, 0, 10, 0, 0, 76, 0, 1, 0, 0, 0, 15, 2, 57, 32, 0, 21, 72, 0, 0, 0, 0, 0, 0, 0, 0, 0, 0, 60, 70, 65, 0, 43, 0, 0, 0, 0, 0, 0, 6, 41, 0, 62, 0, 0, 42, 0, 0, 0, 0, 0, 18, 0, 0, 0, 0, 0, 0, 17, 0, 27, 0, 0, 50, 0, 0, 0
|0, 0, 22, 72, 0, 0, 3, 0, 0, 29, 0, 0, 0, 0, 0, 0, 0, 25, 0, 0, 0, 0, 32, 0, 0, 30, 0, 0, 0, 44, 0, 0, 0, 0, 0, 0, 0, 0, 0, 0, 0, 0, 0, 33, 48, 10, 0, 0, 73, 0, 0, 12, 0, 0, 0, 0, 0, 0, 0, 0, 0, 20, 4, 0, 0, 0, 81, 0, 26, 2, 5, 0, 0, 42, 68, 0, 78, 0, 71, 0, 9
|0, 0, 35, 0, 0, 0, 0, 44, 0, 0, 0, 0, 0, 0, 0, 3, 0, 0, 8, 0, 0, 0, 0, 0, 70, 0, 62, 0, 0, 0, 64, 0, 11, 67, 0, 17, 68, 0, 55, 0, 0, 0, 56, 78, 0, 65, 0, 0, 0, 0, 0, 0, 0, 29, 0, 0, 0, 0, 0, 0, 26, 0, 0, 27, 0, 42, 25, 0, 0, 20, 45, 0, 0, 0, 24, 0, 0, 0, 0, 38, 0
|50, 0, 0, 43, 59, 67, 0, 0, 14, 5, 0, 0, 0, 0, 9, 0, 4, 0, 40, 0, 0, 60, 11, 16, 0, 0, 0, 0, 0, 0, 76, 0, 25, 0, 0, 45, 0, 79, 0, 0, 75, 0, 0, 0, 0, 0, 0, 0, 41, 0, 32, 55, 0, 34, 0, 0, 0, 0, 0, 0, 0, 1, 3, 0, 0, 0, 0, 0, 0, 0, 0, 0, 30, 0, 2, 0, 71, 0, 61, 37, 63
|0, 0, 0, 70, 0, 0, 0, 0, 0, 0, 0, 0, 0, 0, 0, 0, 69, 0, 0, 0, 56, 0, 29, 0, 5, 0, 36, 0, 0, 61, 0, 0, 0, 0, 0, 80, 0, 33, 0, 0, 0, 0, 21, 0, 0, 0, 0, 0, 0, 0, 0, 0, 0, 0, 0, 0, 0, 0, 0, 30, 0, 0, 0, 45, 0, 0, 42, 0, 0, 0, 0, 0, 0, 0, 0, 0, 0, 0, 24, 43, 0
|0, 0, 0, 39, 0, 0, 0, 16, 0, 14, 0, 0, 0, 0, 48, 34, 0, 0, 0, 0, 0, 54, 0, 0, 0, 0, 0, 0, 58, 0, 51, 0, 52, 0, 0, 21, 0, 0, 30, 0, 0, 0, 0, 0, 0, 37, 0, 0, 0, 0, 0, 0, 0, 0, 45, 0, 0, 29, 0, 12, 0, 42, 0, 31, 55, 0, 10, 56, 0, 64, 0, 0, 0, 0, 0, 72, 0, 66, 0, 6, 57
|64, 0, 74, 0, 0, 0, 24, 0, 4, 6, 0, 0, 0, 0, 0, 0, 0, 0, 0, 0, 0, 0, 0, 0, 0, 0, 0, 0, 50, 0, 0, 29, 42, 0, 0, 0, 31, 0, 0, 0, 0, 0, 0, 37, 0, 26, 0, 0, 0, 0, 11, 71, 0, 0, 70, 25, 33, 0, 0, 5, 72, 0, 43, 1, 28, 0, 0, 22, 0, 30, 0, 0, 60, 62, 0, 0, 0, 15, 0, 0, 0
|0, 80, 55, 30, 0, 25, 47, 0, 0, 24, 0, 0, 66, 51, 0, 21, 8, 0, 61, 50, 7, 0, 0, 20, 45, 58, 0, 68, 0, 0, 0, 0, 0, 0, 0, 0, 0, 0, 0, 0, 0, 0, 35, 42, 0, 0, 0, 0, 19, 0, 0, 0, 70, 0, 81, 37, 0, 0, 0, 0, 54, 0, 0, 0, 0, 0, 0, 39, 0, 0, 0, 79, 0, 0, 0, 31, 77, 0, 0, 0, 0
|0, 0, 0, 0, 0, 0, 10, 0, 11, 0, 0, 0, 32, 0, 27, 0, 0, 33, 0, 0, 0, 0, 49, 2, 0, 4, 0, 23, 0, 12, 0, 28, 0, 15, 0, 0, 0, 0, 0, 0, 0, 64, 0, 0, 0, 0, 0, 8, 0, 35, 0, 0, 0, 72, 0, 17, 7, 0, 6, 0, 0, 0, 0, 0, 0, 36, 63, 54, 0, 0, 0, 29, 0, 0, 0, 0, 0, 0, 0, 0, 52
|0, 0, 32, 0, 62, 12, 0, 56, 17, 35, 0, 0, 0, 0, 39, 31, 0, 52, 0, 0, 0, 0, 0, 28, 9, 33, 0, 16, 0, 57, 79, 67, 0, 5, 0, 0, 61, 55, 0, 1, 46, 0, 0, 38, 18, 0, 0, 0, 0, 0, 10, 0, 66, 4, 0, 60, 48, 23, 75, 0, 0, 0, 0, 0, 0, 0, 0, 0, 51, 27, 0, 0, 34, 0, 0, 74, 0, 81, 0, 47, 0
|0, 0, 0, 0, 0, 19, 0, 42, 1, 0, 37, 0, 0, 0, 0, 0, 0, 26, 0, 18, 14, 39, 78, 0, 0, 41, 0, 0, 0, 55, 0, 46, 0, 30, 0, 0, 32, 74, 67, 0, 0, 23, 0, 0, 0, 0, 0, 0, 0, 0, 49, 0, 0, 31, 0, 0, 56, 53, 0, 0, 10, 52, 0, 0, 4, 58, 0, 0, 25, 0, 0, 0, 73, 51, 0, 0, 0, 8, 0, 0, 0
|0, 0, 2, 0, 0, 6, 0, 0, 0, 0, 0, 0, 0, 0, 0, 36, 75, 18, 77, 0, 0, 0, 0, 0, 0, 0, 81, 0, 0, 0, 59, 0, 0, 34, 0, 0, 11, 0, 27, 0, 0, 0, 0, 0, 70, 5, 0, 0, 0, 28, 29, 44, 0, 0, 0, 0, 0, 0, 66, 0, 0, 79, 0, 0, 47, 61, 0, 0, 0, 0, 0, 41, 0, 0, 0, 0, 0, 0, 38, 0, 0
|79, 0, 0, 0, 4, 0, 0, 65, 0, 2, 31, 15, 0, 0, 0, 0, 0, 0, 0, 0, 0, 0, 1, 52, 0, 0, 48, 0, 0, 0, 60, 0, 38, 0, 0, 44, 0, 62, 0, 27, 0, 0, 46, 12, 53, 0, 30, 0, 0, 0, 5, 74, 55, 67, 9, 0, 10, 0, 0, 0, 0, 0, 0, 0, 0, 0, 32, 0, 0, 72, 14, 40, 0, 0, 47, 0, 0, 0, 26, 0, 0
|33, 0, 8, 0, 0, 0, 0, 18, 0, 59, 60, 43, 0, 0, 25, 69, 76, 0, 0, 39, 0, 0, 0, 0, 0, 80, 0, 66, 78, 62, 68, 0, 0, 27, 0, 0, 0, 0, 0, 35, 0, 0, 0, 0, 0, 0, 0, 0, 0, 0, 0, 0, 46, 0, 0, 15, 0, 0, 22, 0, 0, 45, 53, 0, 52, 0, 74, 0, 0, 65, 0, 0, 54, 0, 0, 0, 0, 0, 6, 0, 0
|0, 70, 54, 0, 0, 53, 0, 73, 16, 0, 67, 0, 0, 0, 0, 0, 0, 0, 0, 4, 0, 11, 0, 0, 0, 0, 0, 48, 0, 0, 2, 0, 71, 45, 0, 58, 6, 0, 0, 0, 0, 0, 0, 0, 22, 0, 68, 0, 47, 15, 0, 0, 10, 0, 0, 27, 13, 42, 50, 0, 51, 46, 0, 30, 0, 0, 75, 0, 0, 0, 63, 38, 0, 59, 0, 0, 0, 0, 0, 0, 0
|0, 27, 0, 0, 26, 0, 11, 35, 57, 0, 36, 22, 77, 44, 0, 0, 0, 13, 0, 0, 54, 0, 0, 64, 0, 71, 0, 0, 0, 0, 0, 0, 0, 0, 0, 0, 28, 0, 0, 0, 76, 0, 61, 79, 0, 0, 0, 52, 0, 0, 66, 0, 43, 0, 40, 0, 0, 0, 0, 0, 0, 0, 0, 0, 0, 0, 0, 29, 0, 0, 0, 0, 0, 0, 0, 0, 80, 0, 0, 0, 0
|60, 0, 23, 0, 0, 0, 7, 0, 0, 0, 0, 0, 0, 0, 0, 0, 0, 0, 57, 0, 0, 0, 0, 0, 53, 65, 0, 0, 0, 0, 43, 0, 13, 0, 10, 0, 70, 0, 49, 0, 74, 0, 0, 0, 80, 0, 0, 29, 0, 0, 33, 0, 0, 0, 0, 0, 20, 2, 0, 41, 0, 0, 0, 0, 81, 0, 6, 26, 4, 25, 0, 19, 0, 79, 0, 14, 0, 64, 44, 31, 0
|10, 0, 0, 0, 0, 20, 0, 0, 0, 0, 0, 0, 40, 23, 0, 0, 62, 0, 28, 36, 31, 66, 5, 19, 0, 35, 56, 0, 59, 46, 0, 3, 41, 0, 0, 0, 0, 0, 0, 0, 37, 0, 0, 0, 0, 0, 22, 77, 0, 75, 0, 61, 63, 24, 1, 0, 74, 12, 0, 26, 0, 80, 60, 11, 0, 0, 2, 0, 49, 54, 67, 0, 0, 0, 0, 0, 16, 0, 0, 0, 0
|25, 0, 0, 0, 51, 0, 0, 29, 78, 0, 26, 32, 0, 74, 0, 0, 6, 68, 0, 72, 45, 0, 0, 42, 0, 0, 47, 0, 0, 34, 70, 0, 0, 0, 0, 0, 0, 36, 48, 0, 0, 0, 0, 0, 57, 0, 12, 13, 0, 0, 69, 0, 0, 0, 0, 3, 77, 0, 0, 0, 0, 0, 33, 0, 0, 0, 0, 0, 0, 0, 0, 18, 0, 15, 46, 0, 0, 37, 0, 0, 0
|0, 0, 49, 0, 41, 0, 0, 81, 0, 78, 0, 0, 0, 0, 0, 64, 0, 0, 0, 0, 0, 0, 0, 0, 0, 44, 8, 0, 0, 0, 0, 0, 50, 0, 0, 0, 33, 30, 21, 0, 0, 25, 73, 0, 0, 0, 0, 65, 26, 0, 76, 0, 0, 0, 0, 16, 0, 0, 0, 0, 0, 0, 32, 0, 0, 0, 0, 79, 0, 9, 0, 0, 0, 0, 0, 3, 0, 0, 4, 0, 43
|40, 0, 0, 0, 0, 0, 0, 19, 45, 0, 0, 0, 0, 16, 0, 0, 0, 0, 6, 0, 51, 0, 59, 0, 0, 81, 0, 11, 61, 79, 26, 0, 0, 0, 37, 1, 0, 0, 42, 0, 20, 0, 0, 0, 0, 0, 9, 0, 8, 0, 44, 31, 0, 0, 0, 52, 0, 54, 0, 0, 25, 0, 76, 0, 0, 55, 0, 46, 0, 0, 0, 0, 74, 0, 0, 0, 0, 0, 0, 0, 0
|0, 0, 0, 58, 0, 0, 0, 0, 43, 0, 0, 0, 0, 0, 0, 0, 31, 76, 0, 0, 57, 18, 0, 0, 0, 52, 0, 0, 0, 28, 0, 0, 19, 0, 0, 0, 3, 46, 79, 0, 40, 0, 72, 0, 0, 0, 0, 0, 0, 51, 15, 0, 62, 0, 13, 0, 53, 0, 35, 0, 0, 0, 0, 0, 0, 47, 0, 0, 0, 26, 9, 0, 0, 0, 29, 11, 0, 0, 0, 0, 0
|0, 52, 0, 0, 70, 24, 67, 0, 68, 0, 21, 37, 0, 0, 0, 0, 0, 0, 0, 0, 36, 8, 17, 31, 0, 0, 53, 3, 0, 0, 0, 0, 0, 0, 0, 0, 0, 0, 0, 0, 0, 0, 0, 0, 0, 0, 59, 35, 0, 56, 0, 0, 0, 0, 0, 0, 0, 0, 0, 62, 0, 0, 0, 48, 6, 0, 0, 0, 55, 32, 0, 0, 42, 0, 0, 60, 81, 0, 40, 0, 0
|0, 0, 48, 0, 0, 0, 13, 0, 0, 41, 0, 0, 0, 0, 22, 33, 64, 0, 50, 12, 77, 0, 65, 35, 14, 34, 40, 0, 0, 0, 0, 18, 37, 0, 0, 0, 0, 0, 19, 0, 0, 0, 57, 21, 0, 30, 67, 0, 0, 0, 0, 0, 71, 7, 0, 11, 80, 0, 0, 0, 79, 4, 0, 0, 39, 0, 0, 23, 56, 76, 0, 0, 0, 0, 0, 0, 0, 0, 46, 49, 0
|75, 0, 0, 40, 53, 0, 73, 45, 77, 0, 34, 27, 58, 0, 0, 11, 0, 0, 44, 0, 0, 0, 72, 0, 0, 0, 55, 49, 0, 38, 0, 0, 0, 0, 0, 31, 0, 0, 17, 0, 24, 2, 0, 63, 0, 9, 46, 0, 0, 41, 0, 26, 32, 10, 0, 0, 0, 0, 0, 0, 0, 23, 0, 0, 64, 0, 0, 0, 79, 0, 0, 20, 0, 0, 43, 22, 0, 0, 0, 0, 0
|0, 11, 0, 0, 0, 0, 0, 0, 0, 0, 42, 0, 0, 0, 36, 0, 9, 0, 0, 0, 0, 0, 0, 43, 15, 47, 0, 0, 0, 0, 69, 0, 0, 0, 1, 0, 71, 0, 0, 0, 66, 48, 0, 0, 0, 12, 5, 0, 0, 0, 45, 16, 0, 0, 58, 0, 0, 0, 0, 8, 76, 21, 64, 0, 0, 35, 33, 0, 0, 0, 28, 0, 67, 68, 0, 0, 7, 0, 0, 0, 0
|0, 0, 69, 0, 15, 0, 17, 0, 0, 8, 0, 0, 13, 0, 0, 59, 20, 0, 0, 37, 75, 0, 51, 1, 0, 0, 30, 61, 55, 0, 0, 0, 0, 0, 0, 0, 0, 0, 52, 0, 0, 0, 23, 0, 62, 0, 44, 0, 24, 39, 0, 40, 0, 0, 0, 67, 0, 0, 0, 0, 0, 0, 77, 0, 60, 0, 0, 70, 0, 0, 0, 0, 0, 0, 50, 0, 0, 16, 0, 0, 78
|16, 0, 0, 0, 56, 8, 0, 0, 0, 71, 0, 0, 60, 0, 0, 0, 40, 0, 23, 0, 0, 0, 48, 0, 0, 0, 67, 0, 0, 0, 33, 0, 5, 0, 64, 36, 15, 0, 0, 0, 0, 0, 27, 0, 28, 6, 0, 0, 0, 0, 0, 0, 69, 0, 0, 0, 0, 0, 0, 51, 14, 0, 0, 34, 0, 0, 68, 0, 63, 0, 0, 0, 24, 77, 0, 70, 2, 53, 0, 0, 0
|0, 25, 0, 18, 35, 0, 0, 0, 55, 0, 0, 0, 0, 0, 0, 67, 0, 12, 0, 0, 0, 49, 0, 0, 0, 0, 76, 0, 40, 32, 0, 0, 0, 0, 0, 7, 0, 80, 81, 0, 0, 0, 0, 16, 64, 0, 37, 0, 0, 0, 0, 0, 20, 0, 0, 0, 38, 47, 0, 0, 0, 0, 0, 0, 0, 0, 0, 0, 0, 0, 58, 0, 61, 0, 0, 15, 0, 0, 39, 0, 0
|0, 0, 0, 51, 0, 0, 0, 12, 46, 0, 0, 48, 0, 0, 0, 0, 0, 0, 0, 0, 0, 0, 0, 0, 0, 0, 0, 0, 0, 24, 47, 76, 0, 0, 0, 0, 26, 0, 0, 0, 0, 35, 67, 0, 0, 0, 0, 43, 52, 0, 0, 0, 0, 0, 0, 0, 9, 81, 0, 0, 28, 0, 0, 36, 0, 40, 0, 0, 0, 0, 0, 0, 0, 0, 0, 0, 0, 0, 0, 0, 23|];