order = 9;
grid = [|0, 0, 0, 0, 0, 0, 10, 0, 0, 68, 0, 0, 41, 42, 78, 0, 74, 73, 0, 57, 0, 33, 61, 0, 0, 0, 75, 18, 0, 0, 62, 79, 0, 0, 0, 3, 0, 0, 34, 50, 65, 0, 0, 52, 0, 0, 0, 0, 0, 0, 0, 0, 0, 0, 0, 0, 0, 0, 0, 0, 0, 0, 40, 0, 14, 0, 0, 27, 0, 0, 0, 49, 63, 76, 45, 0, 0, 70, 60, 0, 0
|23, 0, 0, 36, 15, 0, 0, 0, 0, 0, 0, 0, 0, 28, 64, 0, 0, 0, 49, 0, 0, 0, 0, 0, 55, 0, 0, 17, 0, 20, 0, 0, 0, 0, 0, 0, 0, 0, 0, 0, 56, 80, 0, 0, 14, 0, 0, 0, 0, 0, 77, 0, 0, 0, 65, 0, 48, 0, 0, 0, 0, 0, 0, 11, 0, 0, 0, 8, 0, 53, 0, 0, 30, 0, 0, 0, 0, 0, 0, 68, 72
|51, 0, 0, 58, 0, 0, 0, 0, 12, 50, 0, 0, 3, 0, 52, 0, 0, 62, 0, 0, 0, 81, 0, 0, 68, 0, 0, 0, 0, 0, 0, 22, 0, 0, 0, 0, 0, 0, 0, 0, 0, 0, 44, 0, 0, 74, 0, 0, 15, 37, 0, 0, 79, 65, 0, 8, 46, 0, 47, 18, 0, 0, 32, 0, 0, 0, 0, 16, 54, 0, 0, 0, 0, 0, 29, 0, 0, 0, 0, 0, 0
|30, 79, 59, 0, 0, 0, 0, 0, 45, 0, 0, 0, 0, 0, 16, 2, 0, 61, 0, 0, 0, 25, 51, 60, 65, 74, 0, 0, 0, 33, 0, 0, 0, 0, 41, 56, 0, 0, 0, 0, 55, 28, 36, 0, 0, 0, 14, 0, 0, 0, 0, 0, 0, 0, 63, 0, 77, 0, 0, 0, 0, 0, 0, 58, 73, 0, 43, 0, 0, 0, 81, 0, 0, 64, 0, 0, 0, 0, 80, 0, 66
|0, 0, 0, 0, 0, 0, 0, 0, 0, 0, 31, 0, 29, 0, 0, 0, 0, 0, 0, 0, 0, 0, 0, 0, 0, 24, 0, 0, 44, 52, 0, 43, 0, 64, 72, 0, 0, 0, 0, 81, 0, 0, 0, 0, 26, 80, 0, 0, 20, 0, 0, 0, 0, 0, 0, 0, 0, 16, 0, 73, 75, 25, 0, 0, 10, 57, 0, 0, 63, 0, 55, 0, 0, 0, 58, 0, 0, 0, 0, 0, 14
|80, 0, 0, 69, 0, 0, 19, 0, 0, 67, 0, 70, 51, 0, 24, 0, 0, 65, 0, 0, 0, 45, 0, 0, 0, 0, 0, 0, 0, 0, 0, 0, 0, 0, 0, 0, 0, 0, 0, 0, 0, 0, 0, 0, 0, 0, 0, 0, 0, 0, 0, 0, 0, 0, 37, 0, 55, 0, 57, 0, 0, 0, 0, 0, 0, 0, 0, 0, 48, 29, 40, 0, 0, 0, 0, 81, 31, 22, 0, 0, 61
|0, 13, 0, 60, 0, 0, 28, 5, 0, 0, 0, 0, 0, 0, 0, 43, 69, 72, 0, 0, 47, 30, 0, 0, 0, 35, 0, 81, 0, 0, 46, 0, 15, 26, 0, 0, 0, 0, 0, 0, 0, 53, 48, 0, 0, 2, 63, 27, 0, 0, 56, 58, 0, 18, 0, 0, 0, 45, 0, 0, 0, 0, 0, 0, 12, 0, 0, 0, 0, 0, 64, 0, 0, 3, 0, 0, 0, 0, 73, 0, 19
|0, 0, 0, 0, 29, 67, 0, 0, 72, 56, 0, 0, 0, 45, 0, 0, 39, 0, 0, 0, 0, 0, 0, 0, 76, 0, 0, 0, 36, 27, 51, 0, 0, 0, 4, 59, 0, 0, 0, 0, 0, 20, 30, 0, 0, 0, 73, 0, 35, 71, 49, 0, 0, 0, 0, 0, 0, 69, 15, 0, 0, 31, 0, 0, 0, 3, 0, 0, 0, 0, 0, 0, 0, 0, 0, 23, 0, 0, 0, 0, 0
|0, 0, 0, 0, 0, 1, 0, 0, 0, 79, 0, 0, 33, 0, 0, 0, 57, 0, 63, 0, 69, 0, 0, 0, 0, 0, 0, 0, 0, 48, 0, 42, 0, 54, 0, 71, 0, 29, 19, 0, 0, 0, 2, 0, 8, 0, 0, 10, 0, 0, 0, 0, 0, 0, 0, 52, 0, 0, 0, 0, 38, 0, 0, 0, 0, 20, 0, 17, 15, 0, 0, 0, 28, 0, 0, 16, 0, 0, 49, 0, 0
|46, 0, 26, 0, 0, 32, 0, 0, 4, 0, 0, 0, 0, 2, 69, 0, 0, 48, 0, 5, 0, 0, 27, 0, 81, 0, 0, 0, 0, 0, 0, 0, 80, 0, 0, 0, 0, 0, 0, 0, 0, 0, 65, 0, 1, 0, 0, 0, 0, 15, 0, 38, 0, 41, 0, 0, 57, 51, 40, 0, 61, 0, 0, 33, 0, 0, 0, 0, 0, 0, 71, 0, 0, 0, 0, 0, 0, 68, 0, 67, 0
|0, 30, 0, 0, 0, 42, 63, 37, 33, 0, 21, 0, 0, 5, 56, 50, 0, 0, 0, 72, 0, 0, 0, 0, 0, 53, 0, 0, 55, 0, 0, 57, 0, 0, 54, 0, 0, 27, 0, 0, 0, 0, 59, 0, 0, 0, 0, 0, 0, 0, 0, 0, 0, 0, 64, 0, 7, 0, 0, 76, 0, 0, 46, 0, 67, 2, 0, 0, 0, 62, 34, 58, 0, 8, 26, 9, 0, 0, 0, 0, 0
|0, 0, 20, 0, 0, 72, 0, 0, 17, 0, 0, 0, 0, 0, 0, 0, 32, 3, 0, 60, 46, 0, 0, 79, 0, 0, 0, 0, 0, 1, 41, 0, 0, 78, 6, 0, 0, 0, 0, 0, 31, 50, 49, 0, 0, 0, 0, 0, 0, 0, 45, 0, 0, 0, 22, 0, 37, 0, 0, 0, 0, 71, 5, 36, 55, 0, 0, 0, 65, 0, 0, 11, 0, 0, 0, 28, 0, 0, 0, 0, 0
|0, 0, 0, 0, 70, 0, 76, 0, 0, 9, 1, 0, 6, 0, 0, 0, 0, 12, 0, 48, 8, 66, 0, 0, 0, 0, 0, 0, 19, 0, 0, 0, 45, 28, 16, 27, 0, 52, 0, 0, 0, 62, 0, 0, 0, 0, 0, 23, 0, 63, 42, 0, 0, 0, 0, 81, 0, 0, 0, 49, 0, 0, 0, 0, 0, 0, 0, 54, 40, 0, 0, 0, 0, 0, 0, 0, 0, 0, 4, 35, 0
|0, 0, 0, 0, 6, 0, 0, 44, 0, 0, 0, 18, 0, 0, 0, 26, 0, 0, 15, 61, 32, 0, 3, 0, 75, 0, 78, 0, 30, 77, 0, 64, 0, 0, 33, 51, 0, 0, 23, 34, 7, 0, 8, 0, 0, 0, 0, 0, 50, 0, 67, 31, 59, 1, 0, 0, 0, 0, 0, 0, 0, 0, 0, 0, 49, 0, 76, 0, 0, 63, 0, 0, 20, 0, 0, 0, 0, 0, 0, 0, 46
|0, 0, 74, 0, 22, 0, 0, 0, 49, 46, 0, 0, 20, 0, 0, 0, 0, 0, 23, 0, 0, 0, 0, 54, 0, 0, 0, 67, 0, 0, 63, 0, 0, 39, 0, 12, 0, 78, 0, 0, 0, 0, 0, 0, 0, 0, 0, 3, 17, 0, 0, 0, 0, 30, 0, 0, 8, 0, 0, 0, 69, 0, 0, 81, 0, 0, 5, 77, 0, 18, 0, 0, 0, 0, 0, 48, 0, 0, 42, 0, 0
|0, 0, 51, 55, 11, 0, 60, 0, 0, 54, 81, 53, 0, 0, 0, 14, 0, 45, 0, 0, 0, 0, 50, 0, 0, 65, 0, 0, 0, 5, 0, 56, 0, 0, 0, 0, 19, 0, 0, 0, 0, 0, 72, 0, 0, 0, 0, 35, 0, 0, 0, 0, 34, 0, 0, 0, 0, 0, 0, 38, 0, 0, 0, 0, 74, 0, 0, 79, 1, 0, 0, 0, 0, 0, 12, 22, 0, 73, 58, 0, 0
|0, 0, 0, 10, 73, 69, 0, 0, 0, 0, 0, 0, 67, 7, 0, 0, 25, 41, 0, 11, 0, 0, 0, 0, 71, 0, 0, 0, 50, 17, 0, 0, 0, 31, 0, 0, 4, 0, 63, 0, 0, 81, 0, 0, 5, 78, 58, 79, 33, 0, 0, 0, 0, 16, 0, 0, 0, 0, 0, 14, 0, 55, 0, 53, 21, 0, 0, 24, 0, 0, 0, 0, 0, 0, 0, 0, 0, 0, 0, 0, 0
|81, 0, 0, 65, 0, 79, 1, 18, 0, 8, 0, 0, 0, 0, 0, 0, 60, 0, 0, 63, 56, 0, 0, 0, 0, 0, 0, 53, 0, 58, 0, 0, 34, 4, 0, 0, 0, 0, 0, 39, 0, 0, 0, 43, 0, 5, 0, 57, 0, 72, 0, 0, 46, 0, 0, 70, 15, 0, 0, 0, 11, 0, 26, 0, 44, 0, 0, 0, 0, 0, 0, 0, 0, 69, 55, 0, 19, 0, 0, 0, 0
|0, 0, 0, 0, 0, 0, 0, 0, 64, 40, 0, 21, 61, 0, 31, 0, 79, 0, 50, 0, 0, 55, 0, 0, 28, 59, 0, 13, 0, 0, 70, 0, 0, 0, 0, 0, 0, 67, 0, 0, 0, 10, 0, 0, 0, 0, 0, 0, 0, 0, 0, 0, 0, 62, 72, 0, 54, 0, 0, 0, 5, 0, 0, 2, 42, 8, 0, 0, 0, 26, 0, 0, 0, 0, 0, 0, 34, 0, 0, 52, 0
|71, 0, 0, 4, 0, 0, 0, 0, 0, 0, 0, 0, 0, 0, 58, 0, 9, 0, 0, 0, 52, 0, 0, 0, 73, 0, 0, 0, 0, 0, 0, 0, 0, 0, 0, 64, 0, 0, 0, 17, 0, 0, 0, 31, 36, 0, 0, 28, 16, 0, 0, 0, 0, 39, 0, 0, 0, 77, 67, 0, 0, 0, 0, 0, 75, 0, 24, 14, 0, 0, 0, 0, 25, 0, 0, 69, 0, 0, 23, 0, 0
|0, 0, 65, 0, 14, 0, 0, 45, 0, 0, 55, 0, 0, 59, 0, 0, 0, 0, 0, 0, 0, 0, 0, 0, 4, 0, 31, 0, 25, 0, 75, 0, 5, 81, 0, 60, 0, 0, 43, 0, 72, 70, 9, 0, 0, 0, 0, 0, 0, 0, 0, 19, 0, 0, 0, 0, 0, 0, 0, 0, 0, 0, 61, 0, 0, 0, 0, 0, 0, 0, 0, 0, 0, 20, 79, 0, 0, 0, 0, 0, 0
|0, 0, 0, 0, 9, 0, 13, 0, 0, 0, 0, 2, 18, 23, 0, 0, 0, 0, 0, 66, 0, 60, 0, 0, 74, 0, 0, 0, 49, 11, 0, 0, 0, 55, 0, 0, 0, 0, 65, 0, 0, 0, 0, 0, 0, 0, 0, 0, 0, 0, 0, 0, 0, 44, 52, 64, 0, 0, 0, 0, 0, 0, 79, 0, 0, 0, 0, 0, 70, 0, 0, 0, 0, 68, 33, 0, 28, 0, 0, 0, 38
|0, 62, 80, 0, 0, 0, 0, 33, 0, 0, 0, 0, 0, 17, 0, 49, 0, 0, 65, 0, 0, 0, 46, 0, 0, 0, 0, 0, 0, 0, 66, 0, 0, 74, 42, 26, 0, 64, 14, 0, 0, 0, 0, 0, 58, 0, 0, 0, 0, 0, 0, 78, 23, 0, 0, 0, 0, 7, 0, 0, 0, 0, 0, 38, 0, 0, 20, 0, 0, 0, 5, 0, 0, 0, 63, 0, 0, 0, 0, 57, 54
|12, 0, 37, 0, 0, 0, 11, 0, 0, 22, 0, 50, 0, 36, 0, 0, 1, 15, 0, 69, 7, 40, 0, 0, 0, 0, 0, 0, 0, 0, 0, 0, 0, 0, 51, 77, 0, 81, 0, 0, 0, 0, 0, 44, 0, 0, 0, 0, 0, 60, 34, 0, 0, 68, 62, 0, 0, 20, 0, 17, 0, 38, 59, 0, 0, 21, 0, 45, 0, 64, 43, 0, 0, 0, 0, 0, 73, 0, 0, 0, 0
|20, 54, 52, 0, 0, 0, 67, 0, 0, 0, 0, 0, 4, 8, 0, 0, 0, 0, 0, 0, 0, 3, 63, 0, 0, 0, 0, 80, 0, 46, 0, 62, 0, 0, 0, 0, 51, 0, 57, 79, 0, 0, 0, 26, 0, 0, 0, 56, 48, 0, 0, 0, 11, 0, 0, 0, 0, 0, 0, 0, 0, 0, 0, 35, 6, 0, 0, 10, 17, 72, 44, 53, 0, 75, 40, 70, 66, 0, 45, 0, 0
|28, 0, 0, 0, 0, 0, 0, 2, 79, 0, 0, 0, 75, 0, 0, 0, 0, 0, 0, 0, 0, 0, 33, 0, 26, 0, 0, 0, 0, 38, 43, 0, 0, 0, 0, 0, 0, 0, 0, 0, 0, 30, 0, 29, 0, 0, 0, 0, 0, 0, 57, 0, 0, 61, 0, 0, 0, 0, 23, 51, 0, 0, 0, 59, 0, 0, 0, 0, 0, 0, 0, 65, 0, 0, 36, 0, 0, 0, 0, 0, 81
|10, 0, 0, 0, 0, 57, 0, 74, 56, 0, 0, 0, 0, 0, 0, 0, 0, 0, 67, 0, 0, 79, 0, 0, 41, 0, 0, 0, 0, 37, 0, 0, 0, 0, 0, 0, 0, 0, 0, 0, 77, 0, 47, 45, 0, 0, 0, 0, 0, 0, 53, 43, 0, 81, 0, 0, 0, 0, 0, 0, 8, 40, 0, 0, 0, 0, 0, 0, 30, 0, 0, 0, 11, 0, 0, 0, 0, 4, 0, 0, 0
|0, 0, 3, 47, 0, 0, 0, 0, 0, 28, 39, 51, 70, 0, 0, 0, 27, 0, 13, 0, 0, 0, 0, 76, 15, 57, 1, 0, 61, 0, 0, 16, 22, 0, 38, 62, 12, 0, 0, 72, 0, 0, 79, 0, 11, 0, 0, 0, 52, 0, 0, 0, 50, 53, 17, 0, 0, 55, 0, 0, 0, 0, 0, 0, 0, 0, 0, 35, 26, 0, 0, 18, 0, 0, 37, 0, 23, 0, 0, 0, 0
|0, 1, 0, 0, 36, 0, 0, 19, 0, 35, 62, 0, 0, 0, 0, 0, 0, 0, 79, 50, 80, 37, 0, 0, 0, 0, 0, 0, 0, 0, 0, 4, 0, 71, 0, 0, 0, 0, 67, 0, 0, 0, 32, 8, 0, 0, 70, 39, 0, 55, 14, 63, 6, 0, 0, 0, 0, 0, 48, 10, 0, 0, 76, 47, 0, 29, 0, 0, 0, 20, 0, 69, 0, 0, 9, 0, 0, 16, 0, 0, 27
|0, 0, 46, 0, 0, 0, 0, 0, 53, 0, 0, 0, 38, 0, 0, 0, 0, 0, 0, 0, 0, 63, 0, 0, 22, 75, 0, 58, 0, 0, 0, 0, 0, 0, 0, 0, 0, 0, 13, 0, 19, 0, 28, 14, 0, 59, 0, 67, 0, 45, 0, 80, 0, 0, 0, 0, 0, 0, 0, 39, 0, 0, 0, 0, 0, 0, 0, 12, 72, 0, 0, 30, 0, 0, 43, 8, 0, 0, 15, 42, 47
|0, 72, 18, 0, 66, 0, 0, 0, 0, 0, 0, 0, 0, 0, 77, 0, 33, 14, 0, 0, 0, 0, 45, 0, 0, 61, 0, 0, 0, 0, 0, 0, 0, 0, 0, 0, 0, 40, 0, 0, 0, 0, 0, 0, 0, 0, 0, 0, 0, 8, 0, 0, 0, 11, 0, 0, 70, 0, 54, 0, 7, 0, 0, 0, 0, 48, 0, 81, 67, 4, 0, 41, 0, 50, 0, 0, 0, 19, 71, 0, 56
|0, 0, 0, 0, 0, 0, 0, 0, 0, 53, 0, 0, 0, 56, 0, 0, 0, 0, 27, 0, 0, 24, 66, 0, 0, 0, 25, 0, 0, 0, 0, 0, 74, 0, 0, 18, 29, 0, 0, 0, 0, 0, 0, 0, 0, 0, 35, 4, 0, 2, 0, 13, 0, 0, 0, 3, 0, 75, 0, 15, 0, 8, 0, 0, 36, 0, 0, 55, 0, 0, 0, 0, 64, 0, 0, 0, 65, 0, 68, 0, 5
|0, 0, 7, 0, 56, 12, 45, 42, 0, 0, 0, 0, 72, 0, 0, 0, 0, 0, 10, 0, 0, 0, 0, 78, 0, 0, 0, 52, 0, 0, 39, 29, 0, 0, 0, 75, 0, 0, 9, 30, 48, 38, 0, 0, 0, 0, 0, 0, 0, 0, 0, 47, 0, 71, 57, 0, 0, 22, 19, 0, 0, 50, 20, 8, 0, 0, 0, 0, 0, 0, 0, 0, 0, 4, 0, 46, 53, 0, 0, 0, 0
|41, 0, 2, 43, 0, 51, 0, 0, 26, 0, 0, 0, 46, 11, 0, 73, 0, 18, 0, 6, 0, 0, 0, 0, 0, 0, 0, 0, 0, 0, 5, 0, 0, 0, 0, 0, 0, 0, 0, 0, 0, 0, 0, 0, 0, 0, 0, 34, 0, 28, 20, 0, 0, 0, 78, 33, 0, 0, 0, 63, 0, 45, 0, 0, 0, 0, 0, 0, 38, 70, 22, 0, 0, 0, 3, 0, 7, 0, 0, 0, 0
|0, 0, 0, 0, 0, 0, 0, 69, 0, 66, 0, 0, 0, 75, 19, 0, 0, 0, 0, 0, 0, 32, 31, 0, 8, 0, 0, 0, 0, 47, 0, 0, 0, 0, 0, 9, 0, 0, 51, 70, 0, 0, 0, 0, 0, 0, 65, 0, 0, 0, 33, 77, 0, 0, 0, 0, 52, 25, 0, 0, 49, 0, 38, 0, 0, 0, 0, 0, 0, 0, 0, 71, 73, 35, 0, 0, 0, 0, 22, 63, 0
|0, 65, 54, 0, 0, 0, 0, 0, 62, 0, 0, 0, 0, 37, 0, 0, 0, 0, 0, 0, 0, 23, 0, 0, 0, 0, 0, 0, 0, 0, 0, 77, 0, 0, 7, 0, 0, 69, 0, 0, 0, 33, 58, 0, 0, 0, 0, 0, 0, 0, 0, 3, 0, 0, 0, 0, 36, 2, 0, 0, 0, 0, 0, 0, 0, 0, 0, 0, 0, 15, 51, 0, 0, 0, 0, 0, 80, 0, 0, 0, 29
|0, 0, 0, 0, 0, 0, 0, 0, 24, 18, 0, 0, 0, 0, 63, 0, 0, 0, 0, 0, 0, 0, 30, 1, 47, 0, 0, 0, 0, 36, 0, 20, 7, 0, 0, 0, 0, 0, 0, 0, 0, 3, 0, 0, 0, 0, 50, 25, 0, 0, 0, 0, 32, 0, 0, 76, 0, 0, 0, 80, 62, 0, 0, 12, 0, 77, 0, 0, 6, 0, 26, 0, 0, 0, 31, 68, 54, 40, 57, 0, 0
|0, 0, 0, 0, 61, 0, 6, 12, 0, 0, 41, 0, 30, 48, 0, 74, 28, 33, 0, 0, 0, 4, 0, 71, 44, 81, 45, 31, 18, 0, 0, 0, 50, 37, 0, 57, 0, 16, 60, 0, 2, 0, 17, 0, 0, 0, 0, 0, 56, 47, 0, 0, 27, 0, 66, 75, 0, 0, 0, 0, 0, 36, 0, 25, 24, 0, 38, 49, 0, 0, 0, 0, 0, 0, 23, 59, 26, 0, 0, 64, 0
|0, 0, 0, 64, 0, 0, 0, 7, 3, 78, 54, 0, 0, 71, 0, 9, 0, 0, 0, 0, 21, 0, 0, 0, 0, 0, 0, 0, 0, 0, 0, 0, 0, 0, 0, 0, 0, 0, 26, 0, 0, 0, 0, 13, 0, 0, 0, 0, 0, 0, 0, 0, 40, 0, 0, 18, 6, 0, 0, 0, 0, 58, 41, 0, 0, 0, 51, 0, 66, 0, 31, 0, 0, 0, 0, 0, 0, 0, 0, 0, 43
|0, 0, 0, 0, 0, 0, 0, 0, 0, 0, 26, 0, 0, 0, 0, 0, 0, 0, 0, 0, 11, 0, 0, 0, 0, 25, 38, 62, 0, 16, 0, 71, 0, 0, 0, 0, 50, 0, 0, 0, 0, 48, 0, 0, 0, 19, 0, 0, 0, 0, 0, 81, 0, 64, 0, 0, 0, 0, 0, 12, 67, 0, 0, 0, 0, 34, 21, 0, 33, 0, 0, 43, 0, 0, 0, 0, 0, 0, 0, 0, 0
|0, 0, 0, 0, 0, 0, 0, 0, 50, 0, 0, 0, 45, 0, 0, 46, 0, 0, 0, 17, 48, 57, 0, 0, 0, 0, 0, 0, 0, 24, 0, 0, 0, 0, 0, 0, 0, 0, 21, 0, 0, 0, 0, 0, 44, 0, 0, 0, 53, 0, 0, 0, 0, 0, 0, 0, 0, 5, 0, 0, 15, 0, 0, 0, 39, 0, 0, 0, 0, 0, 0, 0, 0, 0, 0, 0, 0, 12, 0, 0, 0
|0, 0, 0, 40, 0, 47, 0, 0, 0, 61, 0, 77, 49, 64, 8, 0, 0, 0, 0, 0, 0, 0, 0, 0, 39, 7, 0, 75, 0, 3, 0, 66, 0, 41, 52, 0, 33, 0, 0, 0, 0, 0, 0, 0, 0, 57, 0, 0, 0, 0, 0, 0, 0, 0, 44, 0, 0, 0, 0, 0, 53, 0, 0, 0, 0, 0, 0, 0, 0, 27, 0, 0, 0, 0, 0, 0, 0, 13, 0, 0, 0
|57, 14, 43, 62, 18, 0, 0, 17, 0, 36, 3, 0, 13, 66, 0, 0, 0, 1, 0, 0, 0, 0, 0, 55, 0, 0, 0, 0, 4, 0, 0, 81, 39, 0, 5, 15, 67, 0, 0, 0, 0, 0, 0, 0, 0, 61, 0, 0, 0, 75, 7, 0, 0, 0, 0, 32, 64, 23, 0, 31, 74, 0, 0, 0, 19, 0, 16, 0, 78, 0, 2, 54, 0, 71, 0, 0, 0, 0, 50, 0, 0
|79, 0, 71, 0, 54, 48, 0, 21, 0, 0, 65, 43, 7, 0, 0, 0, 20, 51, 0, 0, 0, 0, 0, 33, 0, 0, 0, 0, 0, 76, 0, 0, 0, 6, 77, 0, 10, 0, 0, 0, 0, 0, 0, 0, 0, 3, 0, 0, 31, 0, 0, 0, 0, 0, 0, 0, 0, 0, 56, 57, 0, 47, 0, 0, 0, 58, 0, 0, 0, 0, 0, 0, 0, 46, 0, 32, 0, 0, 0, 0, 0
|0, 0, 36, 0, 0, 0, 0, 0, 0, 42, 69, 55, 39, 0, 29, 6, 17, 37, 0, 0, 0, 0, 0, 0, 0, 0, 60, 0, 0, 0, 0, 0, 0, 0, 0, 72, 0, 0, 0, 77, 12, 0, 0, 0, 0, 0, 0, 0, 0, 5, 0, 0, 0, 0, 0, 0, 0, 0, 38, 0, 3, 0, 25, 0, 0, 0, 0, 0, 0, 45, 0, 0, 0, 0, 0, 14, 0, 75, 0, 81, 0
|61, 0, 0, 0, 67, 0, 0, 0, 0, 51, 0, 34, 40, 0, 0, 78, 0, 52, 0, 0, 0, 0, 0, 0, 0, 0, 0, 0, 0, 0, 0, 0, 0, 0, 70, 0, 3, 0, 12, 0, 0, 0, 0, 0, 13, 0, 0, 0, 0, 0, 0, 8, 0, 0, 21, 0, 0, 0, 37, 0, 42, 0, 63, 0, 0, 53, 0, 0, 0, 0, 0, 0, 0, 0, 0, 0, 0, 26, 24, 0, 0
|0, 0, 10, 0, 0, 41, 14, 78, 25, 80, 0, 0, 57, 0, 44, 0, 13, 0, 0, 0, 63, 0, 0, 0, 0, 67, 58, 0, 17, 0, 4, 0, 0, 0, 0, 7, 0, 0, 0, 38, 0, 0, 0, 0, 24, 0, 0, 43, 0, 0, 6, 0, 0, 0, 0, 0, 0, 34, 0, 0, 0, 0, 0, 68, 40, 37, 65, 47, 0, 0, 42, 2, 0, 0, 1, 0, 0, 0, 0, 0, 55
|0, 5, 48, 0, 0, 0, 22, 0, 0, 55, 0, 0, 0, 0, 37, 0, 0, 26, 0, 20, 0, 0, 0, 74, 0, 0, 0, 0, 38, 0, 0, 39, 0, 0, 0, 0, 0, 0, 0, 0, 0, 0, 0, 19, 41, 0, 0, 0, 0, 14, 0, 18, 0, 10, 0, 0, 0, 0, 2, 0, 32, 0, 0, 0, 0, 62, 0, 0, 0, 0, 0, 77, 0, 67, 57, 0, 0, 0, 65, 13, 73
|0, 0, 57, 0, 0, 0, 74, 76, 0, 0, 24, 81, 31, 0, 0, 0, 54, 0, 0, 0, 0, 0, 12, 0, 29, 0, 0, 35, 0, 0, 67, 0, 0, 0, 36, 0, 0, 10, 0, 0, 0, 0, 0, 0, 2, 69, 0, 47, 13, 0, 0, 0, 0, 0, 0, 0, 0, 0, 0, 0, 56, 0, 0, 0, 0, 0, 58, 3, 0, 0, 0, 15, 0, 0, 0, 0, 0, 0, 7, 0, 0
|0, 0, 0, 0, 43, 0, 0, 0, 0, 0, 0, 7, 0, 39, 0, 0, 8, 0, 0, 0, 0, 0, 0, 0, 0, 0, 0, 2, 0, 23, 0, 55, 62, 0, 0, 58, 0, 25, 0, 65, 0, 0, 0, 64, 57, 67, 26, 0, 0, 0, 0, 0, 0, 0, 0, 0, 0, 12, 35, 0, 51, 0, 22, 46, 0, 0, 0, 0, 0, 0, 0, 0, 0, 6, 0, 0, 0, 0, 38, 0, 0
|27, 0, 0, 0, 0, 0, 36, 0, 0, 30, 0, 0, 12, 73, 0, 0, 67, 32, 0, 0, 0, 41, 0, 68, 53, 0, 52, 0, 0, 0, 0, 0, 0, 0, 0, 0, 0, 17, 44, 0, 20, 54, 0, 22, 0, 40, 0, 42, 0, 0, 0, 0, 0, 0, 23, 0, 0, 57, 0, 0, 0, 5, 0, 76, 7, 0, 0, 0, 0, 0, 0, 0, 0, 0, 0, 34, 0, 0, 64, 0, 0
|69, 0, 64, 0, 40, 0, 0, 79, 0, 0, 17, 0, 0, 3, 0, 22, 0, 0, 0, 44, 25, 0, 0, 0, 72, 0, 0, 0, 0, 12, 8, 0, 18, 20, 0, 1, 6, 0, 0, 0, 0, 74, 14, 0, 0, 0, 23, 0, 0, 0, 0, 0, 0, 59, 76, 0, 0, 0, 0, 0, 0, 0, 78, 0, 0, 0, 0, 39, 0, 52, 0, 0, 15, 0, 19, 0, 68, 50, 29, 0, 11
|42, 45, 44, 33, 65, 0, 0, 0, 0, 14, 0, 74, 28, 47, 0, 0, 0, 0, 26, 0, 76, 0, 0, 0, 0, 6, 0, 0, 0, 0, 0, 50, 0, 0, 0, 0, 43, 63, 0, 0, 0, 0, 0, 0, 0, 81, 24, 0, 0, 0, 0, 71, 51, 0, 0, 0, 17, 0, 4, 0, 0, 0, 0, 0, 25, 67, 0, 0, 0, 36, 0, 0, 0, 39, 0, 0, 0, 0, 70, 60, 80
|1, 50, 12, 53, 0, 0, 34, 0, 0, 0, 70, 0, 0, 0, 0, 61, 36, 0, 55, 37, 0, 0, 0, 0, 69, 0, 0, 0, 0, 0, 0, 0, 0, 73, 0, 0, 0, 0, 0, 0, 0, 0, 0, 0, 0, 0, 0, 0, 0, 21, 0, 0, 0, 0, 0, 0, 31, 24, 0, 0, 0, 52, 67, 0, 48, 0, 74, 0, 22, 0, 18, 0, 3, 0, 35, 41, 0, 0, 0, 0, 0
|0, 0, 0, 29, 44, 0, 56, 67, 0, 0, 0, 0, 0, 0, 0, 0, 0, 40, 0, 0, 0, 1, 0, 0, 19, 0, 30, 22, 33, 0, 0, 0, 0, 7, 0, 0, 34, 0, 0, 0, 60, 0, 0, 0, 0, 26, 6, 0, 63, 0, 0, 0, 0, 0, 55, 0, 0, 65, 0, 0, 0, 0, 72, 0, 0, 0, 0, 0, 24, 76, 0, 31, 0, 0, 38, 39, 0, 64, 0, 0, 59
|0, 11, 0, 0, 8, 0, 0, 31, 0, 27, 30, 0, 21, 0, 0, 0, 0, 0, 0, 0, 0, 0, 0, 0, 0, 0, 0, 49, 0, 0, 18, 0, 64, 0, 48, 0, 20, 0, 0, 0, 0, 0, 0, 0, 0, 35, 0, 37, 0, 29, 75, 0, 0, 0, 0, 0, 0, 0, 0, 0, 0, 0, 0, 0, 34, 0, 42, 56, 2, 0, 0, 0, 0, 44, 6, 0, 51, 0, 0, 0, 0
|0, 0, 0, 0, 0, 0, 50, 0, 19, 0, 77, 0, 2, 51, 0, 0, 14, 0, 0, 0, 78, 8, 68, 0, 21, 80, 65, 0, 0, 0, 0, 0, 0, 0, 0, 0, 76, 0, 0, 0, 41, 0, 0, 6, 0, 34, 0, 0, 0, 0, 0, 0, 0, 0, 0, 0, 0, 0, 44, 0, 0, 64, 31, 0, 0, 0, 0, 22, 0, 61, 0, 0, 0, 0, 24, 0, 0, 0, 0, 55, 0
|39, 0, 0, 0, 0, 0, 0, 81, 0, 44, 0, 0, 0, 70, 0, 0, 0, 0, 0, 0, 0, 75, 0, 0, 10, 0, 37, 24, 0, 0, 0, 0, 0, 50, 0, 0, 0, 26, 0, 0, 33, 19, 74, 0, 40, 0, 43, 0, 0, 0, 46, 57, 0, 0, 32, 0, 0, 6, 0, 36, 47, 11, 49, 0, 5, 0, 0, 0, 0, 0, 30, 59, 0, 45, 0, 76, 0, 0, 0, 0, 67
|0, 42, 0, 0, 55, 0, 0, 0, 0, 5, 0, 0, 0, 0, 0, 0, 0, 0, 72, 0, 0, 49, 0, 0, 0, 77, 32, 0, 0, 4, 0, 0, 27, 0, 26, 6, 8, 71, 0, 0, 78, 0, 0, 0, 0, 0, 68, 0, 39, 0, 0, 0, 0, 0, 0, 37, 0, 0, 0, 0, 0, 0, 9, 0, 58, 0, 62, 13, 0, 0, 0, 0, 46, 0, 0, 0, 11, 0, 0, 54, 0
|0, 76, 0, 0, 0, 0, 72, 16, 0, 0, 67, 0, 11, 0, 0, 37, 0, 0, 0, 39, 0, 71, 2, 0, 0, 0, 0, 0, 63, 0, 0, 0, 0, 0, 0, 52, 64, 0, 0, 0, 0, 0, 0, 0, 61, 0, 0, 55, 0, 10, 22, 0, 0, 45, 0, 0, 0, 62, 0, 0, 0, 0, 0, 0, 0, 0, 0, 0, 43, 0, 0, 0, 0, 0, 0, 80, 0, 32, 9, 0, 0
|0, 0, 0, 45, 0, 53, 0, 71, 57, 0, 9, 1, 0, 0, 0, 0, 0, 0, 0, 0, 44, 74, 0, 11, 0, 0, 0, 0, 0, 0, 37, 0, 0, 0, 0, 0, 0, 48, 0, 0, 81, 0, 0, 0, 67, 0, 0, 0, 19, 0, 79, 41, 42, 0, 75, 0, 40, 10, 0, 0, 0, 0, 0, 7, 0, 0, 0, 0, 8, 0, 0, 60, 0, 14, 0, 0, 0, 0, 28, 0, 18
|0, 0, 0, 54, 0, 0, 0, 0, 0, 57, 0, 0, 0, 0, 0, 0, 45, 0, 0, 0, 0, 0, 36, 0, 0, 0, 35, 0, 3, 0, 0, 0, 0, 12, 0, 0, 2, 0, 46, 66, 52, 0, 0, 0, 0, 28, 0, 0, 0, 0, 62, 30, 0, 14, 0, 0, 20, 0, 0, 0, 0, 76, 0, 55, 4, 0, 0, 0, 0, 0, 0, 0, 0, 0, 0, 0, 0, 0, 31, 0, 0
|0, 0, 0, 0, 5, 0, 0, 65, 0, 0, 0, 0, 0, 0, 79, 41, 49, 0, 0, 0, 0, 0, 62, 0, 60, 0, 56, 0, 0, 0, 30, 13, 0, 0, 0, 0, 0, 45, 0, 0, 0, 23, 0, 0, 55, 0, 0, 0, 0, 0, 51, 0, 0, 0, 0, 0, 2, 0, 0, 8, 80, 0, 71, 0, 46, 0, 0, 0, 0, 48, 37, 0, 0, 0, 0, 0, 0, 0, 0, 0, 0
|0, 0, 0, 67, 0, 2, 73, 57, 0, 1, 5, 0, 35, 0, 0, 0, 0, 9, 38, 0, 15, 0, 72, 0, 54, 0, 0, 0, 0, 19, 0, 18, 0, 77, 0, 31, 0, 0, 16, 44, 71, 37, 0, 50, 0, 0, 0, 45, 0, 0, 0, 29, 4, 0, 0, 62, 0, 78, 0, 46, 22, 0, 74, 0, 0, 59, 80, 25, 47, 6, 39, 0, 34, 0, 41, 42, 0, 0, 56, 0, 0
|0, 0, 0, 0, 80, 0, 35, 24, 38, 17, 0, 0, 0, 0, 0, 0, 0, 0, 0, 0, 42, 22, 0, 0, 0, 0, 0, 3, 0, 0, 0, 0, 29, 0, 0, 37, 0, 0, 0, 0, 0, 0, 0, 0, 27, 0, 0, 0, 44, 20, 0, 61, 0, 0, 0, 0, 0, 0, 0, 79, 0, 65, 0, 0, 0, 0, 0, 2, 0, 0, 58, 13, 0, 0, 0, 0, 0, 0, 0, 0, 0
|0, 15, 56, 0, 0, 0, 0, 0, 0, 0, 28, 0, 0, 0, 66, 0, 81, 71, 51, 0, 0, 39, 0, 29, 0, 32, 10, 0, 0, 41, 0, 0, 16, 0, 0, 0, 0, 0, 0, 0, 79, 0, 0, 0, 0, 0, 72, 0, 0, 0, 0, 0, 0, 22, 49, 0, 14, 3, 25, 48, 55, 0, 0, 18, 0, 0, 53, 0, 0, 0, 0, 0, 57, 0, 0, 0, 17, 0, 0, 0, 0
|0, 0, 0, 0, 0, 18, 0, 0, 13, 0, 0, 0, 69, 0, 0, 0, 15, 0, 80, 0, 67, 0, 0, 35, 0, 50, 3, 14, 78, 0, 27, 11, 0, 0, 0, 0, 0, 0, 0, 0, 0, 31, 0, 0, 46, 25, 75, 65, 0, 0, 0, 54, 0, 9, 43, 0, 0, 70, 0, 30, 0, 0, 37, 0, 0, 0, 8, 40, 0, 0, 0, 0, 0, 0, 0, 0, 55, 0, 0, 0, 36
|0, 0, 0, 0, 0, 78, 0, 0, 0, 0, 0, 10, 42, 0, 68, 31, 0, 36, 0, 0, 0, 65, 0, 0, 0, 33, 0, 0, 0, 30, 0, 52, 0, 0, 0, 0, 15, 18, 61, 0, 0, 0, 0, 0, 0, 0, 5, 0, 0, 0, 0, 0, 0, 2, 0, 56, 0, 27, 0, 40, 77, 0, 45, 0, 0, 0, 69, 0, 0, 17, 0, 0, 0, 0, 0, 71, 74, 0, 0, 0, 7
|40, 0, 0, 0, 0, 0, 0, 0, 81, 0, 0, 0, 27, 18, 72, 0, 56, 0, 0, 0, 0, 0, 0, 0, 0, 14, 0, 42, 0, 34, 36, 0, 17, 0, 75, 0, 0, 0, 0, 0, 0, 57, 0, 0, 0, 0, 59, 0, 37, 0, 26, 0, 43, 0, 54, 0, 0, 0, 0, 69, 71, 0, 0, 73, 0, 0, 0, 0, 0, 32, 0, 0, 4, 0, 76, 0, 35, 66, 0, 0, 15
|65, 0, 0, 0, 0, 0, 0, 0, 0, 0, 0, 0, 0, 0, 2, 40, 0, 75, 0, 0, 0, 68, 21, 0, 63, 0, 27, 0, 0, 0, 0, 0, 0, 0, 0, 0, 0, 66, 0, 67, 70, 0, 33, 0, 29, 16, 0, 0, 76, 56, 0, 0, 53, 0, 0, 0, 0, 0, 0, 0, 0, 7, 34, 0, 0, 0, 48, 0, 0, 1, 0, 72, 0, 0, 0, 0, 12, 20, 61, 28, 44
|0, 29, 41, 12, 0, 0, 0, 0, 0, 76, 0, 0, 44, 0, 0, 0, 0, 19, 0, 0, 0, 0, 0, 0, 25, 0, 0, 26, 20, 7, 22, 0, 0, 38, 0, 0, 75, 0, 0, 78, 0, 0, 0, 0, 0, 0, 0, 0, 0, 80, 0, 0, 55, 0, 0, 24, 0, 18, 17, 0, 31, 0, 0, 0, 28, 0, 0, 33, 0, 0, 62, 14, 0, 0, 0, 72, 0, 79, 0, 1, 0
|6, 0, 0, 11, 0, 0, 0, 0, 31, 0, 0, 0, 0, 4, 21, 0, 0, 0, 0, 0, 0, 0, 71, 23, 0, 0, 0, 0, 76, 0, 0, 0, 48, 53, 0, 0, 0, 0, 0, 0, 64, 0, 0, 0, 0, 0, 0, 0, 0, 36, 0, 62, 0, 74, 0, 38, 0, 0, 0, 0, 0, 0, 0, 0, 0, 0, 0, 0, 0, 0, 0, 0, 0, 0, 0, 0, 0, 0, 0, 0, 0
|0, 0, 0, 0, 26, 0, 0, 0, 0, 0, 51, 22, 0, 0, 9, 0, 0, 0, 0, 53, 61, 0, 0, 0, 0, 0, 63, 0, 0, 21, 0, 0, 0, 47, 0, 0, 0, 80, 0, 11, 0, 77, 76, 1, 0, 54, 56, 0, 68, 0, 0, 15, 2, 0, 0, 13, 0, 0, 0, 0, 0, 0, 0, 0, 0, 30, 17, 71, 81, 0, 0, 0, 0, 16, 27, 64, 0, 0, 78, 73, 0
|0, 32, 69, 0, 0, 0, 51, 0, 54, 0, 50, 0, 0, 0, 0, 28, 0, 0, 0, 8, 0, 0, 0, 0, 0, 42, 55, 0, 0, 9, 0, 0, 0, 24, 0, 0, 72, 0, 0, 0, 0, 0, 0, 0, 0, 0, 0, 20, 67, 0, 0, 0, 0, 76, 10, 0, 0, 46, 0, 0, 0, 0, 0, 0, 0, 0, 66, 0, 0, 0, 0, 64, 0, 0, 0, 18, 57, 0, 0, 0, 1
|0, 81, 38, 0, 17, 14, 0, 15, 0, 0, 0, 0, 52, 0, 34, 1, 0, 0, 16, 0, 0, 0, 41, 18, 12, 78, 13, 0, 0, 0, 0, 59, 0, 0, 0, 0, 0, 24, 0, 0, 0, 29, 0, 0, 0, 77, 0, 0, 0, 0, 0, 65, 5, 0, 53, 0, 4, 0, 0, 0, 0, 70, 0, 0, 0, 0, 0, 0, 0, 22, 21, 67, 0, 28, 0, 0, 0, 47, 0, 0, 62
|0, 40, 0, 0, 0, 0, 0, 0, 0, 15, 42, 0, 0, 0, 0, 0, 58, 31, 0, 46, 81, 0, 0, 32, 0, 60, 0, 27, 0, 55, 25, 0, 4, 0, 0, 0, 0, 0, 0, 0, 0, 0, 63, 36, 0, 0, 52, 0, 0, 0, 0, 0, 0, 0, 0, 0, 0, 0, 0, 47, 0, 0, 0, 0, 0, 0, 73, 0, 0, 0, 0, 0, 0, 41, 0, 0, 0, 0, 2, 0, 68
|0, 12, 0, 27, 0, 0, 0, 0, 76, 0, 44, 0, 0, 0, 0, 0, 0, 0, 0, 0, 0, 38, 73, 0, 0, 30, 26, 64, 28, 0, 60, 0, 0, 0, 65, 79, 25, 0, 52, 0, 0, 0, 0, 0, 70, 41, 0, 0, 0, 35, 9, 0, 48, 19, 0, 0, 0, 0, 0, 67, 0, 0, 57, 0, 20, 16, 0, 32, 0, 0, 0, 0, 56, 17, 0, 31, 46, 0, 0, 0, 0
|0, 19, 0, 0, 0, 0, 0, 0, 0, 0, 32, 0, 0, 0, 0, 0, 0, 0, 66, 4, 0, 31, 10, 0, 0, 0, 21, 0, 48, 0, 0, 0, 0, 0, 0, 0, 0, 0, 0, 0, 9, 0, 0, 0, 0, 17, 0, 0, 0, 0, 0, 55, 0, 0, 24, 1, 27, 0, 59, 0, 33, 0, 0, 0, 0, 0, 0, 0, 0, 57, 0, 12, 0, 0, 0, 0, 0, 51, 0, 0, 34
|22, 73, 0, 18, 0, 0, 37, 0, 0, 0, 0, 0, 0, 0, 0, 19, 72, 24, 0, 2, 0, 0, 0, 6, 0, 0, 0, 0, 74, 26, 0, 7, 0, 13, 0, 0, 0, 0, 3, 0, 0, 0, 0, 46, 0, 0, 10, 32, 0, 50, 66, 0, 0, 0, 0, 0, 0, 0, 0, 0, 45, 51, 0, 0, 11, 0, 1, 0, 35, 0, 0, 0, 0, 0, 0, 0, 0, 0, 0, 0, 0
|0, 49, 0, 0, 0, 0, 24, 0, 0, 0, 0, 0, 0, 78, 0, 0, 0, 0, 68, 0, 0, 0, 0, 65, 0, 0, 22, 0, 10, 0, 0, 51, 0, 76, 0, 0, 0, 0, 0, 40, 0, 0, 0, 0, 0, 0, 0, 14, 0, 0, 0, 0, 0, 0, 0, 0, 0, 0, 0, 37, 0, 0, 0, 0, 0, 0, 0, 0, 25, 0, 0, 0, 0, 0, 0, 0, 0, 0, 0, 0, 0
|0, 0, 53, 0, 0, 0, 0, 0, 1, 0, 0, 0, 0, 0, 0, 0, 41, 0, 0, 0, 36, 0, 74, 0, 7, 0, 67, 0, 73, 0, 32, 0, 0, 29, 0, 2, 0, 0, 0, 0, 0, 64, 0, 0, 0, 0, 0, 75, 0, 27, 0, 0, 0, 0, 34, 0, 0, 0, 0, 0, 0, 0, 0, 0, 0, 0, 0, 26, 28, 0, 0, 0, 0, 0, 54, 0, 0, 0, 0, 0, 0|];