order = 9;
grid = [|0, 0, 0, 13, 0, 0, 0, 0, 71, 17, 0, 0, 0, 32, 0, 0, 0, 0, 73, 0, 57, 4, 67, 0, 0, 0, 0, 0, 0, 40, 0, 0, 0, 0, 0, 0, 0, 50, 0, 0, 3, 24, 0, 0, 1, 0, 8, 0, 27, 0, 0, 0, 0, 0, 0, 25, 51, 26, 65, 69, 80, 6, 0, 0, 0, 11, 0, 0, 0, 54, 0, 0, 0, 0, 30, 0, 0, 0, 0, 0, 0
|0, 48, 54, 0, 0, 40, 0, 0, 68, 0, 0, 0, 44, 0, 34, 0, 0, 0, 0, 0, 11, 0, 0, 0, 66, 0, 0, 0, 0, 0, 0, 0, 46, 12, 59, 0, 0, 0, 0, 0, 0, 0, 79, 30, 0, 18, 0, 0, 0, 15, 0, 0, 0, 52, 0, 0, 0, 0, 0, 0, 74, 0, 27, 0, 0, 0, 63, 5, 0, 0, 0, 0, 78, 0, 0, 2, 0, 25, 0, 0, 43
|62, 0, 0, 58, 0, 30, 0, 0, 12, 26, 0, 0, 0, 46, 0, 0, 0, 0, 0, 0, 0, 0, 33, 80, 0, 0, 0, 0, 0, 71, 0, 0, 0, 2, 0, 0, 38, 65, 37, 64, 51, 0, 0, 0, 0, 0, 73, 32, 0, 0, 35, 0, 70, 0, 4, 0, 0, 41, 0, 0, 0, 0, 8, 0, 0, 0, 0, 0, 0, 0, 0, 0, 0, 5, 0, 0, 0, 0, 0, 0, 11
|0, 0, 79, 0, 0, 0, 0, 0, 0, 16, 0, 0, 0, 0, 0, 0, 0, 0, 0, 0, 0, 0, 0, 0, 0, 0, 0, 24, 0, 0, 6, 31, 0, 0, 0, 44, 34, 0, 0, 0, 0, 0, 9, 0, 58, 0, 0, 0, 0, 0, 10, 17, 0, 0, 23, 0, 0, 0, 0, 0, 56, 0, 0, 0, 0, 42, 0, 0, 0, 0, 0, 0, 60, 0, 0, 0, 0, 0, 29, 0, 32
|59, 0, 6, 4, 0, 0, 0, 0, 0, 0, 7, 0, 29, 0, 0, 9, 3, 11, 0, 0, 58, 41, 38, 32, 0, 0, 16, 0, 0, 0, 67, 0, 0, 20, 0, 0, 49, 0, 0, 0, 0, 0, 0, 0, 35, 0, 0, 60, 0, 13, 77, 0, 78, 0, 0, 0, 0, 0, 5, 55, 24, 0, 0, 0, 75, 0, 0, 0, 0, 0, 0, 19, 0, 68, 0, 0, 0, 0, 33, 37, 0
|0, 0, 0, 0, 0, 0, 7, 11, 0, 38, 0, 61, 0, 28, 0, 0, 0, 0, 0, 25, 5, 0, 36, 12, 14, 62, 0, 0, 53, 0, 0, 18, 79, 54, 0, 48, 0, 0, 0, 0, 0, 0, 0, 68, 77, 44, 0, 0, 0, 0, 40, 0, 46, 64, 0, 0, 0, 37, 0, 9, 0, 0, 72, 0, 0, 0, 0, 0, 0, 71, 0, 51, 0, 0, 42, 0, 0, 15, 0, 65, 0
|0, 53, 0, 0, 50, 0, 0, 18, 0, 0, 0, 0, 0, 78, 0, 0, 0, 0, 0, 0, 0, 0, 0, 0, 0, 59, 35, 0, 0, 15, 10, 0, 42, 0, 0, 45, 0, 0, 32, 21, 0, 0, 0, 0, 0, 0, 0, 0, 28, 9, 0, 38, 11, 0, 0, 0, 0, 12, 0, 0, 0, 0, 0, 0, 0, 0, 0, 0, 79, 34, 0, 0, 0, 26, 0, 0, 0, 0, 0, 0, 0
|0, 0, 0, 0, 29, 0, 0, 34, 17, 0, 0, 0, 0, 0, 12, 14, 35, 0, 0, 0, 0, 0, 0, 21, 46, 43, 1, 0, 0, 0, 0, 0, 47, 0, 0, 78, 0, 0, 0, 0, 0, 31, 0, 10, 0, 0, 0, 0, 0, 0, 74, 56, 6, 0, 19, 0, 0, 76, 0, 30, 0, 22, 16, 58, 57, 0, 0, 0, 0, 77, 45, 28, 8, 0, 18, 0, 66, 0, 0, 0, 0
|24, 0, 0, 0, 0, 0, 0, 8, 0, 0, 0, 48, 0, 0, 62, 0, 66, 0, 0, 0, 0, 0, 53, 72, 0, 0, 0, 0, 0, 0, 0, 0, 0, 0, 0, 0, 0, 22, 19, 0, 0, 0, 0, 0, 0, 0, 0, 0, 0, 59, 0, 21, 69, 0, 46, 57, 0, 0, 0, 0, 0, 64, 20, 0, 0, 0, 65, 0, 0, 0, 23, 0, 0, 0, 79, 70, 0, 0, 0, 0, 58
|0, 0, 50, 59, 44, 39, 0, 0, 0, 0, 0, 0, 61, 0, 0, 0, 0, 70, 0, 0, 45, 0, 0, 0, 40, 3, 0, 0, 0, 0, 0, 0, 18, 0, 0, 38, 0, 0, 0, 0, 0, 0, 0, 0, 80, 28, 0, 0, 0, 0, 0, 72, 0, 48, 6, 0, 62, 0, 20, 0, 0, 0, 22, 33, 0, 0, 0, 63, 29, 0, 0, 0, 0, 23, 0, 0, 30, 0, 0, 75, 49
|70, 72, 0, 0, 18, 0, 0, 0, 0, 0, 35, 0, 0, 0, 0, 4, 0, 0, 15, 0, 0, 0, 0, 0, 0, 0, 0, 0, 0, 0, 0, 0, 0, 0, 0, 3, 0, 51, 0, 56, 0, 0, 0, 0, 74, 69, 0, 0, 75, 0, 24, 0, 20, 0, 0, 0, 7, 0, 0, 0, 0, 0, 25, 67, 76, 0, 0, 0, 0, 0, 0, 0, 54, 0, 19, 0, 0, 0, 0, 0, 0
|0, 54, 0, 0, 0, 0, 75, 0, 0, 0, 0, 0, 66, 0, 44, 0, 0, 43, 72, 80, 0, 0, 31, 0, 0, 36, 0, 0, 0, 51, 59, 0, 64, 0, 16, 50, 0, 0, 0, 0, 24, 0, 0, 18, 0, 0, 0, 0, 0, 0, 0, 49, 0, 0, 0, 0, 0, 23, 0, 0, 42, 53, 0, 79, 20, 70, 0, 0, 0, 40, 0, 0, 0, 12, 0, 22, 0, 0, 0, 0, 0
|0, 79, 20, 0, 0, 0, 0, 0, 0, 0, 0, 0, 0, 41, 0, 0, 0, 55, 0, 0, 0, 0, 0, 0, 0, 0, 0, 39, 0, 0, 0, 0, 0, 0, 19, 0, 12, 0, 0, 52, 6, 0, 0, 3, 0, 63, 0, 0, 60, 0, 0, 0, 66, 0, 1, 0, 0, 74, 56, 49, 0, 0, 34, 0, 0, 30, 0, 0, 0, 0, 0, 0, 76, 0, 43, 0, 0, 0, 0, 0, 67
|0, 0, 0, 0, 0, 0, 0, 0, 19, 0, 0, 0, 0, 54, 2, 0, 0, 0, 0, 34, 0, 0, 0, 65, 0, 57, 0, 62, 0, 9, 22, 75, 0, 0, 0, 0, 39, 0, 38, 71, 0, 0, 0, 0, 0, 14, 0, 1, 0, 0, 0, 80, 0, 0, 64, 0, 0, 0, 0, 35, 33, 36, 0, 0, 5, 68, 61, 0, 0, 28, 0, 0, 0, 0, 0, 0, 69, 42, 0, 0, 70
|0, 0, 0, 0, 0, 57, 0, 0, 24, 0, 0, 0, 0, 33, 74, 0, 30, 0, 0, 4, 43, 0, 11, 52, 0, 0, 67, 0, 0, 80, 0, 0, 0, 0, 0, 0, 53, 9, 22, 35, 0, 0, 0, 70, 0, 17, 0, 25, 0, 31, 7, 0, 0, 0, 0, 0, 0, 58, 0, 75, 0, 0, 0, 0, 0, 0, 64, 0, 0, 47, 0, 0, 0, 0, 0, 0, 0, 0, 0, 0, 71
|0, 45, 0, 0, 0, 80, 0, 0, 0, 0, 0, 23, 0, 16, 0, 0, 0, 19, 0, 32, 0, 0, 0, 0, 59, 51, 81, 20, 0, 0, 13, 28, 0, 49, 12, 0, 0, 11, 0, 58, 0, 68, 0, 0, 4, 0, 39, 76, 0, 0, 43, 0, 42, 0, 0, 0, 0, 0, 60, 0, 0, 26, 0, 0, 0, 0, 0, 0, 0, 0, 0, 0, 0, 0, 0, 8, 0, 0, 46, 33, 0
|76, 13, 0, 36, 0, 0, 0, 0, 69, 6, 0, 0, 0, 22, 0, 0, 0, 45, 42, 30, 0, 0, 70, 0, 49, 18, 79, 0, 31, 55, 8, 0, 71, 0, 47, 0, 0, 0, 0, 0, 0, 0, 61, 20, 0, 0, 0, 0, 0, 0, 0, 0, 54, 0, 66, 5, 0, 0, 0, 0, 0, 50, 81, 0, 0, 0, 23, 7, 56, 24, 0, 75, 0, 0, 68, 0, 0, 0, 0, 0, 0
|0, 33, 0, 65, 0, 0, 26, 0, 0, 24, 0, 0, 3, 0, 20, 0, 59, 0, 0, 16, 0, 0, 0, 28, 0, 58, 0, 0, 0, 0, 0, 0, 0, 42, 0, 0, 0, 0, 5, 0, 0, 29, 0, 0, 75, 0, 0, 0, 61, 8, 0, 0, 0, 0, 0, 0, 80, 51, 45, 18, 0, 0, 54, 0, 0, 39, 0, 0, 0, 0, 0, 0, 0, 0, 0, 0, 0, 0, 11, 0, 0
|0, 0, 35, 0, 0, 0, 0, 31, 0, 0, 0, 33, 0, 0, 0, 0, 0, 0, 36, 0, 0, 0, 78, 0, 0, 0, 0, 0, 0, 0, 0, 0, 21, 0, 0, 0, 37, 2, 44, 0, 0, 0, 0, 41, 18, 52, 0, 0, 0, 0, 0, 0, 0, 0, 0, 0, 19, 40, 0, 23, 0, 0, 0, 62, 0, 0, 0, 27, 0, 0, 0, 6, 0, 0, 58, 0, 0, 0, 42, 24, 0
|0, 0, 0, 0, 17, 23, 0, 49, 55, 0, 63, 0, 0, 79, 0, 0, 71, 0, 0, 0, 20, 0, 81, 0, 0, 0, 0, 27, 0, 77, 47, 14, 0, 36, 0, 0, 0, 0, 8, 3, 0, 0, 40, 0, 0, 0, 0, 0, 0, 0, 50, 0, 0, 0, 74, 0, 56, 0, 0, 0, 0, 0, 0, 0, 0, 0, 0, 0, 0, 0, 0, 16, 1, 0, 0, 0, 0, 0, 0, 0, 41
|0, 0, 0, 51, 6, 54, 38, 80, 0, 0, 57, 0, 0, 0, 0, 0, 0, 0, 18, 0, 0, 53, 0, 0, 0, 0, 0, 30, 5, 0, 70, 0, 2, 0, 65, 33, 0, 12, 20, 0, 0, 32, 0, 60, 0, 75, 0, 69, 0, 40, 0, 0, 58, 0, 0, 0, 0, 81, 0, 0, 0, 35, 0, 0, 0, 0, 72, 0, 0, 41, 0, 0, 0, 0, 0, 0, 0, 0, 0, 15, 0
|34, 0, 0, 40, 0, 27, 0, 0, 42, 3, 41, 0, 39, 5, 29, 0, 0, 26, 0, 0, 47, 0, 0, 0, 0, 38, 0, 0, 25, 0, 76, 0, 60, 0, 0, 0, 0, 0, 67, 53, 55, 10, 7, 64, 70, 49, 46, 35, 0, 0, 0, 28, 17, 0, 0, 0, 0, 0, 0, 0, 20, 0, 66, 0, 11, 0, 59, 68, 0, 0, 79, 0, 81, 78, 0, 51, 0, 72, 32, 0, 0
|48, 0, 21, 0, 0, 0, 44, 41, 0, 66, 0, 0, 49, 0, 0, 0, 0, 0, 0, 0, 0, 62, 0, 0, 0, 0, 58, 0, 0, 0, 0, 0, 0, 0, 9, 46, 0, 69, 0, 0, 0, 73, 45, 0, 0, 0, 15, 0, 0, 0, 20, 0, 39, 0, 24, 0, 63, 0, 0, 25, 7, 0, 0, 0, 0, 0, 0, 0, 17, 0, 32, 0, 0, 0, 0, 0, 0, 0, 0, 0, 0
|0, 7, 0, 0, 0, 72, 0, 0, 81, 0, 0, 0, 30, 0, 0, 0, 62, 0, 0, 0, 0, 0, 0, 0, 0, 48, 0, 0, 0, 0, 16, 0, 0, 22, 0, 58, 1, 0, 0, 0, 26, 0, 63, 65, 24, 0, 0, 0, 2, 0, 0, 0, 0, 0, 0, 42, 0, 0, 0, 46, 57, 0, 0, 0, 49, 0, 20, 0, 73, 0, 0, 0, 0, 13, 77, 0, 0, 0, 0, 44, 0
|4, 0, 0, 0, 0, 47, 0, 73, 0, 0, 21, 0, 0, 0, 0, 24, 0, 0, 80, 40, 63, 0, 12, 26, 0, 0, 0, 0, 59, 0, 0, 68, 78, 0, 37, 43, 0, 13, 16, 0, 0, 17, 0, 0, 0, 31, 0, 0, 0, 0, 0, 0, 60, 0, 0, 62, 0, 0, 0, 0, 0, 0, 0, 0, 0, 0, 0, 0, 0, 0, 58, 0, 0, 0, 52, 0, 0, 0, 0, 0, 0
|0, 70, 0, 0, 0, 0, 16, 0, 30, 0, 0, 0, 10, 12, 0, 0, 0, 23, 0, 0, 61, 0, 27, 0, 0, 0, 0, 0, 0, 0, 0, 13, 0, 48, 0, 0, 71, 58, 0, 59, 0, 0, 0, 0, 0, 72, 0, 7, 0, 0, 0, 0, 0, 0, 17, 47, 0, 0, 0, 0, 0, 37, 0, 0, 35, 0, 0, 3, 0, 74, 67, 0, 0, 0, 8, 0, 21, 0, 0, 73, 0
|52, 0, 8, 0, 0, 5, 0, 0, 0, 0, 0, 0, 0, 18, 25, 0, 0, 36, 67, 0, 71, 0, 24, 0, 0, 0, 0, 0, 0, 0, 23, 0, 7, 66, 0, 0, 35, 0, 0, 0, 9, 19, 0, 42, 0, 0, 0, 0, 0, 0, 0, 0, 21, 0, 31, 0, 0, 0, 0, 60, 0, 0, 0, 0, 51, 47, 54, 40, 0, 39, 0, 78, 69, 0, 80, 0, 0, 0, 0, 0, 76
|5, 0, 34, 0, 0, 12, 0, 0, 0, 0, 0, 0, 0, 0, 0, 0, 0, 81, 0, 0, 0, 0, 0, 0, 0, 0, 0, 29, 0, 0, 38, 0, 0, 0, 0, 27, 72, 44, 0, 0, 0, 58, 0, 0, 0, 0, 0, 0, 65, 18, 0, 1, 0, 0, 0, 51, 0, 0, 0, 0, 64, 0, 0, 0, 0, 73, 0, 4, 68, 0, 0, 10, 32, 71, 0, 0, 63, 22, 0, 0, 0
|0, 0, 0, 11, 0, 0, 47, 0, 0, 0, 17, 9, 0, 0, 77, 0, 0, 71, 0, 0, 0, 0, 0, 0, 12, 66, 0, 51, 0, 0, 0, 67, 0, 0, 0, 49, 0, 0, 3, 54, 2, 42, 0, 0, 0, 0, 0, 0, 0, 0, 27, 0, 0, 0, 33, 0, 0, 25, 0, 50, 69, 0, 0, 0, 0, 0, 0, 0, 0, 63, 0, 0, 13, 0, 60, 0, 0, 0, 26, 0, 0
|68, 0, 64, 50, 0, 0, 0, 0, 0, 0, 0, 13, 40, 0, 0, 0, 0, 0, 81, 0, 23, 0, 0, 0, 0, 0, 80, 0, 0, 0, 0, 0, 62, 0, 0, 0, 0, 41, 79, 32, 7, 0, 0, 51, 0, 0, 0, 0, 0, 0, 57, 0, 0, 0, 26, 0, 71, 16, 0, 42, 0, 73, 0, 0, 0, 1, 49, 76, 0, 46, 61, 33, 0, 0, 0, 34, 31, 0, 0, 0, 0
|26, 0, 0, 0, 0, 0, 0, 0, 0, 0, 0, 0, 0, 0, 0, 0, 0, 0, 19, 0, 24, 0, 79, 73, 0, 50, 0, 0, 0, 0, 1, 0, 0, 0, 0, 0, 0, 33, 0, 0, 0, 0, 0, 0, 0, 0, 45, 72, 0, 75, 0, 0, 0, 0, 11, 32, 0, 0, 3, 0, 66, 47, 0, 0, 0, 0, 0, 22, 40, 0, 0, 25, 7, 0, 0, 0, 0, 0, 0, 55, 0
|33, 0, 16, 0, 0, 63, 19, 1, 51, 0, 0, 38, 0, 30, 0, 0, 0, 0, 34, 11, 0, 64, 0, 0, 0, 13, 72, 57, 0, 0, 0, 0, 43, 0, 21, 0, 0, 0, 70, 8, 0, 0, 0, 61, 0, 0, 0, 9, 23, 6, 0, 0, 31, 0, 56, 0, 0, 35, 0, 0, 0, 29, 0, 0, 44, 0, 0, 0, 32, 0, 0, 67, 0, 0, 0, 0, 0, 10, 0, 0, 79
|2, 0, 81, 0, 0, 0, 0, 0, 0, 0, 68, 80, 0, 0, 23, 0, 43, 50, 0, 0, 0, 0, 52, 0, 0, 0, 10, 33, 0, 0, 5, 0, 72, 28, 44, 0, 0, 0, 0, 0, 0, 0, 0, 0, 0, 0, 38, 0, 0, 0, 0, 62, 0, 25, 60, 0, 0, 7, 0, 0, 0, 0, 36, 0, 39, 69, 0, 51, 0, 75, 0, 0, 0, 0, 64, 9, 45, 3, 0, 0, 0
|30, 0, 0, 6, 0, 24, 0, 0, 0, 32, 0, 0, 0, 64, 0, 0, 0, 0, 5, 0, 0, 0, 0, 0, 0, 0, 20, 0, 0, 66, 0, 0, 0, 0, 0, 0, 0, 40, 81, 0, 45, 0, 0, 0, 0, 0, 0, 2, 0, 10, 0, 0, 0, 0, 0, 0, 0, 0, 49, 27, 0, 0, 0, 0, 12, 0, 0, 9, 0, 0, 0, 0, 0, 0, 50, 0, 0, 0, 0, 62, 0
|0, 0, 0, 0, 0, 71, 0, 0, 45, 0, 24, 0, 0, 0, 0, 0, 0, 0, 33, 0, 65, 0, 0, 0, 0, 77, 40, 0, 42, 0, 0, 0, 0, 0, 23, 0, 80, 43, 0, 0, 0, 0, 0, 0, 64, 73, 29, 0, 0, 0, 0, 0, 50, 0, 0, 0, 0, 0, 0, 0, 72, 0, 0, 0, 0, 0, 0, 0, 0, 35, 0, 0, 0, 0, 0, 0, 0, 0, 0, 0, 78
|0, 0, 0, 0, 54, 0, 0, 0, 72, 0, 0, 0, 6, 0, 0, 0, 0, 0, 0, 0, 39, 76, 0, 0, 0, 0, 0, 0, 10, 45, 0, 0, 0, 0, 0, 0, 13, 0, 0, 0, 0, 0, 36, 0, 16, 55, 32, 61, 53, 14, 0, 0, 7, 0, 0, 0, 31, 0, 0, 21, 0, 57, 0, 0, 0, 0, 0, 0, 0, 80, 0, 0, 0, 0, 0, 0, 0, 0, 0, 0, 0
|0, 0, 0, 49, 0, 0, 23, 0, 57, 73, 0, 30, 0, 47, 0, 1, 0, 78, 0, 0, 0, 0, 72, 0, 65, 0, 0, 0, 0, 0, 0, 0, 0, 0, 0, 19, 0, 0, 0, 0, 0, 33, 14, 0, 10, 0, 0, 0, 0, 0, 0, 0, 0, 51, 0, 0, 79, 0, 0, 0, 0, 0, 21, 0, 7, 0, 0, 24, 0, 0, 0, 0, 0, 0, 0, 0, 4, 52, 0, 0, 0
|0, 40, 72, 0, 73, 0, 45, 0, 0, 52, 0, 0, 17, 0, 31, 0, 77, 0, 0, 0, 0, 0, 0, 0, 68, 0, 0, 63, 0, 78, 0, 61, 30, 0, 0, 37, 67, 0, 0, 0, 0, 0, 0, 0, 0, 0, 47, 0, 0, 0, 70, 0, 0, 0, 0, 81, 0, 0, 0, 0, 0, 0, 0, 0, 0, 0, 0, 20, 0, 0, 14, 32, 0, 0, 0, 0, 48, 0, 0, 0, 53
|0, 9, 0, 56, 0, 0, 60, 0, 5, 0, 0, 34, 0, 8, 0, 80, 46, 0, 0, 0, 0, 0, 0, 71, 36, 0, 2, 0, 67, 0, 0, 0, 0, 0, 0, 79, 0, 77, 0, 0, 0, 0, 0, 0, 0, 0, 53, 81, 0, 0, 0, 24, 27, 63, 10, 7, 0, 0, 0, 0, 0, 0, 0, 0, 0, 0, 78, 0, 0, 0, 0, 50, 0, 45, 0, 3, 0, 0, 21, 0, 0
|0, 0, 0, 0, 0, 0, 6, 26, 0, 12, 0, 39, 0, 0, 0, 43, 0, 58, 0, 0, 0, 0, 16, 51, 0, 54, 19, 0, 7, 0, 0, 0, 0, 64, 0, 0, 0, 78, 25, 2, 0, 0, 0, 0, 15, 0, 0, 0, 0, 30, 38, 57, 0, 36, 14, 13, 34, 72, 0, 22, 0, 0, 0, 70, 0, 0, 0, 67, 0, 49, 17, 0, 0, 0, 11, 0, 0, 0, 0, 0, 0
|54, 39, 31, 18, 33, 0, 0, 48, 0, 0, 0, 37, 19, 0, 0, 0, 0, 0, 43, 46, 0, 0, 0, 0, 0, 0, 0, 0, 0, 65, 0, 0, 0, 0, 0, 52, 0, 0, 0, 0, 17, 0, 0, 8, 0, 11, 0, 0, 0, 0, 0, 6, 0, 0, 0, 0, 78, 0, 0, 0, 0, 0, 0, 0, 79, 59, 0, 55, 0, 22, 0, 0, 0, 0, 67, 47, 0, 0, 0, 0, 0
|0, 0, 80, 0, 0, 0, 0, 64, 0, 33, 0, 0, 0, 0, 0, 0, 0, 0, 0, 50, 78, 15, 0, 0, 48, 73, 0, 0, 0, 0, 0, 0, 40, 0, 0, 0, 0, 19, 0, 26, 38, 0, 0, 0, 0, 5, 0, 20, 0, 0, 0, 0, 0, 0, 63, 0, 0, 0, 0, 0, 61, 0, 67, 47, 0, 0, 0, 0, 0, 0, 0, 0, 31, 0, 12, 0, 0, 0, 43, 22, 18
|0, 74, 0, 0, 81, 61, 12, 0, 0, 0, 0, 0, 0, 0, 0, 0, 40, 0, 7, 75, 0, 0, 10, 35, 0, 0, 0, 0, 0, 0, 0, 16, 0, 6, 0, 0, 0, 0, 0, 0, 0, 0, 0, 0, 0, 26, 0, 0, 0, 0, 0, 0, 0, 68, 0, 0, 0, 49, 0, 0, 0, 30, 0, 0, 0, 0, 34, 0, 0, 72, 0, 0, 0, 17, 0, 27, 19, 78, 66, 0, 73
|0, 0, 0, 0, 0, 0, 0, 0, 62, 0, 28, 63, 27, 0, 0, 0, 0, 0, 14, 0, 0, 0, 0, 0, 0, 0, 0, 0, 0, 0, 0, 0, 0, 0, 72, 0, 0, 0, 0, 0, 0, 0, 0, 0, 0, 0, 66, 16, 0, 34, 0, 0, 67, 42, 0, 0, 0, 15, 0, 20, 0, 0, 0, 0, 0, 0, 31, 0, 0, 0, 73, 0, 0, 2, 7, 0, 0, 0, 54, 71, 0
|0, 0, 0, 0, 0, 0, 21, 14, 0, 0, 0, 0, 0, 15, 11, 35, 38, 0, 39, 0, 0, 0, 0, 0, 0, 0, 44, 49, 54, 0, 0, 0, 0, 0, 0, 0, 0, 0, 0, 5, 0, 65, 0, 0, 0, 0, 0, 0, 0, 0, 58, 0, 28, 0, 0, 0, 0, 0, 0, 48, 0, 0, 0, 0, 80, 66, 0, 0, 0, 0, 33, 0, 0, 81, 0, 0, 9, 55, 0, 0, 0
|0, 0, 53, 17, 0, 0, 0, 0, 0, 0, 31, 44, 0, 75, 0, 0, 51, 74, 65, 0, 22, 0, 0, 66, 0, 79, 45, 0, 0, 0, 0, 58, 26, 0, 73, 70, 0, 0, 0, 0, 0, 0, 0, 0, 0, 0, 5, 0, 0, 42, 0, 0, 0, 0, 0, 0, 69, 0, 0, 0, 25, 0, 0, 0, 18, 0, 48, 0, 0, 0, 0, 0, 0, 60, 0, 37, 0, 0, 9, 0, 0
|0, 43, 0, 0, 0, 37, 0, 36, 0, 0, 18, 26, 0, 73, 33, 0, 0, 0, 0, 0, 0, 0, 0, 0, 0, 0, 0, 0, 0, 0, 44, 0, 0, 0, 42, 0, 0, 0, 0, 0, 0, 0, 0, 0, 0, 0, 28, 19, 0, 0, 0, 0, 0, 65, 0, 0, 0, 0, 27, 0, 71, 60, 41, 0, 0, 0, 0, 0, 0, 38, 0, 20, 0, 64, 0, 21, 0, 0, 8, 74, 0
|0, 12, 75, 0, 0, 0, 0, 0, 0, 0, 0, 0, 0, 0, 0, 0, 0, 0, 0, 0, 14, 0, 0, 0, 76, 0, 0, 0, 0, 0, 36, 0, 0, 0, 0, 57, 0, 0, 9, 0, 0, 0, 0, 0, 0, 0, 0, 0, 11, 53, 0, 0, 26, 0, 0, 79, 45, 50, 0, 0, 0, 0, 0, 0, 19, 0, 0, 29, 0, 0, 0, 0, 0, 62, 0, 6, 0, 0, 0, 0, 0
|0, 51, 0, 48, 23, 0, 42, 0, 0, 0, 16, 25, 0, 71, 14, 0, 0, 0, 0, 0, 0, 0, 9, 0, 0, 39, 0, 78, 80, 0, 0, 0, 0, 0, 0, 0, 0, 0, 0, 36, 65, 0, 0, 21, 0, 0, 0, 0, 0, 56, 0, 0, 0, 57, 0, 0, 0, 0, 0, 0, 0, 62, 0, 11, 0, 0, 0, 0, 22, 0, 0, 0, 0, 0, 0, 52, 0, 79, 0, 53, 59
|0, 0, 0, 0, 0, 74, 72, 0, 0, 0, 0, 0, 77, 0, 0, 0, 17, 66, 0, 44, 0, 0, 0, 0, 0, 0, 0, 0, 0, 29, 0, 0, 0, 0, 0, 0, 0, 0, 46, 6, 0, 0, 0, 0, 12, 0, 0, 0, 0, 0, 0, 0, 15, 79, 0, 0, 0, 0, 0, 0, 0, 0, 0, 0, 0, 0, 0, 35, 0, 0, 1, 47, 0, 0, 28, 0, 0, 0, 25, 78, 0
|0, 0, 0, 0, 61, 0, 0, 0, 0, 0, 6, 15, 0, 56, 0, 0, 0, 0, 0, 0, 0, 52, 26, 0, 32, 0, 0, 0, 0, 0, 0, 22, 51, 0, 0, 10, 0, 0, 0, 0, 48, 0, 0, 0, 0, 0, 0, 0, 0, 46, 18, 0, 0, 21, 0, 0, 66, 0, 0, 0, 0, 14, 0, 0, 0, 0, 0, 0, 0, 0, 0, 0, 44, 0, 0, 0, 0, 0, 0, 0, 81
|0, 0, 0, 0, 0, 0, 0, 63, 0, 0, 0, 0, 0, 24, 7, 46, 0, 0, 25, 17, 41, 0, 0, 0, 67, 0, 42, 0, 0, 0, 0, 0, 19, 60, 0, 0, 0, 8, 0, 44, 0, 0, 0, 37, 0, 0, 1, 0, 39, 0, 0, 0, 22, 0, 0, 36, 77, 0, 26, 0, 0, 0, 33, 59, 0, 0, 0, 0, 0, 0, 0, 0, 0, 15, 0, 0, 0, 0, 55, 0, 0
|0, 15, 0, 60, 0, 26, 50, 76, 0, 0, 8, 0, 67, 0, 0, 0, 0, 0, 53, 0, 0, 0, 0, 5, 0, 0, 0, 56, 0, 0, 14, 0, 0, 0, 0, 0, 0, 0, 0, 0, 0, 0, 0, 0, 0, 0, 81, 0, 0, 25, 0, 0, 0, 0, 0, 6, 49, 0, 42, 1, 0, 48, 0, 55, 0, 44, 13, 0, 39, 0, 0, 0, 43, 0, 29, 0, 0, 70, 0, 46, 65
|44, 0, 0, 0, 0, 0, 0, 0, 0, 0, 48, 0, 0, 19, 0, 10, 41, 0, 0, 0, 0, 0, 0, 0, 51, 33, 0, 17, 0, 0, 52, 0, 6, 0, 46, 67, 15, 0, 0, 0, 0, 0, 0, 0, 0, 0, 0, 0, 49, 0, 0, 43, 8, 58, 0, 0, 0, 39, 0, 65, 0, 0, 0, 0, 0, 0, 0, 0, 63, 0, 0, 0, 34, 30, 0, 0, 0, 0, 0, 0, 0
|0, 0, 26, 79, 51, 0, 0, 0, 0, 0, 0, 0, 0, 50, 0, 21, 0, 0, 69, 0, 0, 70, 0, 0, 0, 0, 75, 0, 0, 0, 45, 0, 0, 27, 0, 0, 0, 0, 0, 12, 0, 0, 0, 34, 0, 25, 80, 0, 0, 68, 0, 5, 0, 0, 0, 0, 0, 0, 0, 0, 44, 0, 0, 0, 0, 0, 0, 0, 0, 0, 0, 0, 0, 0, 0, 0, 0, 0, 78, 56, 0
|40, 0, 77, 54, 59, 64, 63, 39, 34, 0, 37, 0, 57, 0, 0, 0, 1, 0, 0, 0, 0, 31, 0, 0, 0, 23, 25, 26, 0, 0, 0, 42, 0, 0, 0, 6, 14, 0, 21, 60, 71, 45, 0, 0, 0, 0, 0, 0, 30, 0, 0, 0, 0, 0, 76, 28, 46, 65, 47, 0, 0, 69, 0, 0, 0, 0, 67, 0, 0, 0, 29, 0, 18, 0, 0, 0, 44, 0, 0, 0, 20
|0, 0, 0, 0, 0, 0, 0, 60, 0, 0, 0, 0, 25, 0, 0, 0, 33, 0, 58, 0, 0, 0, 0, 14, 0, 0, 0, 32, 0, 0, 78, 0, 0, 0, 0, 0, 0, 3, 0, 20, 0, 54, 24, 0, 0, 0, 0, 46, 0, 0, 0, 4, 41, 0, 68, 0, 29, 0, 0, 0, 0, 0, 59, 0, 0, 0, 43, 0, 11, 0, 52, 0, 0, 50, 0, 0, 0, 0, 0, 28, 12
|0, 44, 0, 0, 9, 69, 0, 0, 0, 0, 0, 0, 0, 0, 8, 0, 0, 53, 0, 0, 49, 0, 30, 45, 35, 0, 0, 0, 0, 0, 0, 0, 0, 0, 0, 0, 0, 15, 0, 0, 0, 57, 25, 0, 0, 20, 17, 0, 34, 52, 59, 0, 0, 54, 0, 0, 0, 0, 0, 0, 0, 78, 2, 7, 0, 0, 0, 0, 0, 70, 6, 0, 14, 33, 27, 32, 24, 0, 0, 0, 0
|0, 0, 68, 0, 0, 0, 61, 0, 0, 0, 0, 0, 0, 0, 71, 0, 22, 0, 28, 64, 77, 0, 0, 44, 0, 0, 0, 0, 0, 0, 0, 0, 70, 0, 0, 81, 0, 0, 51, 0, 0, 0, 0, 0, 0, 0, 0, 0, 0, 0, 39, 0, 0, 0, 0, 20, 0, 8, 0, 0, 0, 0, 0, 40, 0, 56, 0, 0, 80, 0, 0, 0, 0, 0, 0, 0, 65, 0, 0, 0, 37
|0, 0, 0, 0, 0, 0, 11, 0, 0, 0, 0, 0, 0, 0, 0, 29, 45, 0, 0, 0, 72, 0, 0, 0, 0, 0, 0, 0, 47, 0, 0, 59, 0, 25, 0, 0, 0, 0, 0, 0, 0, 22, 0, 0, 0, 56, 0, 0, 0, 38, 0, 0, 0, 0, 0, 3, 60, 0, 0, 0, 14, 0, 0, 0, 0, 0, 0, 0, 81, 0, 24, 0, 0, 0, 5, 0, 0, 0, 76, 0, 0
|43, 0, 0, 1, 71, 0, 0, 0, 35, 0, 0, 0, 0, 0, 0, 0, 23, 0, 0, 0, 0, 0, 68, 0, 0, 0, 76, 0, 0, 0, 0, 0, 0, 0, 0, 0, 10, 56, 0, 73, 0, 0, 0, 0, 26, 29, 0, 48, 0, 27, 0, 44, 0, 77, 0, 0, 0, 0, 0, 0, 0, 0, 0, 0, 0, 17, 0, 0, 20, 0, 0, 0, 0, 16, 0, 0, 0, 0, 0, 0, 0
|0, 81, 0, 0, 0, 3, 67, 0, 0, 0, 54, 0, 43, 0, 18, 0, 0, 0, 13, 0, 0, 29, 0, 0, 33, 0, 0, 0, 16, 0, 0, 0, 0, 0, 0, 76, 31, 79, 2, 0, 0, 63, 0, 0, 0, 58, 0, 0, 0, 0, 69, 61, 0, 0, 0, 0, 75, 0, 0, 0, 0, 0, 77, 0, 0, 46, 0, 0, 74, 0, 0, 0, 0, 47, 0, 0, 70, 59, 80, 0, 0
|0, 0, 0, 52, 62, 0, 0, 0, 0, 0, 0, 6, 0, 0, 0, 0, 0, 0, 0, 0, 0, 0, 4, 0, 0, 16, 0, 0, 75, 19, 58, 0, 12, 30, 0, 69, 70, 0, 0, 0, 0, 0, 0, 0, 0, 0, 0, 0, 0, 0, 0, 0, 0, 0, 80, 72, 0, 0, 0, 0, 26, 0, 71, 49, 0, 0, 0, 0, 0, 0, 0, 0, 0, 38, 0, 0, 0, 0, 0, 0, 54
|17, 0, 37, 0, 0, 18, 0, 0, 0, 0, 0, 56, 0, 0, 0, 0, 0, 0, 16, 0, 69, 0, 0, 62, 0, 0, 0, 0, 63, 0, 0, 34, 32, 0, 0, 0, 0, 0, 0, 25, 0, 13, 70, 57, 0, 9, 0, 0, 0, 0, 64, 0, 0, 0, 0, 0, 0, 0, 15, 0, 0, 0, 0, 0, 28, 0, 0, 0, 30, 0, 0, 0, 0, 0, 0, 0, 0, 65, 0, 0, 0
|0, 0, 0, 0, 0, 0, 0, 0, 0, 4, 0, 71, 38, 0, 28, 0, 0, 0, 0, 0, 0, 0, 0, 0, 13, 0, 0, 0, 0, 0, 0, 2, 0, 70, 5, 0, 0, 0, 43, 0, 0, 0, 0, 0, 0, 0, 0, 0, 45, 69, 0, 0, 0, 0, 0, 0, 24, 0, 0, 0, 0, 0, 31, 0, 0, 37, 0, 0, 0, 0, 0, 0, 0, 11, 10, 0, 0, 0, 0, 0, 0
|0, 0, 0, 0, 64, 0, 0, 0, 0, 35, 0, 0, 41, 0, 30, 13, 0, 0, 0, 39, 80, 0, 0, 0, 0, 0, 0, 0, 48, 0, 31, 0, 0, 43, 38, 0, 0, 73, 0, 0, 0, 36, 0, 0, 66, 0, 0, 0, 79, 81, 0, 65, 0, 8, 0, 0, 0, 11, 0, 68, 0, 0, 0, 21, 0, 0, 0, 0, 0, 0, 0, 0, 0, 0, 40, 0, 28, 0, 0, 26, 0
|0, 0, 0, 0, 14, 0, 0, 0, 0, 0, 40, 67, 0, 23, 22, 0, 0, 0, 0, 0, 33, 72, 0, 0, 73, 11, 0, 0, 0, 28, 0, 64, 0, 71, 0, 0, 0, 0, 12, 38, 0, 74, 0, 35, 81, 4, 0, 0, 0, 2, 0, 0, 53, 0, 0, 0, 0, 0, 25, 0, 0, 0, 0, 0, 0, 0, 0, 75, 0, 0, 18, 0, 0, 0, 0, 0, 0, 0, 0, 27, 0
|0, 68, 0, 0, 0, 0, 0, 59, 48, 0, 0, 0, 9, 61, 65, 0, 0, 15, 0, 31, 0, 0, 0, 0, 0, 28, 63, 0, 0, 0, 12, 0, 0, 0, 76, 11, 0, 0, 24, 0, 0, 0, 0, 0, 0, 62, 0, 5, 37, 0, 0, 71, 25, 0, 0, 0, 4, 0, 41, 0, 34, 0, 47, 0, 0, 0, 0, 0, 0, 0, 0, 0, 0, 0, 0, 13, 0, 21, 0, 20, 72
|0, 71, 0, 0, 0, 0, 0, 0, 0, 0, 0, 0, 37, 0, 0, 0, 0, 18, 77, 0, 0, 20, 15, 6, 0, 0, 36, 0, 0, 44, 0, 0, 0, 0, 0, 0, 4, 45, 0, 42, 72, 0, 0, 0, 0, 0, 0, 0, 1, 11, 28, 0, 38, 0, 0, 0, 0, 0, 0, 0, 0, 61, 60, 0, 0, 0, 0, 0, 0, 0, 0, 58, 0, 74, 0, 0, 78, 0, 0, 0, 0
|0, 36, 0, 0, 0, 0, 0, 0, 0, 0, 0, 0, 0, 0, 0, 0, 10, 79, 0, 0, 25, 38, 0, 41, 0, 60, 0, 0, 0, 0, 0, 0, 0, 0, 33, 0, 75, 0, 11, 0, 0, 0, 0, 46, 31, 0, 0, 0, 0, 0, 0, 68, 52, 80, 20, 27, 70, 0, 0, 0, 0, 0, 39, 2, 0, 4, 42, 0, 0, 0, 0, 81, 0, 51, 53, 0, 23, 0, 0, 76, 0
|0, 10, 0, 0, 80, 0, 41, 0, 0, 0, 29, 45, 0, 77, 0, 0, 2, 0, 52, 0, 0, 78, 58, 0, 0, 12, 0, 53, 0, 0, 0, 30, 0, 0, 6, 0, 0, 61, 0, 0, 0, 0, 0, 0, 0, 0, 72, 0, 31, 0, 0, 0, 0, 20, 9, 0, 0, 0, 0, 0, 0, 0, 0, 76, 0, 13, 56, 0, 0, 62, 0, 0, 0, 0, 0, 0, 46, 0, 0, 0, 0
|0, 2, 43, 0, 40, 0, 62, 22, 0, 0, 0, 0, 0, 0, 5, 0, 0, 0, 0, 0, 0, 0, 0, 37, 0, 0, 53, 23, 0, 0, 0, 36, 0, 0, 0, 0, 0, 0, 0, 0, 64, 0, 0, 0, 0, 0, 30, 0, 24, 0, 42, 0, 19, 0, 0, 0, 0, 0, 0, 0, 0, 0, 0, 1, 0, 15, 0, 0, 0, 66, 0, 63, 0, 0, 0, 0, 32, 0, 0, 0, 0
|0, 0, 0, 64, 0, 0, 0, 0, 2, 15, 0, 0, 0, 80, 0, 0, 0, 8, 0, 0, 0, 0, 0, 33, 23, 78, 0, 0, 0, 0, 0, 0, 0, 79, 0, 0, 0, 59, 0, 51, 0, 0, 0, 0, 0, 38, 0, 31, 36, 0, 0, 0, 0, 32, 0, 0, 25, 0, 69, 0, 0, 0, 62, 20, 0, 0, 50, 61, 49, 0, 37, 0, 4, 0, 46, 0, 0, 0, 0, 17, 0
|0, 0, 0, 0, 0, 0, 0, 0, 44, 0, 0, 0, 0, 0, 0, 0, 0, 0, 0, 0, 0, 0, 0, 0, 10, 0, 0, 0, 0, 0, 62, 0, 0, 0, 0, 0, 0, 37, 0, 0, 0, 0, 0, 0, 0, 0, 0, 13, 0, 0, 0, 69, 29, 40, 0, 73, 0, 17, 0, 0, 0, 0, 0, 39, 0, 0, 0, 0, 0, 57, 0, 48, 0, 0, 0, 0, 0, 0, 0, 0, 0
|0, 60, 0, 0, 0, 59, 0, 0, 61, 0, 0, 0, 0, 0, 0, 0, 27, 0, 0, 47, 0, 0, 50, 0, 0, 0, 0, 0, 0, 0, 0, 0, 0, 0, 0, 0, 0, 0, 0, 0, 0, 38, 0, 0, 0, 0, 0, 0, 0, 3, 63, 0, 0, 0, 0, 0, 20, 0, 0, 0, 0, 0, 0, 51, 62, 0, 79, 0, 0, 13, 30, 0, 35, 0, 0, 0, 0, 71, 0, 11, 9
|0, 26, 13, 0, 48, 0, 0, 0, 0, 0, 34, 0, 0, 21, 0, 0, 0, 63, 0, 0, 0, 74, 0, 20, 0, 0, 0, 0, 0, 0, 0, 0, 0, 0, 0, 0, 0, 0, 77, 0, 0, 0, 42, 0, 0, 0, 0, 0, 0, 54, 0, 8, 30, 0, 72, 60, 11, 0, 0, 4, 78, 0, 0, 0, 0, 0, 0, 0, 23, 0, 0, 0, 0, 0, 0, 0, 50, 51, 0, 0, 69
|0, 0, 0, 69, 0, 0, 18, 58, 0, 0, 25, 68, 0, 0, 0, 0, 0, 0, 0, 0, 46, 16, 0, 0, 0, 61, 0, 0, 0, 0, 0, 0, 15, 0, 0, 0, 0, 0, 0, 62, 0, 2, 0, 75, 0, 0, 0, 14, 0, 77, 0, 27, 0, 0, 0, 0, 0, 0, 0, 80, 0, 12, 0, 71, 0, 0, 0, 0, 0, 0, 0, 60, 0, 0, 13, 0, 81, 0, 0, 0, 0
|0, 0, 47, 0, 0, 0, 20, 38, 0, 77, 0, 0, 59, 0, 0, 0, 0, 0, 0, 0, 0, 13, 73, 0, 11, 0, 0, 0, 0, 58, 0, 37, 0, 78, 0, 0, 0, 0, 0, 4, 0, 50, 0, 0, 0, 0, 0, 0, 0, 0, 16, 0, 0, 0, 22, 0, 57, 0, 0, 0, 0, 0, 0, 0, 0, 0, 0, 45, 0, 19, 0, 27, 3, 0, 0, 62, 55, 0, 0, 52, 26
|0, 19, 5, 72, 36, 0, 54, 0, 0, 0, 0, 0, 0, 62, 76, 0, 65, 4, 0, 14, 0, 0, 77, 0, 53, 0, 30, 0, 0, 0, 34, 0, 0, 0, 0, 0, 0, 0, 0, 70, 0, 0, 0, 22, 0, 0, 0, 0, 78, 0, 0, 0, 0, 81, 0, 56, 0, 0, 0, 31, 0, 0, 0, 0, 0, 0, 0, 0, 7, 29, 0, 0, 0, 32, 0, 0, 0, 0, 0, 0, 0
|23, 0, 0, 43, 24, 0, 0, 0, 0, 0, 0, 0, 53, 38, 36, 0, 0, 0, 0, 0, 44, 0, 0, 7, 22, 0, 0, 0, 0, 0, 0, 65, 0, 0, 0, 0, 32, 0, 69, 0, 15, 0, 11, 12, 0, 0, 0, 0, 0, 0, 61, 18, 34, 0, 37, 0, 0, 1, 50, 0, 0, 16, 49, 10, 0, 0, 0, 0, 55, 0, 70, 0, 0, 77, 6, 0, 0, 0, 0, 0, 0
|0, 0, 0, 0, 0, 0, 46, 0, 70, 0, 0, 16, 0, 0, 0, 56, 69, 0, 60, 0, 0, 32, 0, 0, 79, 19, 0, 0, 0, 0, 29, 0, 0, 0, 13, 73, 3, 0, 0, 0, 40, 20, 44, 33, 0, 0, 41, 0, 66, 49, 5, 0, 43, 0, 0, 38, 0, 36, 0, 0, 0, 27, 0, 22, 0, 0, 4, 0, 0, 0, 0, 0, 0, 0, 0, 63, 61, 80, 0, 0, 25|];