order = 9;
grid = [|0, 0, 0, 0, 3, 0, 0, 24, 0, 0, 55, 0, 0, 0, 0, 14, 0, 36, 17, 0, 50, 43, 0, 81, 0, 0, 0, 0, 0, 0, 0, 79, 0, 66, 0, 0, 0, 0, 0, 0, 19, 0, 0, 0, 13, 0, 0, 0, 0, 0, 0, 32, 0, 0, 49, 0, 58, 0, 0, 0, 25, 69, 0, 0, 0, 70, 16, 0, 0, 0, 62, 0, 26, 0, 0, 73, 72, 71, 0, 46, 0
|72, 0, 45, 0, 56, 0, 0, 0, 0, 0, 0, 0, 60, 0, 73, 63, 0, 0, 0, 32, 11, 0, 0, 0, 7, 0, 0, 0, 58, 0, 0, 0, 0, 18, 0, 0, 0, 0, 5, 0, 0, 0, 0, 0, 6, 0, 0, 0, 0, 0, 0, 65, 0, 21, 0, 0, 0, 0, 77, 0, 0, 59, 35, 67, 41, 0, 0, 0, 38, 0, 0, 0, 33, 0, 0, 70, 0, 0, 0, 34, 0
|0, 37, 31, 0, 0, 0, 0, 68, 55, 0, 0, 69, 0, 0, 23, 0, 0, 0, 0, 34, 57, 1, 27, 0, 0, 45, 3, 0, 0, 32, 0, 0, 13, 0, 0, 33, 0, 0, 12, 0, 36, 0, 0, 0, 11, 0, 0, 0, 0, 71, 0, 76, 18, 0, 47, 0, 0, 0, 0, 0, 0, 0, 0, 0, 0, 0, 0, 48, 0, 0, 0, 0, 6, 0, 7, 10, 17, 0, 0, 0, 0
|59, 0, 0, 0, 0, 0, 0, 0, 0, 45, 0, 58, 0, 43, 57, 0, 0, 62, 35, 0, 0, 0, 0, 0, 0, 0, 0, 68, 11, 0, 5, 0, 23, 0, 14, 0, 0, 0, 0, 0, 0, 34, 55, 0, 71, 0, 0, 0, 0, 0, 49, 40, 53, 0, 0, 0, 12, 0, 52, 0, 81, 0, 0, 75, 0, 0, 0, 0, 0, 0, 0, 0, 0, 0, 0, 0, 0, 30, 0, 54, 0
|0, 0, 0, 66, 47, 0, 0, 8, 0, 0, 0, 10, 0, 0, 0, 68, 0, 0, 29, 0, 0, 0, 12, 0, 31, 0, 0, 50, 55, 0, 0, 0, 9, 42, 0, 60, 0, 0, 0, 0, 0, 0, 0, 0, 72, 0, 0, 0, 34, 17, 19, 0, 0, 0, 46, 0, 18, 0, 0, 67, 56, 0, 0, 81, 0, 58, 4, 0, 0, 0, 0, 0, 0, 0, 0, 0, 0, 0, 0, 0, 0
|0, 73, 80, 0, 75, 0, 0, 0, 0, 0, 0, 0, 0, 0, 29, 0, 0, 39, 64, 20, 0, 24, 0, 65, 0, 0, 0, 69, 0, 0, 0, 0, 0, 0, 0, 0, 0, 0, 40, 46, 4, 0, 0, 0, 0, 0, 68, 0, 0, 52, 0, 63, 33, 0, 0, 0, 0, 0, 0, 0, 51, 55, 0, 0, 0, 44, 0, 0, 0, 0, 0, 0, 0, 60, 0, 0, 0, 53, 47, 0, 0
|51, 0, 0, 0, 0, 0, 0, 13, 33, 0, 9, 0, 0, 37, 0, 72, 0, 0, 0, 0, 73, 66, 0, 48, 0, 53, 58, 0, 0, 0, 7, 0, 59, 0, 45, 0, 22, 0, 0, 43, 49, 0, 0, 0, 0, 0, 0, 0, 0, 0, 0, 0, 0, 0, 5, 76, 0, 65, 26, 0, 0, 34, 0, 0, 0, 12, 23, 0, 0, 0, 0, 0, 67, 0, 0, 50, 39, 0, 0, 0, 0
|0, 0, 0, 34, 0, 0, 0, 0, 0, 28, 0, 56, 49, 0, 0, 5, 7, 0, 0, 0, 0, 0, 0, 0, 72, 0, 0, 4, 39, 0, 19, 0, 22, 0, 0, 0, 0, 0, 0, 0, 0, 0, 0, 0, 0, 9, 0, 0, 0, 0, 29, 0, 0, 0, 0, 0, 71, 0, 45, 40, 0, 48, 27, 59, 76, 0, 0, 0, 57, 0, 47, 0, 0, 62, 0, 37, 66, 0, 0, 0, 0
|62, 0, 40, 0, 0, 79, 0, 0, 42, 0, 0, 52, 0, 0, 13, 0, 0, 0, 0, 0, 0, 0, 0, 0, 0, 0, 70, 0, 0, 53, 0, 0, 0, 0, 31, 63, 0, 0, 67, 0, 61, 0, 0, 0, 16, 0, 44, 0, 0, 0, 0, 59, 1, 0, 0, 11, 0, 0, 0, 7, 0, 72, 0, 8, 0, 0, 0, 0, 0, 0, 0, 0, 0, 0, 0, 0, 0, 0, 58, 0, 64
|17, 0, 0, 0, 0, 0, 0, 10, 0, 0, 0, 0, 8, 0, 0, 55, 0, 0, 0, 0, 0, 0, 74, 26, 48, 71, 0, 0, 0, 42, 0, 0, 0, 0, 0, 81, 0, 0, 79, 23, 66, 0, 0, 19, 0, 0, 0, 0, 0, 4, 0, 0, 0, 0, 0, 0, 0, 22, 0, 5, 24, 12, 0, 33, 0, 0, 58, 0, 0, 0, 68, 0, 0, 0, 0, 47, 18, 60, 70, 31, 0
|0, 0, 0, 54, 65, 0, 42, 26, 0, 56, 0, 0, 0, 11, 14, 0, 40, 57, 12, 79, 0, 0, 0, 0, 0, 49, 80, 0, 31, 25, 0, 0, 0, 0, 0, 0, 0, 0, 0, 48, 0, 50, 0, 0, 60, 46, 74, 0, 0, 39, 0, 0, 0, 0, 0, 58, 1, 0, 0, 70, 0, 0, 30, 18, 0, 0, 0, 0, 0, 0, 0, 0, 0, 0, 0, 0, 0, 0, 0, 0, 0
|0, 0, 44, 0, 0, 0, 0, 0, 27, 0, 0, 0, 0, 0, 49, 0, 0, 0, 0, 52, 22, 16, 0, 0, 56, 65, 0, 0, 73, 35, 0, 0, 0, 47, 62, 0, 0, 12, 0, 0, 0, 0, 0, 0, 14, 0, 15, 58, 0, 0, 33, 38, 0, 0, 71, 0, 7, 0, 0, 34, 9, 0, 0, 50, 0, 0, 0, 0, 0, 28, 53, 0, 51, 0, 2, 59, 0, 0, 74, 0, 6
|43, 28, 0, 0, 0, 0, 0, 62, 0, 0, 0, 25, 0, 0, 0, 0, 0, 15, 0, 50, 0, 0, 0, 70, 68, 0, 0, 0, 0, 0, 0, 0, 0, 6, 0, 0, 0, 76, 0, 59, 69, 0, 13, 0, 0, 0, 0, 0, 0, 0, 0, 0, 0, 0, 0, 0, 0, 0, 0, 0, 65, 0, 0, 0, 0, 79, 0, 0, 0, 0, 0, 0, 17, 0, 67, 0, 9, 0, 0, 0, 5
|0, 0, 0, 0, 0, 0, 46, 80, 0, 0, 62, 0, 37, 0, 0, 70, 0, 0, 0, 0, 0, 0, 0, 0, 0, 78, 0, 9, 0, 51, 0, 0, 0, 39, 0, 0, 0, 45, 0, 0, 0, 0, 5, 0, 18, 0, 0, 0, 0, 0, 0, 0, 0, 43, 0, 47, 0, 0, 2, 0, 0, 0, 0, 0, 0, 0, 0, 0, 0, 0, 48, 35, 22, 76, 0, 0, 0, 0, 11, 53, 0
|0, 0, 73, 0, 0, 22, 78, 0, 50, 0, 0, 0, 43, 0, 9, 76, 0, 0, 0, 63, 0, 0, 0, 0, 66, 0, 0, 67, 2, 0, 0, 0, 0, 0, 0, 45, 0, 0, 0, 24, 62, 0, 0, 39, 0, 0, 0, 41, 0, 0, 0, 0, 0, 0, 0, 0, 0, 0, 25, 0, 68, 0, 77, 0, 0, 0, 0, 0, 0, 61, 0, 0, 0, 0, 0, 0, 0, 0, 12, 0, 65
|0, 0, 0, 3, 0, 0, 0, 0, 0, 0, 0, 0, 0, 23, 0, 0, 0, 21, 18, 0, 0, 0, 58, 15, 33, 5, 0, 0, 14, 24, 0, 0, 0, 53, 0, 72, 0, 2, 0, 74, 63, 0, 0, 0, 0, 0, 1, 28, 32, 31, 0, 0, 0, 0, 0, 0, 0, 0, 46, 0, 0, 0, 55, 26, 0, 0, 51, 0, 59, 11, 0, 0, 0, 0, 0, 0, 0, 0, 0, 0, 25
|23, 5, 0, 0, 0, 0, 0, 52, 0, 60, 0, 75, 0, 0, 0, 53, 0, 79, 0, 0, 0, 34, 0, 36, 0, 0, 0, 0, 0, 0, 0, 0, 0, 0, 58, 0, 0, 0, 0, 31, 0, 0, 0, 0, 0, 65, 0, 56, 78, 55, 0, 0, 0, 26, 6, 45, 81, 0, 32, 10, 0, 0, 0, 0, 0, 0, 19, 70, 0, 14, 0, 0, 69, 0, 0, 42, 0, 35, 0, 8, 30
|47, 0, 0, 0, 0, 0, 0, 0, 0, 0, 0, 0, 19, 0, 0, 0, 0, 0, 28, 0, 0, 0, 0, 0, 10, 0, 0, 44, 18, 0, 48, 0, 41, 0, 0, 13, 57, 0, 0, 0, 0, 0, 0, 0, 17, 0, 0, 0, 0, 0, 23, 0, 0, 0, 0, 0, 42, 0, 0, 0, 36, 0, 0, 9, 0, 0, 78, 0, 0, 0, 25, 0, 24, 0, 0, 43, 58, 77, 0, 0, 0
|0, 0, 75, 0, 0, 0, 68, 0, 0, 0, 45, 65, 29, 38, 0, 0, 0, 0, 0, 73, 0, 0, 47, 0, 43, 0, 0, 0, 0, 0, 25, 0, 54, 81, 72, 0, 0, 14, 0, 28, 0, 0, 36, 0, 35, 0, 0, 0, 0, 0, 0, 44, 0, 31, 0, 0, 0, 0, 0, 3, 0, 0, 13, 0, 0, 41, 0, 66, 27, 5, 11, 0, 37, 1, 0, 26, 0, 0, 0, 0, 0
|0, 0, 0, 0, 0, 10, 0, 46, 0, 0, 0, 47, 0, 0, 0, 0, 0, 0, 58, 0, 0, 0, 0, 0, 0, 11, 0, 1, 0, 18, 0, 0, 0, 0, 0, 0, 81, 0, 0, 0, 0, 77, 0, 0, 0, 41, 0, 74, 0, 0, 0, 0, 0, 0, 0, 15, 0, 0, 80, 79, 0, 0, 0, 0, 0, 19, 0, 0, 0, 51, 14, 50, 0, 0, 0, 0, 0, 28, 4, 0, 0
|0, 0, 0, 0, 0, 21, 0, 0, 77, 0, 69, 0, 0, 0, 48, 0, 9, 0, 0, 56, 0, 0, 0, 29, 0, 24, 0, 0, 30, 0, 0, 0, 0, 0, 39, 4, 0, 0, 0, 0, 0, 0, 2, 0, 0, 10, 0, 0, 0, 0, 0, 17, 54, 80, 43, 0, 49, 0, 1, 0, 71, 0, 47, 0, 0, 65, 0, 61, 67, 0, 0, 31, 0, 0, 32, 0, 12, 0, 51, 0, 57
|66, 0, 0, 2, 0, 17, 0, 0, 24, 0, 0, 16, 0, 62, 0, 10, 15, 0, 49, 0, 0, 28, 0, 75, 4, 0, 0, 0, 33, 9, 37, 31, 0, 0, 0, 20, 40, 0, 0, 0, 0, 0, 0, 0, 0, 26, 0, 0, 0, 0, 0, 21, 0, 0, 0, 0, 0, 0, 0, 0, 0, 0, 0, 72, 0, 47, 48, 46, 18, 32, 0, 0, 29, 8, 34, 0, 5, 0, 0, 23, 63
|0, 55, 0, 0, 0, 0, 39, 58, 0, 0, 0, 21, 0, 0, 37, 0, 0, 40, 0, 0, 0, 0, 0, 0, 0, 0, 0, 0, 0, 0, 13, 0, 0, 0, 23, 0, 0, 24, 56, 50, 0, 0, 3, 0, 0, 0, 75, 1, 0, 0, 0, 14, 29, 0, 0, 0, 0, 0, 0, 0, 0, 0, 0, 0, 0, 0, 0, 0, 0, 0, 0, 0, 0, 0, 0, 0, 47, 0, 0, 0, 0
|0, 0, 0, 70, 0, 0, 0, 0, 0, 0, 53, 0, 0, 72, 0, 0, 0, 0, 79, 0, 0, 0, 0, 0, 0, 35, 0, 0, 38, 68, 14, 0, 0, 0, 0, 0, 75, 0, 0, 0, 76, 0, 0, 55, 1, 0, 0, 0, 0, 0, 0, 0, 0, 12, 40, 0, 10, 0, 0, 18, 0, 0, 0, 0, 0, 0, 29, 0, 34, 0, 0, 0, 0, 81, 48, 0, 0, 0, 0, 69, 0
|38, 0, 0, 0, 78, 65, 34, 0, 0, 44, 0, 0, 0, 2, 81, 0, 0, 0, 0, 69, 0, 0, 52, 0, 0, 0, 0, 0, 0, 0, 24, 0, 0, 0, 0, 0, 73, 0, 23, 0, 0, 0, 62, 0, 0, 0, 51, 0, 70, 0, 28, 43, 0, 25, 0, 30, 0, 56, 0, 0, 0, 0, 0, 0, 0, 3, 0, 0, 0, 12, 0, 68, 0, 0, 0, 0, 15, 39, 31, 0, 0
|11, 43, 62, 9, 0, 0, 0, 0, 1, 12, 39, 0, 0, 0, 0, 0, 77, 25, 68, 22, 0, 0, 0, 31, 23, 66, 17, 5, 0, 63, 0, 2, 0, 0, 0, 0, 8, 37, 60, 0, 0, 19, 0, 0, 0, 13, 0, 0, 52, 0, 0, 0, 0, 0, 0, 0, 0, 42, 0, 55, 0, 36, 51, 0, 0, 0, 0, 0, 0, 10, 0, 0, 0, 49, 58, 0, 53, 0, 0, 0, 0
|0, 0, 41, 0, 0, 0, 0, 0, 0, 0, 20, 31, 0, 0, 0, 26, 0, 0, 0, 81, 12, 5, 19, 0, 37, 36, 0, 0, 0, 69, 16, 0, 0, 0, 0, 0, 0, 59, 0, 0, 0, 0, 0, 0, 0, 0, 0, 0, 0, 0, 0, 0, 0, 0, 25, 0, 0, 58, 39, 0, 0, 0, 21, 0, 0, 0, 0, 0, 24, 0, 0, 0, 60, 64, 50, 75, 0, 0, 61, 73, 0
|0, 17, 0, 0, 0, 0, 0, 0, 0, 0, 6, 0, 0, 45, 42, 0, 0, 0, 0, 66, 15, 0, 0, 43, 76, 0, 0, 8, 41, 0, 23, 0, 0, 36, 0, 19, 0, 0, 0, 11, 0, 0, 39, 27, 0, 0, 0, 71, 0, 0, 0, 0, 0, 50, 0, 0, 0, 0, 0, 0, 34, 0, 0, 0, 0, 0, 0, 0, 0, 77, 0, 0, 0, 0, 0, 0, 63, 0, 0, 0, 74
|0, 0, 0, 0, 0, 75, 0, 0, 0, 0, 0, 0, 0, 0, 0, 0, 41, 0, 0, 0, 0, 0, 0, 0, 0, 57, 0, 0, 0, 2, 0, 0, 0, 0, 0, 71, 19, 0, 0, 0, 14, 0, 0, 0, 68, 0, 0, 0, 0, 43, 0, 0, 0, 0, 0, 21, 16, 73, 0, 0, 7, 0, 0, 0, 0, 0, 0, 0, 0, 0, 30, 0, 0, 0, 0, 0, 45, 0, 66, 22, 58
|79, 0, 0, 0, 0, 0, 0, 0, 0, 0, 0, 0, 0, 34, 66, 0, 0, 0, 0, 17, 0, 31, 0, 6, 0, 0, 0, 0, 0, 13, 0, 0, 0, 45, 20, 0, 0, 0, 16, 0, 40, 0, 0, 0, 0, 0, 0, 24, 0, 0, 41, 0, 0, 0, 70, 49, 0, 27, 0, 71, 62, 37, 39, 0, 2, 50, 0, 0, 0, 0, 0, 0, 0, 0, 0, 48, 0, 0, 0, 0, 0
|0, 0, 0, 0, 0, 0, 14, 0, 45, 0, 74, 0, 0, 0, 0, 0, 0, 5, 0, 0, 0, 26, 0, 0, 0, 0, 0, 0, 0, 0, 0, 0, 0, 0, 0, 67, 0, 43, 21, 10, 0, 0, 51, 0, 0, 0, 0, 0, 16, 0, 0, 0, 0, 0, 0, 0, 0, 4, 0, 0, 0, 25, 0, 0, 13, 0, 0, 0, 0, 0, 0, 0, 50, 0, 68, 2, 0, 0, 0, 0, 0
|26, 72, 0, 0, 0, 39, 50, 0, 67, 0, 0, 0, 0, 0, 0, 62, 61, 0, 0, 70, 10, 52, 0, 0, 0, 0, 14, 0, 0, 0, 0, 0, 0, 7, 0, 38, 0, 0, 0, 22, 0, 28, 0, 0, 46, 0, 0, 73, 0, 0, 0, 0, 0, 0, 0, 1, 0, 0, 0, 0, 12, 0, 0, 0, 0, 0, 69, 0, 48, 0, 0, 0, 0, 71, 0, 0, 19, 56, 0, 0, 0
|78, 0, 0, 0, 31, 0, 22, 0, 0, 0, 77, 0, 0, 0, 63, 0, 0, 0, 0, 74, 0, 0, 0, 0, 0, 0, 0, 12, 0, 34, 0, 0, 76, 0, 0, 0, 0, 0, 0, 75, 0, 58, 8, 0, 0, 0, 0, 0, 0, 0, 0, 0, 0, 0, 35, 0, 2, 0, 0, 0, 14, 46, 0, 0, 0, 0, 0, 36, 0, 38, 0, 0, 0, 15, 80, 25, 67, 0, 0, 0, 0
|0, 6, 28, 0, 34, 0, 0, 70, 12, 0, 0, 0, 0, 0, 0, 2, 0, 0, 0, 0, 7, 18, 0, 47, 25, 0, 0, 15, 0, 10, 0, 50, 58, 0, 0, 0, 0, 0, 0, 0, 0, 0, 0, 0, 57, 0, 0, 0, 0, 0, 68, 35, 48, 0, 63, 42, 0, 0, 0, 0, 0, 0, 81, 0, 0, 0, 0, 0, 0, 73, 56, 46, 0, 0, 11, 44, 52, 0, 0, 0, 0
|0, 0, 0, 0, 0, 0, 0, 0, 62, 0, 0, 0, 69, 0, 43, 0, 0, 0, 0, 0, 0, 0, 0, 0, 0, 0, 0, 33, 37, 0, 0, 0, 0, 0, 0, 30, 0, 0, 25, 0, 0, 0, 0, 12, 42, 0, 0, 0, 0, 0, 0, 53, 0, 47, 0, 0, 0, 66, 0, 0, 10, 58, 0, 0, 0, 0, 0, 31, 16, 0, 0, 0, 0, 21, 0, 34, 0, 0, 0, 6, 0
|0, 25, 0, 0, 0, 0, 0, 0, 76, 0, 0, 72, 0, 51, 0, 0, 0, 44, 0, 0, 0, 0, 0, 0, 0, 0, 0, 0, 0, 0, 77, 47, 0, 16, 0, 0, 0, 55, 0, 0, 29, 0, 74, 52, 0, 0, 0, 0, 0, 0, 26, 0, 9, 58, 0, 17, 0, 61, 0, 0, 0, 0, 0, 0, 70, 64, 0, 0, 14, 0, 0, 0, 23, 0, 0, 32, 78, 8, 73, 0, 0
|0, 0, 0, 0, 0, 1, 27, 0, 0, 0, 0, 0, 0, 0, 0, 0, 0, 18, 71, 23, 0, 0, 22, 0, 0, 44, 0, 76, 0, 0, 0, 0, 53, 0, 47, 43, 0, 0, 0, 0, 0, 33, 16, 0, 0, 42, 0, 57, 7, 0, 60, 0, 0, 0, 0, 0, 0, 0, 0, 0, 40, 0, 0, 11, 0, 0, 0, 0, 0, 55, 39, 0, 10, 0, 0, 0, 0, 61, 0, 0, 0
|0, 0, 0, 0, 23, 0, 0, 0, 73, 0, 0, 0, 61, 76, 44, 0, 0, 0, 0, 72, 66, 46, 56, 0, 38, 0, 41, 32, 0, 0, 0, 0, 52, 50, 0, 0, 53, 0, 0, 0, 0, 0, 0, 0, 0, 0, 0, 0, 0, 0, 0, 0, 0, 0, 39, 0, 0, 0, 0, 17, 0, 0, 0, 0, 22, 0, 0, 0, 0, 0, 0, 0, 43, 57, 0, 0, 0, 0, 60, 0, 0
|0, 47, 55, 0, 40, 0, 48, 0, 0, 0, 0, 0, 74, 0, 0, 0, 0, 0, 57, 0, 0, 0, 0, 0, 5, 0, 0, 0, 20, 0, 2, 42, 0, 68, 0, 0, 0, 9, 0, 26, 0, 0, 0, 0, 0, 0, 0, 43, 30, 0, 0, 0, 0, 0, 0, 81, 0, 0, 0, 0, 67, 0, 0, 0, 0, 0, 38, 27, 0, 0, 24, 0, 0, 17, 0, 0, 23, 22, 1, 59, 46
|0, 0, 0, 0, 0, 0, 28, 72, 60, 0, 40, 0, 0, 0, 0, 59, 0, 0, 0, 0, 0, 0, 0, 0, 0, 0, 0, 17, 0, 0, 26, 0, 57, 0, 8, 0, 0, 61, 0, 0, 0, 0, 0, 0, 36, 0, 0, 0, 0, 0, 0, 0, 0, 0, 56, 22, 0, 0, 20, 0, 0, 0, 0, 0, 66, 48, 0, 0, 25, 0, 5, 0, 0, 0, 29, 0, 0, 0, 55, 0, 0
|0, 0, 0, 0, 0, 43, 0, 71, 0, 0, 0, 0, 0, 56, 0, 0, 1, 14, 0, 55, 0, 0, 0, 0, 0, 0, 0, 77, 0, 0, 0, 0, 0, 0, 0, 79, 0, 0, 0, 0, 0, 0, 0, 0, 0, 0, 0, 48, 0, 59, 44, 0, 0, 0, 0, 72, 0, 51, 0, 0, 0, 26, 0, 0, 0, 29, 0, 54, 0, 57, 0, 0, 0, 0, 0, 0, 0, 66, 0, 0, 67
|0, 0, 0, 38, 0, 0, 0, 51, 56, 0, 0, 0, 39, 0, 12, 0, 0, 60, 0, 0, 0, 9, 26, 68, 0, 0, 0, 0, 29, 0, 0, 0, 74, 23, 0, 0, 0, 0, 0, 0, 0, 4, 0, 42, 52, 0, 0, 0, 0, 72, 5, 0, 0, 0, 0, 75, 64, 24, 0, 31, 0, 70, 41, 0, 0, 0, 0, 8, 46, 0, 58, 0, 0, 0, 0, 0, 7, 13, 0, 0, 0
|0, 15, 0, 77, 0, 0, 64, 0, 0, 0, 0, 42, 0, 65, 0, 73, 0, 0, 0, 0, 0, 0, 1, 0, 0, 0, 0, 0, 60, 0, 0, 0, 0, 0, 0, 28, 11, 46, 0, 47, 56, 38, 22, 0, 40, 0, 0, 0, 61, 0, 0, 0, 78, 0, 0, 0, 0, 0, 0, 0, 33, 0, 0, 0, 0, 20, 0, 0, 0, 0, 79, 14, 0, 0, 0, 0, 0, 69, 0, 0, 0
|0, 0, 0, 0, 0, 0, 0, 20, 0, 0, 28, 0, 0, 0, 68, 0, 0, 71, 0, 0, 0, 0, 81, 0, 21, 0, 0, 3, 0, 0, 0, 0, 0, 75, 0, 0, 0, 0, 7, 0, 0, 5, 0, 60, 76, 22, 0, 0, 0, 0, 8, 26, 46, 0, 0, 10, 0, 0, 48, 57, 61, 0, 45, 0, 0, 0, 0, 0, 19, 0, 0, 51, 0, 0, 0, 0, 0, 0, 0, 12, 14
|0, 0, 11, 68, 0, 54, 0, 19, 0, 0, 0, 0, 24, 0, 53, 0, 57, 43, 0, 0, 0, 0, 0, 0, 0, 40, 0, 48, 0, 0, 21, 0, 0, 73, 22, 0, 0, 0, 0, 0, 0, 0, 77, 0, 67, 35, 0, 0, 55, 0, 51, 0, 0, 0, 0, 66, 0, 0, 27, 0, 0, 28, 0, 0, 0, 0, 0, 0, 12, 0, 0, 0, 0, 70, 0, 0, 0, 0, 0, 64, 0
|0, 0, 0, 0, 0, 0, 0, 0, 0, 0, 0, 0, 0, 0, 47, 18, 20, 0, 65, 0, 19, 0, 9, 0, 0, 0, 0, 0, 0, 0, 0, 0, 0, 0, 0, 0, 28, 0, 2, 0, 0, 0, 0, 0, 32, 0, 48, 53, 0, 0, 0, 0, 24, 0, 0, 0, 0, 0, 23, 0, 0, 0, 40, 31, 0, 14, 0, 72, 0, 0, 0, 71, 0, 0, 60, 0, 37, 0, 0, 0, 0
|0, 52, 0, 0, 0, 0, 0, 0, 0, 0, 0, 35, 0, 61, 0, 0, 0, 0, 0, 0, 0, 0, 4, 33, 0, 0, 39, 42, 8, 0, 0, 0, 0, 43, 75, 0, 49, 0, 0, 0, 15, 0, 0, 0, 0, 71, 64, 12, 0, 0, 0, 47, 0, 23, 77, 0, 0, 1, 0, 0, 0, 0, 0, 27, 0, 0, 0, 0, 0, 54, 74, 0, 0, 0, 0, 0, 0, 0, 0, 0, 44
|31, 0, 0, 0, 0, 0, 3, 0, 0, 0, 8, 0, 0, 32, 0, 21, 0, 4, 0, 0, 0, 0, 0, 74, 0, 0, 12, 26, 24, 0, 0, 0, 0, 29, 0, 35, 0, 0, 0, 0, 0, 0, 17, 38, 0, 0, 67, 0, 0, 0, 0, 0, 59, 61, 0, 0, 37, 0, 0, 60, 0, 5, 0, 0, 0, 53, 0, 16, 0, 0, 0, 0, 76, 0, 0, 0, 1, 0, 43, 0, 47
|0, 32, 71, 39, 0, 0, 0, 0, 0, 16, 76, 0, 0, 80, 56, 0, 0, 0, 30, 10, 0, 0, 5, 0, 0, 51, 0, 0, 68, 15, 0, 0, 0, 0, 0, 0, 6, 0, 0, 0, 0, 13, 0, 41, 0, 0, 0, 0, 0, 0, 0, 0, 8, 0, 34, 7, 0, 0, 50, 0, 0, 0, 0, 0, 0, 0, 61, 0, 0, 0, 0, 0, 28, 9, 0, 0, 0, 0, 0, 4, 0
|0, 0, 36, 23, 0, 50, 4, 0, 0, 0, 42, 0, 75, 0, 0, 0, 0, 0, 0, 0, 0, 0, 0, 0, 0, 0, 49, 62, 53, 0, 0, 0, 79, 0, 0, 0, 0, 21, 0, 0, 0, 0, 20, 1, 43, 0, 0, 0, 0, 0, 0, 0, 0, 68, 74, 0, 0, 39, 31, 0, 0, 67, 0, 0, 0, 73, 0, 65, 0, 0, 0, 0, 64, 69, 0, 0, 0, 0, 0, 0, 0
|0, 21, 60, 0, 48, 0, 69, 47, 0, 0, 0, 0, 9, 0, 0, 0, 0, 0, 0, 0, 63, 41, 0, 56, 0, 0, 0, 72, 32, 76, 0, 0, 16, 0, 0, 73, 4, 0, 0, 0, 0, 64, 0, 70, 0, 14, 0, 0, 0, 30, 0, 34, 11, 0, 15, 0, 0, 0, 0, 0, 6, 0, 68, 17, 0, 0, 40, 0, 0, 0, 50, 0, 0, 0, 0, 0, 0, 46, 0, 0, 0
|0, 26, 0, 0, 63, 33, 56, 0, 0, 0, 12, 0, 0, 74, 0, 0, 0, 53, 0, 0, 75, 0, 0, 0, 0, 0, 0, 0, 0, 1, 0, 0, 0, 13, 0, 52, 0, 0, 42, 0, 60, 54, 0, 0, 31, 81, 0, 0, 36, 27, 0, 0, 0, 0, 79, 69, 51, 0, 0, 21, 0, 43, 0, 0, 0, 0, 0, 0, 0, 0, 0, 0, 0, 73, 0, 0, 8, 15, 0, 50, 18
|35, 0, 6, 0, 0, 11, 0, 0, 0, 0, 0, 43, 2, 0, 0, 0, 36, 0, 0, 0, 0, 0, 77, 0, 0, 0, 0, 0, 0, 0, 0, 0, 18, 0, 0, 0, 0, 0, 0, 0, 0, 0, 0, 61, 0, 0, 78, 0, 0, 13, 32, 80, 37, 9, 0, 0, 70, 81, 0, 0, 0, 0, 25, 0, 0, 23, 0, 0, 5, 79, 51, 0, 0, 0, 0, 0, 0, 0, 20, 0, 0
|24, 81, 8, 0, 0, 0, 0, 0, 15, 0, 23, 0, 0, 49, 0, 0, 0, 0, 0, 0, 78, 7, 0, 0, 0, 0, 0, 0, 0, 0, 0, 0, 0, 0, 48, 0, 0, 0, 0, 0, 53, 10, 29, 0, 79, 0, 0, 0, 0, 0, 0, 2, 0, 0, 12, 0, 0, 0, 0, 0, 0, 0, 0, 0, 0, 0, 0, 0, 63, 0, 76, 0, 0, 65, 77, 0, 42, 0, 0, 21, 0
|0, 70, 24, 0, 66, 0, 60, 0, 0, 0, 0, 0, 0, 0, 0, 51, 0, 0, 63, 0, 0, 0, 0, 0, 0, 0, 0, 0, 0, 23, 0, 0, 32, 0, 0, 0, 79, 41, 15, 0, 0, 0, 40, 44, 28, 0, 0, 0, 0, 0, 53, 27, 50, 0, 64, 0, 0, 45, 43, 0, 0, 0, 0, 14, 0, 0, 0, 0, 0, 0, 0, 0, 0, 58, 0, 0, 0, 0, 0, 0, 0
|0, 42, 0, 31, 0, 0, 17, 0, 0, 0, 0, 0, 0, 0, 0, 0, 14, 0, 22, 0, 0, 0, 30, 0, 16, 4, 0, 13, 0, 0, 0, 45, 0, 0, 9, 0, 0, 0, 0, 6, 0, 51, 0, 24, 39, 0, 0, 0, 0, 0, 64, 0, 35, 0, 21, 34, 0, 0, 72, 0, 0, 0, 0, 76, 19, 0, 0, 0, 0, 0, 0, 0, 12, 0, 0, 60, 0, 73, 0, 0, 0
|0, 0, 0, 13, 0, 0, 0, 11, 0, 0, 0, 0, 0, 0, 0, 0, 39, 0, 0, 51, 0, 0, 20, 0, 0, 19, 0, 0, 0, 0, 0, 0, 0, 0, 0, 31, 0, 0, 0, 52, 0, 0, 0, 16, 0, 0, 0, 0, 0, 0, 0, 0, 0, 0, 0, 70, 0, 0, 0, 0, 0, 63, 0, 0, 0, 0, 0, 41, 80, 0, 0, 0, 0, 0, 0, 0, 0, 59, 29, 0, 0
|0, 56, 48, 25, 0, 41, 0, 0, 0, 0, 0, 0, 0, 0, 0, 0, 0, 0, 0, 43, 0, 65, 0, 24, 0, 0, 29, 0, 0, 0, 0, 0, 0, 0, 77, 0, 0, 0, 0, 0, 0, 0, 14, 0, 20, 19, 0, 0, 0, 0, 0, 0, 0, 0, 0, 61, 0, 0, 53, 27, 0, 0, 76, 70, 0, 0, 0, 59, 0, 0, 0, 15, 0, 28, 0, 67, 0, 6, 0, 0, 0
|0, 27, 0, 0, 0, 0, 0, 4, 0, 0, 0, 71, 0, 0, 46, 0, 70, 0, 6, 0, 35, 55, 0, 66, 0, 10, 23, 0, 0, 0, 0, 28, 0, 0, 0, 47, 1, 0, 53, 33, 0, 0, 0, 21, 0, 79, 0, 0, 0, 0, 0, 0, 31, 0, 0, 0, 0, 0, 60, 42, 11, 0, 67, 37, 0, 13, 8, 12, 0, 0, 0, 52, 80, 0, 20, 0, 0, 49, 0, 0, 81
|0, 0, 63, 0, 39, 0, 80, 0, 0, 0, 0, 0, 0, 0, 0, 0, 0, 0, 0, 0, 0, 0, 0, 0, 27, 0, 0, 40, 0, 3, 0, 76, 0, 25, 0, 26, 0, 0, 0, 0, 7, 0, 0, 0, 0, 0, 0, 0, 1, 62, 0, 9, 0, 6, 0, 73, 0, 37, 14, 16, 0, 2, 48, 0, 0, 0, 0, 0, 0, 0, 49, 0, 0, 0, 0, 0, 44, 32, 52, 0, 66
|0, 76, 9, 0, 52, 0, 0, 0, 0, 0, 0, 0, 0, 3, 0, 0, 0, 0, 26, 0, 0, 32, 0, 0, 0, 39, 0, 0, 36, 0, 0, 0, 0, 0, 0, 0, 0, 0, 31, 64, 0, 0, 0, 0, 0, 0, 0, 44, 71, 0, 0, 0, 0, 0, 8, 0, 0, 0, 0, 51, 0, 79, 49, 30, 0, 0, 66, 77, 0, 35, 0, 0, 0, 68, 0, 0, 0, 50, 0, 0, 0
|32, 57, 0, 0, 21, 7, 0, 0, 0, 0, 78, 53, 63, 47, 0, 0, 0, 0, 34, 0, 8, 0, 0, 50, 0, 0, 0, 0, 0, 0, 0, 0, 0, 0, 79, 0, 0, 0, 0, 12, 0, 0, 69, 0, 0, 0, 0, 0, 0, 0, 59, 0, 0, 0, 0, 0, 0, 0, 0, 0, 0, 35, 0, 22, 0, 0, 0, 0, 0, 0, 0, 45, 0, 0, 26, 0, 0, 27, 0, 0, 0
|0, 18, 0, 0, 0, 0, 12, 0, 65, 0, 0, 67, 55, 0, 0, 0, 0, 0, 45, 41, 47, 77, 0, 53, 3, 0, 28, 0, 0, 0, 68, 0, 0, 1, 0, 0, 0, 0, 71, 0, 0, 36, 0, 0, 5, 0, 0, 0, 0, 0, 0, 0, 0, 0, 10, 0, 39, 50, 0, 56, 0, 0, 0, 0, 0, 0, 0, 9, 51, 0, 0, 0, 0, 0, 0, 0, 0, 0, 0, 0, 0
|0, 0, 0, 32, 0, 0, 13, 0, 80, 0, 0, 0, 0, 29, 34, 0, 0, 35, 0, 0, 0, 0, 0, 49, 30, 0, 43, 0, 66, 0, 61, 0, 0, 0, 0, 0, 0, 0, 10, 0, 0, 0, 60, 0, 0, 63, 0, 19, 0, 69, 0, 79, 0, 0, 0, 0, 0, 0, 0, 48, 0, 0, 70, 0, 0, 0, 41, 22, 0, 0, 0, 0, 0, 54, 0, 0, 0, 0, 0, 0, 0
|0, 60, 0, 0, 0, 18, 0, 0, 0, 0, 0, 0, 0, 0, 0, 0, 0, 48, 0, 65, 0, 12, 0, 0, 41, 0, 73, 0, 19, 0, 0, 0, 0, 0, 3, 9, 0, 0, 76, 0, 0, 0, 0, 0, 53, 0, 0, 0, 0, 42, 0, 68, 0, 0, 0, 0, 57, 0, 0, 0, 0, 0, 29, 0, 31, 27, 0, 0, 0, 0, 0, 81, 30, 0, 23, 0, 16, 0, 0, 5, 0
|5, 0, 0, 0, 49, 0, 0, 0, 0, 62, 0, 0, 53, 0, 0, 65, 0, 37, 19, 0, 0, 0, 0, 57, 0, 0, 35, 0, 0, 0, 0, 16, 0, 0, 0, 0, 0, 0, 0, 0, 0, 0, 11, 0, 75, 0, 0, 10, 0, 0, 0, 55, 0, 0, 61, 59, 0, 15, 0, 0, 0, 0, 0, 0, 0, 0, 0, 0, 78, 0, 0, 36, 7, 0, 0, 0, 0, 0, 0, 0, 0
|0, 0, 25, 0, 42, 36, 24, 2, 58, 54, 0, 0, 0, 79, 76, 13, 0, 0, 56, 33, 0, 0, 0, 0, 0, 0, 0, 0, 78, 0, 41, 0, 0, 12, 0, 0, 0, 15, 0, 0, 0, 57, 72, 77, 0, 5, 0, 80, 0, 0, 0, 0, 0, 0, 0, 0, 0, 40, 38, 0, 0, 45, 0, 0, 9, 0, 70, 0, 11, 65, 0, 0, 0, 48, 0, 0, 6, 0, 0, 0, 59
|0, 51, 0, 0, 0, 0, 0, 0, 0, 0, 0, 0, 0, 0, 55, 0, 0, 0, 0, 0, 0, 53, 0, 0, 0, 0, 0, 65, 0, 0, 73, 0, 0, 0, 42, 18, 0, 0, 78, 66, 0, 2, 0, 0, 0, 0, 26, 0, 0, 0, 0, 0, 0, 0, 80, 0, 25, 0, 0, 11, 0, 0, 0, 0, 46, 0, 0, 0, 0, 0, 0, 0, 0, 0, 63, 14, 71, 31, 0, 0, 0
|0, 22, 0, 57, 8, 0, 0, 0, 0, 0, 18, 0, 0, 0, 0, 67, 0, 33, 0, 16, 0, 0, 0, 0, 0, 0, 0, 54, 59, 0, 0, 0, 44, 0, 0, 0, 0, 56, 0, 0, 0, 3, 0, 50, 0, 0, 29, 61, 0, 0, 0, 0, 72, 0, 0, 0, 0, 79, 0, 0, 0, 0, 0, 0, 30, 0, 25, 0, 0, 52, 0, 28, 34, 0, 0, 0, 11, 41, 0, 0, 0
|55, 0, 0, 0, 0, 0, 0, 0, 0, 70, 0, 0, 0, 0, 0, 0, 17, 78, 0, 0, 29, 0, 0, 0, 0, 0, 0, 0, 28, 0, 0, 0, 0, 0, 0, 0, 0, 0, 68, 0, 0, 0, 61, 31, 0, 0, 0, 0, 0, 0, 0, 0, 0, 0, 0, 0, 0, 0, 0, 0, 0, 0, 0, 0, 32, 76, 0, 0, 0, 0, 0, 0, 0, 0, 0, 0, 0, 79, 0, 0, 0
|19, 0, 0, 0, 0, 0, 76, 0, 0, 0, 0, 59, 0, 0, 11, 57, 0, 26, 0, 28, 0, 0, 0, 0, 70, 3, 0, 0, 0, 0, 10, 0, 0, 0, 25, 74, 0, 48, 0, 0, 0, 46, 0, 0, 0, 0, 0, 0, 0, 0, 0, 0, 0, 0, 0, 0, 0, 67, 0, 0, 0, 0, 0, 12, 0, 0, 0, 0, 0, 0, 43, 0, 0, 0, 53, 0, 73, 0, 0, 39, 45
|3, 0, 0, 0, 0, 0, 0, 0, 21, 0, 30, 38, 0, 64, 0, 1, 0, 0, 0, 0, 0, 22, 0, 0, 51, 0, 0, 11, 0, 0, 50, 24, 46, 0, 0, 0, 0, 0, 0, 0, 9, 17, 0, 0, 74, 0, 66, 15, 0, 0, 0, 0, 57, 0, 0, 44, 0, 0, 65, 0, 32, 7, 16, 13, 5, 59, 0, 45, 0, 0, 0, 8, 0, 0, 62, 0, 35, 76, 0, 70, 0
|75, 0, 0, 53, 0, 0, 0, 76, 70, 33, 2, 32, 0, 57, 7, 0, 0, 77, 0, 40, 0, 0, 0, 0, 1, 22, 0, 35, 0, 46, 79, 0, 0, 0, 0, 5, 0, 0, 44, 0, 0, 0, 0, 0, 0, 0, 0, 0, 0, 3, 0, 0, 0, 0, 14, 0, 0, 78, 0, 0, 0, 0, 63, 0, 0, 80, 11, 6, 0, 0, 0, 0, 0, 0, 0, 45, 0, 0, 0, 61, 0
|69, 0, 64, 0, 0, 0, 19, 0, 0, 18, 0, 0, 62, 0, 0, 40, 0, 0, 0, 0, 0, 0, 7, 0, 0, 38, 0, 6, 0, 0, 0, 0, 0, 63, 10, 42, 26, 74, 0, 0, 0, 0, 0, 0, 55, 0, 0, 0, 0, 80, 0, 0, 16, 0, 0, 0, 0, 25, 0, 0, 0, 0, 17, 0, 0, 8, 0, 0, 0, 0, 2, 0, 0, 0, 0, 0, 60, 0, 0, 65, 0
|0, 0, 0, 41, 0, 0, 0, 0, 8, 79, 0, 0, 0, 0, 0, 0, 80, 0, 0, 0, 0, 3, 0, 13, 69, 29, 0, 0, 0, 38, 0, 0, 0, 40, 68, 44, 0, 19, 0, 0, 0, 14, 0, 0, 0, 0, 81, 0, 0, 1, 24, 23, 2, 34, 65, 36, 0, 0, 0, 45, 0, 0, 0, 0, 0, 0, 0, 62, 0, 4, 0, 0, 0, 0, 42, 0, 0, 0, 0, 0, 0
|0, 0, 0, 0, 0, 0, 0, 0, 0, 76, 35, 0, 0, 0, 69, 0, 0, 0, 0, 0, 0, 0, 0, 20, 0, 0, 8, 45, 70, 0, 0, 0, 73, 0, 21, 0, 0, 60, 0, 0, 0, 81, 0, 0, 0, 61, 59, 0, 0, 0, 0, 0, 0, 0, 0, 31, 3, 0, 49, 33, 0, 0, 0, 0, 0, 0, 0, 0, 0, 0, 0, 0, 0, 0, 0, 1, 0, 0, 0, 0, 0
|0, 65, 0, 0, 0, 0, 0, 21, 0, 0, 70, 0, 0, 48, 0, 3, 0, 0, 0, 59, 0, 0, 0, 0, 73, 0, 0, 0, 0, 0, 64, 0, 0, 0, 0, 0, 24, 0, 0, 0, 68, 0, 1, 0, 0, 43, 0, 0, 0, 0, 0, 39, 0, 0, 60, 8, 0, 0, 0, 6, 76, 0, 62, 0, 0, 0, 17, 0, 10, 0, 78, 18, 0, 0, 0, 0, 0, 0, 0, 77, 0
|13, 0, 0, 0, 54, 78, 0, 0, 74, 0, 65, 1, 0, 0, 0, 71, 67, 0, 47, 0, 81, 45, 0, 9, 0, 32, 0, 0, 0, 0, 0, 0, 50, 0, 0, 22, 0, 0, 72, 0, 0, 15, 0, 0, 27, 0, 7, 29, 51, 5, 0, 0, 55, 0, 38, 0, 0, 0, 0, 0, 0, 0, 46, 0, 34, 0, 0, 75, 40, 0, 0, 0, 0, 0, 0, 69, 0, 0, 48, 0, 0
|34, 0, 0, 0, 0, 40, 81, 27, 0, 0, 0, 55, 45, 0, 0, 0, 72, 73, 0, 0, 0, 14, 0, 0, 0, 0, 60, 0, 0, 0, 74, 0, 25, 0, 0, 0, 0, 0, 0, 0, 32, 18, 0, 10, 30, 0, 0, 8, 0, 19, 17, 0, 26, 0, 0, 0, 0, 0, 0, 13, 0, 0, 0, 79, 38, 0, 0, 0, 0, 0, 52, 0, 0, 0, 0, 0, 0, 16, 0, 0, 0
|0, 50, 0, 1, 0, 29, 0, 0, 43, 0, 0, 0, 0, 0, 0, 0, 0, 0, 0, 0, 0, 68, 0, 0, 0, 75, 0, 0, 0, 0, 0, 0, 0, 0, 0, 0, 0, 0, 0, 0, 0, 16, 0, 0, 0, 54, 0, 69, 0, 0, 0, 0, 0, 45, 0, 0, 0, 0, 0, 0, 73, 0, 10, 0, 0, 0, 0, 0, 28, 0, 67, 0, 0, 0, 0, 0, 0, 0, 0, 30, 0
|61, 0, 0, 42, 68, 63, 0, 7, 0, 50, 46, 0, 26, 0, 0, 0, 37, 0, 0, 0, 0, 0, 0, 0, 0, 28, 27, 0, 0, 20, 55, 39, 0, 0, 0, 36, 0, 0, 11, 0, 0, 40, 43, 0, 0, 0, 13, 0, 0, 0, 0, 0, 0, 0, 0, 0, 0, 19, 0, 2, 80, 0, 71, 0, 0, 0, 0, 35, 45, 0, 0, 0, 0, 0, 56, 0, 0, 21, 0, 0, 4|];