order = 9;
grid = [|19, 0, 0, 0, 62, 0, 14, 0, 81, 78, 0, 0, 0, 0, 0, 0, 0, 0, 0, 79, 67, 0, 4, 0, 70, 46, 0, 23, 0, 0, 80, 61, 26, 0, 0, 0, 0, 0, 0, 51, 0, 0, 0, 0, 25, 0, 0, 0, 0, 39, 42, 0, 0, 0, 0, 58, 0, 0, 8, 0, 0, 65, 45, 0, 0, 0, 0, 0, 0, 0, 0, 0, 12, 0, 0, 56, 0, 0, 41, 0, 0
|7, 28, 0, 0, 3, 0, 0, 0, 0, 0, 32, 0, 36, 0, 0, 48, 64, 0, 0, 0, 29, 0, 0, 0, 0, 0, 0, 0, 0, 0, 79, 0, 0, 0, 0, 0, 0, 0, 69, 0, 13, 56, 0, 0, 0, 0, 0, 0, 0, 37, 0, 0, 0, 0, 0, 0, 55, 0, 0, 0, 5, 0, 54, 0, 0, 38, 46, 0, 0, 0, 0, 0, 0, 51, 77, 0, 47, 9, 0, 0, 0
|0, 0, 0, 0, 0, 0, 0, 41, 0, 12, 0, 0, 81, 0, 0, 73, 76, 0, 0, 0, 0, 64, 0, 32, 51, 0, 23, 10, 78, 0, 0, 0, 0, 3, 0, 50, 0, 0, 0, 22, 0, 0, 0, 27, 0, 71, 17, 0, 0, 0, 34, 0, 0, 0, 0, 0, 39, 0, 52, 0, 0, 0, 0, 0, 0, 0, 74, 0, 16, 0, 43, 57, 1, 0, 5, 0, 0, 6, 0, 80, 0
|0, 0, 0, 10, 0, 8, 0, 0, 49, 0, 58, 0, 7, 0, 0, 0, 0, 0, 0, 25, 0, 0, 0, 0, 0, 0, 0, 60, 0, 0, 0, 0, 0, 29, 0, 0, 0, 0, 17, 0, 0, 72, 0, 0, 0, 0, 0, 0, 32, 0, 0, 0, 0, 69, 0, 0, 3, 0, 0, 0, 0, 81, 0, 5, 77, 0, 0, 0, 0, 0, 0, 0, 0, 0, 27, 0, 0, 55, 0, 0, 0
|21, 0, 0, 71, 78, 0, 53, 0, 51, 0, 0, 0, 0, 0, 35, 0, 47, 57, 80, 10, 0, 0, 0, 0, 73, 0, 0, 56, 0, 0, 0, 0, 0, 0, 0, 0, 0, 0, 0, 42, 46, 76, 60, 0, 0, 0, 9, 0, 0, 0, 0, 72, 30, 0, 37, 63, 50, 0, 0, 0, 48, 18, 0, 0, 0, 4, 0, 0, 0, 0, 0, 0, 0, 40, 75, 62, 0, 0, 0, 0, 0
|0, 42, 64, 0, 16, 57, 30, 0, 0, 0, 0, 0, 75, 0, 21, 67, 0, 0, 54, 0, 0, 0, 0, 0, 68, 0, 5, 0, 12, 76, 0, 0, 55, 24, 0, 52, 0, 0, 18, 0, 0, 0, 79, 0, 0, 60, 0, 0, 0, 0, 70, 0, 0, 0, 2, 0, 0, 71, 0, 0, 51, 47, 0, 0, 41, 50, 0, 0, 0, 0, 69, 9, 78, 65, 0, 81, 32, 0, 0, 0, 61
|0, 0, 0, 33, 0, 0, 65, 25, 0, 0, 0, 3, 0, 0, 0, 0, 79, 0, 43, 0, 0, 0, 0, 0, 0, 0, 0, 0, 0, 0, 0, 0, 0, 74, 0, 59, 0, 0, 44, 0, 55, 0, 50, 0, 0, 0, 38, 10, 29, 0, 0, 28, 0, 18, 0, 69, 64, 0, 0, 0, 26, 0, 0, 51, 0, 0, 0, 0, 0, 0, 0, 0, 0, 0, 0, 0, 11, 0, 0, 54, 0
|0, 39, 0, 0, 0, 0, 0, 0, 22, 0, 0, 0, 0, 0, 0, 53, 10, 0, 0, 0, 0, 0, 0, 40, 48, 12, 47, 0, 0, 0, 34, 0, 0, 0, 0, 4, 0, 0, 0, 0, 0, 0, 24, 26, 0, 0, 11, 0, 0, 0, 0, 0, 0, 0, 0, 0, 0, 0, 0, 0, 21, 0, 0, 0, 76, 0, 0, 0, 0, 63, 68, 0, 0, 0, 0, 45, 0, 0, 0, 8, 0
|0, 0, 27, 60, 0, 0, 0, 80, 70, 0, 0, 0, 0, 0, 0, 63, 29, 0, 0, 33, 0, 0, 7, 0, 59, 0, 0, 47, 0, 0, 0, 36, 0, 0, 69, 0, 0, 41, 81, 10, 28, 0, 0, 0, 39, 0, 23, 5, 0, 0, 0, 4, 0, 0, 0, 40, 0, 0, 14, 0, 6, 0, 0, 0, 0, 0, 0, 78, 0, 0, 56, 0, 71, 0, 0, 0, 0, 0, 42, 0, 0
|0, 0, 0, 0, 79, 0, 0, 0, 0, 0, 0, 0, 0, 8, 0, 5, 0, 0, 36, 1, 0, 0, 0, 0, 0, 0, 0, 78, 0, 0, 0, 65, 20, 0, 37, 9, 0, 0, 0, 18, 0, 10, 57, 76, 53, 0, 0, 0, 0, 15, 0, 55, 0, 0, 0, 14, 0, 0, 0, 0, 0, 0, 0, 0, 0, 0, 0, 29, 61, 0, 30, 0, 0, 81, 0, 0, 0, 0, 56, 7, 0
|0, 77, 0, 0, 0, 0, 0, 0, 4, 0, 0, 0, 0, 0, 0, 0, 0, 0, 0, 0, 0, 74, 0, 31, 0, 0, 0, 0, 0, 0, 12, 0, 0, 13, 0, 39, 0, 0, 0, 0, 6, 0, 0, 0, 75, 59, 0, 0, 0, 0, 28, 0, 65, 58, 0, 0, 30, 0, 0, 0, 0, 0, 0, 54, 0, 5, 0, 37, 0, 8, 0, 60, 0, 0, 0, 0, 0, 11, 3, 67, 38
|71, 0, 73, 0, 0, 21, 0, 0, 11, 0, 0, 0, 0, 0, 72, 0, 60, 68, 0, 45, 0, 0, 27, 12, 0, 0, 0, 0, 0, 0, 0, 44, 31, 0, 0, 63, 41, 16, 62, 39, 78, 0, 0, 0, 50, 0, 0, 76, 10, 54, 0, 20, 0, 0, 67, 55, 26, 0, 0, 0, 29, 0, 37, 0, 0, 0, 0, 66, 0, 0, 77, 0, 0, 5, 0, 0, 8, 43, 1, 42, 49
|67, 0, 0, 0, 0, 0, 0, 19, 0, 0, 0, 0, 0, 0, 0, 20, 46, 78, 0, 0, 0, 0, 0, 0, 0, 0, 0, 0, 68, 0, 0, 0, 60, 0, 0, 0, 0, 54, 0, 0, 0, 0, 0, 0, 0, 0, 73, 0, 0, 0, 0, 37, 0, 0, 0, 0, 59, 0, 0, 45, 0, 0, 0, 0, 0, 1, 38, 34, 0, 0, 0, 0, 0, 0, 0, 10, 0, 0, 0, 0, 0
|2, 0, 0, 0, 0, 0, 0, 0, 0, 0, 0, 39, 77, 0, 42, 66, 0, 48, 0, 0, 0, 11, 0, 78, 0, 38, 0, 74, 0, 7, 55, 0, 0, 0, 0, 0, 0, 32, 35, 67, 0, 0, 0, 71, 0, 0, 4, 0, 0, 0, 0, 19, 0, 31, 13, 60, 41, 56, 0, 0, 64, 0, 0, 65, 0, 57, 0, 46, 0, 10, 25, 63, 0, 0, 52, 0, 0, 59, 0, 26, 0
|37, 0, 75, 57, 0, 9, 56, 0, 0, 40, 0, 0, 0, 0, 0, 0, 0, 0, 0, 0, 53, 55, 3, 0, 10, 0, 33, 27, 0, 0, 0, 0, 0, 0, 0, 0, 0, 0, 0, 0, 0, 29, 0, 25, 0, 0, 49, 39, 0, 52, 0, 0, 43, 0, 0, 65, 0, 54, 47, 0, 0, 0, 0, 0, 0, 0, 0, 0, 0, 0, 0, 12, 0, 0, 0, 0, 0, 0, 74, 23, 0
|0, 0, 66, 65, 72, 59, 0, 8, 0, 0, 0, 49, 0, 30, 0, 0, 0, 2, 0, 0, 0, 0, 0, 0, 69, 0, 80, 0, 0, 24, 0, 0, 0, 0, 0, 0, 77, 0, 0, 47, 22, 0, 0, 0, 0, 0, 0, 25, 0, 0, 0, 74, 40, 0, 0, 44, 0, 0, 0, 0, 0, 39, 0, 0, 27, 0, 0, 0, 11, 0, 45, 33, 0, 0, 0, 0, 61, 0, 0, 0, 0
|60, 0, 0, 0, 36, 0, 27, 0, 74, 29, 0, 0, 0, 0, 0, 0, 0, 81, 0, 37, 0, 0, 61, 0, 20, 0, 0, 35, 70, 0, 0, 16, 0, 0, 76, 0, 0, 15, 0, 0, 0, 0, 0, 0, 0, 0, 0, 0, 0, 0, 0, 48, 0, 0, 0, 0, 0, 0, 0, 0, 4, 53, 0, 0, 0, 0, 0, 0, 32, 79, 42, 62, 0, 0, 0, 0, 0, 0, 47, 0, 0
|0, 0, 0, 0, 0, 20, 41, 0, 0, 0, 0, 0, 80, 17, 0, 0, 33, 0, 0, 29, 0, 5, 0, 8, 75, 40, 59, 0, 0, 0, 0, 54, 0, 0, 0, 66, 2, 0, 0, 0, 11, 0, 0, 0, 0, 0, 61, 0, 0, 50, 0, 62, 26, 0, 0, 51, 0, 0, 0, 36, 0, 10, 77, 0, 0, 0, 0, 0, 0, 0, 0, 0, 0, 0, 0, 0, 25, 0, 21, 0, 0
|0, 0, 38, 69, 0, 1, 0, 53, 0, 0, 0, 0, 64, 81, 0, 0, 0, 0, 0, 0, 0, 0, 0, 0, 0, 0, 0, 0, 0, 0, 0, 0, 0, 0, 0, 41, 0, 0, 22, 0, 0, 0, 0, 0, 0, 0, 54, 0, 30, 0, 73, 0, 0, 0, 0, 29, 0, 0, 0, 25, 0, 0, 0, 79, 15, 0, 44, 0, 0, 31, 0, 0, 0, 0, 14, 0, 63, 21, 49, 0, 0
|55, 29, 13, 0, 0, 43, 40, 0, 0, 49, 71, 59, 0, 68, 38, 70, 7, 31, 0, 0, 0, 0, 18, 5, 0, 58, 74, 0, 53, 0, 76, 0, 0, 0, 51, 0, 0, 0, 0, 0, 0, 0, 0, 0, 24, 0, 0, 0, 0, 0, 0, 0, 19, 0, 69, 37, 0, 11, 0, 0, 0, 0, 14, 63, 0, 0, 64, 0, 0, 0, 17, 66, 0, 0, 0, 0, 0, 0, 0, 0, 0
|49, 63, 0, 0, 64, 0, 0, 0, 0, 0, 0, 56, 0, 0, 0, 36, 0, 0, 0, 4, 0, 0, 0, 0, 0, 0, 0, 0, 0, 14, 24, 0, 44, 0, 0, 69, 0, 0, 0, 72, 0, 7, 78, 51, 15, 2, 10, 0, 0, 0, 0, 0, 0, 0, 39, 0, 73, 0, 28, 0, 47, 0, 0, 61, 80, 0, 0, 0, 0, 0, 71, 81, 35, 0, 54, 53, 0, 1, 0, 0, 43
|0, 0, 0, 81, 0, 0, 37, 0, 0, 0, 0, 0, 0, 0, 0, 76, 0, 0, 0, 0, 0, 0, 0, 0, 0, 0, 0, 12, 0, 11, 66, 21, 0, 0, 30, 0, 0, 0, 0, 0, 23, 70, 28, 0, 0, 0, 0, 0, 67, 0, 8, 0, 20, 0, 0, 0, 0, 0, 58, 0, 0, 68, 0, 0, 32, 75, 0, 0, 0, 0, 0, 0, 0, 0, 0, 34, 78, 45, 0, 0, 0
|0, 0, 0, 70, 4, 0, 0, 0, 0, 66, 0, 0, 79, 0, 0, 30, 58, 0, 69, 0, 22, 0, 19, 0, 56, 62, 0, 0, 0, 2, 32, 29, 0, 0, 0, 0, 73, 0, 0, 0, 25, 68, 0, 80, 0, 28, 0, 0, 65, 23, 50, 38, 0, 61, 0, 49, 0, 0, 0, 48, 0, 0, 72, 34, 37, 0, 0, 74, 0, 0, 0, 0, 0, 17, 57, 33, 0, 52, 0, 0, 0
|0, 0, 0, 26, 65, 0, 0, 0, 0, 0, 45, 0, 0, 78, 0, 61, 28, 0, 0, 0, 0, 0, 0, 0, 54, 0, 81, 0, 0, 0, 0, 0, 0, 64, 63, 48, 0, 0, 0, 0, 0, 0, 0, 1, 0, 0, 0, 0, 62, 0, 0, 0, 0, 0, 9, 0, 0, 38, 0, 0, 0, 0, 33, 39, 0, 12, 25, 52, 0, 0, 0, 41, 7, 0, 0, 0, 0, 0, 0, 0, 0
|58, 54, 67, 0, 73, 0, 0, 24, 0, 0, 0, 22, 0, 29, 0, 0, 48, 0, 71, 0, 46, 0, 0, 49, 0, 0, 0, 0, 0, 77, 0, 0, 43, 0, 34, 75, 8, 0, 0, 0, 0, 27, 0, 0, 19, 0, 0, 42, 0, 0, 0, 0, 0, 21, 0, 0, 70, 0, 0, 0, 0, 0, 0, 0, 47, 0, 0, 0, 0, 0, 0, 0, 0, 0, 0, 0, 81, 0, 0, 0, 62
|0, 0, 0, 0, 35, 0, 0, 57, 0, 0, 0, 55, 0, 0, 0, 0, 19, 0, 29, 0, 0, 10, 0, 0, 0, 0, 0, 0, 33, 36, 0, 0, 0, 0, 52, 0, 0, 0, 0, 0, 69, 81, 0, 0, 0, 0, 63, 0, 0, 32, 0, 76, 58, 39, 0, 26, 0, 0, 0, 0, 0, 30, 75, 0, 0, 0, 0, 0, 0, 72, 0, 0, 74, 0, 0, 6, 0, 0, 0, 0, 0
|0, 0, 0, 0, 0, 0, 0, 34, 32, 0, 47, 0, 0, 0, 0, 0, 42, 0, 0, 0, 0, 14, 0, 0, 0, 0, 0, 0, 0, 37, 0, 0, 0, 40, 0, 0, 0, 39, 43, 0, 0, 0, 4, 17, 58, 0, 0, 44, 0, 0, 0, 80, 46, 0, 0, 0, 0, 77, 0, 0, 0, 0, 0, 0, 57, 0, 35, 0, 0, 0, 0, 0, 66, 70, 8, 61, 0, 0, 51, 0, 0
|0, 0, 0, 0, 51, 40, 0, 43, 0, 0, 24, 71, 0, 0, 48, 0, 0, 0, 70, 39, 0, 0, 8, 0, 0, 81, 63, 9, 59, 0, 0, 0, 73, 47, 80, 36, 0, 0, 0, 0, 34, 0, 0, 49, 0, 54, 0, 0, 0, 0, 0, 0, 76, 0, 0, 0, 0, 0, 0, 0, 0, 57, 0, 0, 58, 0, 0, 0, 52, 0, 0, 0, 16, 0, 0, 0, 0, 72, 0, 0, 74
|1, 26, 0, 0, 7, 0, 0, 33, 8, 3, 0, 51, 0, 0, 59, 0, 0, 36, 12, 42, 0, 0, 53, 9, 0, 0, 0, 64, 0, 31, 0, 0, 21, 0, 22, 5, 29, 0, 20, 0, 0, 0, 0, 11, 0, 0, 75, 0, 0, 0, 0, 71, 45, 0, 25, 17, 0, 0, 0, 2, 0, 0, 0, 0, 0, 0, 65, 0, 46, 38, 39, 0, 0, 0, 0, 0, 19, 0, 0, 47, 0
|0, 17, 0, 0, 57, 0, 60, 0, 0, 81, 0, 50, 0, 67, 0, 37, 70, 0, 0, 74, 0, 45, 0, 3, 0, 15, 25, 79, 0, 28, 0, 0, 39, 53, 0, 0, 0, 61, 0, 0, 32, 9, 0, 0, 0, 0, 0, 0, 0, 58, 0, 26, 21, 72, 40, 0, 0, 75, 10, 0, 0, 0, 0, 0, 0, 0, 30, 0, 0, 0, 0, 0, 8, 0, 0, 0, 0, 0, 0, 0, 0
|59, 0, 0, 0, 0, 0, 49, 0, 44, 0, 0, 0, 0, 0, 0, 0, 0, 0, 0, 0, 0, 76, 0, 0, 0, 0, 0, 48, 0, 27, 0, 0, 0, 4, 0, 0, 0, 0, 78, 0, 0, 0, 42, 0, 73, 23, 0, 0, 0, 0, 0, 0, 0, 0, 72, 0, 33, 0, 0, 0, 0, 0, 0, 0, 0, 20, 0, 12, 0, 61, 0, 0, 0, 0, 0, 0, 0, 0, 0, 0, 0
|0, 0, 0, 0, 0, 0, 10, 15, 0, 0, 0, 0, 21, 0, 0, 0, 0, 0, 0, 0, 59, 0, 0, 0, 0, 0, 0, 0, 0, 32, 70, 0, 0, 0, 0, 0, 24, 37, 0, 0, 0, 0, 0, 0, 0, 40, 0, 67, 0, 81, 64, 0, 0, 0, 0, 28, 0, 0, 0, 0, 0, 0, 0, 71, 0, 41, 63, 0, 0, 0, 0, 0, 0, 50, 0, 0, 0, 0, 12, 0, 0
|0, 0, 0, 80, 0, 0, 46, 61, 72, 0, 0, 0, 0, 0, 29, 0, 0, 0, 0, 11, 0, 54, 0, 0, 0, 41, 17, 63, 0, 0, 0, 0, 0, 10, 0, 0, 0, 0, 0, 0, 0, 0, 39, 0, 0, 5, 0, 53, 0, 0, 78, 0, 0, 0, 0, 77, 0, 0, 0, 0, 49, 0, 0, 0, 0, 73, 0, 0, 0, 0, 0, 0, 0, 0, 0, 59, 40, 0, 48, 0, 0
|53, 11, 0, 0, 0, 0, 0, 0, 0, 23, 0, 75, 0, 0, 0, 0, 0, 0, 6, 21, 0, 20, 0, 0, 0, 0, 0, 7, 0, 0, 0, 69, 0, 0, 0, 54, 0, 12, 0, 15, 72, 0, 67, 0, 0, 0, 0, 36, 0, 0, 79, 0, 44, 0, 0, 0, 0, 0, 0, 5, 0, 0, 59, 47, 81, 0, 0, 0, 0, 0, 16, 0, 0, 24, 51, 9, 0, 0, 57, 0, 0
|66, 0, 0, 55, 0, 76, 0, 0, 0, 0, 0, 0, 0, 0, 0, 0, 0, 0, 0, 0, 0, 0, 0, 0, 0, 0, 0, 0, 0, 0, 0, 0, 0, 0, 0, 0, 40, 0, 0, 0, 3, 0, 0, 0, 0, 51, 0, 0, 0, 0, 13, 0, 0, 0, 0, 0, 0, 0, 0, 0, 0, 0, 0, 25, 0, 64, 0, 0, 0, 0, 0, 0, 0, 0, 46, 68, 0, 22, 0, 0, 0
|0, 65, 0, 28, 0, 0, 64, 48, 62, 0, 0, 0, 27, 0, 0, 31, 34, 0, 0, 60, 0, 0, 0, 0, 0, 0, 51, 0, 52, 0, 0, 0, 0, 44, 0, 0, 0, 0, 6, 0, 63, 0, 0, 21, 68, 43, 20, 0, 35, 0, 0, 0, 0, 0, 0, 61, 42, 0, 0, 0, 0, 73, 11, 10, 69, 0, 17, 0, 0, 80, 0, 0, 0, 0, 0, 0, 0, 0, 0, 49, 0
|0, 0, 0, 8, 0, 0, 77, 0, 0, 0, 48, 0, 0, 55, 0, 81, 0, 0, 0, 0, 69, 0, 12, 0, 36, 80, 68, 0, 0, 47, 72, 0, 0, 0, 0, 78, 0, 0, 0, 0, 0, 0, 65, 45, 0, 46, 0, 0, 0, 0, 74, 0, 0, 0, 0, 0, 0, 0, 0, 0, 0, 0, 76, 41, 79, 0, 2, 0, 0, 0, 23, 0, 0, 0, 34, 0, 71, 57, 66, 0, 42
|9, 0, 0, 0, 67, 0, 0, 0, 0, 0, 0, 0, 0, 0, 0, 0, 0, 0, 0, 0, 0, 0, 0, 47, 0, 0, 29, 0, 0, 0, 0, 0, 0, 14, 0, 0, 0, 0, 0, 0, 27, 0, 0, 0, 0, 0, 0, 0, 0, 0, 0, 0, 0, 1, 0, 12, 0, 0, 0, 0, 0, 0, 0, 60, 0, 0, 0, 0, 45, 0, 0, 16, 59, 0, 0, 0, 49, 0, 0, 0, 0
|0, 0, 0, 0, 38, 0, 0, 0, 0, 0, 0, 0, 78, 0, 36, 0, 0, 6, 48, 0, 54, 17, 28, 0, 0, 0, 34, 13, 43, 0, 0, 0, 0, 0, 24, 0, 55, 0, 46, 0, 81, 0, 23, 2, 8, 0, 0, 0, 68, 7, 0, 0, 79, 0, 26, 0, 0, 60, 0, 0, 0, 0, 31, 0, 0, 63, 0, 1, 0, 0, 0, 0, 0, 0, 0, 0, 0, 0, 44, 32, 0
|0, 44, 0, 0, 0, 63, 0, 0, 0, 0, 0, 0, 0, 0, 0, 0, 11, 0, 35, 0, 0, 0, 20, 0, 0, 0, 0, 0, 0, 0, 29, 40, 0, 0, 12, 0, 0, 0, 74, 0, 52, 0, 10, 0, 9, 0, 0, 0, 61, 0, 48, 0, 8, 30, 0, 15, 0, 0, 0, 24, 0, 0, 0, 0, 0, 0, 0, 0, 64, 0, 0, 0, 13, 43, 0, 0, 0, 0, 0, 0, 0
|0, 0, 0, 0, 0, 0, 2, 58, 0, 0, 54, 79, 0, 0, 0, 0, 73, 0, 0, 0, 0, 0, 0, 0, 0, 9, 0, 0, 0, 61, 19, 0, 0, 0, 38, 80, 0, 0, 70, 0, 0, 0, 49, 0, 0, 0, 32, 0, 0, 0, 65, 0, 6, 34, 0, 0, 56, 16, 23, 0, 0, 0, 46, 0, 0, 0, 0, 0, 53, 52, 0, 71, 0, 0, 0, 47, 69, 0, 0, 0, 0
|0, 0, 0, 0, 0, 0, 0, 0, 80, 0, 28, 0, 0, 34, 0, 2, 67, 1, 40, 3, 0, 0, 13, 0, 41, 0, 0, 46, 48, 0, 27, 0, 0, 0, 0, 0, 0, 0, 0, 0, 0, 0, 0, 69, 6, 0, 26, 23, 0, 0, 44, 0, 0, 0, 0, 0, 0, 0, 0, 0, 0, 0, 68, 0, 0, 0, 58, 0, 0, 0, 24, 0, 0, 0, 0, 0, 53, 0, 0, 0, 64
|0, 0, 0, 51, 0, 0, 0, 69, 0, 0, 0, 0, 0, 0, 0, 0, 0, 13, 0, 0, 14, 27, 67, 0, 0, 0, 0, 0, 0, 0, 0, 0, 79, 0, 0, 0, 54, 0, 0, 0, 0, 30, 0, 42, 0, 41, 2, 0, 43, 0, 12, 0, 0, 70, 47, 0, 34, 5, 77, 0, 0, 0, 0, 0, 78, 0, 31, 0, 0, 0, 0, 0, 0, 21, 0, 0, 0, 0, 0, 0, 0
|0, 33, 0, 0, 34, 11, 0, 0, 3, 0, 0, 0, 70, 0, 68, 0, 0, 29, 0, 0, 0, 0, 38, 21, 52, 0, 0, 0, 71, 49, 0, 0, 81, 77, 0, 0, 48, 0, 0, 0, 0, 0, 16, 0, 0, 31, 0, 0, 0, 0, 0, 0, 0, 0, 0, 0, 0, 0, 0, 0, 44, 27, 0, 73, 35, 0, 0, 39, 0, 5, 0, 0, 0, 0, 50, 15, 0, 0, 0, 24, 0
|0, 0, 72, 0, 0, 0, 0, 0, 0, 0, 0, 0, 53, 0, 0, 0, 0, 0, 0, 0, 1, 78, 0, 0, 6, 10, 24, 0, 0, 30, 23, 26, 0, 0, 0, 0, 0, 79, 3, 59, 73, 15, 0, 0, 0, 42, 77, 63, 0, 0, 0, 0, 0, 0, 36, 0, 0, 0, 39, 0, 0, 48, 0, 49, 65, 0, 0, 0, 0, 0, 0, 0, 0, 0, 70, 0, 55, 40, 0, 0, 0
|0, 10, 0, 74, 54, 0, 0, 0, 37, 63, 53, 0, 0, 42, 31, 0, 0, 71, 0, 18, 0, 0, 0, 26, 0, 76, 9, 0, 0, 0, 0, 17, 14, 0, 0, 23, 0, 0, 0, 0, 0, 0, 0, 81, 0, 6, 0, 80, 0, 0, 66, 0, 0, 0, 0, 62, 0, 0, 0, 4, 0, 0, 0, 0, 0, 0, 0, 0, 49, 56, 41, 0, 0, 0, 0, 0, 0, 0, 0, 0, 0
|0, 0, 0, 0, 0, 0, 63, 5, 0, 0, 0, 0, 0, 44, 0, 80, 0, 0, 68, 2, 0, 0, 0, 0, 53, 0, 60, 0, 16, 0, 9, 0, 37, 0, 57, 0, 0, 0, 0, 12, 0, 77, 0, 32, 0, 0, 78, 62, 42, 0, 0, 0, 0, 0, 70, 34, 0, 17, 6, 0, 0, 0, 50, 0, 0, 0, 73, 0, 0, 0, 0, 46, 0, 71, 18, 0, 0, 0, 0, 11, 0
|0, 18, 0, 0, 66, 0, 72, 64, 0, 50, 0, 41, 0, 0, 0, 0, 0, 59, 23, 54, 0, 0, 0, 0, 0, 0, 0, 0, 81, 0, 0, 0, 0, 71, 0, 0, 0, 0, 0, 0, 0, 0, 0, 0, 30, 69, 13, 0, 33, 0, 0, 0, 0, 0, 0, 80, 0, 39, 0, 52, 0, 0, 0, 0, 0, 26, 0, 17, 0, 78, 0, 0, 47, 0, 0, 28, 0, 0, 0, 0, 16
|0, 0, 0, 27, 41, 0, 0, 39, 0, 0, 0, 0, 0, 0, 0, 0, 0, 47, 0, 32, 0, 0, 73, 0, 0, 78, 0, 0, 0, 0, 0, 0, 0, 31, 0, 0, 0, 0, 0, 0, 0, 0, 0, 50, 0, 0, 0, 0, 0, 79, 0, 0, 0, 0, 0, 0, 0, 0, 0, 0, 0, 0, 66, 0, 0, 0, 0, 0, 0, 0, 0, 0, 38, 76, 0, 49, 0, 0, 0, 0, 0
|0, 0, 0, 67, 0, 52, 0, 51, 0, 0, 0, 2, 0, 0, 0, 0, 0, 32, 0, 0, 0, 25, 0, 0, 0, 0, 0, 4, 0, 0, 0, 64, 6, 15, 42, 0, 63, 0, 0, 80, 0, 28, 0, 0, 0, 53, 0, 0, 18, 0, 49, 58, 0, 0, 0, 9, 10, 0, 46, 0, 0, 0, 0, 0, 0, 0, 37, 0, 0, 0, 0, 39, 0, 0, 12, 0, 0, 0, 0, 61, 0
|31, 45, 0, 0, 0, 62, 0, 0, 0, 54, 73, 0, 0, 0, 46, 0, 0, 0, 0, 67, 20, 0, 0, 0, 0, 0, 0, 0, 40, 0, 0, 8, 0, 0, 0, 26, 0, 10, 0, 13, 0, 0, 0, 0, 0, 0, 5, 27, 0, 0, 0, 0, 0, 36, 56, 43, 0, 0, 0, 0, 0, 0, 28, 0, 0, 0, 61, 57, 25, 0, 0, 0, 0, 52, 0, 55, 0, 0, 80, 53, 19
|0, 0, 0, 0, 23, 0, 73, 0, 58, 15, 21, 0, 17, 0, 12, 0, 0, 0, 0, 61, 0, 0, 0, 0, 0, 0, 0, 30, 0, 0, 74, 53, 0, 0, 0, 0, 69, 0, 0, 55, 0, 37, 0, 0, 0, 0, 0, 0, 31, 16, 0, 0, 57, 3, 0, 0, 0, 48, 0, 72, 54, 0, 0, 0, 0, 0, 52, 0, 2, 0, 0, 0, 0, 35, 36, 0, 0, 0, 0, 0, 0
|0, 0, 1, 0, 42, 0, 3, 0, 55, 60, 16, 61, 30, 0, 0, 0, 0, 0, 0, 0, 0, 0, 0, 80, 63, 0, 0, 0, 32, 0, 0, 0, 0, 0, 0, 0, 43, 0, 0, 0, 0, 0, 0, 0, 59, 0, 14, 0, 0, 0, 0, 0, 56, 0, 0, 67, 0, 0, 31, 37, 73, 0, 0, 9, 50, 0, 0, 40, 12, 0, 0, 0, 70, 75, 0, 41, 0, 0, 0, 57, 0
|0, 0, 0, 77, 0, 0, 17, 0, 0, 0, 0, 0, 0, 45, 0, 27, 0, 0, 58, 15, 40, 0, 0, 48, 0, 39, 0, 0, 0, 55, 0, 7, 0, 0, 0, 0, 0, 0, 72, 25, 0, 79, 0, 70, 0, 0, 0, 0, 0, 0, 0, 0, 0, 60, 0, 13, 51, 0, 0, 0, 0, 0, 12, 28, 0, 0, 0, 0, 0, 0, 18, 0, 0, 0, 0, 43, 74, 0, 0, 0, 0
|0, 47, 0, 0, 0, 0, 0, 0, 0, 27, 0, 0, 0, 0, 0, 0, 8, 0, 25, 0, 0, 46, 0, 30, 0, 35, 0, 14, 0, 0, 0, 19, 0, 0, 0, 0, 37, 53, 36, 20, 0, 0, 0, 0, 0, 0, 0, 0, 3, 0, 0, 0, 0, 0, 48, 0, 0, 0, 0, 54, 17, 0, 0, 0, 0, 0, 0, 0, 0, 0, 0, 65, 0, 0, 0, 0, 7, 38, 0, 0, 0
|62, 0, 43, 44, 0, 73, 0, 0, 71, 0, 0, 0, 0, 0, 0, 0, 49, 17, 0, 0, 0, 0, 0, 61, 0, 0, 1, 0, 0, 0, 13, 0, 56, 0, 35, 18, 47, 0, 45, 5, 70, 0, 0, 0, 0, 58, 0, 0, 22, 36, 0, 0, 0, 0, 0, 0, 0, 0, 0, 0, 0, 21, 0, 12, 0, 0, 0, 0, 14, 0, 0, 32, 52, 30, 69, 0, 66, 0, 0, 0, 0
|0, 0, 0, 0, 0, 0, 0, 0, 0, 75, 0, 0, 0, 0, 0, 0, 0, 0, 0, 0, 0, 0, 0, 0, 31, 0, 0, 0, 0, 40, 0, 0, 0, 0, 0, 32, 0, 50, 0, 34, 0, 18, 0, 35, 0, 0, 0, 0, 0, 0, 0, 73, 12, 79, 0, 59, 0, 0, 60, 62, 0, 0, 0, 0, 0, 0, 0, 5, 0, 0, 2, 0, 0, 0, 4, 8, 0, 0, 0, 0, 0
|27, 0, 31, 0, 0, 34, 0, 0, 0, 0, 77, 0, 0, 0, 41, 0, 0, 22, 0, 0, 78, 80, 0, 0, 57, 0, 0, 0, 20, 17, 0, 0, 0, 0, 0, 0, 0, 0, 0, 0, 0, 0, 0, 0, 0, 0, 0, 0, 0, 0, 0, 0, 0, 65, 0, 0, 0, 0, 0, 0, 0, 0, 0, 0, 0, 0, 0, 0, 0, 7, 0, 0, 0, 2, 0, 74, 0, 0, 0, 36, 63
|48, 0, 0, 13, 0, 0, 0, 0, 0, 0, 0, 0, 74, 70, 0, 0, 20, 0, 7, 9, 0, 0, 0, 37, 0, 0, 0, 0, 50, 0, 0, 23, 64, 0, 0, 33, 0, 24, 16, 0, 0, 0, 0, 0, 0, 14, 67, 0, 0, 68, 0, 0, 0, 0, 0, 0, 0, 10, 0, 0, 0, 77, 30, 0, 22, 0, 28, 0, 0, 0, 0, 31, 0, 0, 0, 57, 0, 0, 0, 12, 0
|0, 0, 0, 0, 0, 19, 0, 22, 54, 0, 0, 67, 0, 0, 0, 0, 0, 0, 62, 59, 24, 49, 0, 18, 0, 0, 0, 29, 0, 79, 0, 81, 0, 63, 72, 0, 0, 0, 0, 0, 41, 0, 0, 0, 80, 77, 0, 0, 0, 9, 0, 27, 0, 0, 51, 78, 20, 45, 36, 0, 13, 11, 0, 0, 3, 0, 0, 0, 50, 0, 38, 0, 56, 0, 44, 0, 0, 5, 0, 16, 68
|0, 0, 0, 0, 0, 56, 0, 0, 63, 19, 0, 5, 0, 60, 0, 0, 53, 0, 0, 0, 0, 0, 0, 20, 0, 0, 0, 3, 0, 0, 0, 15, 0, 0, 36, 0, 0, 0, 0, 0, 0, 49, 0, 0, 77, 72, 0, 54, 0, 0, 46, 0, 0, 0, 0, 42, 0, 0, 68, 0, 81, 80, 0, 0, 0, 0, 0, 0, 59, 0, 75, 0, 0, 47, 64, 0, 34, 0, 0, 18, 48
|0, 0, 0, 0, 0, 0, 67, 0, 0, 0, 0, 0, 35, 0, 0, 0, 0, 0, 0, 0, 70, 0, 14, 4, 0, 0, 53, 54, 0, 65, 0, 34, 0, 0, 0, 0, 0, 0, 0, 0, 0, 0, 0, 0, 0, 0, 0, 0, 0, 0, 76, 0, 0, 19, 0, 0, 0, 0, 0, 29, 0, 0, 0, 0, 0, 49, 42, 0, 0, 0, 0, 37, 0, 0, 0, 73, 0, 75, 0, 46, 0
|0, 0, 7, 0, 0, 5, 58, 0, 0, 0, 0, 24, 0, 0, 34, 0, 0, 0, 0, 0, 0, 0, 0, 0, 3, 0, 0, 38, 26, 0, 0, 0, 0, 0, 0, 0, 0, 0, 0, 0, 56, 0, 0, 0, 0, 0, 0, 0, 0, 0, 0, 0, 0, 0, 0, 0, 0, 0, 75, 0, 0, 0, 0, 0, 0, 0, 0, 0, 0, 73, 0, 0, 79, 0, 0, 0, 0, 0, 0, 14, 0
|0, 0, 0, 11, 0, 0, 0, 10, 35, 0, 0, 0, 0, 5, 0, 7, 0, 0, 0, 0, 0, 69, 0, 22, 0, 0, 0, 0, 19, 0, 0, 0, 0, 79, 0, 0, 0, 26, 0, 14, 0, 66, 0, 60, 56, 47, 0, 0, 0, 30, 75, 0, 73, 49, 74, 0, 44, 0, 0, 0, 0, 0, 25, 0, 0, 0, 6, 0, 0, 0, 0, 0, 62, 0, 0, 76, 0, 77, 0, 0, 17
|0, 0, 28, 0, 0, 0, 29, 0, 39, 0, 0, 0, 13, 0, 0, 0, 0, 75, 0, 0, 0, 0, 0, 0, 0, 0, 27, 0, 24, 16, 0, 0, 0, 0, 0, 0, 11, 0, 0, 0, 0, 0, 0, 0, 76, 78, 0, 0, 8, 0, 0, 0, 0, 0, 0, 10, 0, 73, 0, 0, 45, 67, 19, 0, 0, 0, 18, 0, 0, 0, 79, 61, 0, 0, 0, 0, 0, 0, 0, 0, 0
|0, 0, 0, 0, 45, 26, 38, 68, 0, 0, 0, 0, 0, 0, 0, 0, 0, 0, 0, 0, 0, 0, 0, 42, 0, 0, 0, 0, 41, 0, 0, 0, 71, 0, 0, 37, 79, 0, 7, 0, 36, 0, 2, 0, 0, 4, 0, 0, 0, 0, 0, 0, 23, 62, 32, 0, 0, 0, 0, 0, 18, 0, 0, 75, 0, 0, 78, 0, 58, 64, 0, 73, 0, 0, 0, 14, 0, 34, 50, 0, 0
|0, 21, 0, 0, 0, 0, 0, 77, 0, 0, 0, 48, 37, 0, 0, 0, 0, 0, 0, 0, 0, 0, 0, 0, 45, 0, 52, 20, 0, 5, 0, 0, 36, 0, 0, 0, 0, 27, 0, 0, 0, 0, 0, 38, 1, 0, 0, 0, 0, 3, 60, 54, 0, 0, 31, 0, 0, 47, 0, 0, 56, 0, 16, 0, 0, 0, 0, 0, 0, 0, 0, 0, 18, 0, 0, 40, 0, 0, 9, 15, 0
|65, 64, 0, 0, 81, 0, 34, 49, 2, 0, 0, 0, 0, 0, 74, 33, 0, 3, 0, 48, 0, 70, 0, 0, 43, 0, 10, 0, 0, 0, 0, 0, 0, 0, 0, 38, 42, 0, 0, 28, 0, 0, 0, 39, 0, 0, 53, 0, 0, 0, 0, 0, 0, 0, 20, 0, 0, 80, 15, 79, 0, 0, 0, 0, 0, 68, 40, 0, 41, 0, 0, 0, 11, 0, 0, 0, 22, 0, 30, 0, 0
|0, 0, 59, 0, 0, 0, 55, 0, 60, 0, 42, 0, 73, 0, 0, 0, 0, 69, 0, 71, 0, 36, 0, 64, 0, 0, 0, 0, 49, 29, 0, 0, 0, 76, 0, 10, 0, 0, 0, 0, 0, 0, 0, 0, 0, 0, 0, 0, 0, 0, 7, 0, 0, 0, 0, 75, 0, 0, 0, 0, 58, 0, 2, 0, 0, 0, 0, 38, 34, 0, 0, 0, 0, 46, 0, 0, 0, 12, 0, 0, 0
|0, 15, 0, 9, 0, 0, 12, 78, 30, 0, 22, 0, 0, 0, 0, 0, 0, 67, 0, 0, 0, 66, 2, 0, 0, 0, 0, 43, 0, 3, 0, 0, 63, 0, 28, 0, 0, 0, 0, 33, 64, 0, 0, 0, 0, 0, 41, 0, 0, 0, 81, 5, 0, 57, 0, 0, 0, 0, 0, 0, 0, 1, 0, 50, 0, 0, 0, 0, 77, 0, 0, 11, 58, 42, 0, 0, 0, 69, 0, 0, 0
|0, 0, 0, 0, 0, 37, 0, 0, 0, 0, 0, 0, 0, 47, 1, 0, 0, 0, 76, 0, 0, 57, 32, 75, 12, 50, 0, 25, 0, 0, 0, 0, 0, 39, 2, 55, 0, 0, 40, 0, 74, 0, 0, 73, 0, 0, 70, 0, 58, 29, 0, 0, 66, 0, 4, 52, 0, 0, 0, 0, 0, 0, 0, 0, 0, 0, 33, 0, 13, 0, 81, 0, 0, 0, 0, 0, 0, 0, 28, 0, 0
|0, 0, 0, 0, 1, 0, 0, 0, 33, 35, 49, 0, 0, 66, 0, 0, 25, 70, 63, 30, 79, 0, 0, 0, 0, 0, 58, 22, 0, 0, 0, 0, 0, 50, 0, 0, 0, 0, 48, 0, 0, 0, 0, 44, 0, 0, 68, 0, 0, 2, 0, 0, 14, 0, 64, 0, 0, 0, 0, 0, 0, 0, 0, 76, 39, 0, 0, 0, 0, 0, 0, 0, 0, 0, 41, 0, 0, 0, 61, 31, 0
|0, 0, 8, 4, 52, 0, 0, 30, 0, 0, 0, 0, 0, 39, 0, 0, 0, 45, 0, 0, 0, 53, 49, 0, 0, 0, 0, 61, 6, 0, 0, 0, 59, 19, 0, 29, 0, 0, 67, 63, 15, 0, 77, 0, 0, 0, 47, 0, 0, 0, 0, 0, 0, 0, 0, 24, 0, 0, 7, 51, 0, 44, 0, 0, 71, 0, 0, 0, 0, 0, 0, 0, 0, 0, 0, 0, 0, 0, 0, 0, 0
|0, 53, 60, 5, 68, 48, 24, 0, 0, 46, 0, 0, 0, 0, 0, 65, 0, 0, 0, 81, 8, 0, 0, 13, 14, 7, 39, 0, 0, 0, 0, 2, 0, 20, 0, 0, 0, 64, 0, 0, 0, 6, 26, 0, 0, 0, 0, 55, 49, 71, 54, 41, 0, 0, 43, 0, 0, 52, 11, 0, 0, 3, 34, 0, 18, 78, 0, 44, 0, 0, 0, 0, 29, 0, 0, 0, 0, 28, 0, 0, 47
|57, 0, 0, 0, 0, 49, 0, 0, 73, 77, 0, 74, 0, 0, 64, 0, 51, 0, 0, 0, 17, 40, 0, 0, 79, 68, 0, 52, 63, 46, 7, 30, 0, 0, 0, 0, 0, 0, 50, 0, 0, 42, 5, 0, 0, 65, 0, 0, 0, 0, 0, 0, 0, 0, 60, 0, 0, 0, 0, 0, 0, 0, 0, 0, 0, 0, 0, 0, 0, 29, 0, 0, 4, 0, 0, 0, 0, 76, 39, 70, 0
|29, 0, 0, 16, 0, 0, 0, 0, 0, 13, 0, 25, 0, 24, 56, 3, 0, 0, 0, 55, 0, 0, 6, 0, 26, 0, 0, 0, 0, 0, 0, 0, 72, 0, 0, 0, 36, 0, 34, 0, 0, 0, 0, 0, 62, 80, 0, 0, 0, 28, 0, 2, 0, 0, 73, 0, 0, 0, 63, 8, 30, 0, 0, 0, 49, 0, 41, 0, 5, 0, 12, 45, 69, 0, 81, 19, 0, 0, 0, 0, 0
|0, 0, 0, 0, 0, 2, 0, 0, 14, 0, 0, 0, 0, 0, 0, 50, 81, 0, 67, 0, 16, 48, 0, 0, 0, 0, 0, 40, 18, 9, 0, 0, 0, 0, 68, 0, 0, 25, 28, 0, 0, 0, 33, 0, 0, 62, 0, 0, 11, 0, 17, 0, 0, 0, 0, 39, 0, 32, 13, 0, 55, 0, 0, 36, 0, 0, 0, 30, 0, 0, 0, 0, 0, 12, 0, 20, 0, 0, 0, 34, 26
|0, 0, 0, 79, 80, 0, 0, 38, 0, 0, 0, 0, 0, 0, 0, 0, 0, 0, 42, 0, 32, 0, 24, 0, 0, 45, 28, 0, 0, 48, 0, 0, 0, 0, 0, 0, 0, 0, 66, 0, 0, 47, 37, 0, 0, 0, 0, 0, 50, 0, 6, 39, 0, 63, 0, 23, 5, 0, 0, 0, 0, 0, 78, 0, 0, 0, 81, 0, 0, 0, 0, 0, 68, 0, 0, 0, 0, 0, 2, 0, 3
|43, 0, 33, 34, 0, 10, 25, 0, 0, 0, 0, 0, 0, 35, 66, 0, 0, 0, 0, 0, 0, 0, 0, 0, 4, 0, 0, 0, 0, 39, 14, 0, 0, 56, 0, 73, 80, 38, 0, 46, 30, 74, 0, 0, 49, 0, 0, 0, 81, 0, 0, 0, 67, 0, 0, 0, 0, 70, 17, 0, 31, 79, 0, 0, 6, 0, 0, 0, 60, 0, 0, 23, 9, 0, 0, 0, 0, 64, 0, 0, 0
|0, 0, 0, 0, 0, 0, 0, 9, 0, 0, 40, 0, 0, 0, 78, 0, 57, 0, 59, 72, 0, 33, 0, 0, 44, 0, 20, 34, 0, 0, 0, 71, 45, 0, 16, 0, 0, 0, 0, 0, 0, 0, 0, 0, 3, 0, 0, 0, 0, 0, 30, 0, 0, 0, 0, 0, 0, 0, 0, 0, 14, 0, 0, 0, 0, 0, 0, 0, 0, 27, 0, 0, 0, 0, 0, 0, 42, 0, 5, 6, 13
|3, 0, 0, 36, 63, 0, 78, 0, 0, 0, 0, 0, 0, 0, 0, 0, 71, 0, 0, 0, 0, 52, 0, 35, 25, 0, 75, 0, 0, 43, 0, 0, 0, 81, 0, 67, 0, 0, 0, 0, 54, 14, 11, 0, 0, 0, 0, 0, 0, 0, 0, 0, 0, 0, 0, 0, 0, 0, 74, 0, 0, 0, 65, 0, 0, 0, 0, 0, 57, 15, 0, 0, 0, 0, 48, 0, 41, 79, 0, 0, 0|];