order = 9;
grid = [|38, 0, 0, 29, 21, 76, 0, 0, 12, 0, 48, 11, 0, 0, 0, 0, 0, 0, 73, 0, 77, 74, 0, 0, 0, 10, 0, 0, 0, 24, 3, 0, 0, 0, 0, 0, 0, 0, 32, 0, 0, 0, 0, 0, 63, 1, 0, 0, 65, 0, 0, 0, 13, 50, 0, 0, 45, 0, 0, 66, 0, 0, 0, 57, 70, 0, 0, 0, 0, 26, 0, 55, 0, 0, 0, 0, 0, 6, 0, 0, 16
|60, 0, 67, 68, 0, 0, 24, 0, 53, 0, 12, 0, 0, 16, 0, 0, 0, 40, 0, 0, 0, 0, 0, 0, 51, 0, 0, 32, 39, 0, 54, 74, 0, 61, 0, 0, 0, 0, 0, 0, 26, 36, 28, 0, 75, 0, 0, 0, 0, 0, 0, 0, 58, 0, 0, 0, 35, 0, 0, 70, 0, 0, 34, 0, 0, 0, 11, 0, 0, 0, 72, 0, 0, 0, 0, 0, 0, 0, 0, 77, 0
|0, 35, 0, 6, 0, 77, 22, 26, 0, 73, 51, 0, 31, 0, 0, 56, 50, 0, 0, 52, 0, 0, 0, 0, 3, 0, 0, 41, 71, 0, 0, 0, 21, 0, 0, 0, 60, 0, 0, 0, 0, 0, 0, 0, 0, 0, 17, 0, 0, 0, 0, 20, 0, 0, 0, 0, 0, 0, 0, 0, 4, 40, 30, 61, 0, 0, 0, 0, 0, 0, 64, 16, 25, 0, 15, 0, 37, 12, 8, 0, 36
|0, 0, 0, 0, 63, 75, 0, 19, 0, 0, 47, 0, 0, 0, 0, 0, 13, 0, 0, 0, 0, 0, 0, 30, 0, 0, 0, 0, 0, 60, 0, 53, 0, 0, 0, 0, 0, 0, 0, 0, 0, 0, 0, 65, 0, 0, 0, 0, 72, 73, 0, 0, 0, 79, 0, 0, 0, 54, 0, 0, 0, 0, 0, 0, 0, 0, 0, 31, 0, 0, 10, 0, 0, 0, 0, 0, 0, 0, 28, 0, 56
|0, 50, 0, 0, 52, 0, 0, 79, 0, 0, 0, 0, 0, 59, 4, 41, 14, 43, 0, 72, 0, 68, 0, 0, 0, 0, 0, 0, 0, 0, 0, 0, 0, 0, 36, 0, 0, 0, 73, 0, 0, 0, 71, 81, 0, 63, 26, 0, 70, 0, 0, 0, 6, 0, 0, 0, 0, 0, 67, 0, 0, 0, 0, 20, 33, 0, 0, 0, 0, 0, 0, 38, 0, 0, 53, 0, 0, 74, 0, 17, 30
|44, 0, 0, 0, 56, 0, 0, 0, 0, 0, 52, 29, 0, 0, 0, 0, 0, 0, 0, 42, 11, 0, 0, 0, 0, 0, 0, 50, 0, 64, 0, 0, 0, 0, 55, 0, 69, 0, 0, 0, 0, 0, 0, 0, 0, 0, 28, 0, 0, 0, 27, 0, 0, 40, 0, 53, 72, 0, 78, 0, 0, 0, 32, 0, 0, 46, 0, 0, 0, 0, 80, 0, 41, 59, 0, 0, 35, 0, 0, 0, 0
|0, 0, 0, 0, 0, 0, 1, 0, 0, 0, 2, 0, 0, 24, 38, 0, 0, 0, 0, 0, 0, 0, 0, 0, 16, 0, 0, 0, 31, 0, 0, 0, 0, 0, 0, 0, 77, 13, 0, 0, 0, 35, 3, 0, 53, 46, 0, 0, 0, 15, 74, 0, 0, 0, 0, 0, 39, 0, 0, 14, 0, 47, 41, 52, 0, 34, 4, 0, 71, 49, 32, 30, 0, 5, 0, 0, 50, 0, 0, 0, 0
|0, 69, 4, 23, 0, 0, 73, 0, 27, 0, 63, 55, 0, 0, 0, 0, 0, 45, 0, 0, 39, 0, 50, 0, 0, 41, 0, 0, 0, 35, 0, 15, 52, 0, 58, 0, 6, 0, 0, 80, 0, 0, 0, 51, 0, 0, 0, 78, 56, 0, 0, 32, 16, 0, 0, 0, 0, 0, 0, 11, 22, 0, 79, 19, 8, 0, 47, 59, 0, 0, 0, 68, 0, 0, 29, 54, 0, 0, 0, 0, 0
|0, 0, 0, 2, 0, 0, 0, 0, 0, 0, 0, 0, 0, 15, 0, 8, 80, 0, 0, 0, 0, 0, 0, 37, 0, 26, 0, 79, 0, 0, 0, 0, 0, 0, 0, 0, 0, 0, 0, 0, 0, 40, 52, 0, 0, 0, 0, 0, 0, 0, 0, 0, 0, 0, 29, 55, 0, 0, 12, 62, 10, 36, 61, 0, 77, 69, 0, 0, 50, 0, 0, 51, 0, 0, 63, 0, 0, 0, 71, 72, 13
|0, 52, 0, 0, 0, 0, 76, 39, 0, 0, 0, 0, 0, 0, 0, 0, 0, 37, 0, 11, 0, 29, 0, 0, 0, 33, 0, 69, 0, 0, 38, 0, 0, 0, 4, 0, 7, 24, 40, 0, 0, 0, 0, 0, 0, 0, 48, 57, 0, 0, 6, 0, 0, 0, 0, 46, 0, 0, 44, 0, 0, 78, 0, 0, 0, 0, 0, 41, 5, 0, 0, 0, 62, 72, 54, 0, 0, 30, 0, 0, 0
|0, 0, 41, 0, 0, 8, 0, 0, 2, 78, 0, 0, 0, 27, 0, 0, 0, 10, 0, 16, 0, 5, 0, 0, 0, 0, 0, 0, 70, 80, 47, 0, 0, 20, 0, 0, 0, 0, 0, 0, 0, 0, 0, 0, 12, 0, 76, 0, 0, 0, 0, 54, 0, 0, 0, 13, 0, 0, 0, 61, 0, 0, 0, 72, 0, 45, 0, 0, 0, 0, 0, 0, 0, 0, 0, 0, 63, 0, 64, 0, 0
|0, 0, 0, 20, 0, 0, 0, 0, 71, 0, 0, 79, 12, 0, 0, 0, 60, 0, 31, 0, 49, 0, 0, 0, 22, 0, 0, 0, 0, 0, 0, 0, 0, 35, 0, 0, 0, 0, 0, 0, 10, 0, 0, 73, 23, 0, 0, 0, 38, 0, 0, 29, 0, 0, 0, 2, 81, 0, 9, 0, 0, 0, 27, 0, 0, 6, 0, 26, 0, 13, 3, 0, 32, 0, 0, 4, 0, 0, 0, 0, 5
|0, 0, 51, 0, 0, 55, 0, 0, 63, 47, 0, 0, 0, 0, 68, 0, 29, 0, 0, 0, 59, 77, 0, 0, 0, 0, 0, 66, 0, 14, 32, 0, 0, 0, 0, 18, 35, 0, 0, 0, 0, 0, 27, 0, 0, 22, 25, 61, 0, 9, 0, 0, 56, 0, 0, 38, 11, 0, 49, 0, 0, 0, 0, 36, 0, 0, 0, 69, 37, 0, 62, 0, 60, 46, 24, 0, 70, 0, 0, 0, 0
|0, 0, 0, 0, 73, 0, 54, 0, 0, 0, 0, 0, 13, 0, 0, 0, 0, 0, 30, 0, 0, 0, 0, 40, 0, 66, 0, 61, 12, 0, 0, 0, 0, 0, 43, 0, 0, 22, 0, 46, 49, 0, 0, 14, 11, 0, 60, 26, 0, 27, 0, 0, 0, 0, 0, 0, 24, 0, 0, 41, 0, 0, 0, 0, 0, 0, 0, 35, 0, 0, 28, 52, 0, 0, 67, 0, 71, 38, 0, 0, 7
|56, 0, 0, 66, 0, 0, 0, 0, 0, 0, 0, 0, 0, 0, 39, 0, 0, 34, 71, 0, 28, 62, 81, 17, 0, 0, 36, 25, 0, 0, 0, 0, 6, 37, 0, 79, 38, 0, 0, 45, 8, 44, 0, 0, 0, 0, 13, 0, 0, 0, 0, 0, 0, 31, 0, 0, 0, 22, 0, 16, 0, 59, 0, 0, 80, 42, 0, 15, 2, 0, 73, 14, 0, 0, 0, 0, 0, 68, 0, 0, 0
|0, 0, 0, 0, 0, 22, 0, 0, 11, 0, 40, 15, 0, 0, 0, 52, 44, 0, 67, 0, 0, 0, 0, 0, 0, 51, 0, 0, 0, 0, 0, 0, 63, 0, 0, 8, 0, 0, 0, 0, 39, 0, 0, 32, 0, 35, 2, 0, 0, 0, 0, 18, 0, 45, 0, 0, 69, 75, 76, 50, 0, 0, 0, 0, 0, 31, 0, 0, 0, 55, 0, 0, 0, 0, 0, 0, 0, 0, 0, 0, 0
|28, 0, 0, 24, 0, 59, 62, 0, 0, 4, 73, 20, 0, 0, 25, 0, 0, 8, 3, 0, 1, 0, 0, 0, 0, 0, 0, 0, 0, 0, 0, 0, 0, 39, 0, 0, 0, 0, 61, 71, 0, 18, 9, 0, 34, 0, 0, 0, 80, 81, 10, 46, 0, 0, 31, 32, 0, 0, 0, 45, 7, 0, 0, 27, 38, 49, 0, 0, 0, 0, 0, 0, 0, 0, 0, 0, 57, 0, 0, 76, 0
|0, 0, 0, 0, 0, 0, 0, 0, 0, 0, 59, 24, 0, 49, 69, 0, 0, 0, 37, 70, 74, 0, 54, 6, 39, 0, 0, 0, 0, 0, 71, 44, 0, 0, 0, 0, 0, 19, 81, 0, 0, 26, 0, 41, 60, 0, 0, 0, 42, 0, 0, 0, 0, 0, 51, 0, 0, 0, 15, 0, 0, 67, 56, 0, 0, 75, 0, 0, 0, 0, 0, 43, 40, 0, 2, 45, 0, 0, 0, 25, 0
|0, 76, 0, 36, 0, 14, 0, 0, 0, 0, 0, 0, 0, 35, 0, 0, 0, 0, 11, 0, 31, 0, 0, 42, 0, 0, 41, 0, 0, 0, 0, 79, 0, 53, 0, 10, 26, 0, 0, 0, 0, 37, 0, 0, 47, 0, 0, 0, 0, 0, 0, 0, 73, 0, 0, 0, 0, 0, 22, 2, 0, 0, 80, 46, 0, 27, 58, 0, 0, 0, 0, 0, 0, 0, 0, 0, 0, 64, 0, 0, 68
|54, 0, 78, 0, 44, 0, 0, 0, 0, 0, 71, 70, 0, 4, 0, 0, 47, 0, 0, 0, 55, 81, 0, 0, 0, 0, 0, 0, 77, 0, 0, 0, 0, 73, 0, 50, 0, 0, 0, 0, 0, 0, 0, 61, 65, 0, 0, 9, 0, 29, 0, 0, 39, 28, 0, 0, 18, 0, 0, 75, 0, 0, 0, 0, 0, 3, 0, 0, 0, 7, 53, 0, 17, 0, 0, 30, 62, 0, 0, 0, 0
|21, 0, 0, 46, 9, 0, 0, 0, 0, 0, 0, 0, 51, 0, 0, 6, 3, 69, 0, 37, 0, 0, 30, 60, 0, 0, 24, 33, 0, 0, 0, 0, 64, 80, 65, 48, 0, 0, 29, 0, 0, 25, 0, 0, 0, 0, 0, 0, 0, 0, 0, 0, 22, 26, 0, 0, 0, 0, 14, 0, 0, 0, 0, 0, 0, 0, 0, 0, 0, 0, 23, 0, 0, 0, 0, 0, 0, 56, 19, 0, 0
|39, 0, 0, 0, 0, 0, 64, 0, 0, 79, 0, 0, 0, 36, 0, 0, 0, 0, 0, 0, 0, 52, 53, 26, 0, 0, 34, 0, 58, 0, 15, 0, 67, 0, 0, 0, 45, 0, 49, 0, 0, 0, 0, 31, 81, 0, 0, 0, 27, 0, 0, 0, 0, 0, 0, 29, 0, 0, 0, 0, 0, 0, 0, 4, 41, 61, 0, 0, 19, 0, 0, 0, 0, 0, 20, 25, 33, 0, 0, 46, 0
|0, 0, 52, 0, 75, 72, 19, 0, 0, 0, 0, 44, 43, 0, 73, 0, 0, 77, 0, 74, 0, 4, 49, 0, 0, 70, 46, 0, 0, 81, 41, 71, 0, 24, 0, 0, 33, 0, 0, 0, 0, 0, 0, 0, 0, 0, 0, 12, 60, 40, 0, 0, 59, 0, 0, 0, 0, 0, 0, 5, 25, 0, 0, 0, 0, 22, 0, 0, 0, 0, 0, 42, 0, 0, 0, 0, 16, 27, 0, 0, 61
|0, 0, 65, 80, 0, 45, 0, 0, 0, 0, 0, 0, 25, 0, 0, 18, 52, 11, 0, 0, 0, 0, 0, 0, 19, 1, 9, 76, 0, 21, 0, 34, 69, 0, 0, 0, 0, 2, 0, 0, 0, 60, 0, 0, 0, 79, 0, 0, 68, 0, 7, 0, 67, 0, 0, 37, 0, 0, 0, 0, 0, 30, 23, 0, 0, 0, 14, 56, 0, 0, 0, 0, 0, 0, 0, 0, 0, 36, 0, 48, 0
|62, 0, 0, 0, 2, 41, 43, 0, 0, 80, 0, 0, 78, 0, 74, 0, 0, 0, 0, 0, 12, 0, 0, 0, 8, 0, 0, 0, 0, 0, 0, 0, 51, 18, 0, 27, 0, 0, 0, 0, 1, 46, 0, 75, 0, 0, 81, 0, 19, 0, 49, 34, 0, 70, 0, 0, 0, 56, 33, 0, 0, 0, 69, 0, 0, 38, 0, 0, 0, 50, 0, 0, 4, 35, 47, 11, 31, 0, 0, 55, 0
|0, 49, 0, 0, 0, 0, 63, 4, 0, 0, 0, 0, 0, 0, 0, 0, 62, 0, 0, 0, 0, 45, 0, 0, 0, 0, 0, 0, 0, 0, 25, 0, 0, 46, 0, 0, 0, 38, 0, 6, 34, 0, 0, 0, 0, 31, 3, 0, 23, 0, 0, 0, 0, 72, 0, 0, 0, 0, 19, 58, 0, 0, 20, 0, 0, 66, 0, 1, 0, 10, 52, 79, 0, 80, 0, 9, 73, 0, 0, 0, 0
|0, 0, 0, 0, 32, 26, 25, 0, 0, 40, 21, 0, 0, 46, 22, 13, 0, 58, 0, 0, 72, 0, 78, 0, 0, 0, 48, 0, 74, 3, 0, 0, 0, 0, 0, 6, 0, 0, 0, 0, 0, 0, 0, 0, 0, 0, 0, 56, 0, 0, 0, 0, 0, 0, 0, 71, 0, 0, 0, 0, 0, 0, 0, 0, 0, 0, 54, 0, 0, 0, 0, 49, 0, 0, 0, 0, 10, 0, 0, 0, 0
|0, 0, 46, 75, 25, 0, 0, 0, 0, 67, 55, 0, 20, 11, 0, 0, 0, 0, 0, 38, 0, 19, 22, 0, 0, 0, 0, 0, 0, 0, 0, 0, 0, 6, 0, 0, 0, 0, 39, 0, 0, 74, 0, 0, 50, 0, 57, 34, 0, 10, 0, 0, 12, 0, 0, 3, 60, 0, 0, 0, 0, 0, 54, 0, 0, 0, 40, 0, 0, 0, 0, 0, 0, 2, 0, 0, 0, 0, 0, 15, 0
|59, 0, 0, 0, 0, 69, 0, 0, 0, 0, 0, 0, 0, 65, 0, 58, 0, 0, 66, 0, 33, 0, 0, 0, 0, 0, 0, 24, 40, 0, 76, 18, 0, 0, 0, 0, 0, 0, 0, 25, 0, 0, 0, 42, 0, 0, 0, 52, 54, 0, 75, 0, 53, 0, 0, 0, 0, 0, 0, 79, 0, 0, 0, 0, 0, 48, 0, 16, 0, 0, 0, 12, 0, 0, 0, 0, 0, 0, 0, 0, 28
|0, 12, 50, 0, 0, 0, 4, 77, 42, 26, 0, 0, 0, 66, 0, 0, 0, 0, 0, 0, 54, 41, 0, 0, 31, 0, 80, 0, 0, 0, 0, 0, 0, 0, 0, 0, 73, 0, 0, 22, 0, 0, 59, 38, 5, 0, 55, 0, 79, 17, 0, 27, 0, 24, 30, 16, 0, 76, 0, 36, 0, 0, 0, 0, 64, 67, 0, 0, 0, 3, 1, 0, 20, 74, 0, 47, 0, 0, 0, 0, 0
|14, 0, 0, 0, 0, 0, 0, 0, 47, 37, 80, 0, 0, 0, 0, 0, 0, 0, 0, 0, 0, 0, 0, 27, 55, 0, 0, 0, 38, 34, 22, 0, 0, 1, 66, 21, 0, 0, 0, 0, 0, 0, 0, 63, 0, 0, 0, 0, 0, 8, 35, 11, 0, 0, 67, 39, 0, 0, 0, 0, 0, 0, 0, 0, 0, 54, 0, 0, 0, 0, 6, 0, 0, 19, 0, 0, 0, 0, 0, 0, 0
|0, 0, 0, 54, 0, 71, 0, 6, 0, 56, 19, 0, 0, 0, 0, 0, 0, 0, 0, 0, 0, 0, 1, 61, 0, 0, 0, 0, 0, 72, 0, 0, 0, 62, 0, 0, 16, 0, 0, 0, 0, 0, 0, 0, 0, 51, 4, 0, 0, 0, 38, 0, 0, 25, 7, 0, 52, 0, 43, 8, 0, 48, 0, 81, 76, 0, 0, 0, 17, 0, 78, 0, 0, 0, 14, 32, 0, 29, 0, 64, 0
|0, 37, 0, 63, 0, 0, 66, 49, 0, 0, 0, 0, 33, 39, 0, 0, 61, 78, 0, 0, 0, 0, 0, 0, 0, 0, 52, 0, 0, 8, 0, 0, 0, 0, 0, 0, 46, 0, 0, 0, 0, 0, 0, 0, 0, 0, 30, 0, 0, 0, 60, 0, 40, 0, 0, 0, 0, 0, 69, 59, 53, 0, 0, 21, 0, 0, 0, 0, 0, 0, 26, 0, 0, 51, 34, 0, 0, 0, 0, 68, 0
|0, 0, 24, 0, 0, 0, 0, 40, 19, 0, 0, 0, 0, 0, 0, 0, 17, 0, 0, 0, 0, 51, 0, 0, 74, 0, 0, 0, 0, 0, 0, 46, 0, 0, 0, 31, 34, 8, 0, 7, 0, 0, 0, 0, 66, 0, 0, 63, 16, 0, 0, 59, 0, 0, 22, 0, 0, 0, 2, 0, 0, 29, 0, 0, 0, 50, 0, 0, 70, 0, 0, 0, 0, 0, 0, 0, 3, 0, 0, 0, 0
|33, 8, 0, 0, 48, 34, 36, 0, 1, 0, 0, 52, 0, 31, 0, 0, 0, 6, 0, 69, 32, 28, 0, 59, 63, 0, 43, 0, 0, 74, 0, 0, 0, 0, 0, 0, 0, 0, 0, 0, 78, 0, 0, 0, 0, 68, 64, 0, 0, 0, 20, 0, 0, 29, 0, 0, 0, 0, 0, 0, 0, 0, 0, 15, 0, 0, 0, 0, 7, 53, 0, 0, 0, 65, 0, 76, 26, 0, 0, 0, 50
|0, 21, 0, 0, 0, 0, 39, 0, 0, 0, 0, 0, 0, 0, 0, 70, 0, 0, 0, 0, 58, 0, 40, 0, 75, 0, 0, 0, 0, 4, 0, 42, 0, 0, 0, 0, 0, 0, 0, 0, 0, 32, 0, 0, 55, 43, 0, 0, 0, 0, 0, 49, 48, 0, 0, 80, 25, 0, 0, 0, 0, 66, 0, 51, 0, 24, 0, 34, 0, 0, 47, 0, 0, 33, 0, 0, 0, 0, 0, 54, 0
|0, 55, 0, 37, 20, 73, 0, 0, 0, 0, 0, 17, 0, 0, 0, 0, 0, 0, 54, 39, 0, 0, 61, 0, 12, 0, 67, 0, 52, 0, 0, 0, 31, 0, 76, 0, 0, 50, 34, 0, 28, 0, 0, 0, 0, 49, 0, 0, 0, 79, 0, 0, 0, 0, 0, 0, 0, 0, 0, 0, 36, 41, 40, 0, 0, 51, 0, 0, 0, 0, 27, 80, 0, 0, 0, 0, 22, 0, 0, 16, 0
|0, 0, 0, 0, 8, 0, 0, 0, 0, 0, 0, 0, 0, 77, 0, 0, 71, 0, 0, 0, 64, 0, 0, 0, 0, 14, 0, 0, 23, 0, 0, 0, 34, 0, 74, 47, 0, 31, 0, 0, 0, 0, 0, 0, 20, 0, 0, 0, 0, 12, 0, 0, 0, 43, 0, 5, 27, 0, 0, 0, 0, 0, 16, 25, 0, 0, 0, 0, 0, 54, 0, 0, 0, 41, 0, 75, 0, 0, 0, 0, 0
|0, 0, 0, 0, 69, 0, 35, 0, 38, 0, 0, 0, 0, 54, 20, 0, 0, 0, 0, 0, 0, 0, 0, 0, 0, 0, 0, 12, 0, 71, 0, 50, 0, 3, 0, 0, 0, 55, 0, 0, 0, 0, 0, 1, 0, 0, 0, 0, 0, 0, 0, 5, 81, 16, 0, 0, 0, 0, 0, 29, 0, 64, 0, 0, 0, 0, 0, 0, 0, 28, 0, 0, 0, 7, 0, 0, 0, 0, 0, 0, 0
|2, 0, 0, 0, 0, 3, 0, 51, 0, 0, 0, 0, 0, 0, 47, 0, 1, 67, 0, 81, 0, 0, 0, 0, 71, 0, 0, 0, 33, 0, 0, 62, 37, 64, 0, 0, 68, 12, 0, 0, 0, 0, 0, 0, 0, 0, 0, 0, 41, 48, 0, 0, 0, 0, 0, 0, 0, 32, 0, 28, 0, 0, 78, 60, 0, 0, 0, 18, 0, 43, 0, 0, 0, 0, 0, 0, 44, 0, 0, 4, 0
|50, 0, 0, 34, 67, 54, 0, 0, 0, 0, 0, 0, 0, 0, 0, 30, 0, 0, 0, 18, 0, 35, 0, 0, 79, 0, 0, 0, 0, 0, 0, 0, 0, 0, 39, 0, 0, 25, 14, 0, 0, 71, 19, 49, 0, 0, 63, 0, 31, 0, 0, 51, 17, 0, 0, 45, 42, 0, 0, 0, 26, 0, 0, 0, 0, 0, 0, 0, 0, 0, 0, 6, 0, 0, 59, 0, 0, 0, 0, 2, 0
|0, 0, 0, 0, 76, 0, 13, 0, 59, 0, 0, 27, 0, 60, 0, 16, 0, 0, 0, 0, 6, 0, 0, 0, 0, 0, 44, 81, 0, 0, 0, 78, 0, 54, 0, 0, 0, 0, 0, 0, 0, 73, 0, 26, 0, 0, 36, 39, 29, 0, 45, 22, 0, 0, 50, 0, 0, 0, 0, 7, 0, 0, 0, 23, 0, 0, 0, 0, 0, 15, 34, 0, 48, 0, 0, 0, 40, 0, 0, 30, 67
|29, 0, 5, 0, 0, 0, 0, 0, 0, 0, 0, 0, 48, 44, 0, 0, 0, 0, 38, 0, 0, 0, 0, 0, 0, 27, 0, 0, 0, 0, 0, 0, 11, 0, 0, 0, 0, 0, 0, 0, 0, 0, 0, 52, 67, 0, 0, 0, 21, 0, 47, 0, 0, 0, 81, 1, 0, 0, 0, 31, 8, 15, 0, 13, 0, 63, 22, 2, 0, 0, 7, 0, 0, 0, 58, 0, 69, 0, 0, 0, 0
|0, 0, 0, 0, 0, 25, 61, 41, 0, 0, 0, 0, 64, 0, 31, 9, 0, 79, 0, 0, 50, 0, 0, 0, 0, 0, 56, 0, 75, 0, 0, 0, 0, 0, 57, 0, 0, 0, 0, 10, 0, 59, 0, 0, 0, 0, 0, 23, 0, 0, 0, 0, 0, 0, 0, 76, 0, 0, 0, 0, 35, 0, 11, 0, 30, 74, 0, 0, 26, 47, 0, 0, 66, 0, 0, 0, 0, 0, 0, 0, 0
|0, 63, 0, 52, 0, 0, 9, 0, 79, 0, 42, 0, 0, 0, 0, 0, 76, 22, 0, 40, 0, 0, 20, 0, 5, 0, 0, 0, 53, 0, 60, 0, 0, 41, 0, 0, 0, 0, 0, 56, 74, 7, 0, 0, 0, 0, 0, 0, 0, 0, 0, 0, 46, 0, 25, 34, 0, 0, 0, 54, 80, 21, 0, 0, 0, 57, 49, 0, 62, 0, 0, 4, 0, 0, 0, 23, 0, 0, 0, 0, 71
|0, 32, 57, 0, 0, 6, 70, 0, 0, 49, 0, 0, 0, 0, 18, 29, 0, 0, 45, 25, 0, 46, 0, 0, 0, 0, 0, 0, 48, 38, 0, 24, 62, 0, 80, 0, 0, 0, 0, 0, 0, 0, 31, 7, 0, 14, 43, 0, 0, 51, 0, 0, 74, 0, 66, 0, 0, 0, 34, 0, 0, 0, 15, 0, 67, 0, 0, 0, 0, 0, 60, 71, 0, 47, 35, 27, 0, 0, 0, 0, 4
|0, 24, 19, 0, 0, 33, 0, 48, 41, 62, 16, 0, 0, 0, 0, 0, 81, 0, 0, 5, 0, 0, 0, 0, 0, 54, 21, 0, 0, 0, 49, 0, 68, 0, 73, 0, 0, 0, 38, 0, 0, 22, 50, 44, 0, 0, 0, 0, 0, 0, 42, 12, 0, 0, 63, 0, 20, 39, 71, 64, 45, 46, 0, 0, 7, 0, 8, 0, 0, 52, 0, 0, 1, 9, 0, 0, 0, 0, 0, 70, 0
|0, 27, 0, 0, 80, 0, 0, 37, 56, 0, 0, 0, 24, 0, 3, 0, 0, 0, 0, 0, 0, 0, 0, 0, 0, 0, 68, 0, 0, 0, 0, 29, 0, 71, 0, 0, 59, 30, 0, 65, 0, 12, 25, 40, 0, 53, 45, 0, 0, 0, 0, 0, 49, 0, 54, 0, 47, 0, 0, 0, 0, 38, 0, 41, 0, 81, 0, 0, 9, 0, 0, 0, 0, 0, 0, 0, 0, 0, 0, 0, 0
|0, 2, 0, 0, 65, 0, 0, 0, 0, 53, 27, 0, 0, 63, 0, 0, 0, 0, 0, 0, 36, 0, 0, 0, 14, 0, 0, 0, 0, 0, 77, 32, 3, 0, 0, 41, 4, 45, 0, 0, 0, 0, 0, 0, 0, 0, 0, 0, 0, 7, 0, 0, 0, 78, 37, 0, 0, 0, 40, 0, 19, 0, 0, 0, 73, 59, 0, 0, 0, 0, 0, 0, 0, 0, 0, 0, 48, 0, 0, 0, 57
|0, 9, 0, 0, 71, 0, 0, 29, 0, 0, 64, 0, 2, 0, 0, 0, 0, 0, 0, 0, 0, 67, 51, 0, 0, 0, 0, 0, 0, 0, 0, 0, 0, 15, 37, 0, 0, 0, 0, 0, 36, 0, 0, 0, 6, 0, 0, 8, 73, 70, 0, 0, 80, 0, 0, 0, 0, 0, 25, 0, 0, 0, 0, 10, 0, 0, 0, 0, 0, 0, 0, 77, 0, 0, 0, 0, 0, 0, 0, 65, 0
|11, 0, 0, 0, 45, 0, 52, 14, 0, 0, 0, 72, 0, 0, 0, 0, 0, 0, 0, 26, 0, 0, 0, 0, 20, 12, 0, 0, 0, 53, 0, 0, 0, 0, 0, 39, 55, 0, 3, 0, 0, 0, 0, 0, 74, 0, 34, 0, 32, 0, 0, 0, 68, 41, 80, 48, 16, 0, 0, 0, 0, 0, 0, 0, 0, 0, 0, 33, 0, 0, 35, 22, 0, 0, 0, 0, 0, 44, 79, 0, 0
|0, 0, 35, 0, 0, 0, 0, 0, 8, 0, 45, 0, 10, 0, 0, 42, 4, 0, 0, 0, 0, 0, 0, 0, 0, 44, 0, 0, 66, 11, 0, 0, 0, 0, 59, 55, 0, 0, 0, 0, 0, 0, 0, 0, 64, 0, 0, 33, 0, 0, 0, 0, 57, 19, 0, 0, 0, 0, 0, 18, 0, 31, 0, 53, 0, 79, 0, 0, 0, 0, 0, 58, 21, 68, 0, 0, 0, 0, 0, 74, 0
|68, 0, 0, 74, 0, 0, 18, 0, 0, 13, 0, 0, 50, 0, 43, 19, 0, 0, 0, 0, 63, 0, 0, 0, 27, 24, 0, 34, 0, 58, 0, 0, 9, 0, 0, 0, 0, 0, 54, 0, 0, 0, 0, 0, 79, 0, 0, 0, 67, 0, 0, 30, 64, 66, 0, 0, 36, 0, 0, 0, 5, 0, 12, 0, 0, 0, 0, 76, 80, 62, 46, 0, 0, 0, 0, 0, 0, 15, 0, 51, 0
|0, 51, 0, 0, 0, 49, 34, 0, 0, 0, 17, 0, 0, 0, 7, 0, 0, 59, 0, 0, 0, 0, 74, 0, 41, 0, 0, 20, 0, 36, 0, 40, 0, 0, 0, 42, 0, 0, 0, 0, 0, 27, 0, 0, 0, 0, 0, 16, 0, 0, 0, 37, 0, 0, 0, 0, 0, 0, 0, 0, 77, 8, 0, 0, 54, 0, 0, 0, 0, 0, 14, 0, 0, 0, 0, 0, 0, 0, 0, 62, 0
|10, 0, 0, 0, 0, 0, 0, 0, 0, 59, 0, 0, 0, 0, 0, 0, 0, 4, 0, 0, 0, 0, 68, 29, 33, 0, 0, 0, 0, 0, 0, 0, 0, 69, 0, 17, 0, 0, 0, 2, 54, 61, 0, 0, 0, 0, 0, 7, 0, 0, 0, 1, 77, 0, 9, 70, 55, 0, 72, 0, 38, 0, 0, 0, 0, 0, 0, 0, 0, 79, 57, 0, 3, 0, 0, 26, 21, 62, 0, 32, 0
|69, 20, 0, 0, 16, 0, 0, 0, 0, 0, 0, 6, 0, 21, 0, 0, 0, 25, 51, 0, 5, 0, 0, 0, 48, 0, 60, 0, 0, 23, 0, 0, 0, 74, 0, 0, 0, 0, 0, 42, 0, 0, 29, 0, 0, 0, 0, 0, 0, 0, 0, 0, 0, 56, 0, 0, 0, 0, 31, 0, 76, 0, 0, 2, 0, 15, 0, 0, 0, 71, 39, 24, 53, 0, 44, 0, 28, 43, 35, 0, 0
|0, 25, 0, 21, 0, 60, 0, 0, 0, 0, 0, 0, 77, 71, 56, 74, 0, 0, 0, 0, 0, 0, 31, 0, 0, 0, 0, 0, 0, 44, 0, 0, 24, 0, 0, 0, 0, 0, 0, 0, 0, 0, 1, 0, 0, 11, 0, 73, 0, 0, 68, 72, 0, 18, 0, 0, 0, 0, 0, 0, 0, 4, 0, 0, 0, 0, 0, 0, 0, 0, 13, 62, 39, 38, 0, 0, 15, 0, 0, 0, 0
|0, 0, 0, 0, 0, 0, 0, 0, 66, 0, 35, 54, 0, 12, 0, 0, 0, 0, 0, 45, 0, 38, 0, 0, 0, 0, 0, 0, 0, 42, 0, 0, 0, 59, 71, 51, 0, 17, 0, 0, 0, 56, 0, 67, 0, 0, 0, 53, 0, 0, 16, 40, 75, 0, 0, 0, 77, 20, 63, 0, 62, 0, 0, 0, 50, 8, 73, 0, 0, 29, 0, 0, 14, 61, 0, 5, 0, 0, 22, 0, 74
|0, 0, 56, 0, 3, 0, 0, 59, 28, 0, 0, 0, 80, 14, 0, 76, 0, 0, 0, 0, 22, 11, 0, 0, 0, 69, 0, 0, 0, 0, 9, 0, 7, 48, 79, 0, 39, 81, 0, 44, 0, 0, 38, 0, 0, 0, 0, 0, 17, 0, 0, 52, 0, 34, 0, 0, 0, 40, 0, 0, 0, 0, 0, 0, 27, 0, 35, 23, 0, 0, 67, 0, 29, 64, 0, 55, 0, 0, 0, 0, 0
|52, 18, 0, 0, 0, 0, 0, 0, 0, 0, 0, 0, 0, 23, 0, 0, 15, 0, 0, 0, 0, 0, 0, 0, 30, 0, 0, 0, 13, 65, 0, 0, 81, 21, 0, 0, 0, 0, 19, 0, 72, 0, 0, 0, 0, 0, 0, 0, 0, 0, 0, 0, 20, 0, 0, 0, 54, 49, 0, 46, 0, 0, 0, 0, 0, 1, 0, 0, 0, 6, 59, 0, 0, 0, 0, 31, 56, 0, 33, 0, 0
|0, 47, 37, 0, 0, 0, 0, 0, 0, 0, 9, 0, 61, 0, 63, 0, 0, 0, 0, 6, 0, 0, 0, 0, 0, 0, 0, 0, 0, 0, 0, 0, 0, 0, 62, 3, 11, 0, 0, 5, 13, 41, 0, 33, 0, 0, 0, 0, 0, 0, 0, 60, 42, 0, 0, 73, 0, 59, 0, 0, 0, 0, 74, 0, 16, 40, 0, 4, 0, 0, 0, 0, 0, 0, 76, 48, 0, 0, 0, 0, 0
|0, 0, 62, 0, 0, 24, 6, 0, 0, 0, 0, 42, 0, 30, 58, 0, 34, 0, 0, 66, 0, 9, 72, 0, 53, 46, 0, 0, 1, 25, 0, 0, 0, 0, 54, 0, 0, 0, 0, 0, 64, 0, 0, 0, 45, 0, 0, 0, 0, 0, 0, 0, 0, 0, 10, 0, 0, 0, 0, 0, 0, 0, 0, 0, 0, 0, 0, 3, 20, 48, 0, 61, 2, 23, 0, 0, 0, 16, 0, 0, 0
|0, 64, 0, 0, 7, 0, 0, 0, 0, 11, 0, 13, 0, 0, 0, 0, 0, 0, 0, 0, 0, 0, 0, 35, 59, 0, 0, 18, 43, 0, 0, 70, 0, 0, 0, 15, 74, 0, 0, 79, 0, 0, 20, 30, 0, 6, 0, 2, 0, 0, 0, 47, 4, 0, 0, 14, 48, 0, 53, 81, 0, 5, 0, 0, 22, 17, 0, 0, 0, 36, 0, 28, 0, 0, 0, 0, 0, 0, 42, 0, 0
|0, 0, 61, 0, 1, 19, 0, 52, 78, 0, 0, 49, 4, 0, 0, 0, 0, 0, 2, 0, 0, 58, 0, 0, 0, 48, 35, 77, 56, 0, 8, 0, 32, 0, 0, 0, 0, 0, 0, 0, 22, 0, 0, 0, 0, 0, 0, 0, 11, 6, 72, 14, 43, 0, 0, 0, 0, 0, 0, 0, 3, 0, 0, 0, 63, 80, 0, 0, 0, 16, 45, 0, 0, 0, 62, 0, 53, 0, 0, 33, 0
|0, 0, 47, 0, 0, 0, 0, 0, 0, 77, 15, 0, 0, 0, 0, 14, 56, 61, 0, 46, 0, 13, 0, 53, 34, 0, 0, 67, 0, 0, 79, 4, 0, 0, 0, 0, 32, 64, 0, 0, 65, 0, 36, 45, 68, 0, 0, 60, 0, 0, 50, 0, 0, 0, 28, 0, 0, 0, 0, 0, 0, 10, 0, 0, 0, 9, 0, 0, 78, 0, 0, 17, 0, 0, 0, 0, 0, 23, 0, 35, 0
|0, 56, 0, 69, 17, 0, 0, 0, 0, 19, 0, 0, 0, 0, 0, 0, 9, 24, 0, 80, 0, 0, 0, 0, 68, 16, 14, 74, 0, 1, 0, 66, 13, 42, 18, 0, 0, 52, 11, 35, 61, 0, 0, 0, 0, 0, 46, 0, 3, 0, 0, 0, 0, 4, 0, 0, 40, 0, 0, 0, 0, 0, 0, 30, 59, 0, 37, 0, 0, 0, 50, 33, 0, 0, 0, 0, 0, 0, 0, 0, 78
|0, 6, 0, 51, 4, 0, 14, 0, 0, 0, 0, 50, 0, 0, 64, 0, 32, 2, 0, 0, 42, 0, 0, 0, 17, 0, 0, 0, 0, 28, 0, 0, 53, 0, 46, 0, 76, 0, 0, 0, 0, 0, 0, 27, 0, 0, 0, 81, 0, 0, 1, 8, 0, 0, 0, 0, 0, 0, 0, 43, 0, 0, 0, 0, 0, 0, 0, 5, 0, 0, 0, 0, 0, 0, 0, 0, 0, 0, 0, 0, 0
|0, 0, 0, 49, 46, 0, 0, 2, 0, 0, 0, 0, 0, 25, 37, 0, 0, 72, 0, 33, 0, 10, 75, 0, 0, 7, 0, 0, 0, 0, 0, 48, 0, 0, 19, 0, 0, 0, 74, 0, 0, 0, 4, 62, 0, 38, 0, 0, 15, 0, 0, 0, 31, 0, 0, 0, 0, 0, 0, 1, 16, 0, 5, 54, 0, 52, 0, 57, 0, 0, 0, 81, 0, 0, 41, 64, 0, 14, 0, 0, 9
|0, 59, 39, 50, 22, 0, 0, 0, 0, 0, 0, 62, 0, 0, 0, 0, 0, 0, 0, 0, 0, 0, 0, 0, 0, 0, 61, 0, 57, 54, 0, 0, 0, 0, 0, 70, 0, 0, 0, 81, 0, 17, 26, 56, 0, 0, 0, 66, 0, 5, 0, 0, 0, 0, 11, 0, 0, 72, 38, 0, 0, 0, 0, 44, 0, 0, 42, 0, 0, 0, 0, 0, 8, 0, 0, 0, 0, 19, 0, 0, 31
|0, 0, 0, 0, 41, 0, 0, 0, 62, 0, 20, 0, 0, 42, 0, 3, 0, 0, 0, 79, 66, 32, 45, 0, 0, 0, 76, 0, 0, 0, 0, 0, 0, 30, 0, 0, 0, 0, 55, 0, 23, 77, 0, 0, 0, 0, 0, 0, 0, 0, 0, 0, 0, 0, 0, 0, 0, 0, 0, 71, 0, 0, 0, 0, 0, 0, 0, 0, 0, 0, 0, 0, 0, 0, 0, 0, 0, 46, 0, 0, 0
|37, 0, 0, 76, 0, 0, 0, 0, 0, 0, 0, 51, 0, 0, 0, 23, 11, 0, 0, 0, 0, 8, 0, 0, 0, 0, 55, 0, 10, 61, 0, 58, 80, 0, 0, 0, 79, 20, 0, 0, 0, 0, 0, 39, 0, 0, 0, 0, 30, 16, 0, 0, 0, 22, 0, 0, 0, 0, 0, 0, 67, 0, 0, 62, 0, 0, 0, 0, 0, 0, 56, 1, 0, 0, 12, 0, 0, 0, 0, 0, 0
|0, 11, 0, 0, 0, 0, 20, 0, 0, 0, 0, 0, 53, 0, 41, 0, 0, 0, 25, 0, 0, 0, 3, 0, 0, 0, 0, 0, 0, 0, 0, 0, 0, 0, 0, 2, 0, 0, 0, 0, 0, 0, 0, 0, 0, 0, 49, 0, 9, 0, 79, 0, 0, 73, 64, 17, 0, 0, 81, 0, 0, 0, 0, 0, 0, 0, 0, 0, 0, 0, 36, 0, 0, 0, 0, 0, 0, 0, 0, 0, 0
|65, 42, 0, 8, 0, 0, 0, 15, 0, 0, 0, 39, 74, 0, 0, 0, 0, 0, 77, 0, 75, 25, 0, 0, 0, 0, 0, 40, 0, 0, 0, 0, 27, 0, 0, 4, 24, 0, 0, 0, 0, 0, 56, 0, 72, 0, 0, 0, 0, 0, 21, 0, 0, 0, 0, 59, 0, 0, 20, 34, 63, 79, 0, 5, 0, 0, 0, 0, 45, 0, 0, 57, 0, 0, 0, 0, 41, 0, 23, 0, 43
|70, 0, 0, 0, 0, 0, 0, 68, 21, 50, 18, 0, 0, 33, 0, 0, 0, 0, 0, 0, 0, 0, 0, 9, 54, 0, 57, 0, 0, 0, 0, 0, 0, 49, 0, 36, 0, 0, 42, 0, 0, 38, 0, 22, 59, 23, 0, 0, 53, 0, 0, 0, 0, 0, 0, 0, 14, 0, 0, 0, 0, 0, 0, 0, 0, 0, 0, 71, 51, 0, 0, 0, 0, 0, 0, 0, 0, 2, 0, 0, 0
|0, 0, 22, 0, 55, 0, 0, 0, 0, 0, 0, 0, 0, 0, 0, 68, 0, 0, 41, 27, 0, 0, 0, 46, 0, 0, 0, 0, 0, 20, 0, 0, 76, 0, 0, 71, 18, 0, 0, 0, 66, 0, 0, 0, 0, 0, 0, 0, 0, 0, 0, 0, 19, 0, 0, 0, 0, 30, 0, 0, 49, 0, 0, 11, 35, 0, 1, 0, 0, 0, 0, 54, 0, 15, 0, 0, 0, 0, 0, 0, 64
|0, 0, 72, 0, 0, 0, 0, 53, 0, 0, 0, 66, 0, 0, 0, 15, 0, 0, 14, 59, 48, 20, 0, 55, 0, 29, 40, 0, 0, 0, 0, 80, 18, 0, 0, 0, 0, 54, 0, 0, 0, 0, 0, 0, 33, 2, 0, 0, 0, 0, 0, 0, 0, 0, 0, 0, 0, 0, 56, 0, 68, 16, 0, 58, 0, 0, 0, 0, 0, 27, 0, 73, 0, 0, 0, 0, 76, 0, 0, 0, 42
|45, 0, 0, 0, 0, 0, 0, 0, 0, 32, 0, 0, 0, 0, 0, 0, 10, 17, 0, 0, 0, 0, 0, 0, 0, 0, 0, 0, 0, 33, 0, 0, 59, 5, 0, 0, 0, 0, 57, 0, 69, 0, 0, 0, 0, 0, 0, 40, 43, 0, 81, 55, 0, 0, 0, 27, 0, 0, 0, 0, 0, 0, 0, 0, 0, 0, 50, 38, 0, 0, 0, 0, 0, 0, 18, 0, 0, 0, 0, 0, 19
|0, 0, 0, 0, 0, 0, 0, 33, 0, 0, 0, 0, 65, 0, 0, 0, 0, 0, 0, 34, 67, 0, 0, 0, 0, 39, 0, 0, 47, 66, 0, 38, 0, 0, 0, 0, 0, 0, 0, 0, 0, 0, 0, 0, 0, 73, 0, 0, 0, 59, 80, 62, 0, 0, 61, 0, 0, 0, 0, 0, 0, 0, 0, 0, 6, 2, 0, 0, 0, 24, 0, 0, 0, 0, 0, 68, 0, 63, 0, 0, 14
|0, 0, 0, 16, 0, 27, 28, 0, 52, 0, 0, 59, 0, 0, 54, 0, 67, 0, 22, 21, 62, 0, 0, 0, 0, 0, 0, 0, 60, 7, 0, 0, 0, 9, 53, 77, 0, 4, 0, 0, 50, 5, 0, 0, 0, 0, 12, 0, 0, 41, 0, 0, 0, 13, 42, 15, 0, 0, 0, 0, 0, 0, 0, 0, 0, 0, 0, 78, 0, 32, 0, 0, 35, 0, 0, 0, 0, 0, 0, 38, 0
|79, 23, 29, 0, 59, 17, 0, 0, 0, 0, 0, 0, 0, 0, 76, 0, 0, 38, 33, 0, 0, 0, 0, 0, 0, 0, 16, 0, 0, 0, 0, 72, 0, 2, 0, 45, 0, 61, 0, 37, 0, 0, 10, 0, 0, 0, 0, 0, 0, 0, 77, 78, 0, 0, 0, 0, 5, 0, 0, 9, 0, 0, 39, 0, 0, 4, 0, 0, 0, 67, 0, 0, 0, 0, 6, 0, 47, 0, 0, 0, 0
|0, 36, 11, 4, 0, 50, 0, 0, 34, 0, 72, 0, 0, 70, 0, 0, 0, 0, 0, 0, 0, 0, 0, 0, 0, 0, 5, 0, 0, 43, 0, 0, 29, 79, 0, 0, 0, 77, 68, 40, 0, 20, 0, 0, 0, 0, 39, 45, 61, 0, 0, 9, 60, 6, 0, 0, 0, 26, 21, 48, 0, 7, 0, 59, 66, 18, 0, 10, 41, 63, 0, 0, 58, 53, 73, 0, 0, 75, 0, 0, 0|];