order = 9;
grid = [|1, 0, 0, 0, 0, 0, 33, 0, 0, 0, 0, 0, 0, 0, 0, 0, 0, 20, 0, 0, 80, 0, 11, 0, 71, 0, 43, 0, 3, 0, 0, 46, 0, 0, 0, 0, 0, 0, 0, 0, 0, 0, 0, 19, 16, 0, 0, 0, 0, 0, 47, 0, 0, 0, 60, 0, 0, 0, 38, 0, 0, 40, 0, 41, 0, 0, 28, 0, 0, 0, 0, 34, 0, 29, 7, 0, 0, 0, 73, 0, 0
|0, 0, 0, 52, 0, 81, 0, 0, 0, 0, 0, 0, 0, 0, 0, 0, 0, 0, 0, 0, 6, 0, 0, 0, 0, 0, 0, 0, 0, 19, 42, 9, 0, 0, 44, 65, 0, 47, 0, 0, 0, 0, 57, 0, 0, 0, 0, 56, 0, 0, 0, 17, 0, 0, 21, 0, 0, 29, 0, 20, 63, 0, 12, 0, 0, 0, 66, 5, 0, 0, 0, 79, 0, 32, 0, 0, 0, 38, 0, 75, 0
|79, 56, 0, 0, 30, 0, 50, 0, 0, 59, 0, 0, 1, 45, 0, 0, 63, 0, 53, 23, 0, 39, 8, 0, 0, 0, 19, 0, 69, 7, 73, 5, 38, 0, 0, 0, 0, 0, 0, 32, 0, 78, 0, 0, 64, 16, 0, 0, 34, 0, 0, 0, 0, 0, 0, 22, 10, 0, 0, 0, 0, 0, 0, 0, 2, 0, 17, 0, 77, 0, 0, 0, 0, 0, 0, 52, 0, 0, 0, 0, 0
|0, 0, 0, 0, 0, 0, 0, 0, 0, 47, 0, 0, 0, 21, 0, 79, 35, 26, 0, 0, 0, 0, 0, 37, 0, 0, 0, 16, 29, 0, 0, 0, 0, 81, 0, 71, 25, 49, 27, 0, 0, 0, 51, 0, 0, 0, 0, 0, 0, 0, 80, 0, 0, 0, 0, 31, 61, 0, 0, 72, 0, 0, 0, 0, 0, 0, 0, 0, 0, 0, 45, 0, 24, 53, 39, 0, 0, 0, 0, 0, 0
|16, 75, 0, 0, 0, 0, 0, 0, 0, 0, 0, 69, 0, 49, 0, 0, 0, 0, 7, 0, 0, 0, 0, 52, 0, 0, 0, 15, 0, 0, 0, 0, 0, 0, 20, 74, 0, 0, 17, 0, 0, 0, 0, 0, 0, 0, 65, 27, 0, 22, 0, 72, 0, 0, 0, 77, 39, 0, 0, 0, 0, 9, 0, 12, 4, 0, 42, 54, 0, 68, 0, 0, 0, 0, 0, 0, 6, 0, 48, 0, 0
|69, 0, 0, 74, 0, 73, 39, 61, 0, 0, 0, 0, 0, 0, 0, 0, 0, 0, 59, 0, 0, 0, 27, 57, 56, 0, 0, 0, 2, 0, 51, 13, 17, 0, 45, 0, 0, 7, 0, 50, 0, 0, 0, 0, 20, 71, 0, 0, 0, 0, 0, 81, 0, 0, 0, 0, 0, 0, 11, 0, 0, 26, 0, 0, 0, 3, 16, 0, 80, 0, 0, 0, 0, 0, 0, 0, 0, 0, 0, 0, 0
|0, 0, 0, 23, 0, 0, 0, 0, 0, 0, 0, 0, 28, 77, 0, 5, 39, 0, 81, 0, 0, 0, 0, 0, 31, 66, 12, 0, 0, 0, 0, 35, 49, 0, 0, 78, 0, 26, 6, 0, 0, 0, 0, 0, 0, 0, 0, 0, 0, 0, 29, 0, 42, 0, 0, 17, 0, 0, 0, 13, 8, 0, 53, 0, 0, 0, 0, 14, 0, 0, 0, 22, 4, 0, 0, 16, 0, 0, 0, 69, 33
|21, 0, 0, 0, 25, 0, 0, 0, 0, 0, 0, 0, 0, 55, 0, 0, 0, 18, 0, 0, 0, 0, 28, 72, 0, 0, 0, 0, 27, 24, 0, 60, 36, 0, 41, 0, 5, 0, 0, 0, 31, 0, 0, 0, 0, 0, 6, 0, 0, 0, 52, 0, 0, 0, 0, 0, 0, 0, 0, 0, 0, 0, 0, 0, 0, 0, 49, 0, 50, 32, 69, 43, 78, 0, 71, 0, 30, 11, 80, 0, 0
|0, 0, 60, 0, 38, 20, 14, 0, 0, 0, 0, 16, 0, 0, 0, 0, 0, 0, 0, 0, 0, 0, 46, 79, 0, 0, 0, 0, 0, 0, 0, 0, 75, 0, 0, 61, 0, 36, 52, 9, 0, 0, 0, 0, 23, 0, 39, 0, 0, 0, 0, 0, 0, 0, 0, 0, 0, 0, 0, 27, 0, 0, 0, 0, 65, 0, 0, 0, 0, 0, 58, 0, 0, 43, 0, 0, 0, 0, 57, 0, 0
|0, 0, 0, 0, 43, 0, 0, 0, 0, 38, 39, 35, 0, 0, 68, 16, 19, 0, 0, 0, 0, 0, 0, 0, 0, 0, 0, 0, 0, 0, 7, 0, 0, 0, 0, 0, 0, 0, 63, 0, 0, 31, 0, 0, 0, 0, 0, 0, 0, 57, 0, 0, 54, 0, 80, 0, 15, 58, 0, 64, 0, 0, 20, 40, 0, 0, 0, 0, 0, 0, 0, 0, 0, 5, 0, 34, 0, 0, 42, 0, 0
|0, 0, 0, 4, 0, 72, 57, 0, 0, 0, 0, 0, 0, 0, 0, 0, 0, 79, 0, 6, 0, 74, 0, 0, 28, 0, 34, 0, 0, 0, 60, 0, 0, 0, 0, 0, 0, 0, 0, 0, 0, 33, 44, 68, 0, 0, 7, 48, 0, 0, 37, 14, 0, 0, 0, 0, 63, 0, 0, 0, 0, 0, 43, 0, 0, 0, 0, 0, 0, 0, 0, 81, 47, 0, 0, 0, 53, 0, 0, 21, 0
|7, 44, 0, 0, 39, 0, 0, 0, 73, 0, 0, 0, 0, 0, 0, 2, 46, 0, 0, 57, 0, 0, 0, 0, 0, 0, 38, 80, 0, 13, 72, 0, 45, 0, 0, 5, 0, 0, 3, 0, 43, 0, 0, 0, 22, 0, 0, 20, 0, 0, 33, 71, 0, 0, 0, 69, 0, 54, 0, 0, 19, 0, 0, 77, 0, 0, 56, 0, 0, 79, 0, 0, 0, 0, 0, 0, 0, 0, 0, 30, 0
|0, 28, 0, 0, 48, 0, 0, 21, 0, 0, 47, 0, 0, 0, 24, 0, 0, 9, 0, 0, 0, 80, 0, 0, 0, 0, 0, 0, 0, 0, 0, 0, 0, 0, 0, 19, 0, 0, 79, 0, 41, 0, 0, 0, 0, 0, 0, 0, 0, 0, 0, 29, 0, 1, 0, 46, 0, 0, 0, 0, 0, 66, 0, 36, 0, 0, 25, 38, 0, 78, 0, 0, 0, 0, 0, 0, 0, 0, 0, 0, 0
|0, 0, 0, 0, 69, 0, 0, 0, 0, 0, 0, 0, 0, 0, 0, 0, 0, 0, 0, 0, 0, 71, 0, 0, 0, 0, 0, 35, 0, 38, 0, 0, 0, 0, 0, 0, 0, 0, 15, 20, 0, 0, 0, 27, 0, 21, 0, 13, 0, 39, 0, 30, 0, 52, 0, 25, 0, 0, 0, 0, 0, 0, 47, 37, 6, 0, 22, 0, 75, 0, 24, 0, 0, 0, 0, 0, 0, 9, 4, 0, 0
|0, 0, 0, 0, 63, 0, 0, 0, 0, 0, 0, 0, 26, 73, 0, 0, 0, 76, 0, 0, 18, 0, 0, 0, 14, 0, 0, 77, 11, 0, 0, 0, 0, 0, 0, 20, 80, 0, 0, 4, 0, 0, 0, 58, 53, 0, 0, 0, 9, 0, 0, 0, 0, 6, 0, 0, 65, 28, 0, 79, 0, 35, 0, 0, 0, 29, 0, 72, 21, 39, 59, 0, 0, 0, 0, 60, 0, 0, 0, 0, 0
|0, 0, 0, 41, 0, 0, 0, 0, 0, 54, 0, 0, 0, 65, 0, 0, 0, 0, 0, 0, 0, 0, 0, 11, 0, 0, 0, 6, 0, 23, 0, 0, 0, 0, 0, 0, 0, 0, 39, 0, 0, 0, 0, 77, 0, 0, 0, 0, 18, 0, 0, 0, 31, 0, 0, 0, 0, 0, 0, 0, 0, 0, 0, 0, 0, 0, 0, 32, 0, 0, 0, 0, 0, 8, 0, 36, 0, 0, 0, 0, 0
|0, 3, 0, 26, 59, 0, 0, 0, 0, 50, 33, 62, 0, 0, 0, 0, 27, 0, 0, 0, 0, 0, 43, 0, 0, 0, 48, 0, 39, 0, 0, 0, 0, 0, 0, 30, 0, 0, 0, 0, 0, 0, 0, 81, 29, 25, 0, 23, 44, 0, 11, 0, 70, 66, 61, 0, 0, 72, 0, 22, 0, 0, 0, 0, 0, 0, 0, 67, 47, 0, 0, 0, 0, 79, 0, 0, 0, 0, 0, 0, 0
|0, 77, 0, 0, 0, 0, 66, 0, 0, 49, 0, 80, 0, 0, 0, 20, 64, 11, 0, 0, 0, 0, 0, 0, 58, 61, 0, 0, 0, 0, 0, 0, 0, 0, 55, 0, 32, 69, 8, 0, 28, 0, 0, 0, 0, 0, 0, 0, 0, 0, 65, 0, 0, 0, 75, 0, 0, 0, 0, 60, 21, 0, 0, 52, 14, 0, 0, 0, 0, 0, 0, 44, 0, 68, 37, 0, 0, 0, 0, 0, 0
|77, 0, 0, 0, 40, 0, 0, 0, 1, 0, 0, 0, 0, 0, 0, 38, 0, 0, 32, 0, 0, 3, 0, 0, 0, 0, 64, 0, 0, 0, 0, 0, 0, 0, 0, 0, 0, 0, 45, 0, 12, 0, 25, 0, 0, 0, 0, 0, 0, 0, 0, 0, 0, 0, 69, 42, 0, 0, 0, 0, 0, 0, 28, 0, 0, 0, 74, 0, 26, 0, 0, 0, 0, 0, 68, 0, 0, 0, 0, 31, 4
|43, 0, 0, 56, 0, 46, 0, 51, 0, 0, 61, 0, 0, 0, 2, 0, 75, 0, 0, 0, 36, 28, 54, 0, 0, 0, 1, 0, 0, 76, 0, 0, 48, 0, 0, 59, 0, 58, 11, 0, 0, 29, 68, 0, 74, 81, 62, 0, 0, 0, 3, 0, 0, 41, 71, 0, 0, 13, 34, 66, 0, 30, 0, 47, 69, 0, 73, 10, 0, 15, 0, 0, 0, 0, 32, 0, 0, 0, 8, 0, 26
|58, 24, 0, 0, 44, 80, 13, 59, 0, 11, 0, 26, 0, 0, 0, 52, 0, 49, 0, 0, 0, 0, 0, 0, 0, 69, 72, 5, 38, 0, 0, 0, 0, 0, 0, 0, 0, 0, 0, 65, 0, 17, 0, 21, 0, 0, 45, 15, 0, 0, 0, 7, 0, 0, 0, 68, 0, 0, 3, 0, 0, 31, 55, 35, 0, 0, 0, 0, 2, 0, 0, 0, 0, 0, 0, 71, 0, 0, 64, 67, 0
|0, 63, 81, 0, 0, 23, 0, 0, 53, 0, 0, 4, 0, 1, 0, 0, 0, 0, 0, 0, 0, 0, 0, 0, 12, 0, 0, 0, 0, 0, 0, 0, 0, 0, 0, 35, 0, 0, 0, 0, 57, 0, 0, 36, 0, 0, 8, 0, 38, 0, 0, 2, 80, 0, 0, 51, 47, 26, 0, 0, 0, 0, 0, 0, 0, 14, 0, 77, 0, 0, 31, 0, 0, 0, 0, 0, 0, 0, 0, 0, 0
|0, 21, 0, 0, 62, 0, 0, 25, 0, 0, 0, 0, 3, 0, 0, 69, 13, 32, 0, 0, 0, 0, 0, 0, 0, 0, 30, 0, 58, 0, 0, 0, 0, 17, 33, 0, 53, 0, 0, 23, 0, 26, 0, 0, 0, 0, 0, 0, 0, 0, 59, 34, 12, 55, 0, 0, 0, 0, 0, 40, 14, 0, 0, 0, 0, 0, 0, 0, 0, 1, 0, 0, 0, 48, 5, 0, 79, 0, 0, 0, 16
|0, 0, 0, 0, 0, 0, 0, 79, 0, 0, 0, 0, 25, 0, 0, 0, 0, 0, 0, 68, 48, 0, 0, 0, 0, 0, 0, 0, 0, 12, 0, 0, 0, 37, 4, 0, 0, 0, 40, 30, 51, 0, 0, 0, 0, 29, 0, 0, 0, 0, 0, 36, 14, 56, 0, 0, 0, 0, 39, 0, 0, 0, 0, 0, 0, 58, 50, 0, 0, 0, 0, 0, 0, 11, 0, 62, 55, 3, 0, 0, 0
|0, 66, 0, 0, 0, 0, 32, 7, 0, 0, 30, 21, 0, 0, 0, 0, 0, 0, 67, 0, 78, 65, 0, 26, 0, 0, 11, 0, 0, 34, 24, 0, 46, 0, 42, 0, 19, 0, 0, 0, 0, 0, 0, 47, 79, 39, 0, 0, 0, 0, 0, 0, 0, 0, 0, 80, 75, 0, 0, 0, 38, 0, 25, 64, 0, 0, 0, 0, 0, 49, 57, 48, 0, 0, 23, 0, 0, 0, 37, 0, 0
|68, 57, 0, 0, 0, 0, 0, 0, 0, 71, 0, 65, 37, 0, 0, 0, 54, 66, 0, 34, 10, 31, 0, 0, 19, 25, 79, 0, 0, 0, 0, 0, 0, 0, 47, 0, 0, 44, 0, 70, 49, 0, 0, 75, 4, 0, 0, 58, 0, 0, 63, 76, 50, 0, 0, 12, 53, 48, 0, 0, 0, 0, 0, 21, 40, 33, 32, 0, 24, 41, 0, 60, 0, 18, 61, 0, 0, 0, 0, 0, 0
|0, 0, 0, 0, 0, 0, 0, 0, 0, 0, 72, 28, 0, 44, 64, 0, 0, 0, 0, 0, 0, 0, 0, 0, 0, 0, 0, 0, 0, 0, 15, 71, 1, 0, 0, 0, 0, 0, 0, 61, 0, 0, 8, 60, 0, 73, 68, 0, 0, 0, 19, 25, 0, 65, 0, 0, 0, 62, 0, 0, 0, 0, 0, 0, 0, 0, 0, 0, 0, 0, 0, 0, 0, 0, 0, 0, 0, 0, 0, 74, 9
|0, 62, 0, 0, 0, 48, 0, 0, 43, 0, 76, 0, 0, 0, 0, 0, 0, 0, 0, 72, 0, 0, 0, 0, 22, 0, 0, 0, 17, 53, 0, 0, 0, 0, 7, 0, 0, 0, 0, 0, 0, 0, 31, 0, 0, 47, 0, 0, 0, 0, 0, 0, 0, 0, 25, 0, 0, 0, 64, 41, 0, 0, 0, 0, 0, 0, 37, 0, 0, 0, 14, 0, 0, 40, 0, 0, 0, 0, 70, 39, 0
|0, 0, 74, 0, 0, 0, 29, 17, 0, 0, 0, 0, 0, 0, 0, 0, 0, 0, 0, 0, 0, 0, 0, 0, 0, 18, 61, 0, 68, 0, 0, 0, 24, 0, 0, 0, 0, 0, 0, 19, 0, 0, 0, 0, 0, 0, 0, 0, 0, 0, 0, 0, 4, 0, 54, 78, 0, 36, 0, 0, 6, 0, 0, 56, 76, 0, 0, 0, 34, 0, 0, 0, 0, 35, 0, 0, 0, 0, 67, 0, 5
|0, 0, 1, 0, 0, 0, 0, 0, 75, 5, 14, 0, 0, 0, 0, 13, 0, 52, 4, 43, 0, 0, 0, 0, 21, 0, 29, 0, 0, 0, 0, 0, 0, 0, 76, 46, 0, 0, 35, 0, 0, 10, 62, 11, 0, 0, 16, 0, 0, 42, 0, 0, 55, 0, 0, 56, 3, 0, 0, 0, 69, 51, 0, 0, 0, 0, 0, 80, 44, 0, 7, 0, 0, 19, 2, 57, 0, 53, 0, 78, 0
|80, 0, 0, 0, 72, 0, 0, 0, 0, 21, 0, 0, 0, 19, 0, 0, 0, 0, 0, 51, 20, 0, 0, 17, 0, 0, 0, 0, 52, 0, 0, 0, 0, 14, 0, 0, 0, 0, 0, 34, 0, 8, 0, 59, 65, 0, 28, 0, 0, 0, 0, 35, 0, 0, 0, 10, 2, 53, 12, 0, 32, 0, 0, 0, 1, 38, 0, 40, 0, 74, 77, 0, 0, 0, 42, 0, 0, 33, 61, 11, 24
|0, 0, 0, 66, 0, 0, 35, 0, 0, 0, 0, 0, 62, 0, 50, 12, 80, 0, 31, 79, 0, 16, 0, 0, 65, 0, 71, 69, 0, 75, 40, 0, 0, 0, 1, 73, 36, 0, 0, 0, 0, 0, 3, 0, 78, 2, 0, 54, 56, 0, 30, 0, 0, 0, 0, 70, 0, 0, 60, 0, 0, 77, 0, 63, 0, 17, 23, 0, 0, 0, 5, 11, 0, 0, 0, 0, 0, 0, 0, 0, 0
|0, 71, 0, 0, 0, 0, 5, 0, 0, 0, 4, 0, 0, 10, 0, 0, 0, 34, 9, 30, 0, 36, 0, 0, 52, 0, 54, 0, 44, 0, 80, 0, 0, 0, 0, 0, 56, 79, 7, 0, 0, 0, 0, 0, 0, 50, 0, 0, 0, 0, 0, 0, 0, 0, 0, 0, 42, 0, 66, 75, 0, 0, 0, 0, 0, 21, 0, 35, 57, 18, 0, 0, 0, 16, 0, 0, 3, 73, 0, 0, 0
|0, 55, 0, 0, 0, 0, 69, 0, 0, 17, 0, 0, 0, 0, 0, 0, 0, 0, 0, 0, 0, 0, 57, 0, 0, 35, 0, 0, 0, 0, 0, 0, 0, 0, 27, 21, 0, 53, 4, 0, 40, 0, 0, 0, 0, 0, 5, 0, 0, 0, 71, 0, 19, 15, 34, 0, 0, 0, 0, 0, 37, 0, 0, 68, 0, 0, 0, 0, 0, 47, 0, 0, 0, 0, 0, 0, 41, 0, 0, 0, 0
|31, 0, 0, 51, 0, 0, 20, 9, 65, 66, 0, 0, 0, 43, 0, 0, 0, 0, 77, 0, 0, 0, 0, 0, 6, 46, 58, 0, 0, 0, 34, 18, 57, 0, 59, 0, 0, 0, 0, 0, 0, 0, 0, 0, 55, 0, 0, 0, 0, 0, 60, 0, 0, 0, 0, 0, 0, 35, 0, 0, 0, 0, 0, 0, 0, 0, 0, 0, 0, 36, 0, 0, 52, 25, 0, 48, 0, 37, 0, 0, 0
|0, 0, 25, 54, 19, 0, 0, 0, 0, 67, 0, 0, 0, 0, 0, 24, 65, 16, 0, 80, 0, 59, 0, 0, 0, 73, 0, 0, 0, 0, 0, 63, 9, 0, 48, 0, 0, 0, 0, 69, 0, 0, 28, 64, 0, 0, 0, 0, 0, 70, 14, 0, 0, 78, 0, 0, 0, 0, 0, 55, 0, 0, 0, 27, 0, 0, 0, 0, 81, 0, 0, 0, 77, 0, 44, 0, 0, 0, 0, 0, 0
|0, 1, 0, 0, 0, 0, 0, 46, 0, 18, 15, 0, 0, 59, 5, 0, 33, 0, 0, 0, 0, 0, 0, 49, 0, 0, 0, 0, 0, 0, 0, 27, 0, 28, 0, 38, 0, 54, 0, 45, 6, 63, 0, 0, 0, 0, 36, 0, 0, 0, 0, 0, 0, 0, 72, 0, 11, 17, 0, 0, 0, 67, 0, 44, 23, 25, 0, 0, 0, 0, 0, 39, 61, 77, 0, 0, 0, 0, 32, 64, 0
|0, 0, 52, 0, 0, 3, 0, 0, 69, 0, 55, 2, 35, 14, 20, 45, 0, 0, 72, 0, 9, 67, 0, 1, 0, 0, 0, 0, 0, 0, 53, 0, 0, 62, 0, 0, 43, 5, 58, 22, 0, 34, 13, 0, 24, 59, 0, 0, 0, 0, 0, 0, 0, 0, 12, 0, 0, 0, 0, 63, 0, 0, 0, 33, 0, 79, 15, 76, 71, 0, 26, 0, 0, 60, 0, 0, 54, 0, 11, 0, 0
|0, 0, 48, 0, 0, 0, 63, 0, 17, 60, 67, 0, 0, 51, 0, 11, 0, 0, 69, 0, 0, 0, 36, 0, 0, 0, 0, 9, 0, 0, 0, 54, 0, 0, 0, 0, 0, 0, 23, 75, 0, 80, 0, 40, 47, 15, 76, 0, 0, 56, 72, 65, 21, 0, 0, 0, 59, 34, 0, 0, 0, 0, 0, 0, 0, 27, 0, 0, 0, 0, 0, 0, 0, 0, 79, 0, 0, 5, 6, 28, 38
|37, 29, 13, 5, 0, 0, 0, 0, 0, 0, 0, 64, 0, 0, 0, 0, 0, 0, 11, 73, 8, 0, 0, 0, 0, 0, 3, 0, 0, 0, 0, 0, 0, 0, 0, 0, 0, 0, 31, 35, 0, 0, 53, 0, 0, 43, 0, 61, 0, 0, 0, 0, 0, 40, 0, 0, 0, 0, 0, 0, 0, 4, 0, 0, 0, 0, 0, 0, 0, 0, 0, 0, 0, 0, 0, 46, 0, 0, 0, 0, 66
|0, 59, 0, 0, 0, 0, 0, 0, 4, 0, 10, 79, 34, 0, 3, 0, 0, 57, 0, 41, 0, 42, 0, 0, 0, 0, 5, 0, 64, 0, 0, 0, 0, 44, 0, 12, 0, 0, 19, 0, 60, 11, 0, 49, 0, 0, 0, 0, 0, 51, 0, 0, 71, 0, 78, 0, 0, 68, 0, 0, 0, 0, 48, 9, 0, 0, 0, 0, 35, 0, 0, 50, 0, 0, 81, 0, 0, 0, 0, 0, 0
|0, 0, 47, 0, 0, 0, 0, 67, 0, 69, 0, 0, 0, 0, 81, 0, 16, 12, 0, 0, 63, 0, 0, 0, 0, 0, 0, 0, 0, 0, 76, 73, 33, 13, 0, 2, 0, 1, 70, 36, 74, 0, 79, 0, 0, 0, 0, 0, 0, 78, 0, 19, 0, 0, 0, 0, 35, 46, 54, 0, 0, 49, 22, 0, 42, 0, 0, 0, 0, 0, 52, 0, 0, 0, 57, 0, 0, 0, 0, 0, 0
|0, 0, 0, 0, 0, 61, 34, 0, 40, 62, 0, 50, 0, 0, 22, 76, 0, 42, 0, 0, 0, 44, 0, 0, 0, 0, 0, 0, 0, 0, 0, 26, 0, 0, 0, 23, 0, 64, 0, 0, 0, 0, 0, 0, 0, 0, 0, 0, 0, 0, 48, 0, 0, 0, 0, 0, 0, 41, 0, 0, 0, 0, 0, 80, 0, 0, 0, 0, 0, 81, 32, 0, 0, 0, 0, 0, 0, 49, 59, 0, 0
|71, 0, 73, 0, 0, 77, 0, 74, 0, 0, 0, 0, 78, 0, 0, 0, 47, 0, 80, 10, 0, 0, 0, 0, 0, 76, 0, 0, 65, 46, 0, 37, 0, 0, 0, 0, 0, 0, 20, 25, 0, 0, 0, 0, 68, 0, 53, 0, 0, 32, 0, 0, 0, 17, 0, 0, 33, 69, 40, 0, 39, 0, 0, 0, 0, 0, 0, 0, 0, 60, 0, 0, 0, 45, 22, 0, 23, 0, 0, 0, 0
|81, 11, 38, 10, 0, 0, 0, 0, 0, 0, 0, 0, 0, 0, 0, 0, 0, 73, 0, 0, 0, 0, 0, 0, 0, 0, 0, 41, 51, 0, 0, 0, 0, 0, 0, 68, 0, 0, 0, 2, 0, 42, 46, 0, 8, 0, 0, 0, 0, 69, 0, 16, 0, 0, 0, 0, 0, 0, 0, 0, 0, 15, 0, 0, 0, 61, 0, 0, 0, 65, 0, 0, 0, 0, 43, 67, 0, 0, 36, 0, 0
|0, 25, 0, 0, 0, 0, 79, 33, 27, 0, 0, 0, 0, 15, 0, 0, 0, 30, 0, 0, 0, 0, 44, 0, 0, 0, 0, 0, 32, 0, 0, 0, 0, 5, 77, 0, 0, 74, 0, 0, 50, 12, 0, 0, 0, 0, 75, 0, 0, 0, 0, 66, 0, 0, 0, 0, 0, 0, 0, 14, 0, 61, 0, 0, 57, 0, 0, 0, 28, 0, 47, 0, 0, 0, 63, 39, 0, 0, 0, 0, 36
|0, 0, 0, 12, 0, 0, 30, 0, 0, 0, 0, 0, 44, 0, 0, 0, 0, 0, 0, 0, 75, 0, 70, 0, 0, 19, 0, 0, 0, 55, 46, 0, 0, 0, 0, 37, 39, 0, 48, 0, 0, 0, 0, 0, 0, 0, 0, 9, 0, 0, 25, 0, 2, 51, 0, 0, 62, 67, 24, 0, 23, 0, 0, 0, 77, 0, 0, 0, 0, 0, 0, 76, 56, 0, 80, 0, 72, 0, 0, 0, 58
|0, 0, 70, 0, 0, 0, 0, 34, 0, 0, 66, 0, 16, 0, 0, 0, 0, 0, 64, 0, 27, 0, 0, 0, 0, 50, 0, 0, 0, 0, 0, 0, 0, 0, 40, 49, 0, 35, 41, 0, 0, 73, 7, 0, 0, 0, 0, 0, 0, 0, 0, 0, 20, 71, 0, 0, 36, 0, 37, 0, 0, 69, 46, 0, 0, 53, 9, 0, 0, 51, 54, 0, 31, 57, 55, 44, 0, 0, 0, 38, 47
|59, 47, 5, 43, 0, 0, 0, 0, 0, 23, 0, 0, 55, 0, 0, 0, 0, 0, 46, 0, 0, 0, 0, 0, 73, 0, 0, 0, 28, 26, 0, 53, 15, 20, 0, 0, 0, 0, 0, 0, 0, 0, 0, 78, 0, 0, 0, 22, 0, 0, 69, 32, 0, 0, 0, 72, 0, 0, 0, 0, 0, 0, 0, 0, 0, 39, 63, 29, 0, 0, 0, 0, 49, 0, 70, 0, 0, 0, 0, 0, 0
|0, 0, 78, 0, 0, 37, 7, 0, 0, 0, 0, 57, 0, 0, 0, 47, 0, 0, 0, 0, 0, 0, 80, 5, 0, 0, 0, 54, 0, 0, 0, 0, 25, 0, 0, 0, 0, 0, 77, 0, 10, 0, 0, 0, 66, 38, 0, 79, 81, 0, 49, 0, 0, 0, 0, 0, 0, 0, 0, 0, 44, 0, 0, 73, 0, 0, 0, 15, 43, 0, 0, 0, 0, 6, 0, 24, 71, 0, 0, 45, 29
|0, 0, 0, 0, 0, 0, 0, 6, 77, 52, 32, 0, 0, 54, 0, 43, 0, 0, 60, 0, 56, 0, 0, 78, 10, 38, 0, 0, 0, 80, 0, 0, 0, 0, 0, 0, 0, 0, 0, 81, 0, 0, 0, 0, 0, 30, 0, 0, 0, 4, 55, 0, 0, 14, 0, 0, 76, 0, 22, 0, 53, 0, 68, 70, 0, 0, 36, 0, 23, 0, 0, 0, 0, 28, 0, 0, 15, 48, 69, 0, 0
|0, 0, 68, 0, 31, 0, 54, 24, 0, 0, 69, 38, 0, 64, 0, 0, 10, 3, 0, 0, 0, 0, 0, 0, 0, 0, 0, 48, 0, 0, 56, 0, 8, 74, 0, 18, 0, 76, 2, 0, 0, 0, 0, 0, 0, 72, 37, 0, 5, 0, 12, 0, 34, 47, 0, 73, 28, 0, 0, 0, 66, 0, 80, 50, 79, 0, 0, 0, 22, 0, 81, 0, 0, 0, 0, 25, 0, 77, 0, 0, 0
|0, 0, 63, 0, 14, 38, 0, 0, 0, 58, 0, 0, 0, 0, 0, 0, 0, 0, 0, 48, 0, 25, 0, 0, 0, 32, 77, 76, 0, 0, 1, 42, 0, 0, 0, 60, 47, 0, 0, 0, 0, 0, 0, 37, 13, 0, 0, 0, 0, 0, 8, 0, 0, 36, 7, 0, 43, 51, 0, 0, 0, 0, 0, 0, 0, 0, 30, 0, 0, 0, 0, 26, 16, 0, 27, 0, 52, 0, 33, 19, 0
|62, 0, 20, 11, 0, 15, 2, 0, 0, 0, 0, 0, 77, 28, 0, 0, 71, 0, 51, 0, 0, 6, 0, 0, 0, 0, 0, 0, 66, 0, 43, 14, 0, 0, 3, 72, 29, 0, 0, 0, 0, 5, 26, 0, 30, 13, 0, 0, 0, 0, 0, 0, 0, 0, 0, 18, 0, 0, 78, 0, 0, 65, 0, 38, 0, 80, 0, 0, 49, 37, 0, 0, 40, 0, 0, 0, 0, 23, 0, 0, 0
|0, 0, 0, 0, 42, 0, 74, 0, 0, 0, 44, 0, 65, 0, 0, 60, 0, 0, 3, 0, 0, 22, 0, 0, 0, 24, 0, 0, 0, 0, 0, 0, 4, 0, 0, 0, 28, 0, 0, 0, 0, 0, 0, 13, 0, 0, 12, 76, 0, 71, 0, 0, 11, 0, 0, 0, 0, 0, 0, 67, 58, 39, 1, 0, 0, 0, 0, 0, 0, 61, 73, 0, 0, 0, 0, 63, 0, 0, 62, 0, 14
|65, 0, 19, 0, 73, 0, 0, 0, 0, 75, 0, 0, 0, 0, 8, 0, 0, 24, 0, 0, 59, 0, 0, 0, 0, 63, 44, 14, 47, 0, 55, 1, 0, 76, 0, 0, 77, 0, 0, 0, 0, 68, 58, 0, 0, 28, 0, 46, 22, 0, 0, 15, 33, 0, 52, 0, 0, 0, 0, 0, 0, 0, 0, 0, 0, 71, 34, 18, 0, 70, 0, 21, 17, 0, 0, 0, 0, 0, 0, 0, 0
|0, 48, 7, 50, 0, 0, 0, 0, 0, 0, 0, 0, 36, 37, 0, 23, 0, 0, 0, 28, 0, 0, 0, 0, 0, 0, 40, 0, 60, 22, 0, 0, 39, 0, 72, 0, 0, 0, 44, 0, 0, 0, 0, 0, 0, 27, 19, 0, 0, 0, 0, 0, 0, 0, 0, 0, 30, 0, 0, 8, 0, 45, 0, 29, 0, 49, 0, 57, 0, 0, 0, 52, 0, 0, 0, 0, 0, 0, 0, 0, 0
|0, 15, 0, 0, 0, 0, 0, 0, 0, 0, 0, 0, 0, 0, 0, 0, 0, 0, 0, 66, 0, 68, 71, 0, 0, 45, 14, 0, 0, 0, 0, 0, 0, 0, 28, 0, 0, 0, 74, 0, 76, 0, 17, 0, 0, 6, 0, 0, 0, 0, 0, 73, 0, 0, 0, 0, 64, 0, 44, 0, 0, 0, 41, 0, 31, 63, 51, 37, 0, 0, 0, 0, 0, 0, 8, 58, 0, 0, 0, 0, 0
|0, 0, 29, 0, 0, 0, 0, 0, 0, 68, 49, 0, 10, 0, 0, 48, 0, 0, 0, 0, 0, 51, 39, 19, 0, 1, 73, 67, 0, 0, 0, 23, 0, 0, 0, 13, 0, 0, 0, 55, 0, 22, 0, 0, 0, 14, 0, 81, 0, 30, 0, 0, 0, 0, 0, 0, 0, 0, 0, 70, 62, 36, 27, 0, 0, 54, 0, 0, 0, 0, 64, 0, 0, 0, 0, 56, 0, 0, 0, 0, 0
|54, 0, 44, 21, 0, 0, 0, 0, 0, 0, 62, 0, 0, 0, 0, 57, 0, 0, 43, 0, 0, 0, 0, 0, 0, 0, 0, 0, 0, 0, 0, 0, 70, 0, 0, 0, 12, 0, 0, 0, 79, 50, 0, 2, 0, 42, 34, 18, 0, 8, 68, 0, 0, 0, 0, 63, 0, 0, 28, 0, 0, 0, 0, 0, 45, 0, 0, 11, 0, 0, 0, 59, 0, 61, 53, 0, 51, 0, 0, 0, 0
|0, 34, 0, 45, 0, 0, 80, 70, 0, 0, 0, 0, 0, 0, 0, 0, 0, 0, 0, 0, 0, 0, 0, 0, 79, 64, 23, 75, 0, 0, 0, 0, 0, 0, 0, 44, 0, 8, 25, 0, 0, 0, 0, 3, 0, 0, 0, 0, 0, 74, 0, 0, 0, 57, 0, 0, 0, 0, 68, 77, 0, 0, 0, 0, 24, 0, 0, 0, 0, 0, 0, 40, 0, 0, 0, 0, 0, 0, 5, 0, 22
|64, 0, 0, 0, 23, 0, 0, 0, 32, 0, 0, 0, 0, 0, 0, 28, 77, 0, 0, 0, 0, 0, 53, 0, 76, 0, 47, 0, 0, 0, 0, 0, 0, 0, 0, 0, 0, 0, 38, 0, 36, 0, 0, 0, 21, 0, 0, 0, 48, 0, 56, 0, 0, 69, 0, 0, 0, 0, 0, 0, 0, 20, 31, 0, 0, 0, 0, 0, 67, 0, 0, 17, 39, 0, 0, 54, 0, 57, 0, 0, 0
|0, 0, 0, 0, 0, 33, 31, 0, 0, 0, 0, 0, 0, 0, 63, 0, 70, 0, 0, 0, 0, 0, 0, 0, 9, 0, 0, 78, 0, 0, 64, 0, 0, 0, 57, 0, 0, 0, 24, 0, 0, 0, 0, 0, 0, 0, 0, 0, 39, 0, 5, 0, 40, 0, 0, 0, 0, 0, 0, 0, 51, 0, 0, 81, 0, 0, 12, 0, 0, 0, 46, 0, 0, 0, 0, 80, 0, 0, 0, 49, 0
|0, 0, 0, 0, 56, 65, 0, 0, 0, 0, 68, 14, 73, 33, 0, 7, 0, 69, 45, 0, 0, 5, 0, 0, 0, 0, 0, 0, 0, 0, 0, 64, 0, 1, 0, 0, 61, 55, 0, 0, 0, 0, 0, 0, 32, 0, 0, 17, 0, 0, 0, 0, 0, 0, 0, 41, 0, 0, 10, 0, 28, 0, 0, 0, 0, 47, 78, 0, 0, 31, 74, 0, 0, 0, 0, 0, 66, 0, 0, 0, 0
|0, 0, 2, 0, 34, 44, 0, 0, 68, 0, 0, 49, 56, 0, 0, 0, 0, 0, 0, 0, 14, 24, 0, 0, 0, 0, 62, 0, 0, 0, 26, 77, 0, 0, 0, 0, 0, 38, 18, 0, 0, 40, 0, 0, 0, 60, 0, 0, 67, 1, 42, 22, 0, 10, 55, 23, 0, 66, 0, 15, 0, 0, 0, 51, 29, 0, 0, 39, 0, 0, 0, 37, 0, 17, 0, 43, 78, 0, 0, 6, 0
|0, 4, 23, 0, 0, 29, 0, 0, 0, 0, 0, 0, 48, 0, 0, 0, 79, 0, 0, 32, 51, 0, 0, 12, 0, 0, 27, 22, 0, 66, 0, 0, 76, 0, 78, 0, 0, 0, 0, 0, 0, 62, 10, 1, 0, 26, 0, 0, 0, 64, 18, 0, 0, 0, 0, 0, 0, 45, 0, 0, 71, 50, 0, 0, 0, 81, 0, 0, 0, 0, 36, 0, 0, 63, 20, 55, 31, 74, 3, 60, 0
|76, 0, 0, 0, 0, 0, 0, 0, 0, 0, 0, 0, 0, 0, 0, 0, 0, 0, 52, 0, 38, 61, 0, 0, 80, 0, 53, 0, 0, 28, 47, 0, 0, 51, 0, 0, 31, 0, 75, 0, 0, 0, 0, 69, 0, 24, 0, 0, 71, 0, 0, 40, 0, 0, 22, 0, 20, 9, 0, 0, 29, 0, 0, 11, 0, 0, 0, 0, 0, 0, 0, 46, 0, 36, 49, 0, 0, 0, 30, 0, 57
|20, 0, 0, 39, 0, 0, 0, 0, 64, 12, 0, 0, 0, 0, 0, 0, 76, 0, 28, 0, 0, 11, 19, 0, 13, 0, 0, 0, 0, 0, 0, 0, 0, 75, 49, 6, 0, 0, 0, 71, 0, 74, 0, 70, 0, 51, 0, 0, 0, 0, 57, 47, 0, 3, 0, 0, 40, 21, 61, 0, 78, 0, 0, 0, 0, 0, 0, 0, 14, 0, 0, 0, 0, 0, 0, 0, 48, 0, 1, 0, 0
|12, 0, 0, 14, 37, 0, 28, 0, 0, 0, 0, 0, 47, 16, 71, 0, 0, 0, 0, 75, 0, 0, 0, 0, 18, 30, 0, 0, 0, 0, 0, 0, 43, 72, 62, 0, 0, 57, 0, 0, 0, 0, 9, 0, 0, 74, 0, 0, 0, 0, 0, 55, 0, 70, 0, 0, 54, 56, 0, 0, 52, 60, 0, 79, 27, 0, 0, 48, 0, 0, 0, 0, 32, 0, 73, 0, 0, 0, 0, 0, 34
|53, 0, 0, 0, 54, 0, 40, 0, 0, 15, 26, 0, 0, 0, 0, 0, 66, 0, 0, 0, 0, 0, 0, 0, 0, 39, 59, 58, 71, 21, 45, 11, 0, 0, 0, 0, 52, 0, 29, 0, 0, 0, 27, 0, 0, 76, 43, 0, 0, 0, 0, 0, 0, 5, 0, 0, 0, 0, 0, 0, 0, 0, 0, 0, 0, 2, 0, 0, 0, 0, 70, 0, 0, 0, 0, 0, 0, 28, 14, 0, 44
|0, 0, 30, 0, 0, 0, 1, 0, 7, 0, 0, 0, 54, 0, 0, 10, 0, 0, 36, 0, 0, 0, 0, 0, 33, 0, 60, 0, 42, 0, 74, 0, 2, 69, 63, 0, 0, 68, 0, 0, 0, 49, 0, 0, 0, 0, 0, 0, 0, 0, 0, 61, 78, 0, 0, 3, 0, 0, 0, 47, 0, 18, 0, 0, 71, 0, 0, 0, 0, 6, 0, 0, 5, 0, 11, 0, 0, 52, 0, 0, 0
|0, 0, 0, 0, 0, 0, 27, 41, 0, 0, 0, 0, 30, 29, 31, 0, 0, 0, 0, 42, 43, 56, 1, 76, 0, 0, 0, 10, 35, 0, 25, 0, 12, 0, 0, 0, 0, 0, 0, 0, 64, 0, 0, 0, 36, 0, 0, 32, 73, 44, 0, 0, 23, 20, 0, 0, 0, 81, 0, 0, 0, 0, 0, 0, 0, 0, 19, 75, 4, 0, 0, 69, 0, 0, 0, 68, 59, 0, 15, 0, 0
|0, 0, 0, 46, 45, 4, 0, 54, 0, 0, 0, 11, 0, 0, 0, 36, 0, 0, 0, 27, 31, 0, 0, 74, 0, 0, 9, 0, 72, 0, 2, 61, 0, 0, 0, 0, 0, 0, 0, 41, 0, 0, 0, 57, 44, 0, 0, 0, 0, 0, 0, 0, 24, 0, 0, 0, 0, 0, 0, 0, 0, 56, 0, 22, 0, 32, 0, 0, 0, 14, 0, 3, 0, 13, 29, 0, 0, 0, 16, 35, 8
|0, 0, 0, 0, 20, 47, 55, 60, 50, 0, 0, 0, 0, 0, 57, 0, 0, 0, 0, 0, 0, 0, 0, 62, 0, 0, 0, 0, 0, 37, 0, 59, 0, 0, 0, 0, 0, 0, 0, 0, 0, 72, 69, 0, 0, 8, 0, 41, 0, 73, 34, 70, 0, 0, 0, 0, 0, 77, 0, 52, 36, 22, 38, 0, 0, 78, 0, 0, 0, 0, 0, 0, 0, 0, 28, 81, 0, 6, 58, 0, 0
|0, 0, 39, 1, 0, 0, 0, 0, 44, 0, 71, 0, 0, 0, 62, 0, 0, 0, 0, 0, 0, 21, 0, 55, 36, 0, 0, 0, 0, 35, 4, 40, 0, 7, 30, 14, 0, 0, 32, 0, 0, 53, 0, 46, 70, 58, 0, 0, 0, 0, 0, 56, 0, 0, 41, 29, 0, 0, 0, 54, 0, 0, 0, 25, 0, 0, 20, 43, 76, 0, 51, 0, 0, 59, 0, 0, 0, 0, 0, 52, 0
|6, 64, 0, 0, 0, 0, 71, 62, 15, 0, 0, 0, 0, 0, 0, 25, 61, 0, 0, 0, 0, 57, 0, 39, 0, 81, 0, 0, 0, 0, 52, 0, 0, 0, 0, 0, 0, 0, 0, 0, 77, 43, 0, 0, 0, 0, 0, 0, 0, 0, 0, 59, 0, 0, 23, 0, 0, 0, 14, 0, 11, 0, 67, 0, 36, 0, 0, 0, 0, 21, 0, 0, 72, 0, 0, 0, 24, 0, 0, 0, 0
|61, 0, 0, 0, 0, 14, 37, 0, 0, 0, 0, 0, 0, 0, 16, 0, 0, 0, 0, 0, 0, 0, 0, 0, 0, 0, 70, 0, 21, 0, 0, 0, 10, 0, 0, 0, 0, 65, 0, 47, 0, 0, 0, 66, 40, 0, 0, 0, 60, 7, 9, 0, 0, 46, 0, 0, 0, 0, 0, 0, 26, 0, 0, 0, 0, 0, 0, 81, 0, 0, 0, 0, 0, 0, 0, 0, 74, 0, 78, 0, 17
|34, 0, 0, 65, 77, 0, 0, 0, 0, 0, 0, 0, 21, 0, 80, 0, 0, 53, 0, 0, 0, 0, 0, 0, 0, 52, 0, 0, 81, 64, 0, 45, 0, 27, 23, 0, 0, 0, 0, 0, 0, 9, 0, 0, 7, 0, 57, 0, 0, 0, 76, 0, 0, 0, 43, 0, 0, 42, 0, 0, 0, 24, 0, 0, 0, 67, 8, 0, 79, 0, 49, 0, 38, 56, 0, 41, 0, 0, 40, 0, 0
|36, 79, 0, 18, 0, 0, 0, 0, 0, 0, 0, 0, 0, 0, 0, 0, 0, 0, 0, 0, 0, 32, 72, 6, 0, 40, 0, 0, 74, 0, 0, 58, 0, 0, 5, 0, 0, 0, 13, 8, 0, 0, 0, 0, 0, 0, 10, 11, 14, 0, 0, 12, 0, 0, 15, 0, 0, 0, 0, 0, 35, 0, 60, 0, 0, 65, 0, 0, 29, 0, 0, 0, 54, 0, 0, 0, 25, 0, 0, 0, 0
|0, 8, 33, 24, 66, 0, 0, 0, 0, 0, 0, 0, 0, 12, 0, 0, 0, 1, 0, 0, 0, 43, 0, 65, 11, 0, 0, 0, 25, 0, 0, 0, 78, 0, 0, 41, 0, 0, 0, 62, 17, 0, 0, 0, 0, 69, 20, 0, 0, 0, 0, 39, 0, 0, 0, 0, 55, 0, 0, 53, 0, 59, 0, 0, 0, 16, 0, 26, 0, 0, 40, 0, 0, 0, 0, 0, 22, 0, 0, 44, 0
|0, 0, 59, 0, 0, 7, 0, 28, 57, 0, 0, 45, 49, 0, 0, 78, 4, 67, 0, 0, 26, 0, 68, 14, 0, 0, 0, 0, 22, 0, 0, 0, 0, 0, 80, 0, 51, 0, 0, 24, 0, 3, 0, 0, 12, 65, 0, 0, 15, 0, 0, 54, 0, 0, 0, 0, 0, 0, 0, 0, 46, 47, 13, 61, 50, 0, 0, 0, 30, 23, 0, 0, 0, 0, 64, 0, 0, 0, 0, 0, 55|];