order = 9;
grid = [|22, 0, 0, 38, 0, 0, 57, 0, 0, 3, 0, 0, 0, 0, 70, 0, 0, 0, 7, 0, 0, 0, 0, 2, 0, 0, 0, 52, 0, 73, 0, 0, 0, 0, 37, 13, 16, 0, 0, 0, 24, 0, 0, 0, 0, 0, 71, 0, 12, 17, 28, 58, 0, 0, 36, 0, 0, 0, 0, 0, 0, 0, 76, 18, 67, 0, 0, 0, 0, 0, 0, 0, 0, 78, 0, 53, 0, 0, 0, 0, 0
|0, 0, 0, 0, 0, 67, 1, 37, 7, 0, 0, 0, 0, 0, 0, 10, 55, 2, 0, 0, 0, 0, 78, 0, 0, 75, 0, 0, 0, 38, 0, 0, 0, 0, 0, 0, 19, 25, 0, 18, 0, 30, 0, 0, 0, 0, 0, 0, 0, 50, 0, 0, 53, 0, 0, 0, 0, 0, 42, 0, 0, 0, 0, 0, 0, 0, 0, 0, 73, 11, 0, 52, 0, 0, 0, 63, 0, 47, 60, 0, 0
|0, 4, 3, 69, 13, 0, 0, 68, 2, 0, 0, 0, 0, 0, 20, 0, 23, 0, 0, 70, 53, 0, 0, 0, 0, 0, 0, 36, 0, 0, 42, 0, 0, 22, 72, 74, 73, 0, 67, 41, 0, 0, 0, 0, 60, 0, 76, 11, 0, 0, 64, 0, 0, 0, 52, 0, 0, 0, 0, 0, 9, 0, 0, 0, 0, 0, 38, 0, 0, 54, 0, 0, 6, 0, 0, 65, 0, 0, 45, 0, 77
|53, 0, 0, 0, 0, 0, 5, 0, 0, 29, 0, 52, 0, 0, 0, 0, 0, 0, 0, 0, 42, 0, 0, 0, 0, 0, 0, 30, 26, 0, 54, 0, 51, 50, 0, 8, 46, 0, 0, 0, 0, 0, 0, 0, 22, 0, 81, 0, 78, 15, 70, 34, 0, 48, 0, 25, 0, 0, 19, 0, 59, 28, 74, 45, 4, 0, 0, 47, 0, 27, 0, 0, 0, 0, 0, 0, 0, 73, 0, 0, 1
|0, 0, 0, 0, 79, 52, 0, 0, 14, 0, 0, 62, 0, 0, 67, 75, 0, 46, 0, 0, 33, 34, 0, 0, 23, 0, 0, 49, 0, 58, 5, 0, 0, 0, 0, 0, 0, 0, 0, 0, 0, 42, 0, 81, 0, 0, 3, 65, 16, 2, 0, 44, 32, 0, 11, 69, 78, 0, 22, 17, 0, 45, 0, 0, 64, 0, 0, 0, 0, 0, 0, 7, 0, 74, 0, 0, 0, 0, 0, 0, 0
|61, 0, 0, 0, 0, 0, 0, 0, 0, 0, 0, 32, 0, 0, 0, 0, 68, 0, 0, 0, 64, 0, 29, 0, 0, 36, 0, 75, 0, 0, 0, 0, 0, 65, 0, 57, 0, 0, 0, 0, 4, 0, 0, 0, 17, 0, 37, 13, 20, 62, 0, 0, 23, 0, 0, 0, 0, 0, 0, 0, 0, 0, 46, 53, 0, 0, 0, 0, 14, 0, 0, 0, 0, 34, 0, 49, 0, 42, 2, 0, 22
|0, 0, 33, 42, 9, 0, 0, 0, 0, 60, 0, 0, 0, 0, 0, 0, 0, 0, 4, 0, 0, 0, 0, 0, 0, 0, 0, 25, 0, 3, 0, 0, 0, 44, 0, 0, 0, 0, 52, 0, 0, 0, 0, 0, 29, 0, 69, 0, 0, 0, 0, 56, 0, 79, 0, 0, 65, 0, 2, 13, 0, 0, 0, 0, 0, 0, 12, 74, 0, 32, 0, 0, 0, 81, 0, 0, 30, 37, 0, 0, 0
|66, 0, 28, 0, 75, 77, 0, 0, 30, 0, 0, 0, 17, 0, 4, 49, 0, 0, 0, 0, 0, 0, 0, 74, 0, 0, 39, 0, 23, 0, 0, 0, 0, 0, 0, 0, 0, 0, 0, 0, 80, 0, 0, 36, 64, 0, 0, 0, 0, 0, 0, 8, 0, 0, 60, 0, 0, 0, 41, 0, 0, 71, 0, 0, 0, 0, 0, 72, 0, 0, 0, 0, 32, 0, 0, 18, 59, 19, 0, 0, 0
|0, 0, 23, 0, 0, 0, 0, 39, 0, 0, 0, 0, 0, 0, 0, 69, 19, 0, 13, 0, 0, 0, 0, 0, 0, 0, 0, 0, 0, 0, 41, 66, 0, 17, 0, 0, 0, 54, 0, 5, 0, 7, 0, 0, 0, 42, 0, 33, 0, 0, 0, 75, 0, 6, 0, 0, 0, 0, 81, 4, 0, 79, 0, 0, 68, 55, 60, 0, 0, 0, 0, 10, 0, 0, 0, 0, 0, 58, 0, 25, 0
|0, 31, 0, 0, 0, 0, 47, 0, 0, 0, 0, 25, 0, 62, 0, 0, 0, 0, 0, 0, 4, 69, 58, 0, 0, 0, 0, 0, 0, 0, 0, 0, 0, 0, 2, 0, 55, 0, 0, 46, 79, 0, 0, 0, 0, 0, 0, 0, 15, 0, 61, 0, 8, 34, 38, 0, 0, 0, 0, 0, 0, 0, 23, 64, 42, 0, 16, 0, 0, 0, 48, 0, 73, 51, 0, 13, 0, 76, 6, 10, 50
|45, 0, 0, 0, 0, 0, 40, 58, 0, 0, 26, 0, 0, 0, 0, 0, 73, 28, 19, 0, 23, 0, 0, 61, 80, 25, 72, 74, 13, 30, 0, 0, 0, 53, 0, 78, 0, 0, 0, 38, 57, 0, 0, 0, 0, 16, 7, 0, 52, 9, 0, 55, 42, 0, 0, 34, 0, 0, 0, 0, 0, 0, 0, 0, 0, 0, 0, 50, 24, 0, 31, 0, 60, 0, 0, 0, 0, 0, 0, 0, 0
|29, 34, 72, 0, 0, 0, 0, 78, 0, 0, 0, 76, 0, 55, 0, 0, 0, 0, 0, 0, 0, 42, 0, 0, 0, 0, 59, 0, 0, 0, 0, 77, 0, 0, 0, 0, 0, 0, 0, 0, 12, 0, 0, 0, 26, 28, 0, 0, 21, 0, 0, 0, 0, 51, 0, 0, 0, 0, 71, 0, 0, 0, 0, 49, 0, 0, 0, 0, 4, 80, 1, 9, 40, 0, 0, 0, 25, 48, 79, 11, 0
|0, 0, 0, 0, 51, 0, 7, 0, 0, 0, 0, 0, 0, 0, 0, 77, 34, 0, 75, 28, 0, 0, 70, 0, 0, 0, 0, 8, 0, 0, 0, 0, 0, 54, 0, 0, 14, 0, 0, 63, 0, 0, 0, 0, 0, 0, 0, 31, 25, 6, 26, 0, 0, 66, 41, 74, 0, 0, 21, 0, 0, 0, 0, 0, 78, 0, 0, 0, 0, 0, 32, 0, 0, 0, 0, 16, 0, 24, 37, 27, 35
|73, 79, 0, 0, 52, 0, 32, 0, 0, 18, 41, 0, 0, 0, 0, 15, 0, 0, 0, 48, 68, 0, 0, 0, 43, 0, 0, 11, 0, 0, 0, 26, 0, 0, 0, 0, 0, 51, 3, 0, 0, 0, 58, 0, 9, 0, 0, 0, 0, 5, 35, 0, 0, 0, 28, 0, 6, 0, 0, 10, 62, 80, 45, 0, 77, 0, 0, 0, 0, 0, 74, 57, 65, 0, 0, 0, 0, 0, 0, 0, 0
|0, 26, 0, 67, 0, 0, 0, 23, 0, 0, 8, 0, 0, 53, 0, 0, 0, 0, 0, 0, 0, 0, 0, 63, 0, 0, 0, 0, 25, 10, 0, 0, 45, 0, 6, 0, 0, 0, 0, 0, 0, 0, 0, 31, 0, 0, 0, 0, 0, 41, 0, 0, 0, 0, 0, 0, 0, 0, 0, 0, 0, 0, 0, 27, 0, 0, 0, 58, 59, 0, 0, 0, 18, 0, 0, 0, 12, 0, 0, 0, 0
|0, 0, 56, 0, 0, 16, 0, 0, 0, 0, 0, 0, 6, 0, 0, 0, 0, 0, 0, 0, 76, 0, 0, 0, 0, 0, 0, 58, 18, 0, 0, 41, 0, 0, 0, 0, 0, 0, 0, 69, 73, 0, 0, 15, 0, 0, 0, 0, 0, 0, 0, 0, 0, 0, 0, 0, 37, 26, 0, 2, 0, 0, 0, 0, 0, 0, 45, 23, 0, 40, 10, 0, 77, 0, 0, 0, 0, 0, 0, 0, 0
|70, 0, 0, 0, 0, 0, 0, 18, 0, 0, 0, 29, 0, 0, 0, 0, 0, 58, 0, 0, 32, 0, 0, 0, 50, 0, 0, 0, 0, 24, 47, 65, 0, 0, 0, 0, 0, 0, 0, 0, 41, 0, 0, 0, 34, 81, 60, 0, 0, 69, 0, 0, 27, 80, 0, 0, 0, 0, 0, 0, 0, 0, 0, 0, 0, 0, 0, 71, 72, 43, 0, 0, 0, 0, 78, 0, 0, 17, 0, 26, 0
|0, 0, 63, 53, 0, 0, 0, 64, 49, 46, 0, 0, 0, 0, 0, 0, 45, 0, 0, 0, 0, 47, 0, 0, 0, 0, 0, 38, 34, 0, 0, 0, 0, 19, 80, 0, 0, 0, 0, 0, 0, 0, 0, 0, 25, 0, 0, 76, 0, 0, 0, 0, 0, 0, 72, 0, 56, 0, 0, 50, 0, 68, 0, 0, 0, 0, 36, 0, 0, 0, 60, 0, 0, 0, 0, 0, 0, 0, 22, 0, 0
|0, 0, 0, 0, 0, 0, 0, 0, 0, 0, 0, 0, 0, 0, 0, 0, 0, 0, 0, 0, 0, 0, 0, 0, 0, 0, 0, 0, 0, 0, 0, 0, 0, 0, 0, 26, 0, 0, 0, 0, 17, 40, 0, 0, 52, 0, 15, 0, 80, 28, 0, 43, 0, 0, 56, 0, 0, 0, 8, 60, 0, 0, 62, 0, 0, 0, 0, 38, 54, 0, 0, 70, 0, 0, 37, 0, 50, 0, 0, 0, 49
|0, 0, 0, 0, 0, 5, 22, 46, 65, 0, 60, 9, 0, 0, 0, 38, 0, 0, 0, 0, 71, 0, 0, 0, 0, 0, 2, 0, 0, 0, 11, 69, 18, 15, 0, 0, 10, 0, 0, 0, 0, 0, 0, 0, 3, 17, 0, 0, 0, 0, 55, 0, 0, 0, 0, 0, 0, 0, 0, 0, 63, 0, 0, 0, 0, 0, 0, 0, 0, 45, 4, 0, 0, 0, 0, 0, 43, 14, 0, 0, 0
|0, 0, 0, 0, 0, 34, 42, 0, 0, 63, 0, 68, 0, 0, 0, 0, 0, 59, 25, 0, 35, 0, 28, 0, 67, 0, 0, 45, 0, 0, 0, 0, 50, 7, 0, 77, 32, 0, 0, 0, 0, 14, 0, 0, 0, 0, 0, 0, 0, 0, 0, 0, 0, 0, 79, 0, 47, 0, 0, 65, 0, 0, 0, 0, 0, 0, 0, 0, 57, 0, 43, 0, 0, 0, 0, 0, 0, 0, 0, 0, 9
|0, 0, 0, 0, 0, 58, 6, 0, 0, 0, 0, 49, 0, 72, 0, 0, 0, 48, 0, 64, 63, 0, 0, 0, 0, 0, 0, 0, 71, 0, 0, 0, 0, 0, 33, 0, 0, 0, 0, 0, 0, 0, 0, 0, 0, 0, 42, 0, 0, 0, 0, 0, 0, 0, 0, 21, 0, 0, 0, 1, 0, 0, 18, 0, 14, 29, 0, 0, 0, 0, 26, 0, 0, 0, 0, 51, 15, 0, 27, 0, 41
|0, 0, 0, 18, 25, 0, 50, 0, 0, 0, 0, 1, 76, 80, 0, 0, 0, 0, 0, 62, 0, 65, 0, 0, 0, 0, 0, 0, 0, 4, 0, 0, 0, 40, 0, 0, 0, 0, 0, 36, 43, 0, 0, 67, 0, 0, 0, 6, 0, 0, 13, 49, 0, 0, 0, 0, 0, 0, 0, 48, 12, 0, 0, 0, 0, 0, 0, 0, 63, 79, 0, 78, 0, 0, 0, 24, 0, 0, 34, 0, 66
|26, 0, 0, 0, 0, 0, 0, 0, 0, 0, 62, 0, 45, 0, 42, 0, 0, 0, 0, 0, 0, 0, 0, 0, 0, 0, 0, 0, 0, 0, 0, 39, 36, 29, 68, 41, 48, 0, 0, 0, 0, 0, 25, 0, 0, 0, 50, 0, 0, 0, 19, 0, 0, 0, 75, 0, 0, 73, 0, 0, 0, 0, 0, 0, 0, 0, 0, 0, 65, 60, 23, 0, 0, 0, 0, 0, 0, 0, 7, 0, 79
|0, 57, 0, 0, 0, 3, 48, 70, 53, 0, 0, 0, 0, 0, 0, 0, 58, 73, 0, 0, 0, 0, 43, 0, 26, 0, 0, 0, 0, 0, 0, 0, 67, 20, 10, 65, 0, 0, 0, 0, 66, 0, 0, 12, 0, 0, 0, 0, 0, 0, 0, 0, 0, 0, 0, 0, 0, 51, 0, 0, 0, 0, 0, 0, 0, 77, 68, 0, 0, 0, 0, 42, 0, 0, 0, 71, 80, 0, 0, 0, 38
|0, 0, 0, 12, 0, 71, 0, 0, 56, 0, 0, 70, 0, 32, 0, 0, 0, 47, 0, 0, 0, 0, 0, 0, 18, 0, 0, 0, 43, 81, 0, 61, 0, 0, 0, 54, 0, 0, 0, 0, 0, 0, 0, 0, 0, 53, 40, 63, 0, 0, 0, 16, 0, 0, 0, 0, 0, 35, 0, 0, 64, 34, 0, 0, 0, 2, 0, 0, 0, 20, 0, 0, 0, 0, 52, 0, 0, 29, 0, 0, 0
|75, 0, 67, 40, 0, 0, 0, 0, 0, 0, 0, 78, 3, 0, 0, 35, 0, 61, 0, 0, 0, 0, 72, 0, 20, 0, 0, 53, 52, 0, 0, 0, 0, 0, 0, 0, 0, 0, 0, 0, 0, 46, 0, 0, 0, 68, 0, 21, 31, 0, 0, 69, 0, 0, 0, 0, 0, 0, 0, 57, 0, 44, 0, 56, 8, 27, 0, 0, 0, 28, 37, 0, 0, 0, 0, 60, 0, 0, 63, 13, 0
|0, 8, 45, 0, 0, 0, 0, 0, 0, 0, 0, 0, 0, 0, 0, 0, 0, 80, 60, 0, 0, 0, 0, 0, 0, 0, 0, 0, 0, 0, 0, 73, 0, 0, 64, 47, 0, 0, 0, 0, 0, 0, 70, 0, 0, 0, 6, 0, 50, 65, 0, 36, 0, 0, 0, 0, 26, 0, 0, 68, 0, 0, 58, 0, 40, 0, 0, 0, 0, 22, 14, 38, 0, 39, 0, 72, 10, 0, 51, 0, 52
|0, 2, 0, 74, 31, 20, 55, 0, 0, 0, 39, 47, 0, 0, 0, 0, 0, 13, 0, 36, 0, 0, 32, 0, 0, 0, 0, 14, 0, 0, 67, 0, 0, 0, 0, 0, 0, 0, 10, 3, 22, 53, 0, 0, 0, 0, 0, 0, 69, 38, 0, 0, 0, 0, 63, 66, 0, 0, 0, 0, 80, 0, 21, 0, 0, 0, 0, 0, 76, 0, 0, 17, 0, 59, 0, 70, 65, 40, 0, 33, 56
|0, 0, 0, 30, 33, 0, 0, 0, 60, 49, 0, 0, 0, 0, 19, 0, 6, 0, 0, 0, 0, 0, 0, 0, 0, 69, 0, 0, 0, 0, 0, 0, 0, 4, 38, 0, 0, 0, 0, 2, 0, 0, 0, 0, 0, 0, 0, 70, 0, 61, 0, 0, 25, 0, 34, 0, 0, 0, 0, 0, 0, 0, 0, 5, 0, 0, 0, 0, 0, 0, 0, 45, 0, 0, 35, 12, 0, 0, 0, 0, 0
|0, 65, 0, 59, 0, 0, 0, 0, 0, 0, 32, 75, 64, 14, 0, 0, 0, 0, 74, 0, 67, 80, 0, 47, 0, 0, 0, 44, 0, 48, 0, 0, 13, 0, 0, 56, 0, 11, 0, 0, 0, 0, 0, 46, 0, 0, 30, 52, 0, 77, 0, 0, 79, 53, 0, 0, 0, 0, 36, 0, 35, 2, 42, 55, 0, 0, 20, 51, 0, 0, 0, 63, 0, 0, 6, 41, 0, 0, 4, 0, 26
|0, 0, 0, 61, 0, 0, 0, 0, 0, 0, 0, 0, 0, 0, 0, 78, 0, 15, 72, 68, 0, 58, 0, 0, 0, 0, 0, 0, 0, 0, 0, 0, 0, 30, 31, 0, 80, 0, 0, 0, 0, 0, 0, 0, 65, 0, 20, 0, 0, 14, 0, 0, 55, 0, 53, 0, 0, 0, 0, 0, 0, 0, 0, 0, 0, 56, 0, 0, 0, 0, 0, 41, 0, 0, 0, 0, 0, 5, 0, 22, 0
|0, 0, 78, 0, 0, 56, 0, 14, 5, 74, 0, 0, 0, 0, 0, 0, 0, 0, 0, 0, 0, 0, 65, 23, 0, 0, 7, 0, 0, 35, 0, 28, 0, 0, 0, 0, 0, 0, 0, 0, 0, 0, 60, 0, 0, 0, 19, 0, 0, 0, 0, 0, 0, 0, 0, 0, 0, 4, 0, 0, 33, 38, 0, 0, 0, 0, 66, 79, 0, 0, 0, 50, 0, 0, 0, 17, 0, 0, 0, 0, 63
|47, 46, 0, 0, 0, 0, 0, 0, 0, 0, 0, 0, 0, 0, 0, 0, 0, 65, 0, 0, 0, 22, 0, 0, 0, 0, 0, 0, 0, 0, 0, 0, 0, 33, 75, 0, 0, 0, 0, 0, 0, 0, 0, 0, 36, 0, 24, 0, 0, 67, 80, 5, 0, 76, 0, 0, 0, 17, 0, 61, 0, 0, 0, 0, 0, 0, 0, 43, 0, 16, 18, 0, 0, 0, 0, 0, 11, 0, 0, 0, 0
|0, 0, 0, 0, 0, 0, 0, 0, 0, 0, 20, 63, 40, 58, 0, 0, 53, 0, 59, 0, 0, 0, 0, 0, 37, 0, 0, 0, 0, 0, 72, 0, 0, 0, 19, 0, 41, 0, 54, 0, 26, 0, 0, 0, 33, 0, 56, 66, 0, 4, 0, 60, 39, 0, 0, 0, 0, 0, 30, 0, 0, 24, 0, 0, 0, 0, 0, 0, 21, 0, 49, 0, 0, 0, 0, 0, 74, 0, 0, 0, 8
|38, 0, 68, 0, 66, 69, 0, 0, 6, 79, 37, 0, 70, 10, 0, 0, 0, 0, 0, 39, 0, 55, 0, 0, 0, 0, 0, 0, 0, 0, 0, 2, 0, 0, 0, 0, 0, 0, 57, 0, 0, 48, 30, 0, 74, 0, 0, 0, 0, 71, 0, 0, 0, 8, 0, 40, 1, 75, 0, 0, 78, 0, 0, 0, 31, 36, 0, 0, 0, 0, 0, 0, 0, 0, 0, 0, 0, 0, 0, 0, 0
|25, 38, 0, 55, 0, 0, 29, 35, 0, 0, 51, 22, 72, 0, 0, 14, 0, 42, 0, 33, 0, 0, 12, 0, 0, 3, 0, 0, 0, 67, 78, 0, 59, 0, 0, 21, 0, 0, 43, 0, 0, 0, 61, 0, 27, 0, 0, 0, 0, 0, 0, 0, 26, 0, 0, 0, 0, 0, 40, 0, 0, 0, 30, 0, 44, 0, 0, 0, 0, 0, 0, 2, 52, 0, 0, 58, 0, 15, 0, 0, 0
|56, 0, 0, 0, 47, 61, 0, 0, 0, 0, 0, 0, 0, 0, 15, 0, 0, 0, 1, 0, 0, 35, 0, 0, 0, 0, 0, 0, 0, 51, 23, 18, 0, 0, 26, 0, 79, 0, 0, 0, 0, 0, 0, 24, 66, 0, 0, 0, 33, 0, 0, 0, 45, 0, 0, 0, 0, 0, 0, 0, 0, 0, 0, 77, 0, 0, 0, 0, 0, 0, 69, 53, 0, 0, 0, 81, 0, 0, 0, 74, 0
|0, 0, 0, 0, 0, 0, 45, 10, 0, 0, 27, 0, 59, 0, 0, 0, 70, 67, 52, 0, 0, 78, 61, 0, 0, 4, 0, 0, 0, 0, 53, 0, 0, 0, 47, 0, 44, 0, 0, 48, 0, 0, 0, 57, 0, 22, 79, 0, 0, 0, 0, 0, 0, 0, 0, 26, 0, 0, 0, 51, 1, 33, 0, 0, 35, 0, 14, 16, 0, 0, 7, 0, 20, 0, 0, 9, 0, 0, 50, 0, 69
|7, 5, 0, 0, 0, 0, 58, 0, 0, 36, 0, 56, 0, 75, 18, 31, 77, 76, 0, 0, 81, 0, 67, 69, 0, 23, 0, 0, 0, 0, 0, 0, 0, 0, 0, 0, 0, 0, 0, 0, 14, 71, 0, 0, 68, 0, 0, 61, 66, 0, 0, 0, 19, 0, 0, 0, 0, 0, 0, 0, 73, 53, 0, 0, 0, 8, 0, 0, 0, 0, 0, 0, 0, 0, 57, 0, 47, 0, 0, 63, 27
|0, 0, 14, 0, 20, 0, 0, 0, 12, 8, 0, 71, 0, 0, 9, 0, 0, 0, 0, 0, 0, 0, 2, 0, 0, 0, 0, 0, 39, 0, 0, 0, 0, 0, 5, 0, 0, 0, 0, 0, 0, 22, 53, 6, 0, 77, 0, 0, 0, 0, 69, 0, 0, 46, 0, 0, 0, 0, 7, 0, 0, 0, 0, 50, 0, 0, 0, 0, 0, 59, 0, 25, 43, 0, 64, 45, 0, 0, 0, 0, 29
|74, 0, 0, 65, 80, 0, 0, 0, 0, 0, 0, 3, 0, 0, 0, 0, 0, 0, 39, 0, 50, 44, 68, 51, 16, 37, 0, 0, 60, 0, 0, 58, 0, 0, 32, 0, 0, 0, 0, 0, 0, 8, 0, 7, 0, 0, 0, 18, 81, 0, 59, 0, 0, 72, 21, 0, 0, 0, 0, 0, 0, 0, 0, 15, 34, 0, 0, 0, 0, 23, 0, 0, 71, 28, 0, 0, 0, 78, 0, 0, 0
|0, 72, 70, 66, 53, 81, 0, 0, 0, 28, 0, 19, 0, 0, 65, 11, 30, 0, 0, 0, 0, 77, 0, 0, 0, 0, 24, 0, 0, 12, 0, 0, 69, 0, 0, 37, 0, 0, 56, 0, 52, 0, 0, 0, 0, 0, 0, 0, 0, 0, 0, 0, 0, 0, 0, 0, 0, 0, 0, 0, 0, 0, 0, 48, 0, 49, 42, 4, 78, 57, 0, 29, 0, 0, 0, 55, 32, 0, 0, 0, 67
|0, 39, 0, 0, 0, 21, 0, 0, 0, 0, 0, 5, 0, 0, 0, 0, 0, 0, 0, 0, 0, 40, 0, 0, 0, 0, 0, 0, 35, 52, 0, 0, 25, 0, 0, 29, 0, 0, 19, 11, 0, 0, 81, 0, 0, 0, 0, 12, 0, 0, 0, 0, 13, 0, 14, 61, 0, 0, 0, 0, 0, 3, 0, 17, 0, 41, 72, 0, 79, 58, 0, 0, 0, 0, 0, 4, 76, 0, 70, 34, 0
|0, 0, 26, 15, 0, 50, 0, 6, 0, 0, 0, 0, 0, 0, 0, 0, 0, 40, 0, 0, 0, 0, 0, 0, 48, 0, 0, 0, 31, 0, 0, 0, 7, 0, 77, 0, 0, 0, 0, 37, 0, 0, 0, 0, 49, 0, 0, 43, 0, 0, 0, 0, 0, 0, 0, 0, 0, 0, 10, 0, 79, 0, 0, 38, 0, 32, 52, 0, 67, 0, 0, 0, 0, 0, 0, 0, 33, 0, 0, 0, 0
|0, 0, 0, 44, 0, 0, 0, 0, 0, 55, 0, 0, 0, 0, 0, 0, 0, 0, 0, 0, 21, 81, 0, 0, 0, 0, 0, 23, 37, 0, 0, 0, 0, 11, 0, 0, 0, 0, 0, 0, 0, 39, 0, 52, 0, 27, 0, 0, 0, 0, 53, 0, 0, 0, 0, 1, 0, 30, 67, 0, 0, 0, 3, 20, 0, 0, 0, 0, 0, 0, 0, 0, 0, 7, 0, 0, 0, 0, 31, 68, 0
|1, 0, 0, 0, 0, 22, 8, 0, 35, 0, 53, 0, 0, 78, 0, 0, 0, 39, 0, 0, 0, 0, 60, 45, 0, 0, 0, 24, 0, 74, 0, 0, 0, 42, 0, 76, 13, 0, 0, 59, 19, 70, 0, 0, 79, 29, 0, 0, 0, 11, 57, 72, 0, 10, 0, 0, 0, 7, 0, 0, 0, 23, 0, 65, 0, 73, 0, 55, 0, 0, 0, 0, 49, 0, 0, 27, 0, 34, 0, 64, 0
|0, 0, 0, 71, 34, 0, 0, 3, 27, 0, 0, 14, 0, 0, 0, 0, 56, 0, 0, 0, 0, 0, 0, 0, 0, 13, 48, 0, 0, 0, 63, 0, 0, 0, 0, 0, 64, 0, 25, 0, 0, 0, 0, 0, 0, 74, 0, 0, 0, 23, 4, 0, 0, 0, 0, 0, 0, 32, 70, 0, 0, 0, 2, 69, 0, 0, 0, 53, 22, 0, 0, 0, 0, 50, 0, 0, 0, 51, 0, 0, 0
|0, 0, 0, 0, 0, 0, 0, 0, 0, 0, 63, 35, 0, 8, 57, 64, 0, 25, 69, 0, 0, 0, 0, 0, 0, 0, 0, 0, 6, 2, 0, 0, 0, 0, 0, 0, 50, 0, 49, 0, 0, 74, 0, 0, 0, 0, 0, 0, 0, 0, 56, 0, 0, 3, 66, 0, 0, 0, 79, 0, 0, 0, 11, 12, 0, 76, 0, 0, 0, 0, 5, 68, 0, 0, 0, 0, 0, 0, 20, 43, 40
|6, 0, 0, 76, 74, 60, 0, 0, 21, 0, 3, 40, 0, 54, 29, 0, 0, 0, 0, 0, 30, 0, 0, 37, 0, 0, 0, 0, 0, 0, 0, 47, 0, 0, 61, 27, 0, 0, 0, 0, 7, 0, 0, 0, 35, 0, 0, 8, 0, 0, 0, 0, 0, 68, 73, 0, 25, 0, 46, 64, 0, 0, 4, 0, 28, 33, 0, 0, 23, 0, 2, 56, 0, 71, 0, 0, 0, 22, 0, 0, 14
|0, 0, 0, 20, 0, 54, 53, 0, 0, 23, 0, 0, 18, 0, 2, 68, 5, 0, 0, 0, 28, 49, 63, 12, 55, 0, 15, 41, 0, 0, 73, 67, 0, 0, 0, 0, 0, 0, 0, 16, 0, 0, 0, 0, 0, 0, 0, 0, 0, 22, 0, 0, 66, 0, 0, 0, 0, 0, 0, 75, 43, 0, 47, 44, 10, 0, 77, 0, 0, 0, 0, 74, 21, 0, 0, 0, 0, 0, 0, 0, 0
|0, 0, 24, 0, 7, 25, 0, 0, 0, 0, 0, 4, 43, 0, 0, 52, 0, 9, 0, 0, 0, 8, 0, 0, 0, 0, 26, 0, 0, 0, 35, 0, 0, 0, 56, 0, 30, 77, 0, 0, 0, 3, 62, 0, 0, 0, 0, 0, 0, 0, 0, 0, 0, 0, 0, 0, 68, 0, 0, 38, 72, 0, 0, 0, 0, 0, 0, 0, 0, 0, 15, 0, 0, 79, 0, 0, 0, 0, 0, 0, 0
|0, 0, 0, 47, 0, 0, 0, 69, 0, 10, 0, 26, 0, 0, 0, 0, 0, 0, 0, 74, 0, 68, 0, 0, 0, 0, 25, 0, 70, 0, 4, 0, 0, 21, 0, 28, 0, 0, 0, 29, 0, 0, 55, 38, 0, 64, 0, 62, 6, 0, 0, 0, 0, 49, 24, 71, 0, 76, 0, 0, 0, 77, 65, 0, 51, 0, 0, 0, 0, 14, 52, 40, 0, 0, 73, 57, 0, 0, 35, 0, 54
|0, 61, 0, 0, 0, 0, 0, 0, 0, 0, 77, 0, 0, 0, 0, 70, 0, 0, 20, 0, 78, 2, 0, 0, 0, 0, 0, 0, 0, 0, 0, 0, 0, 0, 50, 0, 47, 42, 41, 0, 0, 0, 73, 0, 0, 0, 0, 0, 0, 0, 0, 0, 0, 0, 22, 12, 0, 0, 0, 21, 28, 0, 0, 0, 0, 0, 0, 0, 0, 0, 0, 0, 0, 0, 0, 0, 0, 45, 0, 6, 0
|0, 0, 0, 16, 0, 0, 34, 41, 0, 0, 0, 0, 0, 0, 0, 23, 14, 0, 0, 0, 0, 0, 80, 0, 0, 0, 0, 0, 66, 0, 0, 0, 0, 52, 0, 0, 0, 0, 2, 72, 0, 0, 0, 0, 0, 0, 18, 0, 0, 0, 58, 0, 0, 0, 44, 0, 4, 0, 27, 25, 0, 0, 0, 1, 0, 54, 0, 0, 0, 0, 0, 15, 0, 68, 17, 0, 0, 0, 30, 0, 33
|20, 0, 47, 0, 27, 0, 60, 0, 38, 50, 0, 0, 0, 0, 49, 0, 0, 0, 65, 0, 0, 29, 0, 0, 0, 26, 44, 0, 0, 0, 0, 0, 0, 0, 0, 0, 0, 0, 0, 0, 0, 4, 0, 1, 0, 0, 16, 81, 0, 68, 77, 74, 11, 0, 0, 0, 0, 0, 0, 55, 0, 42, 0, 43, 19, 0, 0, 0, 52, 0, 0, 0, 72, 0, 0, 0, 9, 0, 0, 0, 0
|0, 0, 0, 31, 35, 0, 0, 29, 0, 34, 0, 0, 0, 0, 0, 0, 0, 0, 0, 0, 0, 0, 0, 0, 2, 22, 0, 0, 0, 78, 74, 68, 0, 36, 0, 0, 0, 0, 0, 14, 0, 0, 0, 0, 0, 60, 17, 0, 23, 0, 44, 4, 0, 0, 0, 0, 40, 0, 0, 0, 0, 0, 0, 0, 0, 0, 0, 81, 6, 38, 51, 0, 0, 0, 77, 5, 0, 0, 0, 24, 0
|0, 75, 0, 0, 0, 0, 61, 0, 0, 0, 6, 0, 69, 0, 0, 0, 80, 0, 0, 49, 0, 0, 0, 4, 0, 0, 0, 0, 0, 0, 0, 13, 0, 57, 0, 3, 0, 0, 0, 0, 0, 0, 44, 0, 0, 0, 0, 40, 0, 0, 0, 59, 0, 0, 0, 43, 66, 12, 0, 0, 0, 0, 0, 0, 0, 23, 0, 18, 0, 0, 0, 0, 0, 53, 0, 54, 0, 0, 0, 76, 65
|0, 0, 0, 81, 0, 0, 68, 0, 0, 0, 0, 0, 0, 60, 26, 0, 0, 64, 0, 12, 0, 0, 36, 0, 0, 0, 27, 0, 0, 0, 0, 0, 0, 0, 0, 0, 0, 5, 77, 0, 0, 0, 0, 0, 0, 0, 0, 0, 0, 0, 0, 0, 0, 0, 49, 0, 0, 0, 58, 0, 0, 0, 0, 0, 48, 0, 0, 0, 0, 0, 0, 0, 0, 0, 0, 0, 1, 0, 43, 0, 57
|0, 12, 0, 0, 0, 57, 49, 0, 0, 0, 0, 37, 0, 0, 0, 46, 0, 0, 63, 0, 73, 0, 51, 0, 0, 0, 23, 0, 0, 0, 0, 0, 0, 1, 0, 0, 71, 0, 15, 0, 0, 0, 79, 0, 0, 52, 0, 0, 24, 0, 41, 26, 0, 9, 0, 36, 0, 62, 0, 0, 0, 11, 0, 0, 17, 0, 76, 60, 32, 56, 72, 0, 0, 0, 34, 48, 18, 0, 0, 69, 0
|0, 80, 0, 52, 26, 0, 0, 17, 0, 40, 5, 11, 0, 0, 0, 2, 0, 0, 30, 0, 0, 0, 71, 0, 0, 0, 0, 0, 0, 0, 0, 44, 0, 0, 0, 15, 0, 29, 58, 0, 46, 38, 0, 0, 0, 0, 0, 0, 0, 39, 49, 0, 0, 0, 9, 0, 64, 0, 0, 0, 31, 0, 0, 57, 0, 0, 0, 0, 0, 66, 65, 27, 25, 0, 0, 0, 0, 0, 10, 0, 0
|0, 0, 0, 0, 0, 0, 0, 0, 0, 0, 0, 30, 0, 0, 0, 73, 0, 53, 32, 0, 9, 67, 0, 0, 0, 0, 0, 0, 0, 0, 0, 0, 0, 5, 0, 42, 0, 17, 55, 31, 0, 0, 48, 19, 0, 0, 0, 75, 0, 0, 0, 0, 0, 0, 0, 0, 0, 71, 23, 0, 0, 0, 0, 0, 0, 0, 0, 0, 0, 0, 12, 0, 14, 80, 0, 0, 0, 56, 0, 0, 0
|0, 69, 0, 78, 0, 70, 72, 0, 32, 0, 17, 0, 0, 0, 47, 24, 0, 62, 0, 0, 0, 48, 75, 0, 0, 0, 0, 0, 0, 0, 0, 0, 26, 0, 0, 0, 0, 0, 9, 0, 18, 0, 0, 3, 23, 0, 34, 0, 0, 57, 0, 0, 43, 0, 0, 0, 0, 0, 0, 0, 0, 0, 19, 0, 25, 0, 58, 0, 0, 36, 0, 8, 0, 0, 4, 0, 0, 39, 0, 38, 60
|0, 0, 13, 80, 8, 0, 52, 0, 74, 0, 0, 0, 0, 49, 0, 0, 64, 0, 0, 0, 0, 0, 69, 0, 0, 1, 32, 47, 0, 70, 0, 53, 0, 0, 0, 39, 0, 0, 0, 0, 61, 0, 0, 10, 0, 50, 0, 0, 0, 0, 0, 0, 0, 0, 0, 0, 0, 0, 28, 0, 0, 0, 41, 0, 0, 0, 0, 73, 36, 0, 0, 0, 0, 0, 0, 43, 0, 68, 0, 0, 0
|10, 0, 34, 0, 0, 0, 0, 76, 0, 0, 55, 36, 0, 0, 0, 39, 0, 0, 46, 0, 0, 61, 0, 42, 0, 0, 0, 0, 81, 0, 0, 8, 0, 0, 21, 38, 0, 0, 32, 74, 0, 5, 23, 22, 0, 0, 0, 0, 0, 0, 1, 0, 0, 0, 0, 73, 75, 33, 0, 30, 53, 0, 17, 0, 0, 52, 0, 64, 0, 0, 0, 4, 0, 0, 0, 0, 0, 0, 0, 0, 0
|0, 0, 53, 0, 0, 0, 0, 0, 0, 0, 0, 0, 0, 4, 22, 0, 0, 0, 0, 0, 0, 0, 0, 0, 49, 0, 66, 0, 0, 0, 0, 0, 34, 0, 29, 0, 0, 3, 64, 0, 0, 0, 0, 27, 0, 51, 0, 10, 0, 0, 0, 0, 16, 28, 0, 0, 31, 57, 43, 0, 65, 7, 0, 0, 0, 74, 0, 0, 0, 0, 0, 77, 36, 0, 0, 0, 0, 0, 0, 0, 75
|0, 67, 64, 0, 22, 0, 0, 0, 0, 0, 80, 0, 0, 0, 0, 0, 48, 52, 0, 0, 0, 0, 0, 0, 0, 0, 36, 0, 0, 0, 0, 0, 0, 0, 0, 0, 0, 18, 0, 0, 0, 0, 4, 0, 39, 0, 61, 47, 0, 0, 0, 19, 0, 0, 0, 0, 54, 81, 50, 0, 0, 0, 0, 0, 0, 65, 32, 0, 38, 0, 0, 0, 0, 0, 0, 0, 2, 0, 53, 0, 0
|0, 0, 35, 0, 0, 0, 0, 0, 0, 54, 70, 0, 0, 0, 0, 0, 0, 0, 0, 0, 0, 63, 0, 11, 0, 0, 0, 0, 0, 0, 0, 0, 0, 0, 45, 0, 0, 0, 0, 0, 0, 0, 0, 0, 0, 0, 0, 0, 0, 0, 0, 0, 0, 26, 0, 0, 79, 25, 0, 0, 13, 0, 0, 34, 0, 72, 0, 68, 0, 0, 0, 80, 0, 27, 0, 0, 0, 0, 0, 0, 0
|17, 0, 0, 70, 0, 0, 33, 0, 0, 35, 0, 0, 0, 26, 0, 0, 0, 0, 71, 0, 55, 23, 0, 68, 0, 80, 0, 43, 0, 0, 0, 0, 2, 0, 46, 0, 51, 0, 0, 0, 0, 0, 0, 0, 0, 0, 38, 0, 0, 49, 0, 0, 0, 31, 0, 11, 0, 0, 24, 34, 19, 0, 64, 0, 58, 81, 0, 20, 0, 0, 0, 0, 30, 0, 12, 0, 0, 0, 41, 0, 0
|0, 0, 16, 0, 0, 32, 38, 0, 0, 51, 0, 15, 73, 0, 0, 34, 0, 0, 0, 0, 0, 25, 0, 0, 0, 0, 0, 60, 0, 0, 0, 35, 49, 0, 0, 0, 0, 0, 0, 30, 0, 0, 29, 0, 0, 0, 27, 44, 7, 0, 0, 0, 0, 55, 0, 0, 0, 0, 45, 0, 0, 0, 0, 0, 56, 53, 71, 0, 0, 0, 0, 6, 0, 23, 72, 64, 0, 81, 76, 0, 0
|0, 0, 0, 0, 0, 0, 0, 5, 0, 0, 0, 0, 0, 40, 0, 0, 69, 0, 0, 56, 0, 0, 0, 0, 0, 0, 67, 0, 0, 0, 0, 0, 20, 0, 0, 0, 58, 0, 0, 25, 0, 9, 0, 0, 0, 43, 0, 0, 0, 0, 0, 66, 0, 0, 0, 0, 27, 0, 80, 0, 0, 0, 32, 0, 49, 0, 0, 0, 0, 0, 0, 0, 0, 0, 0, 0, 0, 0, 55, 29, 73
|0, 81, 0, 0, 0, 0, 0, 56, 0, 0, 0, 57, 0, 79, 5, 0, 38, 0, 0, 30, 0, 0, 0, 0, 0, 0, 0, 0, 0, 0, 26, 25, 0, 0, 0, 0, 0, 49, 0, 0, 0, 0, 0, 0, 0, 0, 0, 24, 42, 0, 0, 0, 0, 52, 0, 67, 0, 0, 51, 62, 58, 0, 0, 13, 0, 22, 0, 0, 0, 18, 0, 0, 0, 0, 0, 0, 37, 0, 0, 32, 34
|0, 0, 0, 0, 0, 0, 0, 0, 0, 0, 0, 0, 0, 0, 0, 0, 0, 0, 0, 0, 60, 21, 0, 0, 0, 64, 0, 0, 0, 0, 0, 0, 0, 47, 0, 0, 0, 0, 0, 0, 13, 0, 32, 0, 7, 0, 0, 0, 0, 0, 68, 0, 0, 0, 50, 77, 38, 41, 0, 0, 0, 0, 0, 29, 0, 0, 0, 37, 0, 2, 0, 0, 0, 48, 0, 0, 0, 0, 44, 0, 0
|36, 0, 0, 0, 44, 0, 0, 75, 0, 0, 61, 64, 0, 35, 0, 0, 3, 70, 0, 1, 0, 0, 0, 0, 0, 0, 0, 0, 16, 0, 68, 0, 0, 0, 0, 0, 9, 0, 0, 0, 0, 0, 0, 0, 18, 0, 0, 0, 0, 0, 0, 0, 69, 0, 42, 0, 0, 0, 63, 37, 7, 0, 33, 0, 0, 0, 0, 8, 0, 81, 0, 67, 0, 0, 0, 0, 0, 0, 0, 0, 43
|0, 0, 0, 0, 43, 0, 78, 0, 80, 22, 0, 0, 52, 27, 0, 26, 0, 0, 0, 0, 0, 0, 10, 77, 0, 0, 16, 65, 0, 0, 36, 0, 37, 46, 0, 48, 11, 28, 0, 0, 0, 0, 3, 0, 0, 0, 0, 32, 0, 0, 0, 0, 61, 0, 0, 0, 0, 0, 39, 0, 0, 0, 0, 0, 0, 0, 0, 0, 0, 0, 0, 0, 0, 0, 0, 0, 53, 0, 0, 0, 0
|0, 0, 0, 0, 61, 0, 0, 60, 0, 0, 0, 2, 0, 0, 0, 0, 8, 72, 29, 0, 0, 0, 0, 0, 42, 0, 0, 51, 7, 0, 0, 0, 74, 0, 57, 25, 81, 0, 53, 0, 45, 0, 43, 30, 0, 0, 0, 0, 38, 0, 0, 0, 0, 0, 0, 0, 0, 55, 0, 0, 0, 46, 0, 0, 0, 0, 0, 0, 0, 0, 0, 0, 0, 0, 0, 0, 0, 0, 52, 0, 0
|0, 10, 0, 62, 32, 0, 0, 25, 0, 0, 0, 0, 0, 23, 38, 0, 0, 0, 0, 0, 0, 0, 44, 0, 0, 0, 28, 0, 0, 0, 0, 43, 0, 0, 0, 20, 0, 14, 47, 75, 0, 0, 0, 0, 2, 0, 72, 0, 0, 52, 0, 77, 51, 0, 0, 0, 0, 0, 0, 0, 0, 13, 0, 78, 22, 0, 1, 0, 0, 49, 0, 0, 37, 0, 0, 80, 0, 0, 0, 17, 0
|0, 0, 0, 0, 0, 51, 0, 0, 0, 57, 0, 0, 0, 0, 0, 0, 0, 0, 0, 32, 0, 0, 30, 27, 78, 0, 0, 77, 33, 0, 0, 0, 0, 79, 22, 0, 21, 0, 0, 0, 0, 0, 0, 29, 70, 0, 0, 3, 45, 20, 66, 0, 0, 0, 0, 0, 0, 0, 0, 0, 61, 0, 59, 0, 0, 38, 43, 0, 0, 0, 0, 0, 34, 75, 0, 36, 0, 0, 49, 0, 0
|0, 0, 49, 0, 0, 0, 13, 34, 0, 0, 76, 77, 30, 0, 0, 28, 0, 0, 0, 7, 56, 0, 0, 50, 0, 0, 0, 66, 0, 54, 0, 0, 40, 0, 0, 0, 0, 55, 0, 62, 0, 0, 1, 0, 71, 0, 53, 0, 0, 25, 0, 0, 0, 0, 0, 0, 0, 0, 74, 0, 0, 0, 0, 0, 0, 0, 0, 0, 0, 0, 44, 0, 0, 0, 0, 0, 0, 0, 0, 60, 0
|0, 0, 0, 0, 0, 0, 73, 0, 52, 0, 0, 0, 0, 0, 48, 9, 0, 0, 0, 0, 41, 0, 0, 0, 0, 68, 5, 0, 0, 64, 0, 0, 0, 0, 0, 0, 0, 0, 0, 12, 0, 76, 0, 25, 0, 0, 23, 0, 0, 0, 0, 0, 65, 0, 0, 0, 30, 0, 0, 0, 27, 0, 0, 0, 0, 0, 0, 80, 0, 15, 58, 0, 0, 0, 1, 0, 66, 77, 0, 0, 0
|58, 0, 0, 0, 77, 0, 0, 20, 69, 25, 15, 0, 0, 0, 62, 79, 71, 0, 0, 0, 0, 0, 0, 0, 0, 0, 0, 0, 78, 0, 75, 19, 0, 0, 0, 0, 72, 0, 74, 44, 0, 66, 67, 4, 0, 0, 0, 0, 0, 33, 16, 64, 0, 0, 0, 0, 0, 0, 0, 0, 49, 0, 0, 0, 39, 24, 0, 59, 0, 0, 63, 0, 0, 70, 0, 68, 0, 0, 0, 8, 0|];