order = 8;
grid = [|60, 0, 49, 25, 17, 53, 16, 0, 55, 63, 64, 20, 1, 0, 0, 52, 46, 0, 0, 41, 23, 54, 18, 0, 0, 28, 50, 58, 0, 56, 22, 29, 44, 30, 32, 2, 45, 11, 33, 42, 4, 8, 6, 35, 9, 61, 43, 51, 47, 0, 0, 40, 48, 3, 12, 0, 37, 10, 59, 62, 57, 39, 14, 15
|58, 46, 0, 40, 42, 0, 52, 32, 0, 31, 56, 0, 29, 0, 44, 4, 0, 48, 26, 0, 21, 0, 0, 0, 0, 0, 9, 41, 0, 45, 60, 16, 0, 51, 0, 0, 55, 0, 57, 0, 0, 30, 0, 3, 25, 1, 38, 0, 23, 0, 50, 8, 0, 22, 35, 24, 0, 49, 13, 0, 0, 0, 0, 63
|55, 1, 26, 28, 8, 35, 0, 51, 0, 9, 18, 50, 46, 42, 0, 11, 4, 61, 12, 13, 47, 40, 32, 58, 3, 15, 0, 21, 33, 0, 2, 0, 31, 0, 0, 0, 23, 19, 0, 62, 36, 57, 22, 45, 16, 0, 41, 48, 0, 20, 10, 53, 59, 6, 34, 39, 38, 60, 64, 43, 0, 0, 0, 29
|48, 3, 36, 0, 22, 61, 0, 6, 0, 0, 28, 59, 33, 60, 0, 10, 15, 0, 16, 27, 0, 0, 0, 44, 0, 0, 17, 55, 23, 18, 63, 0, 0, 24, 0, 0, 0, 21, 0, 20, 47, 62, 0, 0, 0, 34, 50, 49, 37, 0, 43, 4, 9, 26, 1, 13, 45, 40, 0, 0, 2, 42, 0, 8
|14, 39, 47, 59, 29, 41, 0, 0, 34, 37, 16, 32, 0, 23, 30, 62, 49, 50, 1, 0, 22, 0, 35, 36, 0, 0, 0, 8, 61, 54, 10, 5, 0, 60, 0, 3, 27, 43, 52, 17, 0, 0, 33, 0, 63, 0, 0, 2, 0, 0, 45, 0, 0, 18, 15, 64, 0, 20, 0, 0, 28, 0, 58, 4
|54, 9, 63, 27, 45, 43, 0, 20, 22, 58, 24, 61, 12, 40, 13, 0, 53, 8, 38, 6, 0, 51, 34, 37, 47, 42, 11, 30, 57, 62, 0, 19, 64, 0, 0, 4, 50, 0, 49, 48, 10, 15, 17, 39, 59, 32, 0, 0, 28, 52, 2, 31, 0, 44, 60, 0, 46, 55, 3, 0, 23, 1, 33, 41
|34, 0, 0, 44, 0, 37, 15, 0, 14, 47, 0, 19, 36, 53, 43, 0, 0, 9, 3, 45, 11, 20, 63, 25, 0, 52, 0, 0, 64, 0, 48, 1, 0, 0, 0, 10, 13, 0, 8, 0, 7, 40, 0, 31, 60, 0, 0, 28, 0, 0, 0, 30, 17, 0, 32, 0, 5, 22, 0, 0, 0, 0, 16, 0
|5, 12, 50, 18, 2, 62, 10, 0, 48, 54, 0, 51, 0, 0, 45, 57, 29, 28, 43, 39, 64, 17, 60, 59, 26, 4, 49, 32, 44, 35, 24, 36, 9, 1, 40, 16, 0, 37, 38, 22, 46, 19, 27, 20, 53, 0, 23, 55, 0, 0, 41, 0, 14, 0, 63, 58, 34, 47, 6, 21, 0, 52, 31, 7
|0, 7, 28, 49, 0, 0, 54, 21, 0, 0, 62, 0, 30, 2, 6, 29, 38, 43, 0, 19, 12, 0, 8, 0, 58, 16, 0, 59, 53, 5, 46, 10, 0, 0, 11, 56, 9, 0, 0, 4, 44, 0, 35, 24, 17, 47, 55, 0, 41, 33, 0, 34, 3, 0, 45, 14, 1, 48, 15, 20, 0, 64, 60, 26
|0, 14, 53, 6, 27, 0, 0, 0, 0, 0, 54, 38, 17, 0, 0, 0, 41, 3, 30, 49, 62, 0, 36, 21, 32, 35, 0, 31, 0, 51, 15, 0, 0, 47, 18, 0, 8, 0, 0, 0, 1, 61, 0, 0, 0, 19, 16, 64, 2, 0, 25, 0, 40, 0, 11, 9, 24, 43, 44, 63, 52, 29, 22, 58
|0, 8, 0, 0, 16, 0, 3, 0, 0, 25, 0, 44, 53, 49, 48, 18, 0, 0, 40, 24, 15, 50, 57, 1, 63, 38, 22, 0, 14, 60, 0, 54, 0, 0, 0, 0, 32, 58, 26, 29, 0, 6, 0, 43, 45, 27, 31, 9, 30, 47, 17, 0, 62, 4, 0, 0, 51, 13, 0, 0, 34, 21, 12, 35
|31, 19, 15, 37, 47, 0, 0, 62, 24, 23, 14, 57, 0, 0, 1, 0, 54, 11, 6, 58, 0, 45, 46, 5, 8, 0, 3, 0, 12, 0, 21, 50, 0, 34, 0, 13, 52, 10, 64, 55, 40, 63, 53, 0, 49, 33, 32, 29, 26, 0, 7, 39, 22, 38, 43, 35, 28, 56, 0, 61, 59, 9, 25, 0
|25, 43, 0, 38, 0, 44, 55, 0, 35, 0, 39, 52, 5, 0, 15, 33, 16, 60, 34, 18, 0, 14, 0, 27, 28, 23, 62, 24, 0, 0, 36, 40, 45, 3, 22, 0, 54, 17, 63, 61, 59, 2, 51, 30, 0, 12, 8, 50, 0, 56, 58, 64, 13, 0, 48, 29, 31, 0, 32, 4, 37, 49, 6, 0
|59, 0, 60, 64, 12, 58, 0, 57, 26, 0, 51, 34, 13, 37, 0, 43, 0, 0, 0, 25, 0, 35, 47, 53, 29, 30, 61, 1, 0, 9, 0, 0, 0, 38, 44, 7, 31, 14, 0, 6, 0, 41, 15, 56, 0, 3, 48, 11, 32, 24, 0, 0, 46, 0, 52, 21, 17, 0, 23, 5, 8, 0, 19, 50
|30, 35, 40, 52, 50, 5, 0, 18, 64, 41, 45, 58, 59, 0, 32, 0, 51, 26, 9, 17, 37, 0, 29, 63, 57, 43, 7, 0, 34, 0, 6, 11, 0, 25, 0, 24, 12, 0, 21, 1, 13, 14, 46, 0, 4, 36, 60, 42, 16, 44, 8, 28, 53, 61, 0, 10, 0, 54, 62, 39, 0, 55, 0, 0
|23, 0, 0, 0, 61, 29, 0, 63, 42, 0, 19, 55, 28, 47, 3, 9, 0, 59, 44, 31, 13, 48, 52, 32, 64, 0, 27, 39, 0, 49, 17, 4, 30, 41, 62, 35, 16, 0, 0, 0, 38, 0, 21, 0, 57, 0, 20, 0, 60, 54, 12, 1, 15, 50, 18, 6, 33, 53, 0, 45, 10, 0, 46, 40
|0, 21, 25, 0, 1, 64, 31, 0, 0, 0, 37, 0, 0, 0, 0, 0, 57, 0, 39, 8, 40, 47, 0, 56, 0, 45, 53, 50, 19, 0, 0, 52, 54, 0, 60, 44, 17, 33, 0, 0, 14, 59, 20, 27, 0, 62, 30, 0, 48, 0, 29, 24, 0, 0, 36, 51, 22, 18, 34, 0, 46, 3, 41, 13
|2, 4, 42, 5, 0, 52, 12, 45, 1, 60, 23, 13, 34, 0, 27, 0, 14, 29, 20, 61, 6, 10, 33, 30, 0, 36, 41, 18, 63, 15, 11, 47, 0, 56, 0, 28, 38, 31, 59, 49, 25, 0, 50, 0, 51, 9, 37, 40, 7, 22, 3, 0, 19, 62, 39, 44, 32, 58, 24, 53, 35, 0, 48, 0
|20, 0, 37, 58, 59, 0, 23, 29, 62, 0, 50, 0, 42, 44, 33, 0, 17, 25, 5, 28, 0, 0, 15, 34, 49, 2, 0, 51, 3, 0, 54, 24, 4, 46, 30, 0, 40, 16, 0, 18, 0, 0, 56, 53, 13, 55, 0, 63, 57, 14, 32, 52, 60, 45, 21, 0, 10, 0, 11, 6, 0, 38, 36, 31
|11, 0, 0, 13, 3, 51, 19, 0, 56, 52, 0, 0, 47, 0, 10, 54, 44, 63, 59, 21, 45, 4, 22, 64, 42, 48, 29, 0, 60, 0, 1, 6, 50, 0, 35, 14, 36, 57, 2, 37, 33, 16, 38, 32, 0, 28, 39, 15, 0, 41, 18, 61, 0, 58, 20, 34, 9, 7, 40, 27, 49, 0, 26, 43
|0, 38, 14, 15, 46, 10, 28, 40, 4, 0, 31, 36, 18, 35, 19, 0, 0, 1, 0, 0, 32, 58, 0, 24, 9, 34, 0, 0, 13, 0, 62, 21, 20, 39, 8, 48, 63, 45, 0, 0, 17, 11, 57, 49, 41, 29, 0, 3, 27, 0, 16, 43, 0, 42, 0, 30, 55, 2, 0, 59, 25, 61, 37, 44
|36, 0, 62, 55, 48, 56, 0, 44, 39, 0, 26, 0, 45, 59, 14, 0, 52, 13, 11, 0, 16, 0, 38, 0, 30, 40, 20, 5, 46, 57, 0, 0, 0, 22, 0, 0, 0, 3, 61, 34, 35, 18, 0, 10, 64, 7, 47, 19, 0, 53, 31, 23, 63, 1, 28, 37, 12, 21, 29, 51, 54, 60, 0, 33
|63, 22, 0, 57, 0, 0, 0, 16, 0, 0, 0, 53, 0, 38, 0, 41, 43, 49, 0, 0, 36, 46, 31, 0, 7, 61, 32, 14, 0, 0, 39, 59, 52, 21, 51, 29, 47, 13, 19, 10, 0, 44, 45, 0, 1, 60, 6, 23, 15, 40, 0, 12, 26, 0, 0, 33, 8, 0, 30, 0, 4, 20, 62, 56
|41, 61, 0, 43, 49, 39, 17, 60, 0, 20, 0, 24, 57, 8, 29, 0, 48, 37, 51, 0, 0, 0, 23, 0, 44, 27, 25, 33, 31, 0, 0, 12, 58, 0, 0, 0, 7, 0, 55, 9, 42, 36, 0, 21, 5, 46, 22, 34, 56, 59, 0, 0, 38, 35, 0, 2, 0, 45, 0, 14, 16, 0, 50, 19
|13, 28, 52, 10, 39, 40, 0, 43, 0, 35, 0, 62, 15, 17, 47, 38, 34, 0, 54, 32, 41, 0, 55, 57, 1, 0, 6, 61, 0, 27, 0, 48, 0, 0, 26, 20, 4, 56, 45, 0, 64, 21, 2, 36, 3, 31, 0, 0, 0, 50, 0, 0, 37, 0, 25, 63, 0, 30, 46, 18, 5, 7, 9, 0
|57, 30, 0, 0, 19, 55, 22, 15, 0, 29, 6, 31, 56, 0, 25, 5, 0, 33, 47, 0, 46, 8, 9, 20, 60, 0, 52, 3, 51, 38, 0, 62, 0, 0, 43, 34, 37, 0, 24, 0, 45, 53, 0, 0, 39, 18, 58, 35, 36, 32, 44, 7, 11, 48, 26, 17, 42, 59, 4, 50, 13, 40, 61, 0
|37, 58, 3, 48, 63, 34, 18, 47, 0, 0, 0, 10, 39, 0, 46, 26, 0, 16, 56, 50, 0, 0, 0, 51, 24, 41, 0, 4, 0, 0, 13, 33, 61, 59, 25, 36, 0, 30, 9, 32, 0, 55, 40, 52, 0, 0, 12, 0, 1, 35, 15, 0, 2, 14, 38, 42, 44, 17, 0, 49, 27, 62, 28, 60
|21, 0, 9, 0, 35, 0, 29, 14, 0, 19, 4, 0, 51, 24, 41, 63, 12, 0, 61, 53, 0, 44, 27, 39, 25, 0, 0, 15, 0, 42, 0, 45, 0, 52, 55, 0, 0, 50, 13, 0, 0, 38, 16, 11, 7, 0, 0, 47, 5, 28, 0, 60, 6, 0, 30, 49, 54, 0, 0, 3, 0, 0, 1, 2
|0, 51, 23, 0, 36, 0, 8, 59, 13, 0, 44, 45, 40, 12, 11, 2, 7, 35, 0, 0, 63, 25, 4, 19, 18, 54, 30, 16, 0, 0, 0, 9, 38, 10, 21, 0, 0, 60, 62, 57, 50, 24, 28, 0, 0, 26, 0, 27, 61, 43, 0, 47, 0, 64, 53, 46, 6, 37, 55, 0, 41, 0, 32, 0
|24, 50, 27, 0, 44, 31, 42, 61, 0, 48, 58, 49, 20, 43, 34, 3, 6, 45, 0, 30, 60, 36, 0, 0, 0, 32, 0, 63, 0, 2, 35, 0, 0, 0, 0, 47, 1, 0, 0, 0, 41, 4, 59, 46, 15, 8, 5, 37, 13, 0, 0, 0, 52, 40, 16, 56, 25, 23, 0, 29, 12, 22, 64, 53
|12, 0, 0, 32, 7, 60, 45, 0, 0, 61, 59, 8, 52, 30, 0, 0, 26, 38, 2, 29, 24, 1, 13, 28, 36, 64, 0, 0, 0, 37, 0, 53, 40, 0, 0, 5, 6, 23, 31, 16, 56, 17, 14, 33, 44, 49, 0, 22, 0, 21, 0, 0, 4, 0, 62, 0, 63, 35, 0, 10, 15, 0, 57, 20
|64, 6, 16, 0, 38, 20, 0, 5, 28, 32, 9, 0, 54, 22, 0, 60, 31, 0, 0, 48, 52, 15, 37, 0, 23, 0, 0, 0, 7, 44, 0, 0, 0, 11, 0, 46, 2, 63, 0, 0, 0, 0, 62, 25, 61, 10, 0, 43, 29, 8, 0, 27, 0, 0, 3, 12, 0, 0, 47, 56, 21, 33, 24, 45
|62, 0, 0, 30, 53, 45, 25, 2, 49, 0, 0, 46, 0, 29, 0, 42, 1, 58, 27, 0, 50, 0, 0, 16, 15, 60, 48, 10, 21, 3, 9, 64, 0, 0, 37, 8, 0, 6, 47, 41, 18, 12, 5, 4, 11, 43, 33, 0, 20, 26, 51, 0, 31, 13, 0, 0, 0, 0, 36, 44, 32, 54, 0, 28
|42, 0, 38, 29, 11, 0, 60, 12, 0, 33, 13, 28, 16, 0, 20, 25, 19, 54, 57, 43, 35, 5, 41, 31, 51, 0, 0, 26, 59, 46, 37, 49, 18, 2, 10, 0, 21, 0, 4, 27, 0, 22, 44, 7, 0, 24, 0, 0, 62, 34, 64, 48, 30, 15, 58, 23, 50, 14, 53, 40, 3, 45, 8, 55
|3, 59, 43, 4, 0, 48, 33, 0, 0, 14, 0, 47, 37, 58, 64, 31, 13, 15, 63, 22, 0, 0, 24, 0, 0, 17, 0, 6, 28, 8, 19, 42, 62, 0, 29, 9, 0, 34, 25, 0, 55, 46, 36, 38, 40, 54, 0, 45, 39, 7, 53, 0, 56, 0, 5, 60, 21, 41, 0, 11, 20, 0, 0, 27
|15, 40, 20, 24, 10, 26, 50, 28, 52, 27, 30, 0, 0, 36, 0, 0, 37, 7, 0, 14, 49, 62, 0, 0, 0, 0, 1, 45, 54, 53, 47, 38, 57, 0, 0, 22, 0, 61, 5, 3, 0, 13, 32, 2, 0, 51, 56, 6, 33, 12, 0, 0, 42, 0, 0, 11, 59, 31, 0, 0, 60, 19, 4, 39
|0, 0, 46, 9, 21, 6, 0, 37, 0, 0, 0, 0, 0, 1, 24, 34, 8, 0, 0, 64, 53, 0, 51, 0, 50, 58, 0, 44, 52, 31, 14, 63, 32, 0, 0, 0, 0, 20, 56, 0, 62, 0, 60, 15, 26, 0, 59, 0, 0, 4, 0, 49, 18, 16, 54, 19, 23, 0, 12, 0, 29, 25, 0, 0
|0, 5, 0, 19, 0, 0, 57, 35, 0, 0, 32, 0, 0, 11, 59, 50, 0, 12, 0, 44, 0, 0, 39, 18, 2, 7, 0, 0, 25, 29, 61, 30, 0, 40, 0, 0, 0, 52, 0, 54, 0, 34, 37, 28, 23, 53, 64, 31, 8, 0, 0, 0, 45, 36, 0, 27, 0, 33, 1, 0, 56, 0, 63, 0
|0, 54, 61, 0, 0, 16, 44, 34, 18, 0, 40, 21, 7, 62, 5, 0, 0, 47, 0, 26, 9, 60, 45, 48, 20, 11, 24, 36, 32, 4, 57, 55, 46, 33, 0, 12, 0, 15, 0, 51, 0, 0, 0, 41, 0, 0, 35, 0, 63, 37, 14, 2, 1, 0, 50, 0, 49, 6, 0, 38, 22, 0, 30, 64
|39, 36, 51, 8, 55, 23, 0, 64, 0, 38, 0, 0, 48, 54, 2, 19, 3, 0, 0, 0, 56, 28, 6, 0, 22, 5, 34, 0, 40, 0, 33, 41, 0, 53, 0, 31, 11, 44, 0, 45, 0, 50, 9, 63, 0, 14, 17, 20, 0, 0, 0, 35, 0, 24, 59, 25, 0, 26, 37, 47, 62, 46, 7, 42
|0, 37, 10, 17, 13, 1, 0, 8, 0, 26, 0, 64, 0, 0, 0, 0, 0, 31, 45, 0, 0, 12, 16, 0, 0, 24, 0, 40, 0, 22, 27, 60, 3, 49, 0, 0, 53, 38, 44, 0, 5, 28, 61, 29, 0, 21, 42, 0, 0, 48, 63, 15, 33, 43, 56, 41, 0, 62, 7, 54, 14, 34, 0, 9
|9, 18, 55, 45, 31, 0, 47, 38, 0, 0, 60, 0, 19, 34, 51, 59, 28, 30, 14, 0, 29, 0, 0, 0, 0, 3, 8, 49, 48, 0, 23, 35, 7, 43, 52, 33, 0, 0, 50, 63, 6, 0, 10, 62, 24, 0, 25, 41, 4, 0, 42, 54, 12, 0, 57, 22, 20, 44, 17, 1, 0, 0, 0, 36
|43, 64, 21, 0, 26, 28, 2, 0, 37, 0, 7, 35, 50, 0, 52, 0, 32, 39, 22, 0, 27, 63, 0, 9, 13, 1, 14, 57, 30, 17, 53, 58, 0, 8, 0, 62, 18, 25, 12, 0, 49, 0, 0, 0, 34, 16, 0, 0, 0, 3, 20, 29, 36, 5, 40, 0, 61, 0, 56, 48, 19, 0, 11, 59
|0, 49, 58, 20, 51, 0, 0, 22, 8, 0, 27, 16, 0, 33, 12, 61, 18, 0, 17, 0, 1, 0, 26, 6, 62, 46, 0, 0, 5, 7, 34, 44, 47, 36, 19, 41, 28, 0, 0, 15, 57, 35, 0, 13, 52, 45, 3, 56, 0, 2, 59, 21, 23, 60, 24, 31, 40, 42, 50, 64, 38, 63, 10, 37
|40, 33, 0, 36, 62, 63, 0, 0, 0, 44, 22, 3, 4, 41, 0, 39, 60, 0, 48, 7, 25, 52, 43, 47, 56, 37, 0, 0, 38, 64, 20, 0, 29, 0, 57, 0, 10, 0, 0, 21, 2, 0, 8, 0, 0, 50, 15, 17, 14, 11, 55, 18, 16, 0, 0, 0, 0, 28, 51, 24, 53, 6, 49, 0
|61, 15, 11, 0, 60, 12, 35, 0, 9, 0, 0, 48, 0, 14, 40, 20, 62, 56, 37, 0, 34, 24, 2, 23, 52, 0, 10, 42, 18, 0, 31, 0, 13, 0, 0, 0, 26, 0, 22, 0, 43, 47, 0, 59, 27, 39, 63, 0, 0, 45, 28, 19, 50, 0, 46, 0, 0, 8, 5, 57, 58, 0, 55, 21
|7, 48, 19, 16, 0, 24, 34, 50, 21, 0, 0, 0, 31, 0, 38, 0, 58, 0, 0, 20, 54, 0, 0, 10, 61, 63, 28, 47, 0, 41, 59, 39, 37, 6, 27, 17, 46, 9, 32, 40, 22, 23, 11, 14, 55, 30, 26, 0, 0, 49, 0, 25, 0, 0, 51, 52, 43, 4, 2, 60, 0, 18, 45, 12
|44, 0, 4, 39, 52, 0, 0, 0, 15, 6, 63, 18, 24, 0, 53, 28, 55, 0, 0, 0, 8, 0, 0, 46, 43, 0, 51, 0, 50, 12, 45, 2, 16, 20, 59, 58, 42, 1, 48, 60, 9, 0, 0, 0, 0, 0, 7, 0, 17, 30, 62, 37, 10, 34, 61, 26, 13, 0, 25, 0, 31, 35, 23, 47
|0, 0, 44, 62, 0, 36, 0, 3, 40, 21, 61, 25, 0, 0, 31, 30, 9, 0, 15, 0, 58, 0, 48, 11, 17, 6, 19, 0, 35, 34, 41, 20, 22, 14, 53, 55, 0, 0, 0, 13, 63, 1, 49, 64, 0, 4, 28, 8, 54, 16, 52, 51, 0, 0, 7, 50, 56, 46, 60, 12, 45, 59, 42, 0
|50, 55, 45, 12, 37, 21, 46, 39, 19, 0, 0, 17, 44, 4, 0, 0, 59, 41, 13, 40, 43, 49, 28, 0, 0, 9, 15, 48, 62, 32, 0, 22, 33, 63, 23, 26, 51, 0, 18, 8, 0, 42, 25, 6, 0, 11, 2, 38, 0, 61, 56, 14, 0, 20, 0, 3, 0, 0, 31, 36, 7, 47, 29, 24
|0, 52, 0, 53, 0, 57, 0, 9, 59, 34, 0, 0, 14, 50, 49, 46, 27, 51, 55, 0, 31, 0, 3, 22, 0, 0, 63, 7, 39, 61, 25, 0, 19, 17, 0, 0, 30, 0, 36, 0, 0, 29, 12, 44, 54, 5, 45, 62, 40, 60, 47, 0, 28, 2, 0, 0, 4, 32, 0, 16, 48, 8, 13, 38
|28, 10, 13, 0, 58, 27, 1, 4, 12, 18, 48, 7, 32, 39, 26, 56, 0, 34, 64, 0, 0, 0, 0, 0, 14, 59, 0, 38, 0, 33, 0, 43, 0, 37, 0, 45, 0, 24, 0, 2, 31, 20, 3, 60, 36, 0, 51, 52, 35, 55, 30, 0, 25, 0, 8, 53, 57, 19, 61, 15, 40, 0, 44, 54
|0, 41, 0, 7, 30, 18, 43, 54, 63, 57, 33, 60, 0, 0, 8, 24, 10, 44, 19, 0, 38, 26, 20, 0, 45, 12, 64, 53, 1, 0, 0, 27, 34, 0, 61, 49, 5, 4, 0, 31, 0, 37, 47, 22, 0, 0, 0, 13, 59, 36, 0, 62, 29, 46, 42, 32, 58, 9, 21, 55, 6, 0, 3, 25
|8, 60, 0, 23, 40, 0, 61, 25, 0, 22, 0, 5, 62, 6, 36, 47, 45, 14, 0, 56, 30, 32, 17, 0, 0, 13, 54, 28, 2, 58, 42, 0, 0, 48, 16, 39, 0, 59, 0, 50, 34, 9, 7, 55, 18, 57, 0, 46, 0, 0, 33, 26, 0, 63, 0, 15, 53, 52, 43, 0, 1, 0, 0, 49
|0, 20, 48, 0, 0, 47, 63, 0, 45, 53, 41, 0, 9, 13, 37, 0, 0, 46, 0, 36, 2, 0, 21, 0, 31, 57, 0, 29, 55, 24, 44, 56, 0, 7, 1, 52, 3, 0, 40, 25, 58, 32, 0, 19, 50, 59, 0, 30, 12, 0, 0, 38, 5, 0, 27, 18, 62, 0, 22, 33, 51, 26, 35, 34
|0, 31, 0, 34, 0, 19, 49, 0, 29, 55, 0, 42, 64, 10, 35, 51, 39, 62, 25, 12, 7, 57, 0, 54, 11, 8, 0, 0, 36, 52, 0, 0, 0, 9, 47, 60, 0, 27, 20, 38, 26, 0, 24, 61, 21, 0, 40, 0, 0, 1, 13, 0, 58, 23, 0, 0, 14, 50, 28, 2, 63, 30, 5, 0
|19, 34, 33, 14, 25, 38, 51, 48, 43, 11, 0, 0, 21, 52, 54, 0, 22, 0, 50, 23, 0, 29, 1, 0, 0, 0, 58, 20, 0, 36, 0, 7, 10, 0, 0, 57, 41, 0, 0, 46, 60, 3, 31, 17, 6, 63, 53, 59, 0, 0, 37, 42, 0, 0, 49, 0, 26, 5, 0, 30, 44, 4, 0, 61
|27, 44, 12, 60, 43, 22, 26, 0, 0, 0, 29, 6, 0, 48, 39, 0, 0, 53, 52, 0, 0, 61, 54, 15, 0, 47, 4, 0, 0, 30, 18, 0, 0, 0, 9, 21, 49, 51, 0, 0, 20, 0, 55, 50, 33, 2, 0, 24, 19, 63, 0, 36, 8, 25, 23, 5, 0, 11, 57, 31, 0, 56, 40, 32
|0, 42, 0, 0, 5, 54, 0, 52, 47, 59, 53, 1, 60, 61, 0, 0, 36, 20, 7, 51, 44, 31, 14, 0, 48, 55, 57, 0, 10, 0, 32, 3, 11, 35, 50, 40, 19, 8, 15, 33, 29, 58, 13, 9, 0, 23, 4, 26, 22, 17, 24, 0, 0, 30, 41, 0, 0, 0, 49, 46, 64, 27, 0, 0
|1, 11, 17, 47, 28, 4, 40, 58, 57, 36, 34, 27, 35, 18, 22, 0, 0, 0, 60, 42, 33, 0, 59, 45, 41, 0, 12, 64, 0, 63, 0, 46, 2, 0, 5, 6, 0, 55, 23, 52, 51, 25, 43, 37, 14, 56, 19, 0, 0, 13, 38, 20, 32, 0, 9, 48, 29, 3, 54, 8, 50, 15, 39, 62
|18, 0, 32, 61, 0, 59, 36, 0, 20, 42, 25, 0, 63, 31, 0, 0, 24, 6, 0, 35, 0, 0, 19, 49, 53, 0, 44, 0, 9, 40, 51, 28, 27, 26, 4, 0, 34, 47, 0, 0, 48, 0, 30, 57, 0, 15, 1, 0, 55, 58, 0, 11, 39, 56, 2, 62, 16, 38, 0, 37, 17, 14, 21, 52
|53, 16, 31, 21, 20, 0, 0, 41, 0, 24, 46, 56, 10, 3, 23, 64, 40, 5, 0, 4, 39, 0, 58, 17, 54, 19, 2, 52, 0, 0, 38, 15, 14, 18, 45, 32, 25, 22, 0, 36, 27, 49, 0, 47, 42, 0, 44, 0, 43, 0, 26, 0, 0, 0, 0, 57, 60, 63, 48, 0, 55, 0, 59, 1
|46, 57, 0, 3, 24, 0, 9, 49, 5, 15, 0, 0, 0, 0, 0, 58, 0, 0, 32, 0, 55, 0, 0, 12, 33, 31, 45, 13, 0, 1, 50, 61, 0, 28, 48, 42, 0, 0, 0, 44, 0, 39, 41, 16, 22, 0, 0, 21, 0, 0, 0, 10, 54, 7, 14, 59, 0, 25, 20, 0, 36, 0, 34, 23
|45, 0, 35, 50, 64, 0, 0, 55, 30, 12, 0, 4, 0, 0, 0, 49, 25, 57, 21, 0, 48, 34, 11, 0, 59, 39, 5, 60, 42, 0, 29, 0, 53, 13, 38, 37, 20, 0, 1, 56, 0, 10, 0, 0, 0, 40, 36, 32, 0, 6, 0, 0, 27, 0, 44, 61, 41, 51, 0, 58, 9, 24, 0, 22|];