order = 8;
grid = [|33, 60, 59, 0, 21, 13, 22, 18, 0, 9, 0, 0, 0, 0, 31, 54, 0, 46, 24, 0, 40, 38, 42, 43, 0, 37, 2, 17, 63, 0, 10, 30, 26, 0, 11, 4, 56, 62, 0, 47, 0, 52, 36, 28, 15, 14, 34, 45, 0, 12, 19, 0, 0, 7, 20, 35, 39, 41, 25, 0, 50, 51, 27, 5
|37, 10, 0, 0, 20, 38, 19, 64, 0, 41, 0, 46, 7, 0, 0, 61, 0, 3, 32, 30, 0, 57, 0, 0, 22, 0, 8, 0, 42, 0, 0, 21, 58, 6, 29, 13, 43, 50, 0, 0, 24, 0, 11, 23, 60, 26, 0, 47, 63, 0, 0, 0, 45, 0, 28, 0, 0, 0, 9, 54, 0, 40, 62, 31
|0, 0, 43, 0, 28, 0, 31, 5, 16, 2, 0, 30, 17, 39, 14, 29, 35, 15, 0, 58, 44, 27, 11, 12, 49, 33, 32, 9, 0, 38, 62, 0, 57, 0, 41, 10, 51, 23, 54, 60, 19, 55, 40, 42, 0, 7, 64, 0, 0, 22, 47, 13, 0, 48, 56, 61, 3, 0, 59, 53, 26, 0, 8, 0
|57, 40, 49, 0, 53, 36, 35, 11, 37, 25, 42, 28, 50, 0, 13, 20, 55, 62, 41, 2, 33, 19, 0, 60, 56, 0, 0, 0, 0, 14, 0, 64, 3, 0, 5, 0, 39, 16, 0, 24, 0, 38, 0, 61, 21, 0, 48, 0, 59, 54, 9, 32, 52, 1, 23, 0, 12, 47, 46, 15, 10, 17, 18, 34
|63, 46, 3, 0, 23, 54, 55, 2, 8, 10, 5, 51, 0, 15, 45, 40, 61, 7, 0, 49, 52, 48, 47, 0, 25, 39, 0, 13, 6, 0, 1, 50, 34, 53, 0, 42, 12, 36, 0, 35, 56, 18, 57, 17, 32, 0, 4, 0, 0, 0, 64, 38, 0, 33, 0, 31, 0, 58, 43, 16, 19, 24, 28, 11
|44, 0, 26, 0, 62, 0, 7, 47, 12, 24, 23, 19, 57, 52, 0, 0, 29, 16, 36, 9, 17, 0, 1, 50, 35, 0, 40, 0, 11, 58, 28, 54, 20, 25, 22, 18, 59, 21, 45, 64, 37, 51, 13, 10, 49, 53, 2, 39, 3, 0, 15, 0, 0, 0, 0, 27, 38, 30, 55, 42, 33, 32, 6, 14
|6, 12, 0, 0, 42, 1, 0, 25, 47, 11, 44, 48, 0, 34, 49, 62, 21, 0, 56, 28, 18, 0, 26, 13, 0, 16, 52, 15, 0, 59, 55, 57, 46, 32, 37, 38, 40, 31, 19, 27, 9, 43, 5, 41, 3, 0, 35, 54, 50, 2, 8, 0, 14, 0, 17, 0, 23, 64, 0, 4, 0, 61, 0, 0
|29, 0, 45, 32, 0, 27, 9, 14, 60, 18, 26, 43, 0, 64, 38, 21, 6, 54, 37, 34, 10, 0, 51, 0, 19, 44, 0, 3, 24, 5, 23, 0, 52, 61, 28, 8, 0, 7, 17, 49, 25, 59, 50, 46, 0, 0, 22, 31, 58, 0, 4, 0, 11, 55, 40, 0, 57, 48, 13, 1, 0, 36, 20, 56
|62, 0, 47, 5, 0, 14, 0, 13, 0, 21, 2, 0, 11, 0, 59, 27, 33, 0, 49, 56, 31, 60, 52, 0, 46, 17, 61, 44, 15, 37, 41, 8, 63, 7, 38, 19, 28, 12, 32, 50, 48, 0, 18, 39, 55, 6, 43, 4, 0, 10, 30, 16, 0, 25, 0, 0, 0, 26, 0, 9, 0, 42, 23, 1
|25, 0, 0, 52, 64, 55, 0, 63, 0, 4, 62, 18, 40, 0, 0, 0, 46, 6, 45, 11, 37, 0, 0, 59, 26, 1, 34, 43, 54, 0, 19, 42, 0, 41, 8, 33, 5, 39, 0, 36, 57, 7, 28, 51, 0, 35, 30, 0, 21, 49, 27, 47, 53, 0, 0, 3, 13, 16, 31, 0, 22, 20, 0, 48
|23, 19, 6, 30, 0, 16, 0, 57, 42, 55, 8, 50, 48, 7, 29, 37, 12, 9, 27, 41, 54, 0, 0, 0, 28, 0, 63, 22, 51, 56, 3, 0, 44, 0, 35, 15, 4, 47, 1, 14, 31, 0, 62, 53, 11, 21, 0, 38, 0, 59, 0, 0, 0, 13, 0, 0, 17, 0, 39, 52, 46, 33, 64, 0
|0, 22, 0, 0, 49, 46, 48, 0, 63, 54, 13, 0, 5, 43, 25, 52, 42, 28, 30, 0, 47, 0, 0, 14, 0, 0, 39, 59, 12, 36, 6, 0, 0, 3, 34, 16, 0, 0, 0, 0, 64, 0, 0, 20, 0, 0, 15, 56, 0, 0, 55, 41, 50, 0, 0, 26, 37, 53, 24, 0, 44, 35, 58, 27
|3, 24, 15, 0, 18, 0, 8, 21, 0, 30, 56, 0, 39, 26, 0, 46, 32, 0, 43, 17, 38, 0, 0, 0, 0, 53, 20, 57, 0, 13, 0, 0, 40, 64, 54, 6, 52, 42, 29, 2, 34, 0, 0, 12, 0, 27, 16, 0, 11, 0, 37, 7, 0, 28, 48, 63, 25, 0, 19, 61, 0, 41, 0, 0
|0, 51, 10, 0, 27, 58, 0, 26, 0, 12, 0, 0, 0, 9, 44, 0, 15, 23, 61, 0, 34, 22, 25, 0, 50, 52, 60, 40, 64, 0, 31, 38, 0, 0, 53, 48, 46, 45, 57, 0, 0, 3, 32, 13, 8, 54, 19, 41, 18, 42, 33, 0, 0, 0, 0, 43, 5, 0, 47, 0, 30, 0, 29, 28
|0, 17, 0, 0, 36, 42, 32, 38, 51, 47, 33, 6, 3, 45, 19, 34, 53, 48, 50, 39, 20, 4, 64, 7, 0, 5, 24, 27, 16, 11, 35, 0, 60, 31, 49, 58, 13, 0, 59, 26, 0, 0, 10, 44, 52, 37, 0, 0, 0, 29, 0, 56, 22, 0, 9, 57, 0, 21, 8, 0, 0, 54, 55, 43
|39, 0, 34, 0, 54, 31, 1, 37, 0, 60, 61, 38, 64, 41, 0, 0, 19, 13, 0, 0, 24, 3, 0, 0, 0, 0, 21, 55, 23, 0, 29, 0, 10, 0, 27, 0, 0, 0, 62, 25, 59, 0, 42, 0, 17, 47, 26, 5, 35, 8, 46, 40, 0, 12, 52, 4, 0, 0, 2, 7, 14, 6, 15, 32
|61, 0, 62, 55, 11, 7, 0, 0, 31, 63, 0, 25, 24, 29, 30, 0, 44, 27, 0, 4, 9, 0, 58, 0, 13, 6, 43, 0, 5, 57, 21, 34, 18, 0, 0, 14, 16, 8, 3, 56, 0, 10, 0, 0, 54, 0, 41, 0, 0, 46, 0, 0, 19, 51, 1, 32, 20, 33, 15, 35, 17, 2, 37, 12
|46, 15, 0, 3, 22, 0, 0, 35, 0, 32, 64, 61, 18, 0, 0, 0, 57, 33, 11, 21, 16, 59, 34, 0, 62, 2, 49, 25, 14, 52, 9, 39, 0, 10, 7, 47, 24, 48, 0, 0, 63, 0, 0, 56, 29, 5, 20, 28, 44, 37, 43, 17, 0, 4, 50, 60, 0, 51, 45, 30, 0, 0, 41, 54
|0, 59, 0, 0, 0, 8, 10, 16, 5, 34, 0, 0, 44, 54, 2, 49, 50, 0, 0, 14, 60, 0, 6, 47, 63, 0, 30, 45, 19, 48, 61, 40, 0, 52, 15, 62, 31, 0, 35, 0, 43, 27, 0, 58, 0, 36, 0, 13, 0, 56, 25, 0, 55, 3, 0, 29, 24, 0, 7, 38, 21, 0, 0, 64
|0, 0, 0, 38, 60, 12, 4, 0, 52, 0, 51, 0, 0, 48, 0, 15, 3, 0, 18, 0, 5, 13, 19, 1, 0, 47, 33, 0, 53, 22, 58, 0, 21, 39, 2, 0, 0, 34, 49, 63, 0, 9, 8, 37, 26, 0, 57, 61, 45, 31, 0, 0, 0, 0, 7, 59, 62, 32, 50, 46, 0, 0, 0, 42
|0, 39, 0, 0, 51, 2, 50, 56, 36, 33, 14, 21, 46, 0, 4, 0, 31, 35, 62, 0, 29, 30, 28, 61, 0, 10, 3, 41, 59, 7, 32, 24, 54, 37, 45, 25, 0, 0, 58, 9, 15, 0, 52, 18, 53, 0, 44, 16, 0, 0, 63, 0, 38, 6, 13, 20, 49, 5, 22, 27, 43, 0, 60, 55
|43, 14, 44, 48, 0, 28, 52, 53, 45, 23, 38, 3, 0, 60, 7, 12, 37, 0, 54, 10, 15, 36, 46, 0, 8, 0, 31, 11, 27, 35, 42, 51, 30, 17, 55, 20, 22, 33, 41, 5, 6, 19, 0, 50, 40, 2, 62, 21, 16, 0, 34, 9, 57, 58, 49, 0, 4, 0, 56, 0, 59, 13, 0, 47
|18, 27, 0, 0, 5, 0, 63, 41, 22, 39, 0, 55, 59, 35, 20, 56, 8, 0, 23, 0, 0, 43, 7, 45, 54, 29, 0, 38, 0, 0, 44, 0, 32, 19, 12, 60, 64, 28, 0, 13, 14, 46, 49, 0, 24, 0, 11, 1, 26, 0, 62, 21, 30, 0, 61, 2, 58, 34, 0, 31, 9, 0, 16, 10
|47, 21, 0, 42, 37, 49, 0, 6, 13, 17, 43, 0, 16, 50, 62, 11, 0, 39, 26, 24, 2, 0, 38, 0, 1, 28, 15, 0, 55, 60, 4, 12, 27, 0, 57, 0, 36, 0, 0, 23, 45, 0, 30, 0, 0, 0, 7, 59, 54, 41, 18, 0, 64, 0, 0, 0, 8, 29, 48, 14, 40, 19, 0, 63
|14, 0, 0, 19, 0, 53, 39, 22, 4, 58, 50, 41, 55, 23, 0, 0, 0, 0, 46, 0, 1, 33, 0, 0, 42, 57, 25, 60, 40, 64, 52, 61, 0, 28, 0, 56, 7, 63, 26, 20, 62, 0, 0, 32, 44, 59, 0, 8, 9, 21, 48, 0, 29, 36, 34, 18, 10, 6, 0, 0, 5, 30, 11, 24
|26, 5, 52, 2, 55, 51, 0, 0, 0, 38, 0, 0, 0, 24, 64, 0, 45, 0, 6, 0, 4, 0, 59, 29, 10, 63, 0, 32, 44, 0, 33, 0, 31, 42, 0, 12, 21, 58, 15, 54, 0, 0, 46, 57, 28, 16, 37, 7, 27, 14, 60, 35, 1, 0, 3, 25, 0, 0, 34, 48, 0, 0, 61, 0
|0, 0, 27, 37, 59, 56, 11, 0, 3, 57, 21, 5, 15, 47, 0, 63, 48, 22, 42, 0, 30, 44, 32, 28, 20, 26, 0, 14, 0, 54, 0, 7, 36, 0, 0, 34, 60, 0, 50, 52, 0, 58, 53, 25, 41, 19, 9, 0, 43, 0, 0, 4, 6, 0, 64, 16, 40, 55, 1, 0, 51, 45, 17, 0
|0, 1, 4, 0, 34, 44, 62, 0, 46, 13, 7, 53, 43, 51, 12, 28, 25, 21, 16, 36, 11, 0, 3, 0, 0, 24, 48, 2, 30, 27, 0, 19, 9, 0, 40, 45, 0, 35, 0, 22, 33, 0, 26, 47, 56, 0, 38, 55, 0, 0, 0, 0, 15, 37, 0, 52, 0, 59, 58, 29, 41, 39, 0, 50
|32, 0, 18, 0, 24, 63, 0, 28, 9, 44, 29, 0, 37, 0, 26, 8, 0, 53, 0, 19, 41, 51, 0, 20, 0, 23, 0, 49, 0, 21, 0, 31, 59, 43, 17, 0, 61, 55, 30, 0, 22, 50, 6, 60, 34, 0, 52, 12, 0, 40, 0, 11, 56, 5, 0, 38, 0, 27, 4, 62, 3, 0, 25, 33
|20, 41, 33, 35, 47, 0, 25, 46, 59, 0, 0, 42, 0, 19, 0, 17, 49, 34, 0, 0, 0, 23, 62, 0, 0, 50, 56, 12, 9, 3, 13, 43, 2, 27, 1, 0, 48, 18, 8, 29, 5, 0, 61, 0, 64, 0, 24, 14, 55, 53, 45, 51, 0, 39, 0, 22, 0, 0, 60, 28, 0, 37, 21, 36
|38, 64, 23, 21, 40, 29, 42, 50, 39, 48, 34, 49, 0, 25, 33, 60, 52, 47, 9, 0, 14, 0, 61, 0, 11, 59, 0, 4, 0, 51, 15, 35, 6, 16, 13, 37, 0, 53, 5, 0, 1, 45, 31, 43, 2, 10, 0, 36, 30, 19, 24, 58, 8, 0, 62, 17, 0, 57, 0, 0, 0, 12, 46, 22
|54, 7, 36, 6, 58, 43, 17, 0, 20, 62, 1, 11, 61, 56, 27, 31, 39, 10, 38, 0, 8, 24, 5, 63, 0, 34, 22, 29, 41, 16, 0, 55, 0, 0, 51, 0, 0, 25, 4, 32, 35, 0, 23, 30, 48, 13, 0, 40, 28, 50, 0, 12, 47, 44, 26, 49, 64, 15, 0, 0, 18, 52, 0, 53
|34, 20, 30, 31, 4, 0, 12, 0, 27, 7, 52, 40, 41, 33, 8, 16, 62, 36, 3, 43, 25, 28, 56, 0, 24, 14, 53, 63, 0, 47, 26, 0, 39, 58, 0, 0, 18, 0, 64, 42, 61, 2, 37, 22, 38, 57, 32, 51, 29, 0, 0, 0, 23, 49, 19, 0, 0, 54, 35, 60, 1, 0, 45, 0
|36, 25, 37, 13, 0, 26, 0, 39, 50, 31, 32, 57, 19, 1, 0, 5, 34, 18, 0, 0, 45, 16, 0, 0, 12, 21, 7, 58, 0, 55, 20, 0, 29, 54, 0, 24, 47, 44, 51, 8, 30, 41, 0, 52, 0, 46, 40, 17, 10, 64, 0, 48, 4, 9, 42, 15, 22, 2, 61, 3, 0, 0, 0, 62
|0, 0, 0, 23, 2, 6, 38, 0, 61, 56, 0, 20, 63, 0, 0, 22, 0, 24, 0, 47, 26, 15, 41, 0, 31, 62, 0, 0, 29, 0, 64, 13, 25, 12, 32, 0, 0, 0, 21, 45, 60, 36, 0, 11, 0, 49, 53, 0, 8, 0, 40, 57, 54, 0, 58, 55, 43, 52, 44, 34, 0, 0, 0, 39
|55, 49, 50, 29, 0, 11, 0, 0, 10, 0, 12, 24, 38, 3, 0, 0, 2, 0, 60, 1, 22, 14, 40, 0, 0, 41, 51, 36, 0, 18, 48, 52, 19, 13, 20, 0, 0, 30, 34, 62, 58, 0, 21, 45, 0, 0, 0, 27, 0, 63, 35, 26, 0, 61, 31, 56, 15, 4, 5, 33, 8, 64, 42, 23
|0, 0, 41, 53, 57, 3, 64, 40, 54, 35, 15, 2, 51, 62, 55, 36, 9, 58, 21, 0, 32, 12, 48, 46, 0, 0, 23, 8, 0, 19, 16, 0, 1, 49, 59, 5, 6, 52, 0, 38, 0, 39, 4, 24, 0, 44, 13, 0, 14, 17, 0, 37, 60, 34, 30, 28, 26, 63, 20, 18, 25, 47, 7, 29
|0, 47, 7, 10, 0, 5, 0, 62, 0, 0, 0, 59, 4, 0, 39, 13, 11, 30, 0, 27, 49, 64, 0, 0, 57, 60, 1, 0, 61, 46, 34, 3, 0, 15, 56, 50, 26, 0, 2, 16, 20, 0, 54, 55, 0, 0, 8, 0, 0, 52, 12, 0, 0, 38, 6, 0, 41, 36, 0, 37, 32, 58, 0, 19
|21, 0, 0, 1, 56, 32, 33, 58, 34, 29, 0, 0, 0, 0, 42, 43, 0, 19, 44, 0, 50, 39, 8, 10, 4, 38, 0, 37, 45, 28, 0, 15, 35, 0, 60, 0, 0, 40, 31, 0, 7, 0, 12, 0, 0, 0, 59, 26, 41, 0, 22, 18, 16, 0, 0, 53, 9, 24, 57, 17, 13, 55, 51, 0
|35, 8, 0, 0, 19, 18, 24, 60, 48, 26, 58, 0, 0, 46, 23, 45, 59, 52, 7, 57, 13, 0, 33, 55, 44, 30, 27, 0, 49, 0, 2, 5, 53, 4, 61, 41, 0, 9, 37, 0, 0, 0, 16, 0, 1, 0, 6, 64, 36, 0, 39, 3, 0, 32, 43, 62, 0, 38, 12, 56, 31, 0, 14, 0
|11, 58, 60, 0, 13, 0, 5, 20, 29, 8, 31, 0, 12, 28, 15, 0, 56, 38, 48, 22, 55, 0, 0, 0, 59, 40, 64, 16, 47, 6, 0, 44, 4, 0, 0, 39, 37, 54, 0, 17, 50, 0, 0, 9, 57, 51, 49, 42, 0, 0, 21, 0, 0, 62, 25, 24, 2, 14, 27, 26, 34, 0, 19, 0
|0, 6, 16, 44, 7, 39, 41, 0, 55, 5, 4, 58, 2, 0, 50, 0, 40, 0, 10, 52, 0, 31, 30, 24, 0, 51, 42, 48, 56, 0, 18, 0, 0, 8, 47, 0, 0, 32, 0, 57, 26, 21, 60, 36, 59, 11, 0, 62, 23, 9, 17, 43, 28, 22, 14, 19, 0, 0, 37, 12, 64, 63, 0, 49
|51, 32, 14, 57, 0, 0, 46, 4, 21, 49, 60, 62, 0, 40, 22, 6, 26, 29, 13, 50, 7, 34, 44, 58, 27, 0, 12, 54, 37, 15, 36, 28, 41, 23, 0, 1, 0, 0, 52, 0, 53, 0, 35, 0, 0, 45, 0, 19, 39, 30, 42, 2, 0, 0, 59, 8, 61, 0, 18, 0, 20, 56, 24, 17
|49, 0, 40, 24, 38, 0, 30, 31, 41, 36, 20, 26, 13, 63, 9, 0, 1, 59, 0, 42, 0, 47, 0, 54, 3, 0, 57, 62, 0, 0, 11, 23, 0, 51, 46, 28, 35, 56, 0, 19, 39, 6, 58, 0, 37, 15, 14, 33, 34, 32, 0, 27, 0, 64, 4, 0, 53, 8, 16, 5, 48, 0, 52, 0
|42, 2, 54, 12, 0, 25, 47, 1, 53, 3, 27, 33, 45, 30, 61, 0, 36, 5, 15, 0, 0, 20, 0, 41, 52, 0, 14, 19, 38, 49, 50, 0, 0, 11, 24, 26, 62, 0, 0, 21, 4, 0, 0, 8, 23, 64, 10, 18, 56, 7, 29, 63, 46, 0, 0, 0, 59, 9, 28, 55, 39, 44, 31, 0
|9, 37, 35, 0, 26, 23, 3, 52, 11, 1, 0, 0, 56, 16, 0, 59, 64, 8, 63, 32, 39, 62, 0, 18, 58, 0, 0, 21, 0, 24, 60, 10, 12, 0, 14, 31, 0, 49, 48, 33, 17, 0, 0, 40, 30, 0, 47, 46, 0, 5, 44, 55, 0, 20, 45, 54, 29, 0, 6, 0, 42, 15, 43, 0
|0, 55, 29, 36, 0, 0, 0, 19, 0, 0, 46, 54, 14, 44, 37, 57, 16, 0, 12, 33, 0, 0, 4, 25, 9, 0, 0, 0, 0, 39, 8, 63, 7, 5, 0, 40, 0, 6, 0, 18, 0, 56, 0, 2, 0, 52, 28, 3, 48, 0, 51, 49, 26, 0, 15, 1, 35, 23, 0, 21, 45, 38, 47, 0
|0, 63, 8, 62, 61, 0, 0, 15, 64, 0, 25, 39, 0, 10, 24, 23, 0, 0, 28, 37, 51, 9, 49, 0, 0, 0, 0, 33, 0, 1, 0, 0, 45, 0, 58, 3, 0, 2, 0, 0, 0, 44, 48, 0, 7, 55, 12, 0, 38, 6, 41, 50, 13, 57, 47, 11, 46, 0, 32, 36, 0, 4, 54, 0
|16, 56, 64, 0, 1, 0, 0, 42, 62, 0, 41, 13, 21, 59, 46, 55, 7, 51, 33, 0, 0, 32, 37, 8, 47, 15, 26, 24, 43, 12, 27, 0, 17, 2, 18, 35, 34, 29, 11, 58, 0, 30, 9, 0, 25, 0, 0, 53, 60, 57, 38, 0, 31, 10, 0, 40, 0, 0, 54, 23, 52, 0, 4, 61
|22, 36, 55, 63, 41, 35, 40, 54, 0, 45, 0, 60, 0, 0, 0, 0, 28, 57, 0, 3, 56, 61, 9, 34, 51, 0, 18, 23, 10, 25, 0, 2, 0, 33, 4, 21, 32, 0, 7, 30, 0, 13, 59, 19, 12, 38, 29, 43, 15, 0, 53, 20, 48, 52, 0, 6, 47, 31, 17, 64, 0, 62, 50, 0
|0, 3, 2, 18, 10, 19, 37, 0, 7, 0, 17, 8, 36, 61, 53, 9, 24, 25, 0, 16, 62, 50, 43, 48, 0, 54, 6, 0, 20, 63, 38, 33, 14, 26, 23, 0, 45, 64, 13, 40, 32, 34, 15, 0, 0, 56, 60, 0, 51, 58, 49, 59, 42, 0, 55, 0, 1, 46, 30, 0, 11, 5, 0, 44
|7, 11, 0, 43, 0, 60, 0, 51, 0, 0, 0, 0, 0, 0, 54, 33, 18, 14, 0, 55, 63, 26, 15, 0, 17, 0, 62, 0, 0, 4, 46, 56, 8, 47, 0, 59, 38, 1, 0, 31, 3, 22, 0, 64, 6, 24, 36, 52, 0, 0, 0, 5, 0, 50, 0, 9, 45, 19, 0, 0, 57, 29, 53, 0
|0, 0, 38, 25, 6, 24, 0, 23, 18, 0, 39, 12, 52, 4, 0, 10, 5, 2, 31, 46, 59, 0, 54, 36, 40, 19, 11, 0, 13, 32, 53, 29, 0, 56, 0, 22, 15, 20, 60, 44, 55, 0, 47, 26, 16, 8, 45, 0, 0, 3, 0, 62, 41, 43, 63, 30, 28, 7, 42, 51, 27, 0, 0, 37
|0, 62, 5, 34, 0, 0, 0, 12, 24, 0, 63, 0, 26, 6, 57, 25, 0, 60, 47, 0, 23, 42, 20, 30, 0, 9, 16, 64, 21, 44, 0, 0, 43, 55, 52, 53, 3, 19, 36, 0, 41, 37, 33, 1, 0, 48, 27, 50, 4, 11, 54, 61, 32, 45, 29, 0, 0, 35, 40, 8, 58, 18, 2, 0
|8, 0, 0, 0, 30, 0, 15, 0, 2, 0, 48, 0, 35, 0, 47, 38, 27, 0, 1, 40, 64, 0, 17, 44, 39, 3, 50, 52, 60, 31, 0, 36, 37, 0, 0, 9, 10, 41, 24, 46, 51, 62, 7, 54, 58, 23, 61, 11, 19, 0, 56, 22, 0, 21, 18, 0, 63, 25, 49, 6, 0, 0, 34, 0
|50, 0, 53, 0, 52, 9, 59, 27, 0, 19, 0, 56, 0, 31, 43, 3, 41, 4, 22, 0, 35, 29, 0, 11, 5, 7, 0, 0, 34, 0, 57, 58, 28, 0, 6, 0, 63, 0, 12, 61, 18, 0, 17, 14, 0, 0, 39, 0, 46, 0, 0, 0, 37, 24, 16, 23, 48, 0, 0, 32, 0, 60, 36, 15
|48, 28, 11, 54, 9, 0, 16, 10, 25, 59, 0, 35, 31, 53, 1, 41, 0, 0, 51, 29, 46, 40, 45, 52, 21, 36, 13, 0, 4, 0, 7, 32, 0, 20, 19, 0, 0, 37, 56, 3, 0, 0, 0, 0, 39, 61, 23, 0, 5, 27, 0, 15, 0, 0, 44, 0, 55, 0, 0, 24, 62, 0, 57, 18
|5, 0, 0, 0, 63, 0, 36, 7, 30, 46, 55, 0, 62, 42, 40, 0, 0, 49, 0, 20, 12, 37, 16, 2, 0, 8, 0, 6, 25, 33, 24, 60, 48, 29, 0, 17, 0, 57, 39, 43, 52, 26, 45, 59, 0, 31, 18, 32, 0, 0, 0, 19, 9, 56, 10, 50, 21, 28, 0, 22, 53, 0, 1, 41
|2, 13, 56, 14, 8, 37, 0, 44, 6, 0, 54, 0, 29, 20, 3, 32, 60, 41, 34, 62, 0, 10, 27, 9, 55, 0, 0, 5, 31, 23, 0, 1, 0, 18, 33, 52, 50, 59, 0, 12, 21, 57, 25, 7, 0, 0, 42, 15, 47, 0, 28, 30, 40, 0, 11, 48, 16, 39, 64, 0, 0, 46, 0, 38
|40, 29, 0, 46, 3, 0, 26, 49, 0, 0, 0, 0, 0, 13, 0, 64, 30, 32, 8, 0, 28, 1, 0, 21, 0, 61, 10, 50, 57, 0, 51, 17, 38, 0, 0, 0, 11, 14, 42, 7, 44, 53, 2, 0, 19, 0, 5, 0, 62, 55, 58, 31, 0, 59, 0, 37, 0, 0, 0, 45, 0, 0, 48, 0
|0, 42, 22, 39, 12, 0, 0, 30, 0, 0, 57, 63, 23, 0, 0, 0, 0, 44, 55, 5, 43, 0, 0, 33, 45, 0, 37, 46, 3, 29, 54, 14, 0, 60, 31, 49, 41, 10, 0, 0, 0, 64, 20, 16, 0, 28, 56, 24, 25, 18, 32, 0, 21, 8, 53, 0, 0, 17, 36, 19, 61, 26, 0, 9
|0, 38, 0, 58, 0, 47, 60, 32, 43, 28, 45, 4, 9, 49, 21, 50, 0, 64, 0, 0, 57, 7, 39, 15, 34, 0, 44, 18, 0, 26, 0, 59, 16, 35, 25, 61, 0, 13, 46, 1, 10, 11, 3, 6, 0, 29, 17, 30, 0, 23, 20, 33, 24, 54, 12, 41, 0, 42, 0, 40, 37, 8, 5, 2
|0, 35, 1, 20, 0, 0, 0, 0, 19, 16, 24, 44, 0, 12, 0, 26, 17, 11, 53, 23, 61, 25, 18, 3, 48, 0, 0, 39, 28, 42, 40, 0, 0, 45, 21, 32, 58, 0, 6, 0, 54, 8, 63, 4, 9, 62, 50, 37, 49, 0, 57, 14, 7, 0, 51, 46, 30, 13, 0, 0, 0, 31, 56, 52
|0, 0, 0, 61, 25, 62, 21, 0, 33, 37, 0, 0, 8, 36, 11, 0, 0, 0, 19, 0, 0, 6, 24, 31, 2, 12, 9, 53, 52, 0, 49, 0, 5, 40, 26, 0, 30, 27, 28, 0, 47, 48, 14, 38, 46, 1, 55, 34, 22, 0, 16, 60, 43, 29, 35, 0, 0, 50, 0, 58, 54, 3, 32, 4|];