order = 8;
grid = [|0, 64, 51, 57, 29, 17, 0, 3, 44, 0, 41, 0, 12, 0, 58, 0, 0, 2, 0, 0, 45, 34, 4, 0, 50, 15, 42, 0, 0, 46, 38, 7, 63, 21, 59, 13, 0, 0, 0, 0, 52, 0, 23, 55, 11, 6, 0, 9, 20, 0, 10, 22, 0, 35, 14, 19, 1, 32, 31, 48, 16, 0, 61, 0
|32, 0, 40, 62, 1, 18, 59, 21, 51, 0, 0, 61, 31, 0, 0, 49, 48, 0, 8, 13, 63, 7, 0, 64, 10, 22, 0, 0, 57, 2, 0, 58, 0, 41, 9, 23, 38, 53, 37, 14, 35, 24, 0, 39, 3, 16, 54, 30, 42, 0, 52, 12, 0, 47, 29, 36, 45, 0, 4, 34, 27, 17, 6, 50
|20, 6, 0, 4, 49, 45, 0, 33, 46, 54, 18, 52, 28, 0, 32, 13, 44, 42, 0, 22, 27, 14, 0, 61, 5, 63, 40, 9, 39, 51, 0, 34, 12, 26, 0, 0, 55, 0, 0, 10, 37, 8, 31, 21, 2, 0, 0, 47, 0, 0, 0, 0, 0, 0, 56, 53, 0, 43, 3, 0, 0, 24, 23, 41
|0, 48, 0, 43, 0, 38, 52, 19, 0, 0, 14, 34, 22, 45, 39, 55, 53, 12, 40, 58, 50, 47, 0, 0, 20, 0, 0, 0, 23, 0, 30, 18, 0, 17, 33, 0, 3, 0, 0, 61, 7, 1, 57, 46, 62, 29, 41, 0, 32, 0, 27, 4, 49, 21, 9, 5, 0, 0, 44, 0, 15, 59, 0, 60
|0, 12, 0, 0, 0, 0, 0, 14, 6, 0, 4, 15, 17, 0, 16, 19, 26, 51, 0, 0, 0, 0, 3, 41, 29, 64, 21, 37, 27, 35, 48, 43, 60, 49, 0, 0, 22, 36, 42, 56, 18, 44, 25, 0, 13, 61, 10, 50, 34, 33, 45, 0, 54, 8, 39, 46, 11, 0, 63, 55, 47, 52, 0, 38
|16, 22, 15, 58, 0, 39, 56, 55, 20, 59, 33, 48, 27, 9, 0, 0, 1, 21, 19, 36, 54, 52, 37, 0, 11, 61, 17, 0, 3, 44, 47, 32, 30, 7, 51, 2, 29, 45, 0, 0, 0, 49, 4, 12, 42, 64, 43, 63, 24, 0, 0, 40, 23, 62, 18, 0, 25, 57, 0, 28, 35, 5, 14, 0
|30, 0, 0, 0, 0, 8, 0, 34, 0, 0, 0, 0, 0, 64, 47, 5, 43, 0, 0, 17, 29, 10, 24, 55, 45, 0, 28, 60, 0, 19, 4, 14, 35, 25, 15, 52, 0, 0, 32, 46, 0, 26, 20, 36, 53, 59, 40, 22, 7, 0, 50, 0, 0, 58, 44, 0, 0, 13, 54, 0, 0, 0, 0, 0
|0, 0, 44, 61, 0, 46, 0, 47, 2, 3, 0, 0, 57, 0, 7, 0, 23, 16, 32, 18, 62, 0, 9, 33, 36, 0, 13, 59, 52, 0, 1, 12, 0, 0, 0, 31, 20, 0, 0, 58, 60, 28, 0, 15, 48, 0, 17, 14, 63, 0, 0, 0, 0, 41, 64, 0, 0, 40, 0, 49, 0, 19, 22, 21
|35, 60, 0, 18, 26, 0, 33, 63, 13, 58, 57, 53, 2, 15, 3, 39, 45, 0, 55, 34, 0, 64, 0, 19, 52, 10, 16, 28, 0, 36, 0, 40, 48, 0, 42, 41, 56, 54, 22, 23, 27, 0, 47, 59, 24, 12, 0, 61, 0, 0, 29, 21, 44, 30, 7, 32, 6, 4, 8, 5, 49, 0, 43, 17
|0, 46, 32, 11, 0, 52, 0, 59, 0, 0, 37, 0, 0, 38, 0, 26, 5, 30, 0, 61, 7, 4, 0, 0, 64, 0, 48, 33, 25, 0, 51, 2, 39, 0, 10, 1, 21, 0, 45, 0, 0, 3, 60, 13, 17, 56, 0, 35, 47, 6, 18, 49, 0, 22, 28, 14, 57, 23, 58, 15, 0, 42, 27, 36
|36, 44, 0, 0, 45, 30, 10, 15, 0, 32, 6, 43, 46, 61, 11, 0, 56, 0, 35, 33, 58, 49, 28, 31, 7, 0, 50, 42, 0, 38, 0, 0, 17, 0, 55, 62, 12, 63, 51, 13, 14, 23, 0, 64, 19, 5, 1, 52, 57, 20, 9, 48, 0, 0, 26, 27, 41, 0, 0, 22, 0, 0, 0, 40
|53, 61, 56, 0, 0, 5, 0, 0, 48, 0, 10, 27, 54, 35, 4, 47, 11, 23, 62, 6, 0, 0, 0, 1, 55, 0, 0, 34, 24, 22, 0, 30, 14, 32, 0, 0, 0, 0, 0, 0, 58, 41, 26, 0, 0, 0, 2, 0, 50, 40, 15, 0, 12, 42, 16, 52, 9, 60, 0, 0, 51, 0, 0, 0
|0, 0, 22, 0, 8, 58, 64, 37, 42, 0, 0, 12, 0, 28, 0, 23, 0, 52, 0, 0, 17, 0, 40, 0, 32, 13, 0, 26, 0, 56, 0, 0, 47, 27, 3, 0, 33, 0, 0, 24, 0, 29, 18, 57, 55, 50, 21, 48, 25, 19, 0, 5, 0, 61, 51, 59, 39, 0, 0, 30, 31, 54, 0, 7
|28, 0, 6, 27, 42, 12, 2, 1, 0, 20, 0, 0, 29, 17, 25, 52, 32, 13, 47, 48, 22, 37, 39, 10, 19, 9, 57, 58, 21, 18, 0, 44, 0, 60, 38, 46, 50, 0, 5, 0, 45, 0, 0, 49, 51, 54, 0, 7, 43, 41, 53, 0, 63, 0, 24, 23, 61, 62, 0, 3, 14, 33, 55, 59
|0, 0, 0, 24, 34, 21, 57, 16, 1, 40, 0, 59, 0, 0, 49, 51, 0, 8, 18, 14, 0, 0, 0, 0, 31, 23, 27, 0, 37, 0, 0, 0, 52, 28, 0, 0, 30, 0, 58, 36, 10, 15, 0, 6, 44, 9, 33, 42, 64, 39, 0, 62, 55, 13, 0, 0, 47, 26, 25, 56, 0, 48, 19, 32
|0, 0, 62, 0, 55, 48, 7, 0, 19, 5, 0, 9, 14, 16, 0, 0, 27, 0, 36, 21, 15, 0, 59, 42, 53, 35, 3, 0, 0, 61, 0, 0, 0, 57, 44, 34, 43, 0, 29, 37, 0, 32, 0, 25, 63, 0, 4, 31, 38, 46, 58, 8, 17, 0, 0, 56, 50, 0, 18, 13, 0, 0, 28, 0
|46, 0, 59, 36, 40, 19, 35, 18, 0, 28, 48, 51, 0, 25, 0, 56, 0, 62, 45, 0, 16, 58, 0, 0, 0, 0, 15, 63, 0, 6, 2, 31, 0, 11, 0, 24, 0, 57, 0, 0, 5, 12, 44, 26, 0, 0, 30, 60, 17, 0, 13, 9, 33, 29, 0, 0, 38, 55, 10, 0, 32, 3, 7, 14
|0, 43, 30, 17, 64, 16, 13, 0, 54, 33, 0, 14, 0, 5, 40, 0, 9, 38, 50, 32, 4, 12, 0, 7, 26, 0, 46, 39, 47, 11, 23, 59, 18, 52, 28, 56, 51, 0, 20, 55, 19, 27, 62, 0, 37, 48, 0, 41, 35, 0, 60, 63, 3, 53, 0, 10, 0, 49, 61, 57, 0, 0, 45, 31
|0, 51, 0, 0, 2, 15, 1, 26, 21, 35, 3, 7, 8, 0, 0, 0, 10, 31, 54, 40, 11, 41, 0, 13, 57, 20, 55, 0, 18, 9, 0, 52, 37, 0, 53, 44, 58, 0, 0, 0, 0, 0, 22, 23, 39, 63, 0, 49, 14, 0, 0, 50, 0, 46, 32, 0, 0, 47, 0, 64, 0, 56, 4, 0
|54, 63, 9, 0, 4, 0, 41, 0, 62, 43, 0, 47, 42, 0, 13, 31, 46, 5, 28, 39, 0, 55, 29, 60, 1, 50, 12, 48, 7, 45, 17, 24, 6, 16, 14, 0, 15, 0, 34, 0, 40, 52, 3, 33, 58, 10, 0, 57, 2, 0, 0, 30, 0, 0, 20, 8, 26, 35, 59, 27, 11, 0, 21, 0
|12, 0, 28, 8, 0, 42, 39, 0, 0, 23, 38, 0, 0, 0, 55, 4, 0, 27, 37, 0, 0, 0, 36, 3, 21, 0, 58, 14, 30, 43, 29, 62, 9, 2, 46, 61, 0, 22, 40, 49, 0, 47, 7, 0, 31, 34, 56, 0, 52, 48, 64, 26, 24, 59, 0, 15, 19, 50, 16, 54, 33, 63, 60, 6
|0, 25, 11, 0, 3, 33, 49, 7, 58, 29, 26, 57, 20, 0, 6, 37, 17, 0, 0, 24, 43, 63, 1, 2, 60, 0, 0, 0, 28, 64, 27, 13, 62, 5, 41, 0, 8, 0, 10, 0, 59, 9, 36, 53, 35, 46, 0, 16, 0, 45, 0, 0, 0, 19, 31, 38, 23, 0, 52, 39, 0, 18, 51, 0
|50, 21, 53, 38, 5, 0, 48, 0, 27, 19, 15, 60, 24, 63, 12, 64, 30, 61, 34, 47, 14, 18, 56, 0, 0, 49, 44, 0, 35, 33, 0, 10, 29, 3, 0, 32, 26, 31, 17, 59, 54, 51, 45, 0, 28, 11, 55, 0, 0, 1, 36, 41, 7, 57, 58, 40, 0, 42, 46, 0, 0, 0, 8, 0
|31, 27, 52, 47, 24, 22, 20, 10, 0, 16, 9, 39, 30, 46, 17, 45, 0, 59, 15, 26, 44, 33, 51, 57, 0, 0, 56, 38, 0, 4, 19, 8, 13, 50, 35, 63, 0, 0, 43, 60, 21, 0, 42, 61, 14, 32, 29, 2, 23, 62, 55, 0, 0, 0, 0, 54, 0, 0, 0, 58, 41, 28, 48, 5
|0, 0, 8, 51, 52, 62, 47, 0, 35, 10, 29, 26, 59, 39, 42, 46, 14, 11, 0, 0, 23, 0, 16, 30, 15, 28, 4, 0, 2, 0, 50, 36, 1, 55, 25, 0, 31, 40, 12, 9, 0, 37, 64, 41, 45, 17, 22, 13, 18, 38, 0, 43, 34, 48, 21, 49, 32, 0, 57, 61, 54, 27, 5, 58
|22, 1, 19, 0, 0, 64, 4, 60, 17, 34, 0, 21, 0, 56, 53, 0, 36, 0, 7, 37, 0, 45, 0, 0, 0, 0, 62, 6, 0, 41, 0, 42, 0, 0, 2, 0, 47, 59, 57, 0, 23, 0, 0, 38, 0, 30, 0, 39, 0, 0, 54, 3, 52, 0, 55, 28, 49, 33, 24, 14, 8, 31, 40, 12
|58, 37, 0, 5, 7, 10, 34, 40, 0, 0, 47, 0, 0, 3, 54, 18, 0, 0, 26, 50, 55, 1, 57, 38, 61, 24, 64, 45, 14, 49, 12, 39, 15, 19, 0, 28, 11, 0, 0, 52, 43, 42, 32, 48, 33, 0, 0, 36, 8, 53, 22, 0, 0, 9, 0, 16, 0, 44, 51, 41, 0, 13, 46, 56
|11, 0, 0, 0, 0, 0, 55, 6, 5, 44, 0, 62, 43, 27, 14, 12, 2, 0, 33, 20, 49, 32, 61, 0, 0, 0, 0, 52, 9, 10, 0, 29, 0, 0, 24, 35, 37, 3, 0, 48, 0, 4, 0, 0, 0, 1, 8, 0, 15, 51, 0, 45, 0, 23, 13, 58, 63, 16, 64, 18, 38, 25, 36, 0
|0, 39, 2, 15, 18, 0, 0, 28, 40, 8, 7, 0, 4, 30, 51, 57, 19, 9, 52, 64, 31, 0, 54, 0, 34, 0, 0, 46, 11, 13, 3, 22, 33, 44, 0, 27, 16, 38, 56, 45, 55, 59, 24, 62, 12, 0, 14, 6, 10, 0, 63, 0, 36, 0, 50, 0, 29, 53, 20, 35, 48, 37, 1, 47
|49, 26, 46, 13, 0, 0, 14, 32, 16, 52, 24, 55, 23, 11, 38, 36, 3, 0, 0, 56, 40, 51, 12, 0, 0, 33, 0, 21, 59, 30, 20, 19, 22, 18, 0, 42, 63, 60, 64, 8, 0, 25, 53, 34, 54, 2, 28, 29, 61, 0, 0, 47, 37, 39, 27, 0, 15, 6, 43, 0, 17, 10, 0, 45
|0, 0, 29, 16, 33, 54, 9, 12, 0, 0, 20, 37, 25, 32, 45, 22, 41, 35, 0, 42, 21, 46, 13, 0, 38, 43, 18, 0, 56, 26, 0, 0, 58, 0, 0, 10, 36, 5, 23, 53, 0, 0, 0, 0, 0, 51, 31, 11, 6, 24, 7, 64, 14, 1, 4, 44, 34, 0, 62, 52, 55, 30, 59, 3
|45, 53, 23, 31, 0, 0, 0, 0, 33, 0, 64, 13, 0, 58, 1, 63, 62, 0, 24, 15, 0, 0, 8, 34, 37, 57, 47, 51, 54, 55, 7, 35, 0, 0, 0, 17, 0, 0, 14, 41, 61, 0, 52, 20, 27, 0, 16, 10, 56, 0, 30, 19, 2, 40, 46, 0, 0, 9, 11, 21, 42, 39, 26, 28
|0, 24, 0, 55, 21, 0, 43, 46, 7, 4, 0, 0, 38, 2, 28, 0, 59, 0, 0, 45, 52, 0, 0, 0, 49, 27, 31, 18, 8, 23, 44, 0, 0, 47, 54, 0, 9, 0, 30, 0, 33, 20, 63, 40, 34, 13, 48, 0, 0, 0, 19, 16, 0, 50, 0, 11, 0, 17, 0, 0, 39, 32, 12, 37
|59, 9, 34, 41, 36, 50, 12, 4, 47, 0, 0, 42, 0, 0, 61, 62, 0, 29, 5, 49, 60, 3, 48, 0, 56, 0, 35, 20, 55, 39, 10, 28, 2, 6, 58, 0, 44, 11, 25, 32, 30, 0, 0, 0, 0, 0, 46, 0, 13, 23, 0, 53, 0, 64, 43, 31, 0, 0, 0, 0, 0, 40, 63, 57
|0, 0, 0, 0, 32, 3, 58, 38, 43, 0, 0, 0, 63, 0, 35, 59, 13, 40, 21, 30, 18, 36, 0, 44, 0, 17, 14, 47, 0, 5, 0, 9, 7, 42, 56, 20, 53, 52, 50, 28, 29, 2, 61, 0, 0, 22, 6, 62, 27, 4, 0, 0, 1, 37, 0, 33, 0, 0, 23, 11, 60, 26, 10, 55
|39, 17, 0, 26, 6, 0, 53, 45, 0, 55, 34, 0, 16, 33, 46, 0, 37, 0, 23, 0, 56, 62, 47, 20, 43, 11, 61, 57, 0, 1, 25, 0, 0, 35, 36, 29, 40, 0, 0, 63, 15, 7, 0, 0, 0, 0, 0, 44, 0, 8, 5, 2, 9, 10, 38, 24, 27, 0, 50, 31, 64, 14, 30, 51
|42, 0, 31, 0, 22, 1, 0, 0, 0, 0, 11, 20, 49, 60, 0, 17, 38, 0, 43, 0, 39, 53, 2, 0, 0, 0, 19, 16, 40, 21, 58, 0, 24, 46, 37, 33, 27, 8, 59, 0, 25, 0, 0, 5, 50, 14, 0, 55, 62, 44, 48, 6, 0, 51, 52, 57, 13, 29, 36, 0, 61, 15, 9, 0
|48, 0, 54, 63, 11, 20, 5, 8, 50, 0, 13, 44, 32, 37, 9, 41, 64, 0, 42, 0, 0, 0, 58, 0, 0, 38, 6, 15, 22, 12, 46, 0, 61, 45, 21, 49, 0, 39, 0, 43, 0, 0, 10, 35, 47, 0, 23, 0, 26, 0, 14, 59, 29, 0, 30, 17, 0, 0, 0, 19, 0, 0, 3, 52
|18, 35, 33, 0, 47, 61, 0, 62, 39, 0, 0, 31, 0, 40, 29, 0, 57, 25, 9, 8, 24, 22, 0, 26, 13, 59, 0, 2, 50, 0, 54, 37, 4, 0, 16, 48, 0, 51, 15, 12, 11, 53, 17, 0, 32, 58, 0, 64, 60, 0, 20, 46, 0, 3, 49, 55, 0, 0, 0, 43, 44, 6, 0, 42
|44, 2, 0, 0, 37, 14, 0, 0, 64, 1, 53, 0, 56, 24, 8, 0, 16, 0, 6, 0, 0, 28, 50, 0, 0, 29, 32, 62, 0, 0, 36, 33, 55, 0, 26, 0, 23, 13, 31, 17, 41, 39, 38, 0, 9, 43, 19, 59, 40, 0, 61, 58, 18, 0, 0, 0, 21, 0, 48, 0, 4, 20, 49, 0
|0, 54, 48, 28, 20, 0, 27, 0, 0, 12, 49, 64, 51, 59, 52, 43, 0, 50, 25, 0, 13, 61, 30, 35, 41, 0, 38, 0, 0, 58, 11, 0, 0, 0, 0, 15, 24, 10, 33, 44, 4, 36, 46, 3, 0, 42, 5, 34, 55, 0, 6, 7, 56, 0, 53, 45, 0, 39, 0, 0, 1, 29, 18, 0
|47, 58, 7, 0, 17, 23, 40, 42, 0, 26, 0, 46, 0, 31, 0, 0, 55, 15, 39, 29, 19, 54, 0, 48, 12, 0, 52, 30, 32, 37, 0, 61, 0, 0, 0, 59, 0, 62, 18, 0, 63, 22, 33, 9, 6, 0, 0, 0, 0, 0, 49, 0, 41, 0, 2, 34, 53, 21, 27, 38, 36, 35, 0, 24
|21, 0, 5, 50, 0, 0, 0, 64, 53, 0, 39, 36, 33, 7, 37, 15, 0, 34, 63, 0, 0, 23, 62, 9, 0, 0, 0, 0, 1, 0, 0, 27, 45, 54, 32, 55, 49, 46, 19, 6, 47, 35, 14, 28, 59, 40, 0, 18, 31, 0, 0, 24, 8, 17, 0, 0, 0, 0, 2, 0, 0, 61, 58, 43
|0, 0, 37, 0, 14, 13, 0, 11, 0, 18, 54, 29, 0, 8, 2, 42, 24, 47, 16, 43, 0, 17, 0, 0, 59, 21, 0, 3, 0, 57, 35, 60, 0, 0, 48, 0, 41, 0, 38, 0, 0, 30, 0, 10, 0, 0, 64, 0, 33, 58, 0, 32, 0, 52, 19, 1, 28, 63, 55, 23, 45, 0, 25, 0
|3, 55, 0, 44, 51, 0, 45, 29, 57, 0, 17, 40, 35, 19, 0, 38, 4, 53, 58, 28, 59, 8, 6, 18, 23, 0, 49, 54, 0, 15, 64, 63, 34, 30, 50, 11, 0, 16, 52, 0, 2, 62, 12, 0, 41, 0, 0, 21, 48, 27, 25, 10, 46, 36, 61, 39, 5, 22, 0, 0, 9, 7, 0, 33
|0, 62, 0, 60, 63, 4, 32, 49, 23, 47, 16, 58, 55, 0, 30, 34, 20, 0, 1, 0, 41, 2, 45, 22, 33, 18, 5, 17, 46, 0, 24, 56, 0, 51, 0, 0, 0, 26, 3, 35, 48, 13, 39, 0, 25, 31, 57, 38, 0, 0, 0, 28, 0, 43, 40, 0, 54, 52, 6, 44, 10, 64, 0, 0
|8, 52, 0, 59, 19, 43, 46, 0, 61, 27, 0, 4, 0, 0, 44, 0, 12, 26, 0, 51, 0, 21, 38, 37, 0, 2, 0, 0, 34, 48, 40, 0, 23, 22, 0, 0, 64, 17, 0, 57, 0, 58, 0, 11, 29, 7, 53, 0, 3, 0, 62, 54, 15, 16, 63, 0, 42, 31, 32, 0, 56, 60, 41, 30
|57, 33, 0, 53, 15, 35, 0, 0, 45, 41, 22, 63, 6, 10, 62, 0, 7, 14, 11, 0, 32, 42, 5, 56, 28, 0, 39, 0, 0, 25, 0, 50, 31, 36, 61, 0, 2, 58, 0, 21, 49, 54, 0, 16, 0, 26, 0, 17, 29, 0, 4, 0, 20, 38, 23, 0, 46, 3, 40, 12, 59, 34, 13, 0
|0, 29, 0, 0, 0, 7, 18, 54, 15, 0, 21, 23, 0, 0, 50, 2, 0, 6, 51, 11, 9, 48, 0, 28, 35, 8, 0, 10, 19, 27, 33, 16, 41, 0, 0, 14, 59, 0, 26, 38, 1, 17, 34, 52, 36, 0, 3, 12, 46, 64, 40, 31, 58, 24, 57, 4, 44, 0, 0, 60, 0, 0, 39, 20
|0, 23, 0, 0, 10, 26, 30, 43, 14, 13, 1, 8, 62, 41, 5, 0, 58, 0, 59, 0, 36, 40, 49, 24, 9, 39, 0, 64, 12, 53, 57, 20, 21, 0, 0, 18, 52, 50, 61, 2, 0, 31, 29, 44, 22, 33, 45, 0, 0, 42, 0, 27, 38, 6, 0, 60, 55, 11, 0, 51, 28, 16, 0, 0
|0, 4, 38, 22, 44, 40, 31, 9, 59, 61, 51, 0, 0, 0, 27, 60, 8, 57, 0, 3, 47, 16, 34, 45, 48, 32, 0, 23, 0, 62, 18, 0, 42, 0, 20, 36, 5, 33, 0, 0, 50, 43, 37, 7, 56, 25, 0, 24, 12, 14, 39, 0, 53, 28, 0, 21, 35, 10, 41, 63, 0, 0, 0, 0
|0, 56, 45, 0, 0, 60, 42, 48, 0, 0, 31, 0, 34, 12, 36, 0, 0, 7, 0, 0, 37, 0, 0, 62, 54, 14, 0, 50, 5, 29, 0, 21, 16, 8, 57, 40, 17, 0, 63, 1, 20, 0, 0, 27, 0, 47, 35, 58, 49, 0, 26, 0, 19, 25, 33, 43, 2, 0, 0, 59, 3, 4, 0, 18
|0, 13, 17, 33, 0, 0, 50, 20, 24, 6, 55, 45, 39, 54, 0, 16, 15, 0, 14, 0, 2, 5, 63, 21, 22, 37, 60, 40, 0, 28, 0, 51, 43, 53, 31, 4, 0, 0, 0, 3, 0, 48, 9, 30, 0, 49, 62, 46, 36, 34, 8, 35, 59, 56, 10, 0, 0, 0, 12, 26, 57, 0, 0, 23
|2, 8, 0, 12, 25, 51, 63, 0, 0, 57, 58, 3, 52, 20, 43, 30, 18, 64, 10, 1, 53, 0, 0, 0, 46, 36, 24, 7, 38, 0, 59, 6, 49, 9, 60, 45, 34, 28, 39, 22, 0, 14, 0, 54, 16, 19, 61, 23, 0, 0, 0, 0, 0, 0, 0, 48, 31, 0, 0, 0, 40, 50, 33, 0
|24, 19, 0, 39, 53, 0, 0, 0, 0, 7, 40, 18, 0, 47, 0, 32, 31, 33, 20, 25, 0, 0, 43, 54, 17, 1, 34, 56, 13, 3, 0, 4, 51, 0, 0, 58, 0, 44, 35, 15, 28, 10, 0, 0, 57, 60, 59, 0, 45, 30, 37, 29, 5, 0, 22, 50, 36, 14, 42, 0, 6, 62, 38, 49
|0, 11, 14, 1, 0, 36, 0, 0, 29, 9, 46, 28, 0, 4, 0, 35, 22, 60, 0, 0, 0, 0, 0, 50, 30, 0, 0, 49, 0, 47, 26, 25, 10, 48, 27, 54, 0, 6, 0, 0, 38, 40, 51, 2, 5, 0, 39, 0, 16, 3, 23, 18, 61, 63, 17, 20, 8, 56, 0, 0, 34, 45, 24, 64
|51, 57, 35, 54, 16, 0, 0, 5, 34, 0, 43, 0, 13, 0, 20, 11, 50, 0, 64, 63, 0, 0, 0, 0, 0, 19, 22, 1, 0, 0, 53, 0, 26, 12, 18, 60, 28, 0, 41, 29, 8, 0, 0, 58, 0, 62, 42, 32, 30, 0, 3, 23, 47, 27, 0, 9, 59, 15, 45, 0, 37, 38, 31, 4
|4, 3, 0, 19, 12, 63, 0, 0, 36, 0, 0, 0, 18, 52, 0, 7, 0, 58, 17, 62, 6, 44, 20, 15, 47, 45, 11, 29, 0, 0, 34, 46, 38, 24, 22, 30, 0, 1, 2, 0, 31, 57, 48, 14, 26, 28, 9, 43, 51, 59, 42, 13, 0, 0, 8, 61, 56, 0, 49, 0, 50, 23, 35, 54
|1, 38, 58, 20, 61, 59, 0, 17, 4, 64, 30, 2, 40, 0, 31, 10, 35, 37, 3, 9, 8, 0, 33, 53, 18, 54, 51, 12, 48, 0, 0, 0, 19, 0, 0, 0, 0, 47, 6, 11, 0, 0, 13, 45, 60, 15, 49, 5, 0, 52, 46, 0, 0, 44, 41, 0, 14, 27, 39, 0, 63, 43, 0, 0
|0, 18, 39, 0, 0, 32, 37, 25, 60, 0, 59, 0, 19, 1, 0, 54, 0, 0, 29, 46, 5, 11, 22, 36, 62, 58, 26, 0, 4, 0, 41, 3, 8, 0, 0, 9, 35, 34, 44, 0, 0, 0, 16, 50, 30, 23, 47, 33, 53, 0, 0, 0, 0, 31, 0, 63, 17, 7, 28, 40, 0, 0, 0, 0
|0, 0, 26, 23, 27, 34, 8, 50, 63, 46, 5, 0, 3, 14, 21, 28, 0, 45, 13, 0, 1, 60, 7, 32, 39, 0, 0, 0, 17, 59, 0, 57, 36, 0, 52, 43, 48, 0, 16, 4, 51, 61, 41, 24, 0, 44, 20, 19, 58, 54, 12, 38, 40, 0, 35, 18, 0, 30, 9, 6, 29, 55, 11, 0
|0, 7, 64, 0, 13, 47, 15, 2, 12, 42, 44, 0, 61, 62, 23, 9, 34, 0, 0, 31, 57, 30, 41, 59, 0, 52, 36, 5, 20, 50, 21, 55, 25, 63, 45, 51, 0, 14, 46, 54, 0, 56, 0, 0, 38, 53, 37, 40, 28, 26, 24, 11, 0, 0, 60, 6, 3, 0, 0, 16, 19, 58, 32, 1
|41, 30, 43, 29, 46, 11, 62, 52, 25, 53, 0, 16, 58, 51, 15, 24, 40, 0, 0, 4, 28, 56, 26, 23, 0, 44, 0, 0, 64, 60, 6, 0, 5, 20, 17, 21, 42, 55, 49, 31, 39, 63, 0, 18, 1, 3, 0, 54, 37, 10, 32, 14, 50, 45, 36, 22, 33, 0, 47, 8, 0, 0, 0, 2
|40, 0, 21, 42, 0, 0, 36, 31, 8, 0, 0, 50, 47, 0, 0, 29, 51, 49, 0, 54, 48, 0, 18, 0, 0, 30, 0, 35, 63, 7, 13, 0, 59, 0, 23, 3, 61, 32, 53, 33, 0, 11, 2, 22, 0, 4, 25, 27, 19, 0, 1, 0, 0, 55, 34, 62, 12, 46, 60, 0, 5, 41, 20, 0|];