order = 8;
grid = [|18, 32, 0, 0, 61, 11, 17, 0, 0, 46, 57, 34, 0, 0, 41, 24, 49, 26, 0, 29, 0, 37, 28, 0, 0, 55, 38, 44, 48, 0, 39, 0, 0, 0, 0, 51, 33, 58, 0, 5, 63, 3, 0, 4, 0, 52, 0, 54, 43, 60, 20, 42, 19, 15, 12, 0, 36, 0, 0, 7, 9, 0, 2, 56
|0, 0, 39, 41, 0, 59, 0, 43, 47, 22, 0, 10, 0, 38, 58, 44, 17, 6, 0, 20, 0, 0, 7, 19, 31, 40, 45, 51, 0, 15, 62, 36, 0, 54, 0, 0, 0, 52, 35, 11, 32, 55, 0, 0, 48, 33, 0, 60, 5, 0, 26, 13, 0, 29, 0, 56, 3, 0, 53, 24, 0, 0, 8, 0
|3, 38, 6, 62, 0, 10, 26, 0, 60, 19, 25, 2, 56, 48, 8, 0, 5, 32, 42, 44, 0, 15, 33, 23, 1, 0, 35, 53, 28, 0, 0, 0, 39, 20, 40, 13, 0, 4, 24, 7, 0, 29, 0, 49, 27, 0, 22, 21, 37, 64, 17, 11, 16, 54, 57, 36, 30, 61, 55, 0, 59, 51, 0, 31
|0, 0, 30, 51, 35, 1, 21, 28, 39, 13, 12, 18, 42, 27, 0, 29, 43, 64, 59, 38, 3, 63, 0, 0, 25, 26, 0, 0, 0, 54, 17, 5, 47, 37, 56, 32, 48, 55, 19, 49, 0, 31, 34, 0, 24, 0, 20, 8, 0, 53, 61, 62, 10, 22, 41, 45, 52, 50, 46, 23, 0, 33, 16, 6
|20, 0, 27, 29, 33, 60, 52, 34, 0, 21, 9, 0, 0, 30, 0, 17, 0, 48, 35, 0, 41, 0, 10, 11, 61, 0, 32, 56, 22, 18, 59, 12, 0, 16, 0, 0, 38, 0, 57, 31, 0, 0, 13, 19, 45, 7, 62, 0, 46, 0, 0, 44, 40, 0, 8, 0, 0, 47, 64, 14, 63, 4, 25, 58
|53, 0, 0, 58, 13, 44, 0, 48, 11, 4, 0, 50, 16, 0, 45, 3, 0, 0, 55, 25, 30, 52, 0, 46, 20, 0, 0, 47, 41, 0, 19, 14, 17, 36, 0, 0, 22, 1, 60, 18, 0, 0, 12, 5, 23, 61, 26, 43, 63, 2, 9, 49, 6, 21, 35, 38, 0, 29, 57, 54, 62, 0, 27, 28
|12, 24, 36, 5, 16, 54, 56, 0, 0, 62, 0, 40, 32, 61, 0, 0, 2, 57, 0, 14, 60, 31, 22, 18, 64, 0, 42, 0, 50, 49, 29, 37, 63, 27, 30, 21, 0, 3, 44, 45, 41, 11, 35, 38, 9, 17, 10, 0, 58, 47, 0, 25, 0, 52, 0, 59, 15, 20, 19, 48, 34, 26, 43, 39
|46, 37, 9, 31, 19, 55, 45, 40, 63, 52, 59, 0, 5, 0, 20, 0, 8, 58, 51, 34, 0, 0, 0, 0, 30, 3, 13, 33, 60, 16, 0, 23, 64, 29, 0, 61, 2, 26, 15, 41, 56, 0, 6, 0, 0, 0, 57, 0, 4, 28, 7, 39, 18, 48, 0, 32, 0, 49, 44, 11, 22, 35, 38, 17
|35, 48, 45, 55, 8, 0, 0, 0, 25, 56, 23, 1, 14, 0, 39, 47, 54, 0, 53, 50, 37, 33, 0, 5, 13, 46, 41, 24, 4, 7, 9, 17, 0, 0, 52, 0, 36, 57, 16, 26, 31, 60, 49, 20, 0, 38, 0, 64, 59, 3, 0, 0, 27, 2, 0, 61, 22, 12, 34, 44, 51, 11, 0, 63
|56, 40, 16, 26, 21, 19, 27, 0, 0, 58, 7, 29, 0, 17, 0, 10, 44, 8, 0, 30, 13, 45, 46, 64, 0, 20, 50, 5, 47, 28, 57, 31, 1, 60, 41, 0, 23, 0, 38, 0, 4, 53, 25, 2, 61, 34, 15, 12, 32, 11, 14, 22, 36, 43, 54, 62, 24, 18, 35, 49, 37, 0, 52, 0
|61, 36, 60, 63, 2, 33, 28, 0, 5, 0, 13, 9, 21, 24, 62, 38, 16, 40, 0, 51, 0, 34, 12, 52, 0, 0, 55, 22, 42, 8, 15, 58, 31, 0, 0, 7, 64, 32, 0, 44, 0, 0, 3, 0, 35, 29, 39, 41, 49, 37, 57, 0, 0, 0, 0, 4, 26, 0, 0, 47, 54, 0, 30, 14
|24, 13, 41, 46, 34, 29, 53, 37, 49, 64, 63, 3, 15, 0, 0, 45, 22, 31, 0, 19, 0, 55, 39, 28, 62, 44, 0, 12, 18, 59, 32, 35, 33, 0, 58, 0, 43, 5, 0, 14, 0, 0, 48, 54, 21, 56, 52, 0, 7, 51, 25, 6, 20, 0, 38, 8, 27, 36, 0, 0, 40, 50, 4, 0
|10, 0, 49, 52, 5, 32, 12, 0, 0, 0, 0, 35, 0, 37, 50, 51, 20, 62, 0, 63, 36, 3, 56, 25, 0, 0, 16, 14, 0, 60, 30, 61, 15, 8, 54, 42, 0, 0, 53, 48, 47, 45, 44, 27, 43, 0, 24, 19, 28, 58, 39, 26, 0, 9, 0, 0, 0, 41, 17, 0, 0, 29, 33, 0
|43, 22, 51, 0, 0, 0, 38, 14, 0, 36, 32, 19, 12, 0, 0, 59, 58, 0, 0, 0, 9, 23, 21, 0, 49, 0, 56, 29, 11, 48, 0, 10, 0, 24, 55, 40, 4, 13, 3, 63, 0, 0, 18, 0, 6, 30, 5, 57, 42, 0, 41, 52, 50, 0, 0, 33, 0, 60, 28, 62, 0, 64, 7, 8
|0, 0, 54, 0, 64, 0, 11, 0, 46, 0, 0, 0, 0, 0, 44, 0, 26, 4, 60, 27, 1, 17, 49, 7, 36, 33, 6, 25, 52, 0, 0, 0, 30, 0, 2, 45, 61, 9, 28, 12, 0, 0, 0, 55, 13, 50, 63, 62, 0, 0, 15, 35, 48, 24, 23, 5, 58, 21, 20, 38, 0, 0, 56, 32
|0, 30, 50, 17, 9, 0, 42, 0, 0, 0, 20, 26, 0, 0, 52, 61, 48, 14, 57, 24, 59, 32, 29, 0, 0, 38, 64, 0, 0, 3, 2, 27, 22, 56, 0, 0, 10, 49, 0, 37, 36, 7, 8, 16, 0, 40, 0, 51, 44, 18, 45, 12, 63, 1, 0, 60, 43, 0, 5, 39, 19, 15, 0, 55
|40, 1, 14, 0, 10, 57, 0, 55, 8, 27, 0, 47, 11, 44, 60, 52, 0, 54, 24, 3, 7, 56, 0, 61, 0, 0, 0, 0, 16, 50, 46, 62, 0, 21, 0, 58, 0, 0, 34, 35, 0, 39, 0, 0, 31, 0, 0, 0, 0, 25, 0, 0, 49, 45, 2, 0, 63, 37, 51, 0, 6, 0, 0, 33
|58, 0, 4, 19, 23, 46, 34, 39, 0, 41, 48, 0, 0, 0, 61, 5, 0, 21, 52, 0, 53, 0, 25, 49, 44, 47, 14, 45, 0, 0, 0, 63, 0, 0, 15, 24, 32, 31, 36, 0, 28, 6, 0, 56, 22, 18, 0, 0, 10, 1, 29, 3, 35, 62, 11, 37, 2, 7, 59, 13, 64, 0, 54, 0
|64, 62, 0, 0, 0, 6, 0, 52, 56, 0, 37, 63, 19, 39, 54, 35, 27, 46, 34, 13, 22, 11, 2, 38, 5, 10, 0, 0, 23, 0, 0, 0, 0, 14, 57, 0, 0, 45, 33, 16, 0, 58, 61, 0, 0, 59, 50, 44, 30, 20, 4, 60, 28, 0, 26, 18, 0, 0, 15, 0, 0, 41, 1, 0
|13, 35, 5, 21, 18, 36, 29, 38, 0, 0, 2, 30, 26, 0, 0, 50, 12, 47, 0, 8, 0, 40, 14, 10, 0, 51, 57, 37, 3, 6, 42, 34, 0, 25, 17, 56, 9, 59, 48, 19, 0, 23, 0, 11, 0, 0, 55, 24, 0, 39, 54, 53, 44, 0, 32, 41, 28, 62, 0, 60, 4, 0, 58, 49
|30, 0, 59, 0, 0, 0, 51, 24, 10, 33, 3, 0, 49, 0, 0, 25, 0, 0, 0, 17, 0, 0, 64, 1, 18, 32, 0, 31, 0, 0, 4, 28, 61, 0, 0, 54, 44, 38, 52, 46, 8, 16, 15, 45, 0, 0, 0, 0, 0, 50, 0, 0, 12, 34, 0, 42, 35, 27, 48, 53, 23, 55, 47, 0
|45, 54, 0, 3, 31, 28, 50, 60, 24, 29, 0, 20, 1, 0, 0, 62, 39, 0, 23, 33, 51, 0, 0, 4, 43, 0, 0, 35, 0, 56, 61, 26, 0, 0, 47, 30, 55, 0, 11, 53, 5, 38, 41, 0, 49, 42, 25, 34, 0, 0, 6, 0, 0, 13, 52, 0, 18, 10, 22, 0, 46, 14, 19, 36
|42, 33, 11, 8, 0, 0, 48, 56, 32, 0, 0, 59, 0, 0, 46, 0, 0, 0, 0, 43, 58, 26, 31, 37, 12, 0, 54, 0, 17, 24, 0, 0, 0, 3, 49, 0, 0, 18, 0, 6, 29, 62, 57, 53, 47, 0, 0, 10, 0, 0, 27, 14, 0, 51, 40, 64, 0, 0, 39, 52, 0, 0, 61, 25
|0, 9, 15, 0, 12, 27, 0, 44, 0, 55, 4, 51, 34, 43, 42, 53, 6, 41, 28, 18, 35, 0, 30, 63, 0, 11, 21, 49, 0, 0, 22, 20, 29, 0, 23, 37, 0, 0, 64, 10, 0, 0, 33, 3, 60, 54, 0, 52, 47, 46, 48, 36, 24, 0, 58, 0, 0, 0, 56, 50, 26, 0, 45, 5
|37, 39, 0, 11, 43, 21, 0, 0, 4, 59, 44, 38, 13, 0, 0, 60, 0, 35, 0, 28, 0, 20, 0, 58, 7, 29, 51, 48, 0, 62, 1, 52, 2, 41, 31, 0, 0, 0, 0, 0, 0, 49, 55, 8, 0, 0, 23, 0, 57, 26, 53, 17, 0, 32, 50, 0, 42, 0, 27, 36, 25, 6, 34, 0
|0, 19, 31, 9, 56, 15, 41, 61, 12, 35, 52, 49, 50, 25, 0, 36, 0, 16, 4, 6, 8, 0, 63, 26, 3, 34, 20, 10, 0, 2, 55, 33, 54, 0, 28, 0, 30, 0, 0, 42, 11, 0, 37, 48, 1, 0, 0, 58, 64, 0, 0, 0, 14, 18, 0, 0, 7, 23, 45, 57, 0, 22, 29, 60
|29, 0, 0, 50, 46, 48, 20, 0, 16, 0, 26, 61, 0, 0, 9, 0, 0, 43, 0, 41, 17, 59, 60, 55, 6, 25, 47, 0, 0, 0, 64, 40, 0, 0, 32, 62, 12, 0, 8, 1, 13, 57, 31, 28, 2, 22, 36, 63, 39, 0, 21, 10, 33, 58, 0, 34, 54, 4, 37, 0, 18, 44, 0, 53
|5, 27, 0, 25, 0, 0, 0, 16, 43, 0, 54, 41, 3, 46, 64, 0, 45, 33, 19, 12, 42, 13, 23, 21, 50, 63, 0, 61, 53, 0, 58, 0, 0, 0, 48, 0, 0, 36, 26, 0, 17, 35, 14, 7, 0, 0, 60, 0, 51, 9, 37, 20, 1, 4, 29, 52, 0, 11, 2, 8, 55, 30, 62, 59
|28, 0, 57, 0, 32, 47, 0, 0, 23, 8, 1, 0, 0, 0, 17, 2, 64, 7, 31, 39, 0, 51, 34, 30, 22, 12, 0, 15, 27, 41, 18, 46, 56, 4, 11, 0, 0, 10, 0, 50, 53, 0, 21, 9, 0, 0, 59, 0, 0, 0, 0, 48, 0, 0, 0, 44, 0, 0, 0, 40, 0, 38, 13, 0
|4, 0, 0, 0, 62, 3, 59, 13, 57, 24, 0, 0, 63, 15, 48, 30, 0, 37, 0, 0, 2, 50, 0, 53, 8, 28, 49, 17, 0, 36, 56, 0, 44, 0, 0, 55, 45, 14, 0, 60, 0, 33, 0, 10, 19, 51, 12, 29, 23, 54, 38, 46, 0, 0, 16, 43, 20, 9, 58, 31, 0, 32, 64, 1
|55, 0, 40, 36, 17, 53, 30, 0, 31, 18, 47, 0, 45, 29, 34, 27, 0, 52, 1, 57, 32, 24, 0, 48, 16, 4, 37, 23, 39, 0, 21, 42, 35, 0, 22, 15, 49, 61, 63, 9, 54, 50, 20, 0, 0, 26, 43, 0, 8, 13, 56, 7, 2, 60, 6, 11, 0, 33, 41, 12, 28, 5, 51, 3
|1, 0, 44, 45, 6, 2, 33, 18, 0, 14, 55, 32, 58, 21, 19, 0, 25, 56, 62, 15, 11, 5, 36, 27, 0, 0, 59, 0, 9, 35, 60, 54, 7, 0, 53, 0, 29, 0, 51, 0, 61, 47, 64, 0, 0, 41, 0, 16, 0, 30, 0, 63, 31, 28, 49, 3, 46, 0, 50, 10, 0, 52, 26, 48
|22, 0, 24, 7, 41, 37, 0, 0, 0, 20, 0, 0, 2, 9, 10, 11, 18, 0, 29, 42, 31, 4, 13, 6, 46, 17, 5, 0, 0, 23, 52, 21, 62, 28, 16, 0, 39, 0, 40, 0, 48, 44, 45, 26, 57, 25, 3, 30, 35, 33, 0, 0, 47, 0, 14, 1, 51, 59, 60, 64, 0, 27, 0, 50
|47, 46, 0, 0, 30, 38, 23, 21, 45, 0, 39, 55, 62, 49, 29, 13, 0, 3, 33, 5, 50, 10, 41, 9, 2, 48, 36, 27, 31, 43, 11, 0, 52, 0, 20, 1, 0, 64, 32, 54, 0, 34, 0, 60, 37, 16, 19, 0, 26, 0, 59, 0, 7, 0, 28, 6, 25, 56, 14, 0, 0, 63, 22, 0
|0, 0, 33, 0, 27, 51, 0, 0, 48, 0, 0, 0, 0, 22, 0, 37, 61, 11, 8, 0, 55, 53, 0, 0, 0, 59, 60, 38, 44, 64, 50, 25, 49, 46, 63, 9, 0, 0, 12, 4, 1, 28, 0, 6, 0, 32, 0, 0, 45, 52, 24, 0, 41, 36, 43, 0, 40, 31, 18, 20, 13, 17, 0, 0
|0, 0, 32, 0, 0, 56, 14, 11, 18, 34, 0, 25, 38, 4, 0, 7, 30, 2, 63, 52, 23, 36, 35, 0, 0, 6, 0, 3, 40, 0, 8, 53, 13, 0, 0, 31, 17, 44, 59, 0, 0, 46, 54, 0, 33, 0, 0, 0, 27, 0, 49, 55, 0, 12, 0, 0, 10, 5, 42, 0, 47, 21, 0, 41
|52, 50, 0, 4, 0, 40, 25, 9, 3, 61, 43, 24, 60, 47, 36, 0, 0, 12, 0, 0, 0, 0, 17, 14, 39, 0, 22, 63, 20, 51, 7, 1, 0, 0, 27, 6, 21, 23, 55, 15, 49, 56, 53, 13, 59, 0, 8, 0, 54, 0, 64, 0, 57, 0, 31, 0, 0, 26, 11, 0, 38, 62, 0, 0
|17, 61, 62, 28, 15, 42, 0, 0, 33, 1, 0, 0, 6, 26, 0, 57, 0, 25, 0, 64, 44, 27, 20, 40, 0, 30, 12, 0, 0, 19, 35, 0, 10, 5, 7, 0, 24, 50, 18, 47, 21, 9, 52, 63, 36, 23, 2, 0, 60, 0, 16, 51, 11, 39, 13, 0, 55, 0, 54, 58, 48, 3, 0, 34
|31, 0, 13, 12, 54, 8, 36, 53, 0, 44, 42, 0, 51, 63, 35, 0, 59, 0, 7, 0, 0, 0, 1, 43, 0, 61, 28, 62, 37, 33, 47, 16, 0, 0, 19, 41, 14, 0, 0, 0, 0, 10, 38, 18, 0, 64, 11, 50, 0, 0, 0, 0, 17, 25, 48, 20, 6, 52, 0, 4, 0, 0, 32, 0
|2, 44, 20, 0, 58, 0, 0, 5, 50, 12, 15, 0, 52, 59, 16, 40, 57, 19, 22, 0, 21, 60, 54, 45, 56, 14, 0, 42, 34, 13, 24, 0, 53, 35, 38, 26, 11, 48, 37, 25, 43, 51, 47, 0, 0, 31, 41, 27, 29, 61, 3, 23, 4, 0, 18, 0, 8, 28, 49, 46, 33, 39, 36, 0
|11, 21, 47, 49, 4, 50, 62, 0, 19, 0, 0, 0, 43, 0, 18, 26, 0, 17, 36, 0, 0, 0, 38, 31, 37, 0, 0, 8, 6, 57, 40, 64, 14, 0, 0, 63, 46, 16, 2, 52, 58, 12, 56, 44, 51, 9, 54, 0, 25, 0, 0, 29, 0, 59, 33, 30, 13, 24, 61, 0, 39, 1, 28, 20
|0, 45, 3, 44, 0, 0, 46, 0, 29, 60, 58, 0, 40, 64, 0, 0, 51, 0, 0, 59, 16, 28, 55, 12, 9, 31, 30, 19, 10, 61, 13, 43, 0, 42, 1, 11, 0, 37, 6, 22, 23, 4, 32, 0, 0, 49, 18, 47, 0, 7, 2, 0, 0, 56, 63, 0, 62, 54, 33, 25, 50, 36, 17, 0
|26, 56, 58, 33, 7, 0, 0, 0, 52, 28, 46, 0, 17, 20, 47, 4, 0, 50, 0, 2, 54, 8, 11, 0, 55, 16, 23, 0, 12, 0, 0, 45, 24, 9, 39, 49, 0, 0, 21, 0, 0, 48, 0, 41, 0, 0, 30, 6, 0, 0, 0, 31, 0, 0, 61, 22, 64, 35, 40, 18, 0, 0, 0, 44
|57, 0, 28, 38, 36, 23, 16, 25, 59, 0, 8, 0, 35, 34, 49, 33, 0, 0, 43, 0, 6, 47, 27, 29, 41, 50, 0, 0, 56, 0, 0, 0, 32, 61, 0, 5, 7, 12, 13, 0, 14, 0, 42, 0, 11, 63, 1, 0, 18, 0, 62, 0, 0, 40, 10, 0, 31, 30, 0, 9, 45, 58, 48, 52
|0, 0, 10, 13, 52, 64, 60, 0, 51, 7, 0, 23, 30, 55, 0, 1, 33, 45, 18, 0, 63, 25, 0, 24, 0, 42, 62, 46, 36, 58, 3, 0, 57, 48, 44, 0, 40, 43, 41, 0, 50, 22, 26, 0, 8, 35, 16, 31, 20, 6, 11, 28, 9, 5, 39, 17, 0, 19, 29, 0, 0, 34, 53, 0
|8, 0, 0, 30, 0, 35, 40, 19, 0, 3, 21, 56, 57, 13, 24, 6, 4, 44, 0, 1, 34, 41, 52, 39, 14, 54, 25, 0, 33, 0, 0, 22, 27, 0, 26, 18, 31, 0, 0, 58, 0, 0, 7, 0, 62, 43, 38, 36, 0, 23, 60, 16, 46, 37, 0, 51, 49, 32, 10, 0, 2, 0, 0, 47
|0, 0, 0, 0, 0, 61, 0, 2, 44, 42, 14, 0, 0, 36, 0, 39, 13, 53, 0, 48, 19, 62, 0, 0, 17, 0, 15, 52, 0, 29, 0, 51, 38, 47, 10, 0, 0, 25, 54, 30, 45, 20, 0, 0, 0, 0, 37, 59, 0, 12, 0, 1, 0, 8, 0, 0, 23, 43, 6, 16, 0, 0, 3, 26
|6, 0, 48, 20, 0, 39, 37, 17, 0, 45, 0, 16, 25, 54, 31, 0, 42, 22, 30, 9, 0, 0, 26, 32, 35, 49, 4, 18, 7, 0, 34, 59, 3, 53, 36, 33, 0, 29, 23, 0, 0, 61, 28, 52, 10, 13, 46, 0, 0, 43, 47, 0, 0, 44, 0, 14, 11, 57, 0, 55, 0, 56, 63, 51
|59, 10, 2, 0, 25, 24, 0, 30, 0, 39, 31, 58, 48, 18, 26, 54, 0, 13, 5, 0, 33, 35, 42, 8, 34, 0, 3, 20, 29, 55, 63, 49, 0, 45, 46, 27, 15, 0, 0, 43, 57, 19, 40, 51, 0, 0, 0, 17, 1, 4, 0, 50, 52, 0, 44, 28, 60, 64, 16, 37, 0, 61, 0, 62
|0, 0, 0, 35, 48, 22, 8, 0, 0, 47, 45, 17, 36, 23, 0, 49, 40, 10, 50, 7, 52, 57, 4, 0, 21, 0, 46, 0, 13, 39, 6, 0, 0, 1, 64, 16, 59, 19, 0, 32, 3, 30, 0, 0, 0, 28, 53, 9, 24, 63, 34, 61, 43, 0, 62, 0, 38, 0, 0, 33, 27, 0, 55, 0
|60, 17, 63, 37, 26, 13, 0, 0, 0, 30, 24, 0, 55, 0, 3, 9, 28, 51, 48, 54, 0, 12, 53, 34, 0, 41, 40, 0, 64, 52, 45, 7, 58, 0, 0, 2, 47, 33, 42, 8, 44, 21, 23, 31, 29, 46, 49, 4, 0, 14, 19, 27, 0, 38, 0, 16, 0, 22, 25, 0, 0, 0, 18, 35
|15, 0, 0, 27, 11, 34, 0, 50, 41, 63, 51, 0, 0, 42, 56, 16, 55, 38, 3, 0, 62, 6, 37, 0, 0, 19, 0, 54, 8, 31, 14, 0, 21, 30, 0, 0, 57, 53, 7, 17, 22, 0, 39, 12, 64, 60, 13, 0, 33, 35, 32, 45, 5, 0, 9, 0, 44, 48, 24, 28, 36, 0, 40, 0
|0, 29, 61, 40, 57, 0, 0, 12, 0, 0, 11, 7, 59, 35, 0, 0, 23, 27, 0, 21, 49, 0, 45, 22, 51, 15, 43, 0, 25, 47, 0, 50, 60, 38, 24, 0, 5, 0, 31, 0, 0, 0, 0, 42, 54, 0, 0, 26, 0, 0, 46, 0, 13, 64, 0, 39, 0, 14, 63, 0, 58, 19, 20, 10
|0, 0, 38, 23, 49, 0, 0, 36, 0, 53, 34, 0, 8, 62, 33, 19, 15, 0, 39, 47, 64, 30, 58, 2, 42, 22, 24, 9, 59, 0, 0, 56, 48, 12, 3, 0, 41, 63, 0, 0, 0, 25, 11, 1, 7, 10, 0, 61, 6, 55, 0, 0, 54, 0, 20, 26, 50, 17, 0, 5, 52, 13, 46, 45
|0, 7, 0, 0, 0, 0, 5, 46, 0, 0, 6, 4, 61, 52, 13, 0, 0, 0, 14, 0, 0, 0, 24, 0, 33, 1, 27, 36, 0, 12, 23, 38, 0, 0, 62, 0, 20, 39, 56, 51, 35, 37, 0, 50, 0, 55, 34, 15, 0, 0, 10, 18, 0, 17, 60, 0, 0, 8, 0, 3, 29, 0, 0, 30
|16, 0, 64, 53, 55, 0, 4, 6, 38, 43, 0, 0, 27, 14, 57, 0, 11, 1, 25, 60, 61, 0, 19, 20, 48, 35, 2, 26, 62, 17, 28, 0, 0, 0, 0, 34, 50, 54, 22, 36, 33, 63, 5, 24, 52, 8, 45, 32, 31, 56, 58, 0, 0, 49, 0, 23, 41, 42, 7, 51, 12, 59, 0, 15
|0, 11, 52, 15, 50, 4, 13, 31, 7, 40, 17, 28, 47, 32, 0, 20, 0, 34, 0, 0, 25, 0, 0, 0, 0, 45, 53, 59, 24, 10, 36, 0, 41, 58, 0, 48, 0, 22, 43, 29, 55, 0, 0, 35, 56, 0, 0, 5, 16, 0, 0, 33, 30, 0, 42, 57, 39, 46, 3, 0, 8, 2, 0, 0
|0, 0, 0, 48, 0, 30, 0, 27, 0, 50, 0, 45, 39, 0, 43, 0, 53, 18, 41, 61, 38, 0, 3, 35, 29, 0, 17, 57, 55, 42, 31, 0, 36, 0, 51, 20, 0, 15, 0, 0, 0, 0, 10, 23, 26, 37, 0, 0, 0, 5, 1, 0, 0, 0, 7, 0, 14, 0, 52, 19, 11, 28, 9, 22
|21, 0, 0, 0, 0, 5, 0, 22, 30, 0, 0, 33, 10, 57, 4, 63, 52, 9, 0, 11, 48, 49, 8, 0, 0, 56, 18, 50, 51, 20, 0, 41, 55, 31, 59, 38, 27, 7, 1, 39, 0, 40, 0, 32, 16, 19, 14, 13, 0, 0, 43, 34, 45, 23, 0, 24, 17, 58, 12, 35, 0, 53, 0, 0
|63, 28, 0, 57, 39, 17, 0, 0, 13, 0, 0, 0, 0, 0, 0, 58, 0, 55, 0, 10, 15, 14, 6, 60, 0, 7, 33, 40, 35, 0, 27, 0, 0, 64, 34, 0, 54, 42, 0, 23, 0, 0, 0, 0, 0, 45, 31, 49, 0, 21, 8, 47, 37, 20, 19, 0, 56, 16, 62, 29, 61, 24, 5, 0
|14, 0, 0, 0, 3, 20, 7, 54, 55, 9, 0, 27, 0, 8, 11, 18, 29, 0, 26, 40, 39, 0, 59, 13, 23, 64, 34, 6, 0, 4, 0, 15, 16, 0, 33, 19, 63, 47, 5, 21, 38, 24, 51, 57, 12, 36, 48, 0, 0, 0, 52, 58, 53, 50, 0, 35, 0, 25, 32, 43, 1, 45, 0, 42
|38, 53, 19, 56, 37, 0, 6, 0, 0, 0, 64, 0, 0, 5, 0, 31, 0, 23, 44, 4, 47, 22, 0, 33, 0, 9, 1, 43, 0, 26, 12, 8, 0, 2, 18, 50, 0, 35, 0, 62, 34, 27, 17, 59, 3, 20, 0, 25, 40, 32, 28, 15, 0, 61, 55, 29, 48, 51, 30, 63, 0, 0, 57, 13
|32, 18, 55, 0, 51, 12, 9, 45, 1, 0, 35, 52, 46, 19, 2, 48, 0, 0, 20, 56, 0, 43, 50, 17, 38, 62, 63, 0, 0, 5, 16, 0, 25, 57, 37, 0, 26, 40, 0, 3, 7, 8, 60, 58, 42, 53, 29, 11, 13, 0, 0, 0, 64, 0, 0, 10, 0, 34, 36, 41, 15, 47, 49, 0
|36, 23, 8, 0, 0, 16, 0, 33, 61, 0, 29, 0, 53, 3, 25, 34, 63, 24, 0, 45, 46, 0, 0, 0, 0, 0, 52, 0, 0, 22, 48, 47, 12, 0, 6, 28, 0, 0, 10, 13, 0, 18, 62, 43, 0, 4, 9, 1, 0, 0, 31, 41, 60, 26, 0, 27, 21, 55, 0, 0, 20, 7, 0, 40|];