order = 8;
grid = [|58, 0, 62, 2, 43, 46, 0, 24, 26, 45, 48, 3, 30, 18, 47, 0, 40, 0, 42, 10, 14, 0, 53, 29, 20, 57, 0, 16, 0, 52, 59, 54, 15, 12, 13, 0, 36, 6, 50, 33, 4, 39, 9, 63, 0, 35, 34, 25, 0, 0, 0, 0, 37, 56, 23, 61, 0, 0, 0, 27, 1, 0, 0, 51
|15, 56, 0, 0, 38, 40, 0, 0, 0, 53, 4, 31, 52, 64, 49, 33, 0, 12, 61, 9, 27, 28, 0, 8, 0, 6, 46, 0, 5, 2, 0, 44, 63, 0, 1, 41, 0, 45, 26, 0, 0, 62, 7, 48, 0, 43, 0, 0, 0, 47, 21, 16, 20, 0, 11, 18, 39, 0, 32, 25, 35, 19, 24, 14
|0, 0, 18, 0, 0, 45, 14, 0, 29, 36, 8, 28, 0, 0, 0, 0, 0, 0, 0, 0, 33, 38, 20, 37, 3, 35, 0, 50, 22, 0, 63, 51, 25, 19, 9, 27, 2, 42, 7, 0, 0, 30, 0, 0, 41, 0, 44, 0, 17, 6, 12, 39, 0, 0, 0, 58, 64, 0, 16, 0, 31, 10, 57, 0
|35, 16, 23, 0, 26, 29, 32, 0, 43, 7, 20, 14, 27, 59, 34, 40, 49, 63, 18, 60, 1, 47, 22, 58, 0, 25, 19, 64, 0, 0, 45, 31, 39, 0, 0, 8, 46, 37, 55, 62, 28, 0, 5, 54, 17, 12, 42, 50, 0, 24, 51, 15, 3, 0, 0, 38, 44, 4, 0, 0, 52, 6, 0, 13
|0, 0, 44, 39, 0, 0, 19, 7, 0, 58, 62, 25, 1, 0, 9, 16, 23, 21, 32, 0, 4, 26, 43, 35, 8, 0, 47, 0, 40, 0, 56, 0, 17, 20, 0, 49, 14, 11, 31, 5, 57, 13, 0, 60, 24, 53, 0, 6, 54, 10, 0, 41, 52, 0, 29, 64, 0, 61, 59, 0, 37, 22, 45, 0
|0, 3, 27, 63, 13, 41, 31, 0, 55, 0, 21, 12, 22, 57, 44, 51, 0, 0, 11, 0, 0, 0, 19, 0, 53, 0, 24, 4, 43, 0, 15, 37, 16, 23, 0, 0, 40, 32, 35, 0, 20, 38, 0, 2, 10, 58, 45, 18, 1, 0, 5, 0, 0, 46, 60, 0, 48, 36, 62, 47, 9, 7, 0, 8
|0, 20, 52, 54, 4, 0, 50, 8, 0, 0, 38, 23, 10, 13, 17, 2, 6, 7, 0, 0, 0, 64, 0, 0, 0, 0, 39, 62, 28, 0, 12, 0, 47, 24, 34, 56, 57, 21, 58, 59, 16, 27, 55, 19, 22, 51, 49, 0, 0, 48, 14, 31, 43, 32, 40, 45, 0, 42, 0, 3, 0, 18, 63, 30
|34, 21, 60, 9, 6, 37, 10, 1, 35, 0, 39, 0, 41, 0, 63, 56, 0, 0, 3, 45, 62, 0, 50, 57, 0, 0, 7, 13, 33, 48, 0, 38, 0, 0, 18, 52, 22, 53, 4, 61, 47, 14, 32, 64, 23, 0, 0, 0, 0, 27, 0, 0, 28, 36, 0, 0, 12, 0, 20, 58, 0, 5, 40, 49
|44, 48, 0, 35, 0, 22, 25, 0, 47, 0, 53, 34, 45, 2, 14, 9, 58, 37, 30, 0, 60, 11, 42, 19, 0, 39, 56, 0, 46, 16, 50, 10, 8, 36, 54, 6, 62, 24, 5, 0, 31, 0, 26, 17, 28, 13, 43, 38, 0, 55, 64, 32, 63, 0, 0, 52, 20, 12, 57, 0, 21, 1, 51, 0
|6, 47, 36, 12, 53, 26, 13, 61, 38, 0, 0, 0, 46, 30, 22, 4, 56, 0, 31, 0, 35, 62, 28, 51, 32, 14, 0, 0, 49, 0, 42, 3, 0, 63, 52, 0, 39, 10, 34, 20, 18, 21, 58, 37, 55, 0, 0, 0, 60, 43, 0, 0, 0, 9, 0, 11, 0, 8, 0, 17, 64, 25, 50, 0
|20, 33, 0, 40, 15, 4, 60, 56, 61, 0, 0, 0, 25, 50, 39, 0, 63, 34, 0, 0, 0, 9, 14, 10, 58, 0, 21, 54, 0, 23, 43, 27, 55, 18, 38, 17, 26, 0, 0, 0, 2, 0, 42, 0, 64, 41, 19, 0, 44, 62, 24, 36, 46, 29, 30, 0, 7, 37, 48, 6, 16, 0, 35, 3
|0, 32, 0, 30, 31, 0, 28, 42, 40, 0, 44, 48, 60, 62, 55, 29, 20, 61, 12, 0, 0, 25, 6, 49, 0, 51, 5, 15, 37, 41, 57, 63, 0, 22, 59, 23, 35, 0, 0, 0, 0, 24, 3, 34, 14, 50, 4, 47, 39, 17, 8, 1, 21, 19, 16, 0, 43, 27, 0, 53, 0, 0, 0, 0
|41, 52, 0, 43, 59, 8, 17, 0, 0, 0, 10, 0, 0, 26, 24, 15, 39, 54, 46, 23, 2, 55, 45, 0, 33, 20, 25, 40, 0, 62, 0, 0, 32, 49, 12, 0, 16, 13, 0, 0, 35, 0, 0, 9, 60, 27, 29, 63, 37, 0, 56, 22, 0, 51, 3, 6, 0, 0, 61, 42, 0, 0, 30, 18
|24, 0, 5, 62, 34, 54, 55, 11, 0, 64, 0, 0, 13, 31, 59, 0, 33, 17, 38, 0, 22, 1, 0, 48, 30, 0, 35, 9, 0, 0, 60, 12, 0, 3, 0, 0, 19, 28, 15, 0, 45, 36, 0, 0, 46, 23, 0, 16, 0, 0, 53, 4, 57, 50, 25, 40, 29, 0, 52, 0, 0, 0, 58, 44
|45, 0, 2, 50, 0, 1, 0, 21, 63, 16, 5, 0, 42, 52, 35, 0, 3, 24, 0, 44, 15, 57, 13, 47, 64, 0, 0, 0, 29, 22, 53, 36, 43, 0, 14, 31, 41, 33, 0, 30, 0, 32, 0, 11, 12, 48, 0, 0, 34, 49, 26, 0, 0, 0, 18, 23, 0, 9, 46, 54, 62, 0, 28, 40
|16, 0, 7, 14, 63, 19, 0, 0, 0, 21, 0, 56, 3, 0, 20, 0, 8, 26, 50, 0, 64, 41, 27, 0, 31, 0, 38, 52, 34, 44, 0, 17, 57, 4, 53, 11, 0, 9, 61, 25, 54, 0, 0, 30, 0, 62, 40, 0, 13, 12, 58, 47, 42, 45, 28, 35, 0, 15, 10, 24, 0, 60, 55, 0
|30, 61, 13, 38, 16, 25, 0, 0, 41, 35, 46, 0, 0, 44, 57, 55, 53, 40, 0, 39, 0, 12, 37, 64, 11, 5, 0, 48, 32, 58, 47, 29, 33, 17, 0, 63, 18, 50, 62, 14, 26, 0, 1, 0, 0, 0, 0, 36, 51, 4, 31, 52, 0, 10, 0, 3, 60, 0, 49, 56, 0, 8, 7, 23
|0, 55, 19, 56, 11, 59, 57, 0, 24, 0, 22, 0, 6, 34, 0, 61, 4, 5, 41, 47, 31, 43, 48, 18, 0, 21, 28, 44, 12, 0, 0, 0, 0, 26, 46, 20, 52, 1, 29, 37, 64, 63, 23, 0, 9, 60, 0, 42, 30, 0, 15, 0, 35, 33, 0, 50, 38, 40, 39, 16, 3, 17, 62, 32
|17, 34, 45, 46, 64, 12, 63, 0, 62, 0, 36, 30, 26, 58, 23, 0, 15, 3, 14, 55, 0, 52, 1, 25, 24, 33, 13, 0, 16, 43, 39, 0, 41, 21, 35, 48, 31, 0, 59, 0, 51, 0, 40, 0, 0, 47, 10, 29, 18, 0, 20, 6, 0, 49, 38, 60, 0, 22, 44, 50, 42, 37, 54, 9
|49, 7, 14, 26, 8, 52, 2, 47, 33, 39, 45, 29, 17, 0, 40, 0, 54, 50, 0, 0, 0, 0, 34, 0, 4, 31, 37, 38, 6, 0, 0, 59, 24, 5, 60, 43, 30, 3, 0, 0, 0, 28, 0, 20, 56, 0, 0, 0, 62, 16, 63, 64, 41, 0, 0, 32, 27, 21, 0, 18, 0, 11, 36, 0
|9, 40, 4, 48, 0, 0, 33, 0, 59, 43, 0, 21, 37, 5, 27, 53, 0, 35, 44, 6, 51, 7, 60, 22, 52, 10, 2, 63, 23, 46, 64, 0, 0, 45, 0, 0, 8, 39, 19, 28, 13, 50, 14, 0, 0, 0, 3, 0, 61, 0, 0, 25, 11, 26, 55, 56, 31, 41, 30, 0, 47, 24, 12, 20
|39, 41, 0, 0, 0, 23, 29, 44, 3, 0, 2, 63, 38, 4, 31, 48, 32, 0, 21, 20, 8, 49, 10, 30, 60, 0, 0, 0, 17, 1, 0, 0, 6, 0, 56, 16, 0, 22, 9, 64, 7, 0, 37, 46, 54, 11, 5, 19, 58, 28, 27, 59, 47, 0, 14, 0, 0, 25, 51, 0, 13, 26, 61, 34
|3, 0, 37, 0, 1, 31, 22, 43, 0, 49, 25, 60, 0, 56, 42, 0, 29, 0, 0, 0, 26, 13, 63, 28, 34, 41, 0, 0, 8, 50, 36, 30, 0, 61, 55, 47, 53, 15, 0, 0, 27, 0, 38, 33, 0, 0, 62, 35, 24, 21, 17, 0, 9, 12, 0, 0, 0, 0, 14, 64, 0, 45, 0, 0
|21, 6, 0, 28, 0, 60, 0, 35, 12, 0, 18, 50, 54, 0, 0, 0, 62, 0, 0, 17, 11, 36, 24, 27, 56, 0, 26, 0, 20, 15, 0, 0, 38, 0, 4, 34, 23, 7, 25, 0, 48, 0, 41, 0, 16, 52, 0, 30, 45, 46, 39, 0, 0, 44, 0, 37, 2, 10, 63, 19, 58, 0, 59, 0
|59, 50, 0, 49, 52, 55, 8, 0, 45, 56, 35, 7, 0, 6, 61, 18, 0, 38, 2, 46, 5, 0, 39, 0, 0, 15, 0, 32, 31, 64, 58, 24, 20, 27, 0, 3, 48, 44, 10, 19, 41, 0, 0, 29, 0, 0, 9, 4, 0, 42, 0, 63, 0, 11, 17, 0, 30, 0, 1, 21, 0, 62, 43, 25
|31, 18, 11, 36, 29, 0, 12, 62, 13, 51, 57, 15, 0, 27, 0, 20, 0, 6, 0, 8, 37, 33, 54, 0, 0, 0, 0, 2, 48, 35, 34, 42, 45, 59, 39, 1, 0, 17, 43, 38, 14, 0, 22, 23, 30, 40, 47, 56, 0, 64, 60, 46, 50, 25, 0, 0, 16, 0, 24, 55, 49, 0, 32, 52
|0, 27, 0, 13, 0, 5, 0, 37, 53, 17, 0, 0, 39, 40, 60, 25, 19, 36, 35, 42, 63, 14, 26, 0, 55, 18, 61, 0, 47, 49, 44, 62, 4, 34, 0, 30, 15, 12, 52, 16, 11, 8, 28, 50, 43, 6, 54, 0, 9, 20, 38, 57, 29, 0, 24, 21, 51, 59, 45, 10, 33, 64, 48, 0
|38, 63, 47, 0, 44, 7, 48, 45, 21, 0, 30, 49, 29, 55, 19, 0, 11, 0, 0, 25, 57, 0, 0, 0, 50, 12, 4, 5, 1, 0, 0, 46, 14, 41, 24, 13, 6, 58, 8, 0, 32, 0, 17, 16, 62, 42, 35, 61, 15, 0, 0, 0, 0, 3, 56, 2, 0, 39, 37, 0, 20, 40, 60, 0
|23, 57, 0, 21, 32, 0, 30, 9, 1, 33, 12, 10, 0, 0, 0, 50, 0, 58, 0, 4, 0, 59, 0, 0, 0, 37, 29, 11, 14, 0, 0, 0, 46, 51, 22, 35, 63, 36, 40, 0, 0, 64, 2, 0, 27, 19, 0, 0, 0, 0, 34, 53, 54, 16, 31, 0, 0, 0, 28, 61, 8, 0, 0, 47
|43, 22, 0, 61, 14, 28, 16, 26, 42, 63, 24, 38, 31, 0, 5, 32, 10, 18, 20, 53, 47, 50, 30, 1, 19, 54, 33, 8, 0, 13, 0, 41, 21, 9, 11, 0, 37, 64, 0, 0, 0, 0, 46, 25, 0, 49, 39, 58, 6, 51, 44, 0, 45, 0, 0, 55, 17, 57, 0, 0, 34, 3, 27, 29
|0, 64, 34, 3, 33, 20, 39, 51, 0, 46, 14, 0, 4, 54, 0, 59, 0, 32, 24, 0, 40, 21, 49, 7, 45, 17, 9, 0, 57, 27, 0, 0, 5, 50, 62, 0, 61, 29, 0, 53, 10, 52, 0, 0, 26, 44, 38, 13, 0, 0, 47, 37, 0, 30, 19, 48, 0, 35, 0, 11, 18, 0, 56, 0
|0, 0, 0, 0, 35, 0, 0, 25, 0, 26, 0, 64, 47, 11, 36, 0, 0, 51, 0, 48, 45, 44, 55, 0, 6, 56, 10, 20, 0, 0, 40, 0, 18, 31, 33, 0, 54, 23, 0, 0, 0, 1, 0, 0, 53, 0, 0, 21, 52, 59, 0, 27, 61, 39, 32, 13, 0, 38, 22, 0, 50, 41, 46, 0
|0, 0, 53, 6, 0, 21, 0, 41, 9, 40, 34, 52, 43, 47, 15, 0, 26, 30, 13, 3, 0, 5, 29, 20, 0, 38, 62, 31, 0, 32, 0, 58, 0, 64, 17, 0, 27, 51, 57, 0, 0, 0, 0, 36, 0, 22, 23, 8, 28, 35, 33, 50, 49, 0, 12, 10, 1, 7, 25, 63, 55, 54, 14, 48
|28, 30, 16, 52, 51, 33, 38, 60, 22, 0, 42, 4, 0, 45, 32, 12, 43, 0, 10, 2, 50, 56, 64, 0, 0, 26, 0, 21, 24, 7, 0, 23, 53, 35, 0, 61, 3, 0, 18, 0, 49, 0, 0, 5, 34, 15, 11, 62, 31, 25, 0, 54, 0, 0, 27, 1, 36, 0, 0, 13, 59, 20, 0, 19
|8, 0, 0, 0, 24, 36, 45, 39, 27, 59, 60, 57, 58, 0, 0, 46, 12, 41, 49, 0, 48, 18, 7, 38, 13, 29, 0, 30, 51, 10, 0, 9, 52, 16, 44, 0, 33, 0, 0, 1, 0, 56, 4, 47, 0, 26, 0, 0, 0, 0, 61, 40, 23, 14, 34, 15, 50, 0, 5, 31, 2, 21, 17, 35
|0, 0, 64, 27, 9, 0, 0, 0, 0, 2, 1, 61, 0, 21, 48, 23, 57, 0, 47, 28, 16, 58, 35, 17, 15, 0, 3, 33, 39, 53, 0, 19, 10, 0, 0, 0, 38, 25, 0, 50, 0, 54, 0, 31, 51, 46, 0, 55, 5, 36, 29, 56, 7, 0, 52, 0, 45, 62, 8, 30, 12, 0, 42, 0
|0, 25, 1, 58, 20, 44, 23, 50, 30, 18, 17, 62, 16, 0, 0, 36, 0, 4, 52, 51, 0, 53, 46, 14, 54, 59, 0, 43, 0, 0, 27, 55, 26, 0, 29, 15, 32, 56, 63, 24, 40, 10, 64, 57, 0, 0, 12, 7, 21, 0, 11, 0, 39, 0, 6, 47, 0, 3, 0, 22, 0, 33, 9, 37
|0, 0, 0, 15, 0, 0, 59, 10, 64, 5, 29, 0, 14, 8, 13, 44, 42, 0, 27, 22, 32, 0, 0, 6, 0, 0, 1, 12, 0, 56, 16, 0, 62, 0, 0, 36, 0, 49, 30, 34, 0, 17, 50, 41, 52, 20, 33, 0, 43, 3, 48, 26, 0, 2, 37, 9, 0, 11, 4, 0, 0, 38, 39, 61
|7, 62, 0, 32, 61, 17, 0, 12, 6, 25, 31, 0, 33, 53, 50, 24, 37, 0, 63, 0, 34, 8, 59, 0, 35, 52, 41, 36, 44, 18, 5, 0, 48, 2, 20, 45, 47, 0, 11, 9, 38, 60, 27, 58, 21, 0, 0, 14, 64, 30, 19, 0, 16, 22, 46, 51, 0, 56, 26, 0, 10, 43, 0, 0
|0, 0, 63, 18, 0, 0, 49, 0, 0, 20, 56, 26, 28, 39, 7, 0, 0, 0, 33, 0, 19, 0, 15, 0, 47, 64, 50, 34, 2, 11, 17, 14, 23, 43, 31, 0, 5, 54, 0, 12, 0, 6, 24, 0, 61, 30, 1, 37, 55, 0, 41, 38, 4, 59, 44, 0, 0, 53, 27, 52, 32, 58, 16, 46
|0, 0, 41, 0, 48, 0, 0, 18, 0, 32, 0, 55, 0, 36, 21, 17, 1, 42, 60, 0, 58, 61, 4, 54, 0, 19, 14, 0, 0, 3, 0, 8, 22, 0, 30, 26, 9, 16, 47, 31, 50, 12, 45, 0, 38, 0, 56, 0, 63, 52, 0, 0, 27, 23, 64, 0, 0, 2, 7, 57, 15, 39, 0, 0
|32, 43, 21, 0, 56, 57, 0, 2, 0, 29, 7, 47, 59, 63, 11, 45, 50, 0, 0, 41, 25, 48, 44, 26, 22, 0, 31, 0, 58, 0, 55, 20, 1, 38, 0, 64, 42, 0, 3, 4, 0, 0, 30, 14, 5, 9, 61, 40, 33, 37, 49, 28, 51, 35, 0, 12, 62, 0, 0, 0, 0, 52, 19, 36
|46, 36, 38, 0, 12, 49, 0, 33, 0, 27, 54, 0, 35, 0, 0, 0, 14, 28, 0, 0, 55, 0, 16, 40, 5, 1, 17, 0, 50, 4, 21, 48, 7, 15, 63, 44, 43, 0, 0, 52, 25, 58, 0, 26, 11, 0, 59, 64, 22, 39, 0, 60, 0, 42, 0, 19, 37, 13, 3, 41, 61, 0, 0, 0
|0, 0, 25, 7, 19, 0, 9, 16, 58, 57, 6, 22, 50, 0, 43, 1, 18, 0, 15, 0, 0, 35, 11, 2, 37, 34, 64, 0, 26, 28, 0, 33, 0, 0, 51, 14, 59, 0, 39, 27, 55, 47, 8, 49, 0, 0, 46, 0, 3, 0, 0, 30, 0, 0, 0, 0, 21, 29, 60, 0, 44, 53, 23, 45
|0, 1, 28, 44, 10, 11, 0, 0, 25, 42, 40, 16, 0, 48, 0, 38, 0, 52, 0, 27, 29, 0, 9, 0, 61, 0, 49, 0, 0, 47, 0, 15, 0, 8, 37, 55, 0, 2, 0, 35, 19, 0, 31, 18, 0, 39, 63, 0, 0, 7, 45, 21, 58, 54, 53, 0, 32, 0, 0, 34, 51, 30, 0, 22
|0, 58, 30, 22, 17, 0, 0, 14, 19, 0, 51, 46, 15, 28, 0, 0, 0, 0, 0, 0, 13, 45, 36, 0, 12, 44, 52, 0, 9, 63, 0, 35, 11, 56, 0, 0, 50, 62, 23, 0, 34, 0, 43, 21, 2, 0, 0, 0, 16, 0, 55, 0, 0, 8, 1, 41, 26, 0, 0, 20, 38, 0, 49, 42
|54, 59, 8, 51, 45, 53, 3, 0, 2, 14, 23, 0, 49, 60, 10, 26, 0, 0, 37, 0, 12, 30, 0, 0, 43, 40, 57, 6, 27, 0, 0, 16, 28, 32, 25, 0, 58, 61, 0, 36, 0, 0, 62, 0, 0, 0, 41, 0, 0, 29, 4, 11, 44, 38, 5, 34, 0, 24, 0, 0, 63, 0, 64, 56
|63, 0, 61, 55, 23, 15, 0, 31, 0, 0, 52, 44, 0, 37, 3, 41, 0, 57, 0, 0, 39, 24, 56, 0, 38, 7, 0, 0, 0, 42, 30, 0, 40, 0, 0, 33, 49, 19, 20, 0, 22, 35, 29, 27, 0, 17, 16, 54, 0, 13, 32, 18, 14, 47, 0, 0, 0, 58, 0, 1, 11, 28, 4, 12
|18, 11, 12, 45, 60, 32, 0, 63, 17, 48, 0, 42, 0, 9, 2, 22, 35, 59, 57, 26, 30, 15, 25, 56, 49, 0, 0, 39, 0, 37, 7, 47, 61, 0, 50, 0, 28, 40, 0, 41, 3, 0, 0, 0, 0, 0, 52, 34, 14, 44, 10, 51, 62, 0, 58, 0, 5, 1, 33, 8, 4, 36, 53, 0
|56, 28, 0, 47, 50, 0, 52, 36, 46, 8, 49, 45, 0, 41, 33, 3, 0, 1, 64, 29, 0, 63, 38, 55, 10, 43, 12, 0, 30, 0, 0, 4, 19, 62, 21, 7, 13, 35, 0, 0, 42, 9, 48, 0, 58, 54, 0, 5, 40, 0, 16, 17, 34, 24, 39, 22, 61, 20, 11, 15, 0, 32, 37, 26
|26, 13, 46, 0, 25, 3, 0, 22, 4, 44, 55, 51, 5, 0, 6, 57, 0, 0, 54, 37, 0, 0, 62, 33, 0, 63, 0, 0, 36, 0, 38, 0, 64, 58, 0, 24, 56, 30, 0, 0, 23, 0, 20, 0, 0, 0, 53, 12, 29, 0, 42, 2, 60, 15, 49, 27, 14, 45, 0, 59, 7, 16, 18, 39
|0, 8, 31, 41, 30, 38, 0, 57, 20, 62, 15, 0, 7, 25, 18, 63, 2, 49, 0, 14, 21, 10, 12, 50, 9, 32, 54, 1, 19, 34, 13, 0, 36, 47, 0, 0, 0, 0, 22, 0, 37, 16, 59, 28, 40, 0, 6, 26, 46, 56, 3, 0, 64, 55, 0, 53, 0, 51, 0, 48, 60, 0, 44, 58
|61, 15, 10, 5, 0, 2, 0, 0, 0, 31, 0, 43, 40, 1, 30, 14, 48, 46, 7, 0, 53, 0, 41, 0, 42, 0, 51, 26, 0, 0, 0, 45, 27, 55, 57, 0, 17, 59, 32, 0, 39, 49, 19, 0, 0, 0, 60, 24, 0, 33, 0, 0, 0, 6, 0, 0, 0, 50, 47, 12, 0, 35, 0, 38
|27, 53, 20, 17, 40, 9, 42, 0, 56, 50, 32, 39, 12, 35, 64, 60, 51, 8, 0, 61, 36, 4, 23, 0, 2, 0, 44, 28, 18, 59, 24, 22, 34, 29, 26, 37, 45, 38, 0, 3, 0, 46, 15, 43, 0, 25, 0, 11, 48, 0, 52, 5, 13, 57, 0, 54, 10, 6, 41, 62, 30, 0, 31, 21
|55, 4, 0, 64, 0, 0, 24, 0, 0, 0, 0, 59, 61, 38, 16, 21, 44, 0, 45, 58, 17, 40, 52, 5, 62, 0, 15, 0, 35, 33, 14, 50, 0, 6, 0, 0, 25, 20, 53, 51, 30, 18, 56, 10, 32, 1, 57, 0, 0, 11, 36, 0, 0, 37, 41, 63, 0, 34, 9, 43, 0, 0, 0, 0
|37, 51, 35, 23, 0, 0, 44, 0, 0, 11, 0, 36, 53, 29, 58, 34, 0, 43, 22, 0, 18, 3, 32, 42, 0, 27, 60, 57, 21, 20, 41, 56, 0, 0, 0, 5, 0, 0, 33, 0, 17, 45, 47, 62, 4, 8, 14, 0, 0, 19, 50, 12, 30, 61, 59, 0, 0, 0, 64, 49, 40, 0, 25, 28
|0, 44, 0, 4, 57, 30, 41, 28, 23, 60, 61, 53, 0, 33, 46, 0, 5, 0, 0, 56, 49, 37, 58, 45, 0, 0, 0, 10, 52, 25, 51, 32, 0, 40, 7, 0, 34, 63, 38, 17, 43, 0, 12, 59, 1, 16, 15, 3, 11, 31, 0, 14, 24, 21, 36, 0, 35, 18, 0, 26, 6, 0, 0, 64
|0, 0, 33, 0, 0, 0, 7, 40, 10, 34, 63, 0, 21, 16, 45, 0, 30, 39, 1, 52, 20, 0, 18, 24, 28, 61, 0, 14, 15, 12, 48, 13, 31, 25, 41, 32, 0, 8, 56, 57, 0, 26, 0, 4, 0, 0, 17, 49, 0, 54, 0, 19, 55, 5, 50, 29, 11, 23, 38, 60, 0, 0, 3, 43
|14, 0, 39, 31, 55, 0, 0, 38, 48, 0, 58, 0, 2, 20, 25, 35, 0, 22, 26, 0, 0, 19, 33, 0, 44, 45, 0, 0, 62, 36, 3, 34, 37, 52, 23, 9, 51, 43, 24, 6, 21, 29, 0, 56, 13, 0, 30, 10, 27, 40, 46, 49, 0, 0, 0, 16, 8, 32, 54, 7, 5, 61, 47, 41
|62, 35, 0, 0, 0, 63, 0, 58, 57, 15, 0, 37, 56, 7, 0, 0, 0, 14, 0, 0, 41, 29, 3, 53, 0, 46, 0, 59, 54, 0, 0, 6, 30, 0, 0, 12, 1, 60, 0, 13, 0, 0, 34, 39, 31, 0, 0, 48, 23, 9, 22, 45, 0, 52, 0, 0, 55, 33, 2, 44, 27, 0, 20, 0
|53, 0, 32, 8, 49, 0, 0, 3, 31, 0, 50, 0, 36, 17, 12, 39, 13, 0, 6, 35, 10, 51, 0, 60, 0, 0, 16, 37, 63, 5, 0, 0, 29, 0, 19, 0, 20, 0, 27, 15, 61, 25, 0, 7, 0, 45, 22, 0, 0, 38, 0, 0, 48, 34, 33, 59, 57, 0, 0, 0, 46, 14, 21, 0
|51, 0, 26, 0, 54, 10, 0, 46, 14, 0, 59, 0, 18, 22, 0, 43, 9, 48, 25, 50, 7, 16, 8, 63, 29, 24, 0, 0, 0, 17, 0, 0, 3, 33, 28, 0, 0, 5, 0, 0, 62, 23, 0, 42, 0, 57, 0, 41, 0, 15, 35, 58, 0, 64, 20, 39, 56, 49, 13, 0, 0, 0, 0, 0
|0, 19, 43, 16, 36, 27, 18, 52, 44, 0, 0, 41, 51, 49, 0, 42, 47, 62, 34, 11, 46, 32, 57, 4, 7, 55, 23, 35, 0, 40, 20, 0, 59, 39, 45, 2, 64, 0, 54, 0, 0, 5, 60, 24, 0, 0, 50, 9, 56, 26, 6, 61, 0, 28, 63, 8, 0, 0, 0, 0, 0, 15, 10, 0
|29, 0, 17, 42, 21, 0, 20, 13, 11, 30, 64, 5, 9, 32, 0, 62, 36, 15, 40, 0, 43, 0, 61, 31, 27, 50, 0, 49, 56, 57, 0, 1, 35, 14, 16, 10, 4, 18, 46, 47, 0, 0, 52, 51, 19, 38, 2, 53, 25, 60, 37, 0, 0, 0, 7, 44, 0, 48, 58, 39, 28, 59, 34, 24|];