order = 8;
grid = [|61, 37, 24, 41, 8, 0, 40, 64, 0, 0, 47, 0, 57, 10, 0, 59, 63, 0, 9, 22, 0, 0, 0, 32, 17, 16, 49, 0, 0, 0, 0, 1, 0, 14, 45, 51, 46, 0, 3, 50, 44, 54, 0, 7, 0, 6, 25, 0, 34, 26, 0, 21, 48, 58, 0, 0, 35, 5, 0, 0, 52, 38, 0, 0
|0, 20, 0, 42, 0, 34, 0, 4, 0, 0, 0, 1, 46, 0, 32, 5, 58, 44, 6, 0, 0, 61, 54, 0, 56, 36, 19, 8, 9, 43, 62, 14, 7, 0, 0, 37, 26, 0, 0, 0, 31, 47, 21, 0, 13, 35, 22, 0, 50, 53, 24, 39, 0, 52, 29, 51, 33, 28, 18, 25, 45, 0, 12, 49
|0, 22, 0, 0, 46, 35, 59, 0, 9, 0, 8, 29, 16, 34, 64, 19, 0, 47, 0, 20, 7, 0, 27, 0, 45, 40, 39, 25, 50, 61, 0, 0, 0, 17, 1, 0, 49, 0, 4, 36, 57, 0, 14, 58, 41, 56, 3, 37, 0, 0, 0, 18, 0, 11, 0, 28, 48, 6, 0, 63, 24, 2, 55, 44
|44, 18, 0, 13, 29, 57, 7, 25, 51, 0, 0, 49, 6, 3, 50, 22, 8, 37, 36, 55, 16, 12, 38, 14, 34, 5, 0, 21, 64, 0, 33, 11, 2, 39, 41, 63, 53, 0, 0, 0, 0, 59, 1, 40, 48, 0, 45, 15, 0, 0, 0, 9, 31, 56, 19, 43, 0, 46, 32, 0, 42, 10, 0, 61
|6, 9, 54, 16, 0, 19, 49, 0, 52, 14, 0, 4, 0, 20, 0, 0, 0, 11, 45, 0, 25, 0, 1, 0, 0, 13, 42, 48, 0, 58, 0, 18, 5, 61, 29, 40, 56, 0, 0, 47, 62, 2, 0, 0, 39, 12, 27, 28, 38, 0, 41, 32, 60, 64, 0, 0, 0, 22, 15, 34, 8, 36, 21, 51
|60, 23, 0, 63, 14, 47, 43, 36, 0, 40, 55, 24, 0, 0, 0, 38, 33, 13, 0, 0, 2, 0, 46, 4, 0, 41, 0, 30, 26, 22, 0, 51, 0, 44, 58, 34, 0, 0, 10, 48, 50, 0, 42, 29, 20, 0, 0, 16, 0, 0, 8, 5, 25, 45, 6, 3, 27, 1, 9, 57, 37, 59, 11, 0
|0, 0, 52, 26, 0, 30, 39, 0, 42, 54, 0, 0, 0, 0, 45, 11, 17, 18, 49, 15, 51, 0, 34, 21, 0, 35, 55, 0, 59, 2, 0, 3, 6, 0, 28, 43, 60, 0, 25, 62, 0, 8, 0, 33, 0, 9, 0, 10, 0, 37, 57, 46, 4, 0, 22, 61, 13, 20, 58, 0, 0, 0, 41, 47
|56, 21, 28, 55, 45, 0, 0, 0, 0, 60, 48, 0, 58, 7, 15, 0, 0, 24, 0, 35, 42, 0, 59, 29, 0, 57, 0, 0, 0, 0, 23, 32, 22, 0, 18, 11, 38, 9, 13, 19, 0, 0, 51, 5, 36, 64, 0, 52, 27, 63, 49, 0, 20, 17, 0, 1, 40, 43, 54, 50, 3, 53, 39, 16
|30, 0, 0, 35, 58, 55, 14, 0, 44, 17, 0, 60, 19, 0, 36, 0, 38, 43, 7, 27, 0, 63, 0, 1, 54, 48, 59, 0, 49, 0, 42, 31, 50, 2, 5, 9, 22, 0, 12, 53, 0, 56, 39, 15, 28, 26, 0, 0, 0, 0, 3, 10, 16, 46, 57, 52, 0, 24, 45, 4, 21, 32, 6, 0
|62, 52, 42, 0, 10, 27, 0, 2, 30, 12, 29, 0, 41, 33, 0, 39, 9, 0, 0, 50, 40, 0, 5, 49, 55, 0, 0, 51, 47, 32, 0, 0, 0, 0, 26, 58, 0, 38, 18, 60, 20, 64, 0, 0, 14, 61, 23, 7, 22, 0, 0, 4, 17, 6, 54, 25, 59, 3, 44, 43, 36, 48, 1, 53
|0, 0, 43, 0, 9, 7, 38, 49, 0, 58, 20, 23, 48, 56, 18, 0, 54, 0, 0, 0, 26, 29, 55, 36, 22, 12, 24, 28, 0, 10, 0, 0, 59, 6, 21, 15, 0, 34, 14, 0, 47, 0, 35, 8, 17, 37, 30, 60, 63, 19, 32, 0, 33, 41, 45, 5, 42, 27, 40, 0, 64, 51, 13, 50
|33, 47, 23, 57, 19, 13, 5, 59, 31, 1, 0, 9, 0, 61, 55, 0, 0, 0, 0, 41, 58, 15, 0, 42, 0, 0, 0, 11, 0, 26, 27, 16, 36, 51, 46, 0, 0, 28, 40, 44, 0, 63, 6, 45, 0, 24, 21, 18, 60, 0, 14, 50, 39, 29, 12, 0, 0, 17, 7, 0, 49, 25, 8, 34
|0, 48, 36, 0, 0, 0, 0, 0, 37, 0, 59, 0, 49, 22, 54, 10, 14, 46, 44, 18, 53, 0, 32, 31, 0, 58, 5, 50, 0, 8, 1, 17, 33, 11, 64, 39, 27, 47, 0, 7, 0, 52, 25, 13, 4, 16, 43, 19, 21, 0, 0, 35, 51, 40, 28, 15, 0, 29, 23, 61, 60, 9, 0, 0
|63, 29, 44, 51, 54, 1, 32, 16, 25, 7, 13, 40, 14, 0, 0, 0, 39, 52, 47, 0, 3, 35, 6, 0, 0, 0, 36, 4, 61, 60, 45, 21, 10, 41, 62, 48, 24, 57, 17, 42, 9, 12, 0, 49, 22, 0, 38, 0, 30, 20, 0, 55, 0, 0, 27, 8, 37, 31, 0, 5, 46, 0, 0, 19
|64, 0, 41, 18, 22, 0, 0, 0, 45, 34, 0, 0, 52, 0, 46, 21, 57, 48, 30, 0, 17, 10, 16, 0, 6, 20, 33, 3, 0, 9, 38, 0, 49, 37, 4, 13, 63, 8, 43, 56, 29, 0, 36, 0, 0, 27, 42, 31, 59, 1, 0, 24, 0, 2, 61, 7, 12, 35, 14, 47, 39, 15, 54, 58
|24, 6, 0, 53, 39, 8, 0, 0, 0, 0, 0, 2, 43, 50, 63, 32, 21, 45, 12, 64, 0, 20, 33, 51, 15, 14, 18, 13, 7, 35, 0, 0, 55, 0, 19, 23, 1, 0, 54, 16, 59, 46, 5, 0, 57, 0, 40, 0, 62, 0, 0, 37, 9, 47, 49, 58, 52, 41, 0, 22, 38, 26, 28, 0
|16, 55, 18, 0, 30, 0, 33, 24, 0, 2, 32, 12, 0, 0, 9, 0, 50, 0, 0, 26, 0, 0, 0, 7, 43, 19, 0, 0, 41, 46, 8, 13, 11, 0, 34, 42, 3, 63, 27, 39, 37, 20, 17, 59, 56, 45, 0, 29, 51, 48, 0, 49, 57, 0, 4, 0, 44, 0, 47, 64, 0, 22, 14, 40
|38, 0, 0, 14, 0, 0, 0, 32, 22, 29, 17, 19, 0, 0, 31, 44, 3, 33, 0, 0, 0, 0, 0, 28, 0, 45, 6, 57, 21, 27, 55, 39, 64, 15, 0, 0, 0, 0, 0, 0, 0, 0, 0, 0, 0, 48, 2, 42, 16, 8, 10, 47, 50, 0, 5, 0, 0, 12, 53, 58, 0, 0, 37, 13
|0, 0, 53, 52, 21, 44, 2, 39, 8, 28, 26, 43, 0, 18, 35, 37, 29, 64, 22, 9, 0, 56, 0, 0, 47, 50, 1, 5, 0, 30, 0, 24, 13, 19, 7, 10, 16, 58, 59, 23, 0, 0, 41, 38, 49, 0, 31, 62, 0, 0, 46, 0, 14, 27, 55, 45, 0, 34, 33, 60, 0, 57, 0, 48
|5, 0, 26, 49, 57, 0, 35, 0, 3, 33, 11, 0, 47, 24, 6, 34, 45, 41, 19, 25, 0, 0, 61, 0, 0, 10, 0, 36, 42, 7, 0, 12, 43, 52, 30, 22, 17, 37, 56, 0, 28, 50, 40, 46, 1, 0, 53, 58, 39, 9, 15, 29, 18, 0, 0, 0, 0, 2, 4, 59, 63, 23, 16, 54
|46, 64, 0, 0, 17, 50, 0, 20, 0, 56, 49, 0, 42, 0, 40, 4, 12, 63, 62, 14, 57, 24, 47, 15, 37, 18, 25, 34, 16, 11, 0, 38, 0, 0, 0, 21, 5, 2, 0, 51, 55, 10, 0, 35, 0, 0, 61, 33, 1, 30, 19, 6, 59, 32, 13, 23, 41, 7, 0, 0, 0, 52, 0, 31
|54, 0, 34, 6, 51, 25, 63, 19, 0, 0, 53, 0, 0, 0, 0, 16, 32, 30, 42, 36, 31, 46, 0, 60, 44, 23, 52, 40, 15, 28, 20, 4, 0, 1, 61, 47, 50, 0, 8, 57, 0, 0, 0, 27, 0, 7, 18, 12, 37, 0, 0, 0, 56, 0, 62, 2, 21, 0, 0, 10, 0, 0, 0, 0
|0, 7, 0, 0, 11, 41, 0, 0, 0, 61, 27, 62, 45, 0, 20, 1, 43, 0, 13, 39, 8, 0, 0, 0, 2, 33, 64, 59, 29, 49, 51, 0, 12, 0, 0, 18, 55, 31, 44, 0, 25, 0, 16, 21, 63, 19, 0, 0, 28, 52, 22, 40, 24, 3, 36, 34, 6, 30, 0, 0, 35, 50, 0, 46
|0, 59, 29, 0, 12, 23, 0, 27, 0, 25, 10, 30, 5, 0, 14, 51, 0, 38, 21, 0, 18, 55, 52, 16, 60, 22, 0, 53, 35, 54, 17, 56, 40, 0, 0, 46, 62, 48, 33, 45, 11, 13, 8, 0, 0, 47, 34, 0, 44, 58, 61, 41, 7, 0, 0, 31, 0, 42, 0, 0, 28, 39, 0, 24
|10, 44, 39, 9, 0, 0, 64, 7, 62, 0, 0, 0, 51, 0, 41, 56, 0, 15, 0, 13, 0, 5, 0, 30, 57, 49, 16, 24, 20, 34, 37, 47, 21, 59, 0, 3, 6, 0, 58, 12, 42, 32, 55, 0, 0, 0, 0, 0, 0, 46, 60, 23, 2, 61, 25, 27, 0, 40, 31, 19, 22, 0, 0, 0
|48, 43, 5, 11, 25, 0, 53, 0, 10, 16, 61, 15, 0, 23, 49, 0, 0, 40, 58, 0, 0, 0, 42, 50, 30, 0, 0, 60, 3, 51, 26, 45, 0, 0, 63, 35, 41, 44, 64, 1, 0, 0, 20, 0, 0, 0, 37, 0, 0, 22, 18, 57, 6, 0, 9, 47, 24, 39, 62, 27, 12, 8, 2, 4
|45, 0, 0, 0, 20, 24, 0, 18, 0, 52, 50, 63, 25, 44, 19, 0, 0, 0, 28, 31, 37, 0, 12, 0, 0, 0, 0, 2, 55, 4, 0, 54, 34, 38, 56, 61, 30, 39, 57, 27, 10, 7, 0, 48, 47, 5, 41, 1, 0, 0, 64, 15, 42, 0, 3, 33, 14, 0, 35, 21, 16, 13, 36, 60
|0, 0, 0, 40, 0, 63, 1, 31, 24, 0, 58, 28, 0, 0, 47, 42, 36, 0, 20, 57, 14, 3, 35, 2, 0, 38, 17, 15, 0, 0, 11, 61, 25, 32, 51, 55, 29, 0, 60, 37, 13, 22, 54, 12, 21, 0, 56, 43, 52, 44, 7, 19, 10, 0, 34, 39, 0, 0, 48, 0, 30, 5, 46, 9
|12, 0, 21, 0, 37, 14, 29, 0, 57, 6, 54, 31, 2, 27, 22, 0, 7, 0, 55, 51, 0, 11, 63, 64, 18, 52, 8, 43, 0, 44, 41, 19, 4, 0, 9, 53, 13, 10, 20, 0, 0, 16, 15, 60, 23, 25, 62, 0, 58, 35, 5, 36, 38, 49, 32, 24, 47, 33, 59, 1, 0, 45, 3, 0
|2, 36, 22, 0, 0, 16, 3, 38, 20, 32, 7, 0, 30, 0, 5, 60, 0, 19, 25, 44, 0, 49, 45, 0, 0, 39, 12, 6, 0, 0, 14, 27, 47, 48, 0, 0, 52, 54, 46, 0, 0, 0, 26, 0, 29, 0, 4, 9, 31, 0, 28, 0, 0, 8, 41, 50, 51, 56, 34, 0, 23, 37, 43, 0
|0, 51, 47, 58, 13, 0, 19, 57, 14, 0, 9, 46, 55, 59, 39, 0, 0, 60, 38, 4, 0, 34, 43, 0, 33, 28, 35, 0, 10, 0, 21, 50, 0, 22, 11, 16, 0, 0, 62, 26, 64, 49, 24, 0, 0, 8, 6, 0, 54, 40, 48, 17, 45, 1, 0, 30, 15, 18, 20, 0, 61, 42, 52, 25
|34, 0, 6, 17, 26, 4, 28, 0, 40, 0, 0, 37, 21, 35, 0, 13, 27, 10, 0, 0, 0, 39, 9, 52, 5, 25, 0, 42, 22, 0, 0, 53, 8, 36, 50, 24, 0, 0, 0, 49, 19, 3, 0, 61, 46, 30, 0, 51, 0, 55, 16, 56, 63, 12, 20, 62, 7, 11, 0, 0, 58, 64, 44, 0
|22, 13, 10, 24, 63, 48, 20, 3, 1, 0, 57, 38, 29, 32, 28, 6, 41, 0, 34, 0, 0, 43, 31, 5, 12, 0, 0, 46, 19, 59, 47, 35, 26, 0, 0, 49, 40, 42, 53, 64, 8, 25, 0, 39, 44, 23, 0, 0, 2, 45, 51, 58, 15, 55, 52, 0, 11, 37, 36, 33, 56, 0, 7, 18
|36, 16, 7, 0, 0, 43, 8, 41, 35, 45, 0, 22, 26, 25, 34, 18, 0, 58, 0, 46, 47, 0, 37, 13, 20, 0, 21, 32, 60, 42, 5, 6, 0, 30, 2, 44, 39, 11, 0, 10, 12, 57, 33, 0, 0, 0, 51, 54, 0, 29, 0, 31, 62, 59, 23, 53, 0, 0, 3, 52, 14, 0, 48, 27
|1, 2, 0, 0, 0, 46, 42, 34, 0, 49, 24, 0, 4, 0, 8, 0, 0, 17, 0, 0, 32, 53, 0, 10, 16, 29, 37, 62, 0, 52, 0, 0, 9, 27, 23, 6, 0, 3, 15, 25, 26, 35, 13, 47, 18, 43, 63, 56, 0, 0, 54, 0, 44, 38, 7, 11, 45, 57, 21, 20, 0, 30, 0, 5
|0, 15, 59, 0, 32, 0, 26, 0, 46, 48, 0, 0, 44, 0, 0, 9, 0, 0, 61, 52, 19, 14, 36, 35, 53, 2, 56, 0, 11, 38, 49, 23, 18, 5, 0, 0, 47, 7, 28, 33, 0, 21, 0, 6, 37, 0, 29, 0, 0, 0, 0, 0, 41, 24, 42, 0, 0, 62, 64, 13, 54, 0, 40, 0
|0, 35, 33, 27, 55, 0, 31, 0, 7, 5, 14, 39, 36, 0, 56, 0, 0, 0, 26, 6, 49, 2, 0, 11, 0, 3, 58, 44, 57, 63, 0, 0, 52, 45, 12, 0, 43, 17, 41, 13, 48, 0, 22, 16, 42, 20, 1, 32, 0, 47, 37, 61, 28, 0, 10, 40, 53, 59, 60, 46, 0, 0, 0, 15
|47, 0, 0, 60, 62, 51, 57, 14, 54, 0, 31, 52, 0, 16, 23, 0, 44, 59, 3, 7, 39, 42, 24, 55, 4, 30, 50, 26, 45, 1, 40, 33, 0, 21, 8, 29, 0, 61, 37, 0, 46, 36, 28, 0, 11, 15, 0, 0, 56, 25, 27, 13, 0, 35, 18, 6, 19, 0, 22, 49, 0, 34, 58, 0
|18, 30, 0, 4, 38, 52, 0, 6, 27, 20, 0, 11, 60, 43, 0, 0, 15, 0, 57, 0, 0, 0, 28, 56, 0, 9, 41, 10, 54, 0, 13, 36, 0, 46, 31, 0, 51, 59, 34, 0, 7, 0, 0, 0, 61, 40, 14, 3, 19, 0, 50, 26, 32, 22, 21, 17, 8, 23, 0, 39, 2, 47, 63, 35
|29, 19, 11, 5, 0, 40, 56, 0, 0, 37, 0, 21, 15, 42, 13, 61, 16, 4, 8, 0, 27, 38, 0, 0, 51, 34, 14, 7, 17, 39, 64, 0, 62, 0, 35, 57, 54, 32, 50, 0, 45, 0, 0, 0, 58, 2, 52, 59, 3, 60, 36, 48, 30, 9, 46, 0, 0, 0, 10, 44, 0, 0, 0, 41
|31, 1, 51, 44, 15, 17, 11, 63, 43, 0, 39, 18, 0, 0, 29, 41, 0, 14, 4, 5, 38, 0, 26, 33, 42, 47, 0, 20, 0, 0, 0, 22, 0, 55, 57, 54, 0, 56, 0, 34, 53, 58, 9, 0, 2, 13, 0, 0, 0, 50, 59, 16, 0, 30, 35, 32, 60, 8, 24, 0, 19, 0, 0, 6
|52, 45, 2, 0, 47, 3, 0, 58, 12, 50, 56, 33, 0, 36, 51, 57, 34, 1, 60, 53, 22, 19, 30, 61, 31, 6, 10, 27, 37, 21, 43, 5, 28, 0, 25, 0, 0, 26, 39, 32, 40, 0, 0, 0, 0, 63, 35, 17, 41, 0, 62, 42, 0, 15, 0, 44, 18, 38, 16, 54, 4, 55, 49, 20
|43, 0, 50, 19, 0, 5, 27, 12, 28, 55, 4, 0, 61, 60, 0, 0, 11, 35, 0, 0, 10, 21, 0, 3, 32, 17, 30, 29, 58, 16, 0, 63, 0, 0, 44, 0, 42, 52, 0, 6, 33, 0, 37, 20, 15, 1, 36, 46, 0, 0, 23, 54, 49, 0, 47, 0, 22, 51, 39, 53, 25, 41, 0, 14
|23, 62, 0, 20, 48, 0, 41, 21, 53, 13, 22, 42, 24, 6, 30, 49, 55, 7, 16, 32, 43, 36, 44, 0, 59, 8, 57, 19, 46, 0, 15, 60, 0, 9, 40, 12, 14, 35, 63, 4, 5, 51, 56, 0, 0, 0, 0, 0, 25, 33, 45, 28, 58, 0, 31, 29, 34, 52, 0, 11, 10, 27, 17, 0
|0, 61, 14, 0, 0, 53, 4, 28, 38, 23, 0, 0, 0, 40, 0, 0, 0, 62, 18, 63, 13, 41, 56, 20, 0, 54, 11, 0, 24, 33, 2, 7, 0, 49, 17, 50, 8, 16, 47, 22, 0, 0, 19, 31, 55, 3, 57, 6, 9, 0, 21, 51, 12, 48, 64, 0, 43, 0, 26, 0, 0, 58, 29, 1
|7, 0, 60, 32, 42, 0, 24, 0, 0, 44, 52, 20, 0, 0, 58, 27, 40, 0, 54, 48, 45, 0, 15, 47, 0, 0, 34, 35, 51, 18, 0, 0, 46, 29, 59, 41, 10, 0, 5, 3, 21, 11, 62, 26, 0, 4, 28, 8, 55, 6, 0, 2, 1, 39, 43, 22, 0, 36, 13, 12, 57, 63, 56, 37
|55, 0, 49, 0, 34, 10, 0, 0, 0, 0, 0, 0, 32, 64, 25, 0, 0, 0, 29, 8, 0, 17, 57, 9, 0, 0, 23, 0, 0, 48, 56, 28, 58, 0, 33, 0, 11, 0, 0, 0, 27, 60, 0, 0, 59, 42, 0, 0, 7, 61, 26, 20, 19, 5, 0, 4, 0, 0, 50, 40, 47, 3, 35, 62
|0, 56, 57, 54, 0, 29, 0, 40, 21, 31, 35, 47, 1, 19, 11, 3, 25, 50, 39, 0, 28, 58, 64, 6, 0, 62, 0, 55, 0, 0, 44, 49, 51, 0, 60, 2, 0, 24, 36, 18, 0, 0, 61, 0, 10, 41, 32, 23, 17, 27, 0, 0, 34, 37, 53, 46, 30, 48, 5, 0, 0, 0, 42, 0
|40, 0, 0, 47, 0, 64, 25, 9, 0, 22, 46, 0, 0, 37, 0, 29, 20, 0, 35, 62, 36, 1, 18, 38, 3, 21, 0, 54, 0, 45, 0, 30, 0, 12, 0, 8, 19, 0, 42, 31, 0, 43, 59, 0, 6, 32, 48, 0, 0, 15, 11, 0, 0, 50, 0, 56, 0, 0, 51, 0, 0, 49, 27, 7
|13, 0, 0, 15, 6, 0, 18, 33, 41, 0, 0, 17, 0, 0, 60, 24, 64, 0, 10, 0, 59, 9, 3, 0, 27, 4, 2, 0, 53, 0, 35, 0, 44, 7, 0, 0, 28, 36, 1, 11, 58, 39, 0, 56, 0, 14, 0, 0, 0, 57, 0, 38, 0, 0, 0, 0, 55, 21, 0, 37, 34, 54, 0, 22
|0, 10, 35, 0, 44, 28, 30, 11, 32, 9, 36, 0, 13, 63, 0, 0, 49, 55, 0, 17, 15, 45, 60, 12, 1, 31, 51, 18, 38, 50, 0, 0, 3, 0, 24, 0, 58, 0, 0, 43, 54, 37, 64, 4, 5, 0, 47, 0, 23, 0, 40, 62, 21, 19, 26, 14, 29, 16, 0, 0, 53, 20, 0, 8
|21, 24, 0, 0, 7, 0, 0, 46, 26, 19, 6, 44, 0, 58, 43, 31, 56, 39, 51, 54, 50, 30, 53, 25, 0, 60, 13, 47, 5, 15, 0, 0, 20, 0, 52, 27, 9, 41, 23, 35, 17, 18, 29, 36, 12, 49, 0, 2, 0, 3, 33, 22, 61, 0, 1, 37, 62, 4, 28, 38, 0, 0, 59, 57
|53, 0, 38, 1, 23, 42, 0, 51, 56, 57, 0, 54, 11, 55, 3, 45, 24, 21, 27, 29, 6, 0, 8, 22, 49, 26, 0, 0, 36, 25, 0, 9, 63, 18, 37, 0, 0, 0, 32, 0, 0, 0, 10, 62, 34, 31, 20, 0, 4, 0, 0, 0, 0, 7, 48, 0, 0, 0, 17, 30, 50, 44, 61, 39
|0, 54, 0, 31, 5, 0, 36, 0, 15, 59, 18, 0, 0, 51, 12, 64, 19, 32, 0, 42, 63, 0, 0, 46, 24, 37, 44, 22, 8, 41, 29, 0, 0, 0, 49, 0, 0, 53, 0, 17, 0, 0, 30, 3, 33, 0, 26, 0, 13, 2, 0, 27, 55, 0, 58, 9, 1, 10, 6, 56, 40, 0, 47, 45
|49, 4, 20, 2, 27, 0, 58, 43, 34, 0, 23, 10, 0, 39, 1, 0, 13, 57, 48, 61, 5, 0, 0, 41, 19, 63, 0, 0, 6, 0, 0, 62, 60, 47, 0, 30, 0, 0, 26, 29, 0, 42, 7, 51, 45, 53, 9, 0, 46, 0, 17, 25, 36, 44, 8, 18, 64, 15, 12, 24, 11, 0, 33, 3
|0, 0, 3, 29, 0, 0, 62, 56, 0, 47, 0, 27, 8, 49, 0, 0, 0, 2, 37, 28, 11, 31, 58, 0, 40, 64, 7, 0, 48, 23, 10, 34, 57, 16, 0, 45, 4, 0, 0, 61, 1, 0, 38, 0, 0, 50, 13, 0, 20, 43, 0, 0, 54, 53, 39, 41, 0, 19, 0, 32, 0, 0, 60, 0
|0, 63, 12, 10, 0, 61, 21, 8, 13, 11, 0, 14, 31, 5, 27, 23, 47, 56, 46, 16, 44, 33, 0, 34, 28, 32, 38, 0, 40, 29, 36, 2, 17, 0, 0, 20, 64, 1, 22, 9, 35, 0, 18, 43, 51, 55, 7, 45, 6, 4, 25, 3, 37, 26, 0, 54, 0, 60, 41, 42, 62, 0, 30, 52
|0, 0, 45, 0, 40, 20, 0, 0, 49, 36, 0, 34, 0, 0, 16, 0, 26, 5, 52, 0, 30, 7, 41, 39, 62, 51, 31, 0, 43, 56, 6, 0, 29, 58, 3, 4, 0, 60, 11, 54, 0, 23, 57, 19, 8, 10, 24, 61, 0, 0, 0, 0, 13, 14, 38, 42, 9, 64, 37, 48, 27, 46, 50, 28
|19, 0, 30, 7, 4, 59, 9, 0, 58, 26, 60, 57, 54, 45, 48, 63, 61, 27, 40, 2, 0, 13, 11, 53, 0, 0, 20, 0, 0, 0, 12, 41, 15, 43, 38, 0, 32, 18, 49, 21, 0, 0, 46, 25, 64, 0, 17, 0, 0, 0, 52, 33, 0, 62, 0, 10, 39, 47, 55, 3, 44, 0, 0, 36
|28, 11, 0, 3, 0, 6, 0, 29, 55, 42, 0, 0, 59, 62, 61, 43, 0, 9, 14, 38, 24, 18, 25, 0, 35, 53, 54, 64, 33, 19, 0, 58, 45, 0, 0, 36, 44, 51, 48, 2, 15, 0, 0, 30, 0, 22, 12, 39, 0, 0, 20, 0, 46, 31, 17, 57, 0, 49, 0, 7, 5, 0, 32, 21
|27, 57, 56, 0, 0, 18, 51, 5, 6, 46, 1, 0, 10, 4, 24, 0, 0, 3, 64, 37, 55, 48, 49, 45, 26, 44, 60, 0, 63, 0, 50, 25, 41, 42, 47, 52, 0, 62, 19, 8, 14, 9, 34, 11, 40, 28, 58, 13, 0, 0, 29, 7, 0, 36, 0, 21, 2, 54, 43, 15, 0, 12, 53, 38
|0, 41, 25, 36, 43, 60, 0, 1, 64, 8, 0, 35, 0, 38, 2, 0, 4, 42, 31, 0, 0, 57, 21, 54, 0, 0, 22, 0, 18, 5, 0, 48, 30, 56, 53, 0, 33, 50, 61, 40, 6, 27, 32, 37, 3, 62, 44, 26, 15, 49, 58, 45, 47, 63, 0, 0, 16, 14, 29, 51, 0, 11, 34, 59
|14, 46, 15, 22, 0, 49, 48, 0, 17, 39, 30, 50, 3, 29, 44, 53, 28, 12, 0, 58, 62, 51, 20, 8, 0, 42, 0, 45, 52, 0, 7, 59, 37, 35, 0, 0, 0, 6, 0, 5, 56, 33, 2, 0, 38, 21, 0, 0, 11, 41, 9, 0, 64, 43, 40, 0, 4, 0, 25, 18, 13, 31, 10, 0
|37, 26, 0, 64, 0, 38, 54, 44, 18, 0, 41, 0, 0, 9, 52, 40, 0, 36, 15, 0, 0, 6, 0, 17, 21, 11, 3, 0, 34, 0, 30, 10, 23, 25, 13, 14, 57, 46, 31, 0, 49, 53, 4, 42, 60, 59, 5, 20, 0, 32, 0, 1, 27, 28, 0, 55, 61, 0, 8, 35, 0, 0, 0, 56|];