order = 8;
grid = [|0, 10, 25, 14, 0, 0, 7, 22, 51, 18, 47, 0, 46, 0, 9, 6, 52, 36, 49, 33, 42, 21, 20, 24, 23, 45, 57, 0, 64, 0, 26, 15, 0, 59, 63, 54, 48, 60, 61, 29, 4, 0, 31, 13, 30, 0, 0, 44, 1, 34, 55, 62, 58, 0, 0, 17, 0, 0, 12, 2, 8, 11, 43, 16
|11, 23, 15, 60, 0, 34, 30, 38, 32, 0, 13, 27, 52, 29, 22, 14, 53, 58, 0, 47, 17, 43, 0, 0, 49, 55, 24, 33, 4, 48, 40, 2, 0, 0, 10, 3, 25, 0, 46, 56, 61, 0, 26, 0, 0, 12, 36, 0, 0, 21, 31, 5, 37, 0, 0, 64, 20, 19, 7, 57, 44, 0, 51, 62
|0, 49, 0, 52, 0, 8, 54, 18, 39, 33, 20, 0, 0, 36, 62, 0, 56, 0, 3, 0, 9, 29, 4, 35, 7, 61, 12, 11, 53, 16, 41, 27, 0, 47, 0, 0, 40, 51, 34, 6, 0, 25, 23, 37, 22, 28, 2, 17, 44, 0, 24, 19, 13, 0, 32, 14, 0, 0, 42, 31, 1, 0, 50, 63
|12, 0, 0, 0, 9, 0, 1, 0, 2, 53, 28, 0, 0, 8, 40, 7, 55, 14, 39, 57, 45, 30, 0, 0, 37, 42, 0, 25, 5, 31, 0, 34, 0, 50, 38, 0, 36, 0, 0, 26, 20, 15, 58, 18, 54, 0, 29, 0, 48, 49, 16, 11, 0, 27, 0, 59, 0, 0, 0, 52, 0, 47, 3, 24
|0, 0, 56, 63, 45, 0, 0, 37, 0, 50, 1, 38, 0, 5, 3, 0, 0, 46, 0, 59, 0, 62, 0, 0, 35, 18, 0, 0, 60, 30, 54, 0, 27, 55, 9, 28, 39, 57, 31, 41, 14, 0, 0, 34, 21, 0, 0, 11, 22, 0, 15, 51, 47, 26, 0, 43, 33, 25, 4, 64, 0, 23, 58, 48
|0, 33, 3, 47, 44, 0, 58, 42, 35, 0, 0, 0, 11, 0, 0, 0, 31, 28, 0, 54, 0, 26, 0, 0, 6, 20, 50, 22, 1, 0, 51, 59, 16, 21, 14, 4, 19, 18, 24, 0, 0, 55, 62, 43, 8, 45, 57, 0, 29, 2, 30, 52, 0, 0, 60, 9, 5, 0, 38, 15, 0, 27, 39, 61
|43, 55, 27, 32, 0, 46, 2, 0, 0, 59, 21, 4, 64, 0, 30, 24, 60, 61, 16, 0, 1, 48, 41, 12, 13, 0, 9, 62, 0, 0, 8, 56, 15, 0, 0, 45, 0, 0, 0, 7, 63, 19, 0, 0, 0, 40, 5, 0, 20, 25, 23, 36, 0, 3, 0, 54, 6, 29, 14, 0, 18, 22, 28, 35
|61, 0, 24, 0, 0, 36, 26, 51, 48, 42, 44, 15, 55, 16, 17, 0, 27, 0, 22, 5, 6, 25, 7, 23, 14, 0, 0, 19, 43, 10, 0, 28, 0, 20, 30, 0, 0, 0, 2, 58, 64, 47, 1, 0, 53, 32, 0, 39, 63, 18, 57, 41, 38, 50, 35, 0, 0, 45, 0, 49, 37, 0, 0, 59
|0, 46, 0, 26, 43, 0, 34, 0, 0, 9, 45, 48, 0, 55, 60, 58, 37, 44, 0, 27, 5, 17, 0, 61, 28, 0, 40, 20, 13, 11, 47, 50, 7, 42, 16, 0, 38, 24, 39, 2, 32, 0, 51, 41, 15, 0, 25, 63, 62, 59, 35, 1, 54, 23, 56, 18, 3, 0, 30, 0, 31, 0, 64, 0
|0, 54, 16, 9, 25, 39, 18, 4, 0, 51, 62, 0, 0, 0, 24, 0, 0, 57, 46, 0, 50, 6, 58, 11, 45, 0, 48, 2, 0, 63, 17, 21, 0, 0, 19, 43, 44, 27, 49, 0, 1, 0, 0, 36, 5, 22, 0, 42, 41, 52, 29, 47, 34, 7, 3, 33, 28, 38, 15, 56, 0, 26, 0, 60
|0, 0, 21, 0, 58, 0, 0, 50, 43, 32, 0, 47, 0, 0, 0, 8, 0, 0, 1, 41, 54, 0, 26, 63, 0, 10, 0, 51, 9, 0, 0, 38, 17, 31, 0, 0, 11, 36, 60, 34, 33, 30, 27, 7, 0, 0, 23, 12, 0, 24, 0, 53, 45, 15, 39, 0, 37, 6, 2, 55, 0, 14, 13, 25
|24, 0, 48, 0, 7, 0, 0, 0, 0, 41, 27, 3, 34, 6, 0, 0, 14, 9, 4, 0, 21, 12, 33, 45, 36, 0, 37, 42, 0, 0, 0, 18, 23, 32, 0, 0, 20, 30, 1, 0, 0, 39, 61, 0, 16, 43, 0, 0, 38, 0, 49, 58, 2, 0, 0, 50, 52, 62, 8, 46, 11, 5, 54, 0
|5, 0, 0, 6, 3, 38, 37, 19, 0, 17, 25, 0, 13, 31, 63, 0, 43, 0, 15, 2, 0, 0, 59, 22, 62, 0, 56, 4, 0, 29, 55, 41, 54, 0, 64, 48, 57, 61, 33, 0, 0, 0, 0, 0, 45, 53, 0, 0, 0, 0, 14, 44, 10, 36, 0, 0, 0, 50, 39, 0, 0, 51, 24, 18
|29, 36, 2, 31, 11, 0, 20, 0, 26, 0, 0, 0, 0, 15, 38, 0, 0, 39, 51, 18, 52, 55, 10, 30, 0, 33, 46, 1, 0, 0, 44, 24, 0, 0, 3, 25, 53, 28, 59, 0, 49, 62, 21, 0, 0, 0, 14, 0, 16, 0, 13, 60, 63, 42, 5, 27, 0, 48, 35, 0, 34, 57, 0, 45
|28, 61, 60, 0, 35, 27, 40, 12, 33, 39, 10, 0, 0, 0, 0, 11, 0, 0, 38, 53, 19, 64, 0, 62, 57, 15, 0, 3, 49, 25, 32, 23, 5, 45, 29, 0, 0, 56, 37, 0, 0, 0, 2, 58, 13, 55, 50, 48, 4, 46, 6, 31, 22, 51, 0, 20, 41, 1, 0, 44, 17, 0, 0, 42
|41, 0, 64, 45, 1, 42, 22, 33, 0, 0, 29, 28, 18, 2, 54, 46, 25, 0, 0, 40, 7, 31, 13, 49, 26, 39, 5, 0, 27, 58, 19, 14, 6, 51, 0, 0, 35, 0, 12, 15, 52, 34, 0, 57, 60, 3, 0, 38, 0, 30, 17, 8, 0, 32, 48, 0, 10, 0, 36, 16, 61, 0, 0, 53
|3, 56, 55, 59, 50, 58, 0, 0, 16, 63, 37, 24, 36, 0, 0, 20, 5, 6, 21, 0, 62, 8, 64, 15, 17, 1, 19, 52, 0, 49, 46, 0, 0, 30, 60, 34, 0, 0, 0, 11, 25, 0, 0, 0, 0, 0, 0, 0, 0, 53, 51, 2, 0, 0, 44, 0, 18, 0, 47, 0, 14, 32, 0, 38
|0, 0, 7, 57, 0, 14, 0, 0, 0, 0, 50, 41, 38, 47, 44, 32, 39, 0, 0, 60, 0, 9, 0, 0, 0, 35, 0, 21, 45, 24, 2, 62, 55, 46, 42, 0, 43, 37, 64, 51, 8, 31, 0, 59, 33, 11, 16, 0, 0, 0, 0, 56, 0, 10, 54, 0, 0, 0, 0, 1, 13, 0, 0, 36
|64, 13, 0, 37, 0, 33, 51, 0, 14, 0, 22, 0, 0, 1, 52, 0, 29, 23, 42, 49, 0, 44, 32, 0, 60, 41, 31, 7, 59, 28, 25, 40, 36, 0, 6, 20, 24, 48, 3, 39, 0, 12, 17, 0, 61, 0, 38, 18, 47, 57, 8, 63, 5, 4, 0, 34, 19, 26, 0, 30, 56, 0, 62, 10
|0, 0, 19, 12, 0, 26, 27, 0, 0, 15, 3, 0, 0, 48, 0, 0, 0, 1, 0, 45, 4, 0, 51, 59, 5, 47, 0, 58, 16, 54, 61, 43, 57, 13, 8, 0, 0, 35, 44, 52, 29, 63, 56, 6, 32, 14, 24, 62, 25, 0, 38, 0, 28, 9, 11, 55, 0, 0, 17, 37, 0, 39, 31, 33
|0, 42, 0, 0, 0, 28, 0, 52, 0, 13, 35, 0, 0, 58, 59, 0, 33, 0, 37, 0, 12, 54, 40, 0, 29, 30, 0, 6, 0, 18, 36, 0, 56, 16, 61, 0, 0, 25, 4, 0, 53, 1, 50, 64, 19, 0, 55, 2, 0, 27, 48, 0, 0, 20, 31, 41, 0, 23, 57, 5, 24, 0, 21, 0
|10, 5, 39, 8, 4, 0, 31, 24, 62, 46, 40, 0, 28, 19, 33, 29, 0, 16, 25, 13, 36, 47, 0, 58, 27, 56, 0, 0, 26, 20, 48, 3, 14, 18, 2, 0, 0, 38, 63, 0, 0, 57, 45, 23, 9, 0, 30, 0, 15, 17, 7, 64, 60, 21, 0, 6, 50, 0, 41, 12, 0, 59, 61, 44
|0, 32, 0, 15, 0, 0, 16, 63, 27, 0, 0, 34, 57, 25, 51, 30, 20, 18, 0, 0, 2, 24, 61, 41, 9, 0, 0, 38, 22, 0, 37, 64, 26, 0, 53, 19, 58, 0, 5, 31, 47, 60, 42, 0, 0, 44, 21, 52, 36, 23, 59, 14, 0, 43, 1, 13, 4, 35, 48, 28, 3, 40, 45, 0
|18, 0, 0, 0, 60, 2, 0, 1, 9, 4, 55, 43, 8, 61, 53, 64, 0, 52, 31, 0, 38, 19, 0, 57, 0, 32, 0, 14, 0, 42, 13, 39, 59, 0, 21, 0, 0, 0, 47, 0, 5, 0, 0, 27, 40, 36, 0, 49, 26, 0, 22, 33, 50, 37, 0, 58, 51, 0, 6, 20, 0, 29, 7, 46
|19, 34, 0, 16, 0, 0, 12, 0, 0, 31, 4, 9, 47, 49, 0, 28, 0, 0, 0, 43, 11, 0, 21, 39, 0, 6, 0, 8, 0, 5, 0, 1, 3, 60, 17, 2, 41, 54, 0, 0, 23, 45, 48, 61, 42, 0, 35, 57, 0, 0, 33, 0, 0, 59, 62, 15, 64, 24, 44, 38, 50, 0, 0, 0
|56, 41, 6, 3, 21, 47, 29, 44, 13, 20, 0, 2, 27, 54, 39, 1, 17, 48, 34, 0, 23, 0, 37, 7, 40, 36, 35, 50, 62, 51, 60, 0, 28, 9, 24, 0, 33, 0, 8, 0, 22, 53, 0, 0, 18, 0, 63, 0, 45, 38, 46, 43, 64, 58, 52, 16, 0, 0, 0, 32, 15, 0, 25, 12
|38, 60, 0, 0, 30, 51, 9, 0, 59, 16, 43, 0, 40, 10, 0, 55, 28, 13, 54, 64, 58, 0, 57, 0, 19, 29, 17, 48, 11, 2, 0, 61, 63, 0, 45, 56, 0, 15, 53, 14, 31, 44, 46, 3, 4, 0, 0, 24, 35, 32, 25, 20, 0, 0, 47, 7, 0, 5, 52, 0, 49, 1, 37, 8
|15, 25, 0, 0, 42, 0, 64, 20, 21, 0, 14, 32, 0, 0, 8, 0, 0, 41, 9, 26, 56, 33, 27, 38, 0, 3, 0, 55, 47, 39, 28, 0, 50, 61, 36, 49, 6, 0, 62, 43, 37, 51, 60, 12, 0, 59, 1, 29, 24, 11, 0, 13, 40, 48, 17, 0, 57, 46, 0, 4, 53, 16, 0, 0
|45, 39, 28, 53, 49, 61, 0, 40, 60, 30, 0, 56, 23, 51, 11, 0, 59, 29, 2, 63, 8, 35, 12, 1, 0, 26, 18, 0, 25, 41, 64, 54, 38, 0, 0, 47, 52, 44, 57, 0, 0, 0, 0, 62, 0, 50, 0, 16, 34, 31, 9, 4, 14, 0, 36, 0, 0, 55, 0, 0, 6, 3, 27, 0
|4, 26, 33, 55, 24, 0, 0, 43, 22, 0, 18, 53, 0, 52, 36, 42, 0, 25, 0, 31, 15, 49, 62, 6, 0, 44, 63, 0, 0, 9, 0, 0, 30, 0, 11, 16, 21, 34, 0, 1, 0, 32, 64, 0, 27, 0, 58, 0, 0, 54, 0, 10, 61, 0, 0, 0, 56, 28, 0, 29, 0, 48, 41, 20
|0, 8, 17, 58, 57, 48, 0, 0, 0, 34, 15, 0, 62, 0, 6, 0, 44, 47, 61, 55, 53, 16, 24, 36, 22, 23, 45, 10, 0, 21, 0, 0, 4, 12, 51, 46, 0, 7, 19, 0, 39, 41, 14, 25, 52, 5, 43, 0, 2, 1, 56, 26, 3, 49, 30, 0, 0, 0, 59, 0, 35, 0, 0, 9
|31, 2, 0, 11, 37, 1, 59, 5, 41, 25, 64, 0, 44, 24, 0, 12, 4, 0, 0, 30, 10, 14, 3, 52, 16, 57, 0, 49, 46, 43, 27, 7, 0, 48, 35, 42, 0, 29, 58, 20, 0, 0, 36, 0, 0, 0, 13, 0, 0, 6, 53, 0, 8, 60, 19, 23, 45, 47, 63, 17, 0, 34, 0, 0
|30, 14, 0, 7, 54, 29, 0, 2, 0, 0, 42, 39, 0, 43, 34, 27, 47, 49, 33, 21, 0, 0, 0, 0, 53, 0, 25, 5, 56, 55, 59, 0, 58, 64, 46, 0, 10, 63, 18, 19, 45, 16, 57, 52, 0, 20, 15, 41, 13, 35, 0, 12, 0, 8, 23, 60, 62, 31, 1, 0, 40, 0, 32, 0
|35, 59, 41, 0, 17, 0, 10, 57, 45, 49, 24, 0, 54, 0, 26, 0, 0, 12, 36, 0, 39, 0, 1, 0, 50, 38, 11, 13, 42, 15, 6, 0, 0, 0, 56, 0, 60, 3, 29, 4, 62, 22, 63, 46, 48, 2, 7, 0, 58, 0, 21, 37, 43, 0, 0, 47, 30, 16, 0, 53, 27, 52, 0, 0
|0, 28, 0, 24, 56, 0, 52, 39, 47, 29, 0, 13, 0, 32, 20, 17, 54, 0, 45, 38, 57, 0, 0, 0, 21, 43, 0, 40, 0, 0, 4, 0, 22, 41, 33, 0, 5, 42, 50, 53, 44, 36, 0, 14, 49, 0, 0, 34, 30, 0, 0, 0, 0, 6, 0, 0, 25, 9, 0, 7, 63, 0, 15, 0
|27, 0, 49, 0, 31, 60, 38, 15, 1, 12, 0, 5, 63, 3, 0, 50, 7, 26, 29, 0, 0, 4, 55, 2, 24, 14, 52, 0, 20, 0, 39, 0, 8, 25, 32, 57, 37, 6, 0, 48, 30, 0, 0, 17, 35, 42, 10, 33, 19, 22, 64, 61, 53, 0, 0, 11, 13, 43, 28, 0, 54, 0, 18, 0
|44, 0, 1, 64, 0, 4, 47, 0, 0, 0, 0, 35, 48, 7, 19, 0, 13, 63, 43, 56, 25, 27, 42, 37, 58, 51, 0, 12, 41, 57, 49, 10, 34, 36, 0, 0, 15, 0, 45, 30, 0, 8, 39, 0, 0, 0, 0, 60, 40, 28, 0, 54, 0, 0, 2, 52, 22, 61, 0, 59, 0, 17, 0, 0
|0, 22, 34, 62, 20, 25, 0, 23, 37, 58, 36, 18, 16, 11, 55, 52, 61, 5, 24, 10, 0, 0, 15, 0, 44, 48, 60, 64, 3, 45, 0, 0, 2, 43, 59, 0, 13, 47, 0, 49, 28, 50, 0, 0, 1, 31, 26, 0, 46, 39, 41, 0, 0, 17, 42, 56, 0, 12, 33, 0, 19, 0, 0, 0
|51, 0, 45, 40, 0, 53, 0, 0, 56, 57, 0, 0, 14, 0, 0, 0, 0, 0, 35, 3, 18, 0, 6, 0, 31, 2, 0, 54, 37, 7, 1, 30, 12, 52, 39, 24, 0, 23, 27, 62, 13, 61, 9, 11, 0, 58, 19, 21, 49, 4, 0, 0, 0, 33, 0, 63, 42, 44, 0, 47, 5, 20, 36, 0
|37, 12, 46, 0, 0, 50, 0, 13, 30, 0, 59, 0, 61, 0, 15, 62, 0, 19, 0, 22, 31, 53, 52, 48, 47, 34, 0, 63, 18, 17, 23, 33, 0, 1, 7, 51, 28, 16, 0, 21, 0, 0, 0, 24, 29, 27, 4, 6, 14, 55, 0, 32, 0, 38, 20, 45, 49, 0, 0, 39, 0, 0, 8, 0
|0, 47, 5, 0, 52, 0, 56, 25, 54, 43, 33, 16, 7, 0, 45, 13, 35, 59, 64, 0, 63, 0, 28, 0, 15, 0, 3, 61, 10, 44, 58, 17, 0, 22, 50, 0, 51, 32, 0, 57, 55, 26, 18, 42, 0, 1, 37, 14, 0, 0, 36, 48, 21, 0, 0, 29, 39, 30, 0, 0, 23, 46, 9, 27
|1, 19, 0, 50, 10, 45, 41, 3, 0, 64, 11, 61, 17, 44, 0, 0, 57, 8, 0, 58, 55, 2, 25, 4, 0, 62, 59, 18, 14, 22, 35, 0, 0, 6, 49, 37, 0, 53, 43, 23, 0, 0, 13, 0, 24, 21, 9, 51, 0, 60, 0, 0, 26, 54, 33, 0, 0, 36, 0, 42, 20, 12, 16, 0
|33, 0, 38, 28, 15, 22, 42, 0, 12, 0, 0, 0, 2, 60, 32, 10, 0, 0, 5, 0, 47, 20, 23, 21, 0, 49, 39, 0, 0, 6, 56, 16, 0, 24, 1, 0, 0, 0, 0, 18, 27, 59, 0, 45, 50, 0, 46, 0, 11, 62, 0, 0, 9, 14, 0, 0, 31, 52, 64, 54, 26, 0, 44, 17
|0, 62, 13, 0, 23, 0, 14, 0, 24, 0, 0, 36, 42, 0, 35, 15, 50, 0, 0, 12, 0, 0, 18, 16, 52, 0, 0, 9, 19, 1, 5, 29, 0, 0, 26, 27, 61, 2, 0, 0, 0, 0, 3, 10, 0, 48, 64, 0, 31, 43, 20, 46, 0, 45, 0, 0, 47, 4, 22, 6, 0, 58, 0, 32
|40, 57, 37, 48, 64, 30, 0, 32, 52, 1, 9, 0, 51, 28, 18, 0, 0, 22, 56, 44, 0, 0, 46, 0, 38, 0, 41, 36, 0, 60, 50, 25, 31, 33, 47, 0, 54, 11, 0, 12, 16, 0, 8, 0, 20, 29, 61, 0, 17, 0, 42, 6, 55, 0, 58, 53, 24, 0, 0, 62, 59, 13, 35, 0
|26, 0, 20, 0, 0, 44, 60, 46, 0, 0, 0, 21, 0, 4, 14, 47, 34, 32, 0, 0, 0, 39, 0, 10, 42, 13, 28, 27, 2, 0, 57, 63, 64, 8, 40, 5, 45, 59, 7, 36, 54, 43, 53, 0, 0, 38, 17, 56, 18, 51, 52, 30, 23, 0, 41, 24, 11, 37, 25, 50, 55, 0, 19, 3
|63, 0, 58, 0, 18, 0, 53, 6, 23, 55, 38, 0, 25, 56, 37, 59, 15, 0, 17, 24, 3, 45, 31, 0, 0, 21, 54, 0, 0, 0, 43, 0, 48, 4, 0, 30, 16, 62, 0, 9, 0, 0, 19, 60, 47, 0, 52, 36, 28, 64, 27, 22, 0, 2, 50, 0, 14, 10, 49, 33, 41, 8, 1, 5
|0, 0, 8, 0, 12, 0, 4, 36, 0, 26, 0, 0, 0, 30, 0, 49, 0, 54, 19, 61, 43, 11, 9, 29, 0, 64, 47, 0, 0, 23, 24, 45, 46, 17, 52, 44, 3, 14, 0, 0, 6, 58, 0, 2, 0, 62, 41, 28, 59, 37, 1, 16, 0, 13, 10, 25, 0, 0, 18, 51, 48, 0, 60, 0
|60, 16, 57, 39, 41, 9, 61, 11, 28, 0, 0, 14, 50, 27, 0, 0, 22, 0, 23, 8, 49, 0, 0, 0, 0, 0, 36, 29, 0, 19, 0, 0, 32, 0, 54, 31, 0, 1, 0, 25, 56, 0, 0, 35, 59, 0, 51, 13, 0, 0, 62, 0, 42, 55, 37, 38, 12, 0, 5, 0, 30, 0, 33, 15
|0, 7, 29, 0, 0, 31, 17, 55, 25, 0, 54, 11, 37, 39, 0, 35, 0, 27, 0, 52, 20, 38, 36, 0, 43, 0, 62, 41, 21, 56, 15, 51, 24, 34, 0, 0, 14, 45, 23, 0, 0, 10, 4, 8, 0, 57, 18, 61, 53, 50, 40, 0, 30, 47, 22, 1, 44, 0, 0, 13, 28, 0, 48, 6
|54, 30, 51, 0, 62, 20, 45, 10, 3, 22, 0, 8, 0, 59, 0, 23, 21, 0, 11, 29, 24, 57, 5, 0, 63, 27, 49, 60, 17, 0, 0, 53, 9, 2, 0, 13, 46, 41, 52, 0, 36, 14, 32, 26, 0, 0, 39, 1, 33, 58, 61, 0, 19, 0, 64, 4, 35, 0, 16, 25, 42, 50, 38, 55
|59, 24, 40, 0, 0, 15, 33, 0, 0, 52, 32, 6, 53, 17, 0, 56, 62, 0, 48, 16, 0, 58, 0, 0, 0, 54, 0, 57, 0, 14, 38, 47, 37, 3, 28, 36, 8, 5, 11, 0, 7, 20, 44, 50, 23, 0, 0, 43, 0, 29, 12, 9, 51, 34, 13, 2, 46, 0, 61, 22, 0, 0, 26, 19
|21, 38, 0, 23, 36, 37, 6, 48, 5, 7, 0, 46, 19, 34, 0, 4, 64, 15, 14, 50, 61, 1, 35, 31, 18, 25, 33, 0, 55, 13, 22, 26, 60, 62, 20, 10, 30, 39, 56, 16, 42, 2, 12, 49, 0, 0, 54, 45, 3, 8, 43, 24, 17, 28, 0, 32, 0, 41, 9, 0, 57, 0, 52, 47
|25, 0, 4, 13, 34, 52, 19, 56, 0, 36, 60, 0, 1, 18, 58, 38, 3, 0, 53, 0, 26, 37, 39, 55, 0, 0, 2, 44, 0, 32, 30, 0, 0, 15, 57, 29, 47, 0, 6, 17, 24, 0, 0, 33, 62, 9, 22, 31, 0, 0, 63, 0, 49, 0, 7, 0, 0, 20, 0, 23, 45, 21, 0, 54
|0, 3, 35, 0, 0, 0, 0, 0, 63, 47, 61, 0, 20, 13, 12, 40, 18, 0, 59, 9, 0, 56, 0, 34, 1, 31, 0, 45, 23, 50, 11, 6, 0, 44, 48, 7, 0, 55, 51, 38, 0, 37, 5, 53, 0, 15, 60, 0, 39, 14, 54, 57, 16, 52, 46, 0, 36, 58, 0, 24, 43, 0, 17, 29
|53, 27, 14, 0, 0, 12, 32, 58, 15, 62, 0, 45, 41, 33, 57, 9, 6, 0, 0, 46, 0, 0, 0, 28, 10, 40, 0, 0, 24, 0, 0, 5, 42, 49, 22, 18, 59, 50, 26, 64, 38, 29, 16, 0, 55, 17, 11, 0, 23, 0, 0, 25, 0, 0, 21, 36, 34, 39, 37, 8, 51, 7, 0, 1
|0, 31, 47, 0, 8, 0, 57, 54, 11, 0, 34, 63, 32, 46, 25, 22, 40, 21, 18, 62, 0, 10, 14, 0, 3, 53, 43, 15, 0, 0, 9, 58, 0, 0, 41, 33, 50, 17, 20, 0, 0, 0, 7, 44, 26, 61, 49, 35, 60, 0, 4, 0, 0, 30, 55, 51, 0, 64, 24, 36, 39, 0, 0, 2
|7, 0, 0, 44, 27, 0, 5, 16, 31, 0, 6, 0, 56, 23, 42, 39, 0, 0, 26, 0, 29, 52, 0, 43, 51, 24, 64, 47, 0, 59, 33, 11, 0, 57, 18, 35, 34, 0, 22, 0, 2, 13, 30, 1, 25, 8, 62, 58, 0, 36, 45, 38, 20, 0, 15, 0, 0, 0, 0, 0, 12, 28, 0, 0
|58, 15, 0, 19, 32, 0, 25, 0, 0, 0, 53, 30, 0, 20, 1, 0, 24, 31, 57, 4, 37, 36, 45, 33, 48, 8, 0, 23, 29, 0, 21, 0, 0, 7, 27, 0, 12, 46, 13, 0, 51, 28, 55, 5, 0, 54, 0, 64, 0, 0, 0, 17, 52, 0, 14, 0, 0, 42, 26, 63, 0, 0, 0, 50
|9, 45, 36, 20, 0, 49, 24, 17, 0, 27, 19, 62, 0, 0, 0, 0, 1, 30, 0, 0, 46, 0, 0, 0, 0, 63, 0, 16, 44, 61, 42, 31, 0, 54, 15, 0, 2, 0, 0, 28, 0, 0, 0, 21, 0, 10, 56, 22, 64, 47, 37, 39, 0, 0, 26, 12, 58, 0, 55, 18, 7, 35, 23, 34
|0, 1, 12, 46, 0, 63, 0, 29, 0, 3, 58, 51, 0, 38, 2, 54, 9, 17, 28, 23, 16, 15, 0, 8, 39, 22, 14, 26, 57, 34, 0, 37, 21, 0, 0, 0, 0, 4, 30, 59, 50, 0, 6, 31, 36, 60, 45, 20, 7, 5, 11, 42, 41, 61, 40, 35, 27, 32, 0, 0, 25, 44, 0, 52
|22, 0, 42, 2, 61, 62, 0, 30, 57, 35, 52, 59, 15, 45, 48, 36, 0, 0, 6, 39, 60, 34, 44, 20, 0, 5, 13, 0, 7, 4, 18, 49, 0, 10, 25, 14, 26, 58, 16, 24, 0, 0, 43, 19, 63, 0, 53, 0, 0, 33, 50, 23, 31, 1, 8, 3, 29, 0, 0, 40, 0, 38, 0, 0
|0, 18, 0, 10, 59, 3, 0, 35, 8, 60, 16, 12, 9, 21, 13, 0, 58, 53, 0, 42, 0, 51, 2, 64, 0, 0, 20, 30, 50, 46, 45, 0, 29, 63, 23, 39, 0, 40, 36, 0, 41, 0, 38, 4, 14, 24, 47, 15, 0, 0, 32, 0, 6, 19, 0, 0, 48, 57, 11, 61, 22, 43, 5, 31
|39, 4, 53, 41, 51, 0, 0, 60, 29, 44, 7, 17, 5, 26, 0, 18, 49, 35, 63, 11, 22, 61, 50, 0, 2, 0, 0, 56, 0, 0, 10, 12, 62, 38, 55, 32, 31, 64, 42, 8, 59, 0, 0, 0, 34, 0, 48, 27, 0, 13, 0, 28, 0, 24, 0, 0, 0, 3, 20, 0, 33, 45, 0, 37|];