order = 8;
grid = [|14, 47, 35, 0, 13, 0, 0, 18, 59, 0, 0, 28, 29, 54, 7, 0, 19, 44, 46, 0, 11, 57, 22, 20, 0, 0, 0, 39, 0, 17, 0, 0, 21, 36, 0, 0, 0, 0, 40, 0, 50, 8, 26, 0, 16, 63, 38, 62, 0, 24, 64, 0, 0, 51, 34, 48, 3, 9, 32, 61, 45, 23, 0, 0
|0, 58, 43, 57, 55, 0, 5, 50, 0, 61, 41, 8, 0, 0, 0, 32, 62, 0, 23, 0, 26, 0, 45, 3, 0, 6, 28, 33, 36, 49, 0, 7, 0, 59, 0, 64, 0, 0, 16, 0, 0, 0, 46, 0, 0, 24, 19, 0, 30, 4, 44, 0, 17, 0, 27, 0, 15, 0, 0, 14, 0, 39, 0, 0
|0, 0, 0, 16, 33, 60, 28, 21, 63, 24, 39, 11, 0, 17, 19, 5, 0, 41, 0, 0, 0, 43, 59, 15, 56, 20, 27, 10, 34, 54, 1, 18, 57, 0, 50, 2, 22, 8, 62, 3, 31, 29, 30, 42, 45, 0, 0, 64, 61, 26, 55, 0, 23, 35, 38, 0, 25, 0, 49, 0, 0, 6, 44, 46
|20, 54, 0, 40, 39, 0, 22, 0, 33, 6, 0, 46, 43, 0, 0, 18, 4, 25, 0, 29, 9, 0, 1, 53, 32, 21, 62, 47, 63, 8, 11, 50, 0, 44, 35, 26, 0, 0, 17, 0, 56, 41, 5, 58, 51, 60, 27, 0, 2, 0, 3, 0, 57, 14, 37, 42, 0, 0, 7, 31, 30, 55, 59, 28
|3, 15, 9, 25, 44, 0, 37, 49, 0, 30, 0, 4, 14, 0, 23, 47, 0, 8, 36, 42, 21, 31, 6, 27, 38, 29, 64, 57, 45, 0, 26, 22, 5, 7, 0, 0, 61, 0, 51, 0, 11, 33, 59, 55, 1, 2, 40, 54, 16, 62, 13, 0, 50, 28, 63, 0, 18, 41, 10, 0, 56, 20, 35, 0
|26, 1, 0, 63, 0, 27, 45, 46, 0, 10, 25, 55, 16, 44, 21, 15, 5, 35, 28, 48, 50, 0, 7, 0, 9, 40, 61, 0, 51, 4, 0, 2, 56, 43, 24, 41, 13, 30, 32, 0, 23, 0, 0, 18, 3, 0, 52, 22, 59, 12, 0, 8, 0, 11, 39, 0, 19, 0, 0, 0, 64, 34, 0, 42
|0, 42, 0, 34, 19, 51, 0, 29, 48, 31, 62, 58, 26, 56, 0, 1, 30, 12, 18, 63, 0, 0, 40, 55, 3, 0, 0, 35, 25, 5, 0, 37, 33, 49, 38, 0, 0, 0, 0, 15, 44, 39, 28, 0, 4, 9, 7, 0, 0, 43, 0, 41, 53, 22, 20, 60, 0, 13, 47, 8, 27, 50, 24, 2
|59, 11, 4, 23, 30, 8, 56, 0, 50, 35, 3, 0, 0, 0, 22, 42, 49, 37, 0, 64, 0, 2, 60, 39, 0, 0, 55, 0, 0, 44, 15, 24, 31, 0, 25, 0, 0, 0, 0, 0, 32, 48, 61, 34, 0, 12, 47, 0, 0, 52, 7, 10, 0, 19, 0, 5, 62, 53, 17, 63, 57, 26, 0, 51
|0, 26, 50, 13, 0, 0, 12, 16, 0, 22, 58, 0, 17, 46, 0, 0, 0, 0, 63, 57, 39, 0, 2, 24, 59, 0, 6, 0, 41, 0, 38, 25, 64, 0, 0, 31, 0, 60, 36, 47, 52, 4, 45, 10, 54, 0, 21, 61, 53, 1, 0, 19, 0, 42, 30, 44, 0, 37, 0, 43, 35, 0, 0, 15
|8, 0, 28, 64, 0, 61, 0, 31, 15, 0, 18, 2, 10, 49, 63, 39, 36, 21, 11, 16, 43, 35, 46, 13, 0, 9, 48, 30, 0, 1, 5, 45, 0, 0, 22, 62, 56, 38, 23, 52, 33, 0, 0, 0, 57, 26, 0, 0, 55, 51, 58, 47, 12, 7, 3, 54, 41, 17, 6, 34, 60, 42, 19, 32
|0, 0, 0, 14, 34, 37, 0, 9, 31, 32, 44, 57, 48, 0, 3, 0, 64, 61, 15, 47, 17, 0, 0, 12, 23, 27, 8, 28, 4, 0, 60, 42, 20, 55, 30, 0, 29, 0, 54, 40, 58, 19, 0, 0, 0, 5, 13, 0, 43, 25, 50, 0, 0, 62, 16, 33, 63, 39, 22, 0, 0, 1, 0, 45
|19, 6, 48, 10, 0, 30, 27, 5, 41, 0, 0, 51, 0, 28, 61, 0, 31, 0, 0, 20, 0, 37, 14, 23, 0, 11, 0, 55, 22, 0, 54, 39, 0, 34, 7, 16, 53, 63, 9, 0, 43, 15, 0, 59, 40, 62, 32, 0, 13, 0, 17, 45, 46, 0, 64, 35, 0, 44, 0, 26, 0, 0, 4, 25
|25, 62, 38, 0, 32, 0, 0, 58, 27, 0, 64, 35, 36, 43, 37, 19, 40, 7, 45, 55, 0, 41, 4, 44, 63, 17, 56, 15, 14, 0, 21, 53, 12, 0, 13, 28, 0, 5, 26, 0, 0, 0, 49, 0, 47, 3, 30, 42, 29, 48, 0, 6, 0, 24, 0, 61, 50, 2, 46, 0, 51, 0, 20, 9
|0, 0, 0, 60, 17, 42, 0, 0, 25, 4, 21, 47, 59, 26, 53, 50, 0, 48, 62, 0, 1, 51, 0, 52, 12, 46, 3, 64, 0, 36, 13, 61, 37, 0, 32, 49, 8, 0, 0, 45, 0, 7, 16, 20, 9, 23, 56, 24, 31, 5, 0, 39, 34, 41, 0, 0, 55, 38, 40, 30, 0, 29, 14, 10
|51, 0, 45, 24, 36, 0, 0, 57, 52, 55, 8, 54, 1, 16, 0, 7, 0, 22, 0, 0, 38, 9, 0, 5, 0, 50, 0, 0, 44, 0, 0, 0, 0, 0, 61, 58, 0, 0, 0, 0, 34, 28, 0, 39, 35, 17, 25, 37, 49, 32, 56, 14, 15, 0, 0, 63, 0, 64, 3, 13, 33, 27, 47, 21
|0, 23, 0, 46, 22, 0, 18, 43, 62, 0, 14, 45, 5, 0, 0, 0, 25, 0, 0, 19, 32, 0, 56, 60, 49, 58, 33, 0, 40, 16, 34, 20, 0, 2, 41, 10, 0, 24, 39, 0, 48, 0, 51, 63, 38, 44, 0, 55, 0, 0, 21, 26, 8, 4, 0, 27, 28, 0, 12, 57, 7, 54, 0, 0
|5, 36, 0, 59, 41, 14, 0, 53, 1, 9, 31, 21, 4, 0, 38, 0, 34, 11, 0, 2, 0, 6, 0, 30, 33, 0, 54, 24, 23, 57, 0, 40, 22, 29, 52, 0, 32, 18, 37, 25, 13, 26, 62, 15, 28, 0, 0, 7, 50, 20, 63, 48, 0, 16, 61, 0, 10, 56, 0, 3, 55, 60, 64, 44
|47, 0, 13, 15, 25, 1, 44, 2, 30, 0, 56, 42, 0, 36, 6, 26, 39, 27, 33, 32, 3, 62, 55, 54, 22, 18, 0, 19, 0, 9, 7, 0, 8, 0, 20, 50, 64, 45, 5, 12, 0, 57, 0, 46, 24, 43, 61, 59, 4, 23, 35, 0, 38, 60, 28, 49, 31, 58, 53, 17, 16, 37, 21, 11
|49, 57, 17, 19, 12, 26, 0, 48, 3, 0, 15, 18, 0, 62, 46, 41, 50, 5, 56, 53, 61, 42, 64, 14, 0, 0, 25, 36, 0, 0, 58, 63, 47, 0, 0, 0, 7, 0, 55, 10, 51, 31, 0, 22, 11, 34, 54, 38, 27, 0, 9, 0, 6, 43, 2, 30, 1, 32, 0, 23, 20, 4, 28, 29
|16, 27, 3, 29, 10, 11, 0, 61, 0, 23, 0, 13, 24, 0, 35, 55, 0, 31, 59, 4, 0, 25, 0, 18, 0, 44, 20, 0, 0, 34, 30, 0, 58, 0, 19, 0, 15, 26, 21, 62, 49, 40, 37, 5, 0, 32, 41, 60, 33, 0, 0, 22, 56, 1, 45, 7, 36, 48, 8, 0, 0, 0, 0, 6
|50, 55, 7, 33, 45, 64, 34, 30, 17, 5, 43, 0, 0, 0, 25, 58, 37, 47, 0, 28, 57, 40, 38, 16, 0, 1, 41, 21, 3, 0, 0, 59, 0, 0, 9, 6, 39, 23, 0, 36, 0, 44, 52, 56, 0, 0, 53, 29, 0, 0, 26, 42, 31, 54, 0, 0, 13, 22, 15, 49, 12, 0, 0, 62
|24, 0, 31, 22, 0, 6, 0, 0, 19, 54, 28, 59, 0, 32, 39, 45, 63, 29, 20, 15, 41, 0, 0, 49, 42, 0, 53, 62, 50, 11, 43, 27, 46, 0, 16, 30, 0, 48, 57, 61, 0, 0, 0, 33, 0, 0, 0, 1, 0, 0, 52, 25, 5, 0, 0, 12, 51, 34, 0, 35, 0, 40, 0, 7
|0, 56, 54, 28, 18, 20, 0, 0, 0, 50, 34, 0, 22, 27, 0, 60, 0, 19, 35, 7, 0, 24, 0, 8, 4, 0, 16, 38, 0, 55, 52, 12, 0, 51, 31, 0, 43, 0, 1, 44, 39, 36, 9, 0, 0, 0, 42, 3, 0, 15, 37, 17, 58, 46, 0, 0, 45, 5, 0, 33, 59, 30, 26, 0
|9, 39, 58, 0, 0, 21, 62, 8, 0, 20, 11, 40, 0, 7, 0, 37, 1, 26, 0, 22, 0, 36, 23, 0, 5, 56, 15, 13, 31, 48, 47, 35, 3, 0, 42, 17, 28, 34, 24, 0, 45, 16, 64, 50, 30, 0, 6, 0, 41, 55, 59, 0, 0, 0, 0, 10, 27, 0, 18, 38, 0, 2, 61, 54
|54, 59, 1, 35, 0, 0, 2, 4, 13, 37, 55, 48, 58, 10, 15, 0, 0, 16, 0, 0, 34, 20, 53, 0, 41, 8, 40, 31, 61, 39, 22, 30, 6, 0, 17, 19, 46, 33, 43, 63, 38, 25, 44, 64, 60, 49, 29, 23, 0, 0, 42, 7, 3, 57, 21, 9, 0, 0, 45, 51, 0, 32, 5, 24
|30, 46, 51, 44, 0, 0, 0, 0, 45, 41, 61, 0, 8, 47, 40, 56, 23, 3, 22, 25, 0, 19, 0, 32, 0, 13, 0, 0, 0, 6, 24, 0, 18, 0, 49, 54, 35, 16, 28, 64, 0, 20, 43, 4, 50, 59, 0, 33, 0, 34, 12, 0, 48, 15, 17, 62, 38, 21, 0, 0, 37, 0, 1, 0
|48, 38, 10, 0, 50, 58, 8, 45, 0, 21, 36, 0, 35, 9, 0, 46, 17, 51, 0, 30, 15, 7, 42, 0, 0, 57, 34, 43, 28, 0, 0, 64, 29, 0, 40, 0, 5, 13, 25, 56, 0, 12, 0, 0, 55, 41, 0, 0, 0, 11, 19, 33, 16, 0, 0, 37, 49, 14, 63, 6, 61, 22, 18, 31
|29, 0, 55, 0, 57, 0, 0, 14, 54, 0, 0, 0, 33, 0, 17, 28, 13, 0, 64, 9, 10, 46, 5, 0, 50, 62, 0, 58, 15, 59, 0, 1, 24, 8, 26, 3, 4, 51, 41, 38, 0, 61, 0, 0, 42, 48, 18, 56, 0, 0, 45, 2, 0, 30, 0, 39, 0, 0, 27, 11, 53, 35, 23, 52
|13, 0, 0, 11, 0, 62, 23, 40, 0, 51, 30, 22, 7, 39, 0, 64, 41, 0, 37, 21, 0, 56, 18, 0, 25, 42, 46, 16, 53, 33, 0, 0, 55, 15, 0, 0, 31, 59, 0, 0, 14, 5, 0, 0, 32, 57, 0, 0, 38, 35, 0, 1, 0, 0, 10, 0, 44, 0, 29, 12, 0, 0, 17, 0
|17, 16, 6, 21, 5, 15, 39, 12, 26, 57, 42, 0, 25, 63, 18, 11, 44, 55, 24, 43, 28, 49, 0, 2, 7, 0, 36, 27, 0, 29, 0, 38, 62, 58, 1, 0, 9, 47, 22, 0, 0, 34, 35, 54, 19, 30, 46, 0, 60, 56, 0, 31, 51, 0, 53, 0, 0, 40, 0, 4, 48, 3, 41, 0
|60, 9, 19, 42, 61, 0, 0, 3, 5, 29, 6, 0, 20, 59, 34, 44, 57, 38, 52, 45, 4, 0, 0, 48, 21, 55, 35, 49, 0, 0, 18, 47, 14, 30, 12, 0, 27, 2, 53, 11, 62, 58, 31, 1, 0, 22, 0, 51, 0, 8, 43, 0, 32, 64, 25, 24, 56, 50, 54, 15, 0, 16, 0, 26
|18, 64, 63, 52, 7, 24, 0, 22, 0, 0, 0, 53, 38, 19, 27, 3, 61, 14, 0, 39, 59, 33, 62, 35, 48, 0, 17, 51, 20, 60, 0, 26, 32, 10, 44, 42, 0, 21, 0, 0, 36, 13, 15, 11, 37, 8, 0, 40, 54, 0, 4, 55, 41, 50, 5, 6, 30, 0, 0, 0, 0, 0, 58, 57
|64, 0, 26, 53, 63, 59, 0, 20, 28, 19, 16, 0, 0, 0, 0, 0, 45, 4, 55, 0, 0, 0, 30, 40, 0, 0, 14, 48, 1, 32, 41, 15, 0, 27, 0, 57, 38, 3, 12, 0, 0, 9, 6, 0, 7, 33, 23, 0, 22, 0, 10, 37, 52, 39, 46, 8, 58, 42, 24, 50, 21, 47, 2, 56
|28, 0, 2, 37, 47, 0, 0, 54, 46, 58, 10, 7, 0, 40, 0, 24, 9, 43, 0, 0, 23, 11, 0, 33, 18, 30, 38, 0, 60, 22, 61, 34, 59, 5, 48, 13, 16, 17, 0, 31, 26, 53, 39, 14, 21, 42, 0, 0, 56, 3, 32, 20, 27, 49, 0, 64, 6, 0, 0, 1, 29, 25, 45, 63
|21, 0, 16, 5, 42, 46, 0, 0, 32, 1, 38, 0, 45, 35, 56, 12, 22, 50, 0, 0, 2, 52, 0, 36, 39, 54, 31, 23, 8, 53, 33, 0, 40, 60, 37, 25, 44, 20, 58, 0, 64, 47, 34, 3, 48, 19, 62, 28, 7, 6, 57, 0, 0, 0, 0, 59, 26, 0, 41, 0, 4, 13, 43, 0
|41, 18, 44, 0, 51, 40, 30, 60, 6, 13, 27, 52, 34, 0, 0, 0, 12, 20, 14, 0, 53, 64, 0, 25, 62, 5, 21, 0, 0, 56, 29, 58, 28, 39, 45, 0, 47, 0, 8, 0, 0, 0, 11, 36, 59, 54, 15, 32, 63, 0, 2, 43, 26, 0, 24, 17, 0, 0, 31, 19, 10, 33, 0, 48
|0, 45, 22, 50, 58, 0, 6, 34, 43, 0, 23, 0, 0, 0, 51, 20, 47, 1, 21, 0, 46, 15, 57, 29, 10, 7, 0, 3, 0, 13, 25, 28, 26, 62, 63, 11, 24, 0, 42, 14, 41, 0, 18, 49, 61, 0, 60, 0, 5, 40, 0, 35, 0, 0, 55, 4, 0, 12, 37, 59, 0, 0, 32, 30
|56, 24, 12, 0, 0, 0, 29, 39, 21, 0, 0, 0, 37, 22, 0, 33, 0, 60, 48, 0, 27, 59, 0, 10, 0, 52, 0, 50, 47, 0, 6, 55, 9, 64, 15, 0, 51, 53, 2, 0, 25, 0, 58, 57, 31, 45, 20, 0, 19, 16, 41, 0, 13, 23, 1, 0, 0, 28, 35, 5, 0, 11, 40, 0
|62, 0, 0, 4, 48, 0, 0, 32, 61, 18, 0, 0, 47, 41, 59, 30, 0, 42, 54, 0, 31, 8, 0, 19, 27, 2, 24, 44, 0, 26, 17, 0, 0, 46, 10, 52, 50, 0, 7, 0, 0, 56, 0, 16, 63, 38, 43, 5, 45, 14, 25, 21, 0, 36, 58, 28, 60, 51, 20, 0, 0, 53, 57, 0
|31, 14, 0, 0, 9, 25, 0, 0, 11, 64, 48, 26, 15, 0, 2, 49, 56, 62, 39, 5, 7, 58, 32, 28, 40, 43, 59, 45, 57, 0, 63, 0, 36, 21, 0, 29, 0, 41, 61, 30, 0, 0, 24, 37, 13, 10, 35, 0, 0, 60, 0, 50, 0, 0, 0, 51, 52, 8, 44, 54, 0, 46, 38, 3
|6, 10, 0, 12, 29, 22, 31, 41, 0, 11, 40, 19, 0, 51, 43, 34, 38, 0, 47, 46, 24, 32, 0, 0, 16, 0, 23, 18, 0, 27, 62, 0, 30, 0, 55, 0, 20, 0, 48, 0, 0, 0, 25, 13, 36, 56, 0, 50, 1, 33, 28, 64, 9, 0, 49, 15, 14, 63, 39, 2, 0, 0, 8, 58
|39, 0, 62, 49, 59, 0, 19, 38, 0, 36, 12, 1, 0, 55, 48, 0, 0, 0, 27, 51, 0, 22, 0, 17, 0, 24, 0, 53, 54, 10, 46, 13, 16, 42, 0, 56, 34, 0, 64, 0, 4, 45, 32, 0, 26, 15, 2, 20, 14, 0, 30, 0, 43, 61, 8, 0, 40, 0, 28, 44, 11, 0, 50, 33
|34, 25, 46, 61, 28, 0, 0, 0, 0, 45, 0, 33, 39, 14, 54, 59, 0, 2, 16, 11, 5, 13, 0, 0, 15, 37, 49, 56, 55, 40, 31, 0, 0, 22, 0, 8, 23, 0, 47, 26, 0, 42, 7, 48, 0, 58, 57, 10, 24, 50, 53, 62, 0, 63, 35, 0, 17, 30, 1, 64, 6, 51, 27, 60
|42, 30, 18, 0, 11, 7, 0, 0, 0, 62, 46, 10, 49, 58, 5, 22, 35, 0, 44, 0, 0, 39, 0, 57, 20, 0, 32, 6, 0, 63, 8, 0, 1, 50, 29, 0, 0, 4, 45, 28, 0, 17, 38, 0, 41, 55, 33, 21, 0, 19, 0, 0, 25, 40, 26, 0, 37, 31, 0, 0, 43, 15, 0, 0
|23, 50, 8, 54, 0, 47, 48, 26, 0, 38, 35, 0, 41, 30, 0, 9, 18, 0, 40, 0, 36, 28, 25, 61, 64, 34, 39, 1, 2, 12, 57, 0, 13, 0, 62, 15, 0, 58, 0, 51, 3, 0, 19, 43, 49, 37, 0, 0, 46, 0, 27, 11, 29, 0, 31, 55, 20, 0, 4, 21, 42, 0, 10, 0
|0, 53, 40, 43, 21, 9, 1, 0, 18, 28, 26, 15, 3, 13, 47, 63, 29, 10, 8, 0, 20, 0, 0, 34, 51, 61, 58, 0, 11, 14, 50, 0, 49, 31, 2, 24, 0, 37, 0, 60, 46, 6, 23, 35, 39, 64, 16, 30, 57, 44, 54, 12, 0, 56, 7, 36, 22, 59, 0, 0, 32, 41, 0, 38
|37, 3, 64, 45, 4, 36, 0, 33, 0, 8, 17, 44, 23, 20, 50, 31, 14, 0, 0, 1, 55, 60, 52, 63, 30, 25, 22, 9, 26, 47, 42, 0, 0, 0, 21, 43, 57, 0, 46, 0, 5, 0, 54, 61, 62, 28, 0, 34, 39, 58, 38, 18, 59, 0, 0, 2, 29, 35, 13, 56, 0, 49, 0, 0
|57, 0, 15, 58, 0, 13, 51, 55, 56, 7, 2, 0, 52, 25, 0, 27, 42, 9, 49, 50, 64, 30, 12, 21, 17, 0, 43, 0, 38, 28, 35, 33, 41, 61, 11, 44, 0, 54, 18, 39, 40, 24, 29, 0, 0, 0, 31, 0, 37, 10, 0, 5, 0, 48, 47, 22, 0, 26, 36, 62, 0, 19, 16, 0
|22, 0, 0, 3, 40, 0, 20, 0, 8, 48, 63, 29, 56, 15, 12, 0, 58, 57, 0, 27, 0, 55, 0, 0, 6, 36, 0, 0, 7, 23, 0, 0, 0, 9, 51, 34, 49, 32, 0, 0, 18, 37, 0, 62, 0, 0, 10, 11, 44, 46, 39, 38, 0, 25, 33, 21, 2, 0, 30, 42, 31, 0, 53, 1
|1, 34, 30, 9, 2, 50, 21, 63, 58, 25, 57, 31, 54, 18, 0, 17, 8, 32, 0, 40, 6, 0, 11, 4, 0, 0, 0, 46, 12, 0, 49, 29, 0, 37, 56, 22, 59, 55, 35, 0, 42, 0, 47, 23, 15, 27, 45, 0, 10, 0, 24, 61, 0, 5, 51, 3, 48, 33, 62, 0, 0, 44, 52, 20
|15, 5, 39, 0, 0, 18, 61, 0, 0, 46, 51, 30, 9, 4, 0, 43, 7, 0, 29, 49, 0, 21, 0, 45, 55, 0, 13, 0, 42, 62, 40, 31, 2, 14, 0, 0, 26, 57, 0, 0, 19, 38, 1, 8, 33, 36, 12, 35, 32, 0, 60, 53, 0, 0, 56, 52, 0, 47, 0, 25, 22, 28, 3, 50
|4, 19, 11, 48, 24, 0, 36, 0, 0, 53, 45, 41, 0, 21, 60, 61, 15, 13, 17, 10, 18, 47, 51, 0, 0, 0, 0, 52, 59, 2, 16, 0, 27, 23, 28, 0, 25, 0, 33, 0, 7, 0, 22, 32, 34, 39, 14, 0, 0, 42, 29, 0, 0, 26, 6, 0, 54, 57, 0, 46, 0, 38, 37, 0
|0, 0, 0, 0, 0, 23, 0, 10, 0, 59, 47, 32, 28, 33, 1, 52, 0, 0, 42, 41, 12, 3, 35, 38, 43, 14, 45, 0, 18, 25, 0, 11, 19, 24, 8, 36, 30, 0, 31, 17, 0, 0, 63, 9, 0, 6, 48, 0, 20, 0, 15, 4, 2, 34, 50, 16, 39, 55, 21, 0, 5, 0, 13, 49
|44, 32, 49, 41, 35, 16, 0, 0, 23, 26, 5, 34, 62, 2, 0, 13, 0, 0, 25, 33, 52, 0, 39, 43, 0, 0, 30, 0, 58, 21, 37, 4, 0, 0, 6, 0, 10, 7, 0, 0, 57, 54, 50, 40, 56, 0, 0, 31, 0, 9, 22, 0, 18, 59, 14, 45, 11, 15, 0, 60, 19, 12, 63, 0
|38, 13, 14, 56, 46, 45, 55, 42, 40, 39, 50, 64, 0, 37, 0, 16, 0, 30, 53, 36, 0, 1, 0, 0, 35, 0, 51, 32, 33, 15, 9, 57, 60, 11, 58, 0, 52, 44, 3, 5, 59, 2, 17, 24, 0, 21, 4, 0, 0, 47, 0, 54, 63, 0, 23, 41, 0, 10, 34, 0, 0, 7, 29, 18
|33, 7, 59, 0, 31, 0, 57, 25, 22, 14, 19, 38, 0, 3, 0, 10, 2, 64, 0, 26, 37, 0, 0, 0, 47, 0, 50, 0, 24, 0, 20, 48, 42, 53, 0, 40, 21, 15, 0, 43, 28, 46, 0, 30, 29, 16, 5, 0, 0, 49, 62, 13, 55, 17, 12, 1, 0, 45, 0, 32, 23, 36, 6, 4
|45, 29, 25, 62, 64, 53, 0, 56, 55, 2, 0, 0, 19, 6, 0, 48, 16, 39, 50, 61, 40, 0, 3, 0, 34, 22, 63, 42, 27, 46, 0, 23, 7, 35, 60, 21, 12, 9, 0, 0, 37, 18, 0, 0, 43, 31, 26, 0, 15, 0, 8, 51, 20, 10, 57, 0, 33, 1, 59, 47, 17, 14, 0, 0
|43, 22, 37, 0, 23, 39, 0, 59, 38, 47, 13, 0, 0, 0, 10, 25, 0, 28, 34, 8, 0, 0, 0, 9, 2, 41, 57, 0, 62, 7, 0, 54, 52, 0, 0, 0, 0, 0, 11, 18, 17, 51, 42, 44, 0, 0, 1, 12, 26, 0, 0, 0, 0, 0, 0, 0, 61, 3, 50, 36, 40, 31, 0, 35
|11, 0, 21, 6, 26, 63, 42, 0, 0, 0, 0, 27, 18, 29, 41, 54, 46, 0, 4, 60, 35, 0, 47, 51, 61, 0, 0, 0, 19, 30, 0, 10, 25, 0, 64, 37, 3, 43, 56, 24, 0, 0, 20, 28, 0, 0, 34, 39, 0, 0, 1, 52, 0, 31, 44, 38, 32, 0, 0, 55, 2, 8, 7, 16
|10, 33, 52, 27, 15, 5, 58, 0, 14, 56, 0, 16, 0, 23, 31, 53, 0, 18, 57, 6, 62, 38, 20, 0, 60, 47, 0, 11, 35, 24, 3, 49, 17, 0, 34, 63, 42, 50, 30, 8, 0, 32, 13, 2, 0, 0, 0, 48, 28, 39, 36, 40, 45, 37, 41, 0, 4, 19, 43, 29, 0, 21, 51, 22
|2, 17, 41, 18, 3, 19, 9, 0, 35, 0, 7, 0, 0, 50, 45, 40, 59, 63, 43, 44, 0, 12, 0, 22, 52, 0, 1, 4, 56, 0, 36, 8, 51, 16, 39, 32, 0, 61, 10, 0, 0, 0, 14, 27, 53, 0, 49, 57, 34, 13, 6, 23, 24, 21, 48, 11, 42, 46, 26, 20, 38, 64, 60, 37
|0, 0, 0, 0, 0, 48, 49, 51, 0, 0, 52, 63, 0, 61, 26, 0, 21, 0, 0, 0, 0, 0, 0, 42, 13, 38, 37, 17, 5, 43, 59, 32, 44, 28, 33, 0, 40, 36, 15, 2, 24, 35, 56, 60, 0, 7, 3, 16, 64, 30, 0, 27, 62, 55, 9, 50, 53, 6, 23, 10, 41, 0, 25, 34
|0, 31, 20, 36, 0, 0, 60, 7, 44, 33, 22, 0, 42, 1, 0, 62, 27, 56, 41, 0, 49, 14, 24, 64, 0, 51, 18, 25, 48, 0, 28, 6, 53, 47, 57, 0, 0, 0, 38, 59, 30, 21, 10, 0, 23, 0, 11, 45, 17, 2, 0, 3, 35, 0, 43, 46, 5, 54, 9, 0, 63, 58, 15, 39
|0, 0, 0, 0, 54, 0, 50, 0, 34, 3, 20, 43, 32, 0, 0, 51, 0, 17, 2, 52, 30, 53, 37, 26, 45, 15, 29, 14, 0, 64, 39, 0, 48, 1, 46, 0, 41, 31, 13, 0, 8, 63, 33, 0, 0, 0, 36, 9, 0, 59, 5, 0, 7, 47, 19, 56, 0, 18, 11, 24, 28, 62, 12, 27|];