order = 8;
grid = [|0, 56, 0, 39, 21, 25, 11, 42, 0, 59, 12, 18, 0, 35, 19, 44, 0, 29, 0, 8, 17, 0, 27, 0, 53, 0, 0, 32, 61, 57, 3, 7, 50, 6, 55, 20, 36, 31, 23, 51, 0, 2, 48, 38, 16, 0, 28, 49, 0, 0, 4, 22, 64, 10, 41, 0, 0, 13, 24, 0, 63, 15, 60, 9
|63, 0, 0, 17, 49, 35, 0, 27, 14, 33, 39, 1, 0, 26, 46, 0, 43, 57, 23, 53, 22, 51, 45, 54, 24, 25, 10, 64, 40, 0, 13, 16, 41, 32, 52, 0, 0, 21, 0, 15, 58, 62, 9, 12, 0, 47, 36, 61, 60, 0, 0, 48, 34, 28, 50, 0, 55, 7, 11, 19, 0, 0, 0, 2
|15, 2, 7, 28, 4, 30, 32, 19, 58, 3, 56, 36, 0, 0, 53, 6, 0, 0, 9, 52, 59, 37, 0, 26, 50, 0, 63, 51, 23, 0, 48, 41, 13, 24, 8, 0, 62, 0, 40, 0, 46, 22, 31, 5, 29, 42, 10, 54, 43, 0, 1, 16, 11, 49, 0, 61, 38, 20, 0, 0, 27, 0, 44, 0
|46, 50, 0, 59, 0, 0, 48, 40, 23, 27, 57, 62, 20, 51, 16, 2, 39, 38, 44, 35, 63, 0, 61, 28, 4, 55, 22, 29, 0, 0, 15, 31, 0, 45, 64, 49, 0, 58, 37, 53, 25, 19, 18, 0, 13, 34, 0, 17, 30, 21, 9, 7, 0, 32, 0, 6, 42, 12, 0, 10, 0, 36, 0, 1
|57, 0, 0, 3, 53, 43, 58, 8, 32, 49, 24, 5, 31, 0, 61, 48, 14, 36, 0, 0, 13, 46, 11, 0, 0, 0, 0, 35, 2, 0, 33, 0, 42, 28, 63, 19, 9, 0, 0, 0, 0, 7, 55, 0, 0, 0, 4, 0, 27, 23, 20, 59, 0, 44, 56, 52, 22, 0, 0, 16, 64, 40, 37, 26
|0, 29, 33, 16, 64, 47, 0, 0, 9, 28, 0, 63, 0, 13, 0, 45, 12, 21, 25, 49, 56, 1, 0, 0, 36, 60, 14, 20, 0, 18, 6, 58, 3, 0, 0, 7, 2, 4, 59, 44, 41, 27, 40, 24, 26, 0, 50, 37, 0, 15, 0, 35, 0, 46, 42, 0, 53, 0, 30, 31, 48, 39, 61, 0
|44, 45, 41, 13, 38, 0, 0, 6, 34, 42, 54, 30, 50, 15, 0, 60, 16, 31, 3, 0, 40, 4, 24, 48, 59, 27, 52, 49, 56, 9, 39, 17, 61, 26, 0, 5, 47, 22, 10, 46, 53, 11, 1, 43, 0, 20, 0, 0, 36, 0, 55, 0, 25, 58, 63, 19, 0, 28, 21, 0, 35, 8, 57, 14
|0, 0, 61, 10, 26, 52, 0, 0, 40, 41, 21, 0, 0, 11, 25, 17, 15, 0, 0, 0, 64, 2, 42, 0, 37, 30, 19, 47, 0, 0, 28, 0, 0, 60, 16, 54, 0, 0, 48, 0, 59, 0, 51, 23, 56, 0, 6, 0, 0, 0, 33, 0, 53, 0, 31, 0, 49, 5, 0, 45, 3, 50, 29, 4
|21, 0, 52, 0, 7, 59, 0, 0, 55, 50, 44, 35, 36, 0, 58, 0, 47, 0, 63, 0, 27, 26, 48, 0, 0, 56, 0, 11, 24, 1, 0, 12, 53, 49, 5, 8, 14, 3, 16, 25, 51, 0, 0, 41, 18, 40, 46, 39, 29, 0, 10, 15, 0, 42, 6, 0, 0, 2, 54, 37, 62, 0, 0, 19
|0, 37, 54, 25, 31, 55, 0, 13, 12, 26, 30, 3, 0, 32, 0, 0, 19, 14, 61, 0, 0, 24, 2, 0, 18, 8, 0, 33, 36, 10, 0, 53, 0, 0, 4, 60, 0, 40, 34, 0, 52, 38, 22, 47, 50, 62, 0, 6, 48, 49, 28, 51, 16, 27, 0, 57, 0, 46, 63, 39, 59, 0, 21, 58
|19, 0, 34, 47, 0, 0, 44, 43, 25, 54, 61, 40, 16, 18, 6, 0, 21, 35, 0, 60, 37, 0, 22, 45, 62, 49, 0, 13, 27, 17, 0, 0, 48, 51, 2, 30, 15, 36, 58, 59, 20, 0, 57, 32, 23, 0, 7, 12, 11, 0, 52, 0, 39, 5, 64, 0, 0, 24, 3, 0, 0, 42, 10, 0
|6, 48, 53, 18, 15, 58, 0, 26, 29, 39, 1, 0, 0, 57, 0, 33, 62, 0, 28, 4, 16, 0, 41, 0, 43, 19, 21, 50, 0, 0, 54, 64, 10, 0, 37, 0, 35, 11, 0, 0, 13, 56, 34, 0, 5, 60, 0, 0, 3, 61, 36, 44, 59, 12, 20, 0, 25, 0, 51, 0, 40, 0, 0, 0
|0, 3, 63, 12, 51, 20, 30, 32, 0, 34, 31, 49, 0, 45, 0, 0, 54, 53, 38, 55, 39, 11, 58, 8, 14, 0, 4, 0, 41, 61, 46, 57, 18, 13, 0, 0, 1, 9, 6, 0, 42, 25, 29, 0, 28, 26, 33, 0, 0, 60, 50, 21, 24, 0, 0, 22, 0, 36, 64, 35, 16, 52, 0, 7
|60, 39, 8, 0, 0, 23, 9, 0, 0, 0, 0, 24, 0, 43, 42, 0, 30, 51, 5, 0, 50, 18, 13, 0, 6, 58, 31, 0, 25, 0, 37, 0, 54, 61, 46, 47, 12, 0, 57, 26, 0, 0, 64, 1, 0, 0, 15, 21, 17, 0, 38, 41, 62, 0, 14, 7, 0, 0, 0, 11, 0, 0, 32, 55
|0, 1, 11, 46, 62, 22, 2, 4, 0, 60, 20, 8, 51, 47, 15, 5, 29, 0, 36, 0, 49, 34, 23, 3, 42, 0, 59, 16, 48, 0, 7, 45, 31, 39, 41, 52, 32, 17, 28, 21, 10, 0, 0, 63, 24, 0, 0, 19, 0, 30, 25, 58, 33, 56, 40, 0, 0, 0, 18, 38, 12, 43, 27, 57
|61, 40, 27, 36, 0, 56, 0, 5, 37, 52, 48, 7, 46, 21, 38, 53, 59, 10, 15, 44, 0, 57, 25, 42, 20, 32, 0, 0, 51, 26, 2, 23, 55, 33, 22, 62, 24, 0, 64, 29, 11, 8, 16, 30, 0, 0, 58, 35, 34, 54, 0, 43, 45, 0, 18, 0, 28, 60, 17, 9, 0, 13, 4, 6
|3, 17, 60, 0, 0, 2, 43, 0, 36, 10, 25, 0, 27, 61, 57, 0, 20, 40, 33, 0, 26, 35, 0, 41, 0, 23, 0, 63, 0, 0, 30, 6, 0, 22, 0, 58, 5, 0, 53, 8, 44, 15, 28, 0, 52, 11, 0, 0, 50, 0, 32, 64, 0, 29, 4, 0, 47, 38, 49, 56, 55, 1, 34, 18
|49, 0, 5, 0, 39, 0, 0, 0, 45, 0, 52, 20, 30, 0, 13, 0, 0, 0, 2, 0, 15, 0, 1, 18, 55, 3, 32, 27, 26, 33, 11, 0, 37, 46, 59, 61, 43, 64, 0, 38, 8, 6, 0, 10, 60, 22, 63, 29, 0, 12, 0, 0, 28, 17, 48, 40, 0, 0, 31, 0, 9, 23, 58, 36
|34, 54, 35, 0, 13, 57, 59, 0, 41, 63, 7, 46, 19, 8, 17, 18, 0, 6, 42, 0, 62, 49, 0, 52, 12, 0, 64, 43, 0, 0, 0, 40, 0, 55, 50, 1, 39, 32, 31, 0, 24, 33, 37, 0, 0, 0, 0, 3, 0, 0, 61, 27, 23, 0, 45, 60, 0, 11, 0, 44, 22, 26, 0, 53
|0, 0, 38, 1, 40, 50, 0, 0, 49, 2, 9, 23, 26, 4, 0, 59, 11, 43, 14, 31, 0, 44, 0, 56, 25, 47, 60, 0, 0, 0, 0, 35, 62, 52, 0, 0, 0, 0, 63, 57, 0, 5, 27, 48, 53, 12, 0, 0, 6, 8, 18, 30, 51, 37, 19, 0, 0, 61, 45, 15, 24, 32, 0, 0
|0, 0, 18, 31, 46, 0, 6, 45, 15, 53, 0, 42, 14, 0, 35, 50, 22, 37, 51, 0, 38, 32, 36, 39, 52, 13, 0, 0, 58, 0, 34, 62, 25, 54, 10, 0, 0, 24, 0, 0, 57, 0, 30, 56, 21, 16, 2, 0, 0, 9, 11, 55, 0, 0, 44, 5, 0, 8, 60, 28, 17, 0, 64, 0
|0, 0, 24, 56, 61, 8, 15, 9, 1, 29, 6, 0, 11, 55, 48, 28, 23, 0, 19, 0, 34, 0, 53, 63, 10, 5, 18, 0, 20, 31, 45, 22, 49, 0, 3, 26, 44, 47, 27, 0, 50, 32, 13, 36, 0, 0, 0, 62, 58, 59, 39, 38, 21, 0, 52, 25, 37, 43, 0, 51, 2, 41, 46, 33
|32, 0, 19, 0, 0, 44, 37, 0, 39, 0, 22, 0, 54, 0, 43, 0, 48, 0, 0, 3, 4, 10, 55, 30, 8, 28, 17, 57, 53, 38, 9, 51, 2, 36, 60, 0, 21, 15, 20, 7, 34, 26, 61, 0, 45, 18, 31, 41, 49, 35, 42, 0, 56, 1, 62, 0, 50, 40, 0, 27, 25, 6, 5, 63
|0, 58, 36, 0, 48, 0, 0, 63, 21, 31, 0, 32, 34, 38, 5, 0, 9, 25, 47, 0, 45, 27, 8, 57, 44, 61, 16, 15, 49, 37, 50, 24, 30, 17, 28, 6, 56, 18, 0, 23, 54, 0, 0, 40, 55, 0, 20, 1, 10, 33, 41, 0, 3, 22, 53, 2, 0, 42, 14, 52, 19, 62, 39, 0
|0, 63, 55, 0, 2, 13, 14, 61, 57, 20, 0, 51, 42, 0, 30, 43, 0, 0, 39, 33, 58, 23, 62, 10, 31, 0, 37, 0, 0, 0, 0, 18, 1, 8, 21, 32, 40, 46, 0, 0, 0, 34, 0, 0, 9, 17, 19, 0, 12, 44, 0, 45, 0, 11, 15, 4, 3, 0, 7, 0, 60, 0, 54, 56
|9, 0, 0, 38, 30, 64, 36, 0, 27, 8, 41, 25, 49, 48, 54, 1, 31, 0, 18, 56, 2, 55, 43, 51, 39, 0, 12, 23, 44, 46, 26, 61, 19, 0, 24, 17, 53, 62, 0, 63, 22, 58, 42, 0, 3, 29, 5, 7, 13, 0, 0, 28, 6, 34, 0, 21, 40, 52, 59, 32, 57, 14, 20, 0
|5, 23, 42, 4, 0, 0, 54, 37, 31, 17, 26, 56, 62, 6, 22, 0, 40, 32, 21, 63, 0, 19, 7, 38, 49, 36, 55, 0, 0, 13, 0, 0, 0, 10, 61, 15, 30, 0, 0, 16, 64, 0, 20, 33, 12, 28, 48, 46, 57, 29, 24, 0, 0, 39, 0, 59, 35, 18, 2, 50, 58, 0, 9, 11
|53, 8, 59, 19, 0, 32, 12, 46, 64, 16, 33, 38, 5, 58, 10, 37, 35, 0, 22, 0, 54, 14, 6, 0, 9, 1, 57, 56, 0, 0, 0, 43, 44, 4, 0, 0, 0, 0, 55, 0, 63, 0, 39, 25, 2, 31, 0, 45, 61, 7, 26, 0, 20, 3, 51, 18, 48, 29, 0, 0, 30, 21, 62, 28
|48, 16, 57, 0, 0, 17, 0, 0, 0, 0, 2, 21, 28, 9, 45, 7, 3, 41, 52, 27, 44, 0, 0, 25, 38, 6, 54, 53, 32, 0, 51, 15, 29, 5, 31, 0, 64, 14, 0, 0, 56, 60, 62, 18, 36, 13, 26, 0, 33, 19, 8, 40, 30, 0, 43, 37, 61, 4, 42, 63, 34, 0, 47, 0
|0, 0, 0, 50, 18, 45, 51, 47, 63, 0, 55, 34, 3, 36, 12, 46, 49, 28, 17, 0, 1, 29, 9, 24, 2, 7, 0, 59, 0, 60, 20, 48, 22, 27, 35, 23, 0, 54, 0, 52, 40, 21, 8, 61, 10, 44, 0, 0, 0, 14, 58, 25, 42, 0, 0, 53, 19, 0, 0, 43, 41, 0, 0, 39
|29, 31, 44, 58, 34, 49, 52, 62, 61, 40, 0, 60, 39, 0, 24, 0, 0, 16, 59, 46, 0, 64, 5, 4, 63, 45, 0, 30, 19, 0, 42, 21, 47, 0, 7, 12, 0, 37, 2, 28, 0, 35, 14, 0, 11, 54, 51, 0, 38, 56, 0, 0, 36, 23, 10, 48, 0, 0, 0, 0, 0, 33, 8, 0
|0, 24, 0, 0, 60, 40, 21, 28, 4, 18, 14, 0, 44, 19, 47, 32, 8, 61, 26, 0, 42, 53, 30, 37, 34, 33, 0, 0, 17, 0, 0, 11, 20, 3, 56, 48, 0, 13, 9, 43, 1, 59, 0, 0, 57, 50, 55, 52, 0, 2, 35, 0, 46, 0, 49, 0, 51, 0, 0, 64, 23, 16, 36, 0
|8, 61, 29, 5, 33, 0, 28, 0, 17, 46, 10, 14, 0, 2, 60, 21, 56, 1, 27, 16, 3, 9, 0, 15, 11, 41, 45, 40, 30, 0, 0, 54, 0, 7, 38, 24, 42, 0, 0, 58, 48, 20, 0, 0, 0, 0, 25, 50, 23, 62, 57, 39, 0, 0, 13, 43, 36, 34, 52, 49, 37, 0, 22, 51
|18, 57, 10, 0, 0, 46, 3, 0, 62, 13, 0, 33, 0, 29, 31, 0, 38, 0, 0, 43, 23, 0, 40, 0, 58, 52, 44, 8, 0, 0, 49, 0, 0, 25, 0, 11, 22, 26, 15, 0, 37, 63, 6, 0, 41, 39, 59, 2, 20, 24, 19, 42, 48, 61, 0, 64, 5, 55, 28, 7, 0, 0, 35, 0
|26, 0, 2, 15, 20, 4, 0, 39, 0, 0, 28, 12, 63, 0, 40, 36, 0, 0, 60, 0, 35, 0, 31, 44, 56, 22, 51, 42, 38, 55, 64, 46, 33, 62, 9, 0, 48, 6, 13, 3, 16, 1, 21, 0, 61, 49, 0, 53, 0, 41, 27, 0, 0, 52, 17, 0, 8, 0, 0, 0, 14, 30, 0, 24
|0, 35, 13, 0, 25, 16, 0, 17, 3, 15, 58, 27, 24, 34, 0, 23, 63, 0, 0, 48, 0, 0, 14, 59, 5, 0, 43, 0, 9, 39, 53, 0, 51, 64, 0, 0, 46, 57, 54, 31, 0, 0, 0, 11, 30, 4, 22, 32, 0, 0, 0, 0, 0, 26, 37, 29, 2, 56, 61, 6, 0, 19, 0, 40
|62, 44, 0, 48, 63, 6, 1, 11, 53, 0, 47, 45, 57, 52, 0, 0, 46, 0, 0, 0, 0, 0, 51, 0, 26, 34, 23, 21, 0, 36, 14, 0, 43, 41, 0, 55, 49, 12, 56, 60, 0, 28, 19, 0, 40, 24, 0, 18, 35, 10, 7, 50, 32, 4, 38, 58, 0, 33, 9, 0, 54, 59, 13, 31
|37, 53, 0, 23, 47, 0, 0, 0, 0, 7, 49, 55, 38, 41, 8, 0, 0, 0, 0, 57, 32, 13, 17, 11, 48, 29, 0, 62, 63, 24, 18, 0, 16, 19, 40, 34, 61, 59, 36, 39, 31, 0, 52, 54, 51, 15, 0, 14, 5, 6, 56, 60, 0, 33, 1, 44, 64, 3, 27, 0, 21, 4, 43, 46
|36, 49, 32, 27, 22, 31, 40, 51, 54, 43, 19, 44, 56, 1, 0, 42, 0, 0, 0, 0, 55, 21, 52, 64, 16, 57, 2, 6, 0, 4, 35, 59, 17, 30, 53, 45, 0, 28, 0, 37, 7, 13, 0, 62, 0, 33, 0, 8, 46, 25, 15, 3, 0, 9, 0, 63, 29, 10, 0, 48, 39, 0, 11, 41
|55, 0, 30, 54, 24, 34, 38, 50, 48, 25, 0, 0, 0, 39, 64, 9, 0, 0, 49, 0, 41, 6, 20, 0, 33, 17, 0, 37, 13, 28, 0, 47, 0, 1, 32, 21, 23, 29, 8, 2, 3, 0, 46, 0, 27, 58, 0, 56, 40, 51, 31, 36, 22, 0, 0, 16, 63, 45, 0, 18, 15, 57, 0, 62
|58, 13, 47, 30, 6, 0, 0, 0, 0, 0, 0, 39, 33, 31, 63, 41, 0, 0, 48, 19, 21, 43, 64, 0, 7, 9, 49, 55, 54, 25, 0, 2, 0, 53, 57, 37, 0, 20, 1, 5, 35, 0, 45, 4, 34, 0, 29, 0, 18, 17, 14, 62, 10, 36, 0, 11, 32, 15, 50, 0, 52, 0, 0, 44
|0, 34, 0, 0, 19, 0, 62, 18, 59, 24, 0, 0, 45, 40, 0, 3, 50, 0, 0, 26, 36, 60, 47, 0, 27, 14, 46, 17, 64, 23, 5, 13, 58, 0, 25, 0, 55, 2, 52, 10, 39, 16, 56, 22, 32, 63, 0, 38, 15, 48, 43, 0, 0, 20, 8, 41, 9, 53, 1, 0, 33, 11, 49, 0
|0, 27, 0, 44, 28, 38, 63, 48, 30, 21, 0, 43, 22, 46, 49, 29, 10, 0, 40, 37, 0, 41, 34, 62, 35, 39, 58, 52, 57, 16, 12, 32, 15, 14, 45, 0, 8, 0, 7, 0, 55, 0, 0, 64, 1, 23, 0, 33, 9, 50, 53, 6, 60, 25, 0, 31, 26, 0, 0, 61, 20, 2, 18, 47
|35, 0, 20, 32, 0, 1, 41, 25, 5, 64, 53, 6, 0, 62, 0, 47, 55, 8, 56, 0, 31, 45, 18, 22, 60, 0, 0, 4, 0, 30, 59, 19, 21, 23, 0, 0, 17, 49, 0, 13, 9, 50, 0, 28, 0, 0, 11, 26, 0, 0, 44, 34, 38, 24, 0, 0, 39, 0, 43, 0, 7, 63, 0, 37
|0, 4, 40, 0, 50, 39, 16, 7, 38, 0, 34, 2, 0, 54, 32, 26, 52, 0, 0, 28, 0, 0, 3, 0, 51, 43, 36, 31, 0, 53, 22, 42, 0, 29, 33, 63, 59, 35, 0, 0, 47, 18, 0, 0, 17, 10, 44, 60, 1, 55, 30, 46, 5, 13, 0, 23, 0, 41, 0, 0, 56, 45, 19, 64
|2, 15, 0, 60, 0, 0, 46, 49, 18, 35, 36, 19, 1, 44, 9, 56, 4, 63, 16, 23, 53, 33, 0, 14, 21, 0, 0, 0, 62, 0, 38, 20, 32, 42, 0, 22, 11, 34, 47, 30, 43, 57, 25, 0, 0, 0, 61, 31, 7, 0, 0, 29, 52, 45, 54, 12, 17, 27, 5, 40, 13, 58, 24, 0
|31, 12, 0, 43, 0, 5, 0, 0, 0, 55, 23, 17, 0, 0, 0, 15, 13, 44, 0, 11, 7, 54, 38, 35, 45, 26, 0, 24, 6, 34, 1, 56, 0, 16, 18, 64, 50, 41, 61, 4, 62, 0, 0, 58, 19, 46, 37, 20, 59, 63, 2, 0, 49, 0, 39, 47, 30, 21, 0, 8, 10, 28, 51, 48
|0, 52, 9, 24, 57, 0, 53, 64, 50, 61, 0, 10, 48, 14, 4, 20, 17, 0, 0, 0, 0, 59, 32, 1, 47, 15, 11, 44, 18, 63, 0, 29, 38, 40, 26, 39, 27, 43, 0, 62, 30, 41, 12, 21, 0, 6, 0, 36, 51, 0, 37, 56, 19, 0, 28, 33, 31, 22, 0, 34, 46, 55, 25, 42
|0, 0, 4, 55, 0, 36, 39, 0, 0, 51, 27, 31, 0, 22, 26, 0, 37, 62, 46, 25, 0, 40, 57, 0, 64, 12, 0, 45, 0, 49, 0, 33, 0, 47, 0, 9, 0, 10, 50, 0, 61, 29, 7, 34, 63, 0, 53, 11, 0, 52, 0, 0, 0, 14, 16, 0, 41, 59, 19, 0, 28, 60, 17, 21
|0, 62, 31, 34, 37, 9, 18, 0, 0, 6, 42, 58, 10, 17, 21, 64, 0, 47, 45, 29, 24, 22, 15, 0, 0, 51, 0, 25, 1, 5, 32, 4, 60, 0, 48, 53, 0, 52, 26, 35, 23, 36, 3, 14, 54, 41, 12, 28, 19, 57, 0, 20, 0, 0, 0, 30, 7, 39, 0, 0, 0, 0, 55, 43
|0, 47, 51, 61, 58, 0, 5, 60, 56, 45, 16, 0, 0, 7, 28, 49, 0, 0, 64, 9, 14, 63, 12, 21, 23, 11, 0, 48, 22, 19, 43, 30, 59, 0, 0, 0, 6, 38, 62, 0, 18, 39, 33, 35, 0, 0, 52, 44, 26, 1, 0, 31, 0, 0, 55, 10, 20, 0, 57, 2, 36, 0, 3, 32
|40, 46, 28, 52, 45, 63, 50, 20, 0, 5, 0, 59, 43, 12, 11, 39, 0, 0, 55, 30, 0, 7, 19, 31, 29, 38, 42, 34, 35, 2, 10, 37, 0, 0, 23, 0, 25, 61, 14, 24, 0, 51, 26, 9, 47, 1, 56, 16, 41, 22, 0, 17, 27, 0, 32, 49, 44, 62, 0, 58, 18, 64, 15, 54
|22, 0, 48, 11, 0, 21, 35, 3, 46, 30, 0, 50, 40, 0, 23, 34, 27, 39, 41, 38, 52, 0, 0, 0, 54, 0, 8, 61, 28, 0, 62, 9, 64, 58, 0, 2, 31, 33, 0, 1, 19, 45, 10, 57, 4, 32, 60, 55, 56, 43, 0, 13, 29, 6, 0, 15, 24, 14, 0, 47, 0, 51, 63, 25
|43, 6, 25, 53, 0, 15, 57, 54, 0, 9, 62, 52, 13, 60, 2, 63, 44, 33, 34, 58, 48, 61, 35, 0, 0, 59, 27, 26, 14, 7, 36, 55, 40, 0, 29, 3, 37, 0, 0, 0, 21, 0, 17, 49, 0, 0, 0, 0, 0, 18, 0, 24, 4, 50, 47, 39, 45, 0, 10, 1, 11, 22, 23, 16
|0, 0, 23, 0, 42, 29, 8, 10, 44, 0, 3, 61, 41, 25, 1, 57, 32, 56, 11, 54, 0, 28, 59, 17, 15, 31, 47, 0, 46, 6, 16, 52, 63, 21, 0, 43, 0, 7, 22, 55, 2, 0, 50, 20, 0, 5, 24, 13, 64, 34, 51, 53, 58, 60, 9, 38, 12, 48, 0, 4, 26, 0, 40, 27
|16, 64, 26, 0, 0, 0, 0, 0, 47, 0, 32, 48, 53, 37, 55, 14, 51, 0, 1, 36, 10, 50, 49, 5, 17, 18, 0, 60, 21, 20, 57, 0, 0, 56, 39, 28, 0, 44, 0, 34, 15, 0, 58, 31, 59, 27, 40, 0, 25, 3, 0, 11, 35, 62, 0, 45, 52, 9, 0, 0, 0, 0, 0, 61
|0, 25, 49, 0, 32, 10, 4, 2, 42, 62, 45, 15, 18, 5, 36, 54, 24, 50, 0, 0, 9, 3, 29, 40, 13, 0, 6, 0, 0, 0, 44, 0, 7, 38, 58, 33, 28, 23, 21, 0, 0, 0, 60, 53, 35, 30, 16, 0, 22, 0, 47, 57, 43, 51, 0, 56, 11, 0, 55, 59, 61, 37, 0, 52
|7, 21, 56, 0, 3, 18, 47, 34, 6, 4, 43, 13, 8, 33, 0, 25, 45, 42, 53, 22, 28, 0, 0, 0, 61, 50, 30, 0, 31, 14, 17, 26, 27, 0, 0, 0, 0, 55, 0, 0, 29, 12, 2, 46, 0, 0, 0, 5, 0, 11, 0, 23, 0, 16, 0, 35, 0, 63, 48, 24, 0, 10, 41, 15
|23, 59, 0, 64, 36, 0, 0, 31, 52, 0, 35, 53, 60, 63, 39, 55, 0, 13, 32, 0, 46, 30, 33, 2, 57, 42, 0, 0, 0, 43, 40, 49, 0, 20, 62, 4, 0, 8, 41, 0, 0, 0, 47, 7, 37, 56, 0, 51, 14, 27, 0, 0, 0, 0, 25, 28, 21, 16, 0, 26, 44, 0, 12, 0
|0, 5, 1, 57, 17, 0, 22, 15, 51, 0, 0, 26, 61, 27, 56, 0, 6, 52, 7, 14, 0, 38, 37, 55, 28, 54, 0, 0, 10, 0, 4, 60, 39, 59, 0, 31, 29, 0, 44, 0, 0, 3, 32, 0, 20, 0, 41, 25, 0, 53, 45, 0, 0, 30, 46, 24, 43, 23, 58, 42, 8, 18, 2, 34
|12, 51, 16, 35, 8, 0, 0, 24, 0, 0, 50, 41, 21, 30, 34, 10, 64, 26, 43, 0, 57, 58, 44, 23, 0, 37, 33, 2, 52, 56, 0, 5, 6, 9, 49, 40, 63, 53, 46, 42, 28, 54, 0, 55, 22, 45, 0, 15, 0, 0, 60, 18, 1, 0, 0, 17, 0, 47, 39, 36, 31, 7, 14, 0
|38, 0, 46, 0, 44, 14, 27, 53, 28, 58, 29, 57, 0, 23, 0, 31, 25, 59, 0, 21, 61, 39, 16, 49, 32, 63, 48, 18, 0, 0, 55, 0, 11, 2, 0, 51, 0, 0, 17, 22, 26, 0, 24, 0, 43, 36, 1, 10, 54, 42, 5, 19, 15, 7, 0, 0, 0, 64, 35, 0, 0, 0, 45, 30
|33, 60, 58, 0, 52, 0, 45, 29, 0, 32, 17, 0, 12, 16, 0, 38, 41, 5, 35, 0, 11, 0, 63, 0, 0, 0, 20, 1, 7, 51, 21, 39, 26, 0, 15, 14, 0, 0, 0, 18, 4, 0, 59, 0, 6, 8, 23, 57, 62, 64, 13, 61, 55, 31, 2, 36, 0, 0, 40, 53, 50, 9, 56, 49
|0, 55, 0, 0, 54, 42, 26, 0, 7, 14, 0, 11, 2, 49, 44, 24, 0, 18, 4, 51, 19, 0, 56, 60, 22, 0, 0, 9, 0, 15, 0, 0, 5, 48, 47, 0, 0, 45, 35, 50, 0, 64, 63, 13, 58, 61, 0, 34, 0, 20, 3, 37, 12, 41, 29, 8, 62, 0, 0, 57, 32, 27, 28, 38|];