order = 8;
grid = [|0, 60, 0, 0, 41, 39, 53, 63, 31, 19, 27, 0, 0, 47, 0, 54, 61, 36, 0, 28, 7, 59, 29, 2, 64, 37, 0, 0, 0, 0, 15, 11, 0, 6, 30, 22, 26, 0, 56, 5, 0, 0, 58, 13, 16, 20, 0, 21, 0, 9, 0, 0, 62, 0, 0, 55, 38, 35, 52, 8, 34, 23, 0, 48
|16, 0, 46, 12, 1, 5, 33, 17, 11, 0, 0, 59, 8, 3, 0, 0, 48, 32, 15, 21, 38, 31, 35, 0, 0, 20, 0, 22, 0, 27, 62, 61, 28, 39, 9, 0, 18, 0, 52, 0, 10, 0, 49, 26, 41, 30, 44, 19, 0, 43, 54, 53, 0, 0, 29, 40, 58, 60, 47, 51, 0, 7, 0, 0
|56, 0, 2, 0, 27, 51, 0, 0, 61, 62, 33, 14, 9, 52, 0, 18, 4, 63, 8, 0, 37, 6, 30, 0, 28, 38, 5, 0, 43, 0, 0, 53, 24, 58, 59, 0, 0, 0, 42, 0, 0, 0, 29, 3, 64, 47, 22, 55, 11, 19, 39, 0, 0, 0, 46, 0, 17, 21, 10, 0, 12, 54, 15, 40
|52, 28, 11, 8, 6, 0, 0, 7, 0, 42, 37, 23, 60, 17, 49, 0, 0, 0, 25, 44, 0, 13, 62, 22, 29, 36, 48, 0, 63, 56, 19, 0, 0, 0, 10, 47, 35, 54, 34, 41, 53, 31, 1, 0, 0, 0, 0, 9, 0, 5, 2, 4, 21, 33, 30, 0, 64, 50, 32, 45, 18, 0, 59, 16
|10, 0, 38, 0, 13, 26, 36, 0, 0, 43, 39, 32, 29, 34, 0, 46, 47, 0, 20, 3, 54, 0, 11, 42, 0, 0, 24, 41, 1, 50, 17, 0, 0, 0, 0, 0, 48, 0, 53, 0, 57, 28, 51, 33, 61, 8, 7, 0, 27, 0, 35, 0, 52, 58, 25, 18, 22, 49, 6, 2, 62, 55, 37, 5
|43, 0, 31, 29, 44, 45, 14, 19, 0, 0, 15, 58, 4, 10, 50, 0, 0, 0, 0, 18, 60, 57, 34, 27, 42, 0, 0, 2, 47, 8, 7, 39, 0, 38, 0, 3, 0, 21, 55, 37, 0, 62, 0, 6, 0, 35, 11, 63, 13, 16, 0, 28, 20, 32, 36, 51, 24, 53, 33, 0, 41, 9, 56, 1
|37, 0, 0, 50, 0, 23, 21, 62, 0, 35, 28, 41, 0, 48, 40, 13, 0, 5, 33, 53, 0, 19, 55, 51, 0, 10, 4, 18, 0, 34, 54, 59, 0, 11, 63, 20, 49, 0, 17, 60, 12, 32, 43, 0, 0, 52, 2, 0, 0, 24, 7, 45, 15, 0, 0, 42, 46, 0, 57, 61, 0, 0, 0, 44
|9, 34, 42, 0, 0, 58, 0, 0, 7, 53, 2, 57, 64, 26, 0, 56, 41, 0, 16, 14, 0, 0, 52, 1, 6, 0, 0, 12, 0, 45, 0, 35, 33, 0, 0, 15, 0, 29, 0, 0, 60, 59, 0, 18, 17, 0, 37, 38, 0, 61, 50, 22, 8, 31, 0, 0, 19, 36, 4, 20, 28, 30, 13, 11
|0, 40, 55, 0, 60, 0, 0, 57, 10, 44, 31, 53, 63, 38, 0, 0, 46, 0, 2, 45, 36, 43, 39, 0, 50, 42, 0, 11, 7, 3, 0, 17, 30, 47, 22, 64, 51, 62, 1, 33, 58, 54, 6, 49, 0, 28, 0, 0, 0, 23, 52, 25, 0, 34, 61, 9, 0, 19, 26, 59, 37, 0, 20, 56
|0, 26, 53, 0, 39, 0, 0, 64, 24, 13, 21, 20, 40, 58, 29, 6, 7, 33, 23, 47, 0, 0, 0, 63, 35, 0, 9, 10, 46, 22, 0, 27, 43, 55, 37, 59, 17, 25, 0, 36, 56, 38, 0, 12, 0, 0, 61, 4, 32, 54, 62, 0, 45, 2, 49, 30, 60, 18, 0, 44, 16, 31, 34, 0
|0, 2, 29, 46, 9, 0, 38, 25, 32, 49, 17, 0, 0, 0, 56, 0, 18, 0, 26, 30, 19, 0, 0, 31, 5, 45, 6, 51, 61, 15, 16, 0, 11, 23, 0, 57, 21, 44, 13, 39, 7, 0, 36, 0, 35, 10, 14, 64, 55, 48, 28, 43, 0, 59, 41, 58, 0, 3, 42, 40, 22, 53, 27, 62
|0, 0, 0, 7, 58, 59, 44, 50, 0, 0, 23, 45, 43, 54, 62, 57, 42, 29, 34, 37, 52, 0, 0, 15, 53, 56, 20, 8, 0, 0, 28, 0, 0, 32, 0, 24, 38, 18, 0, 0, 11, 21, 0, 16, 31, 46, 25, 0, 0, 0, 1, 40, 47, 64, 51, 27, 33, 0, 35, 41, 10, 0, 0, 12
|62, 31, 45, 20, 0, 0, 15, 0, 59, 2, 0, 30, 51, 64, 28, 50, 49, 0, 21, 25, 22, 0, 0, 0, 0, 18, 0, 40, 36, 41, 58, 33, 52, 26, 27, 56, 60, 46, 35, 0, 42, 55, 44, 34, 0, 17, 13, 0, 63, 0, 3, 0, 4, 0, 39, 8, 29, 23, 61, 54, 14, 5, 24, 47
|36, 0, 23, 0, 35, 47, 10, 0, 1, 14, 5, 19, 34, 4, 41, 0, 44, 12, 57, 0, 61, 9, 58, 54, 24, 25, 43, 0, 39, 21, 26, 0, 40, 49, 0, 6, 16, 53, 50, 0, 0, 52, 62, 0, 15, 60, 3, 0, 0, 7, 0, 0, 13, 0, 31, 22, 55, 64, 45, 0, 46, 38, 0, 0
|0, 19, 27, 0, 0, 56, 51, 1, 3, 55, 60, 61, 22, 0, 11, 8, 0, 0, 38, 13, 5, 40, 32, 0, 59, 62, 54, 48, 64, 57, 0, 0, 0, 0, 12, 31, 0, 58, 0, 63, 18, 0, 9, 0, 45, 41, 24, 2, 0, 0, 15, 36, 0, 16, 35, 26, 6, 0, 25, 17, 52, 50, 39, 0
|13, 0, 61, 0, 5, 0, 16, 21, 0, 7, 48, 35, 26, 18, 46, 25, 0, 27, 64, 0, 6, 62, 17, 8, 44, 0, 0, 60, 2, 0, 47, 23, 45, 42, 4, 41, 10, 0, 3, 54, 20, 51, 39, 40, 0, 22, 1, 33, 19, 0, 38, 11, 29, 56, 0, 0, 63, 15, 58, 32, 57, 49, 0, 0
|8, 11, 56, 10, 0, 0, 63, 29, 33, 39, 0, 0, 52, 55, 23, 53, 59, 42, 36, 50, 0, 30, 60, 37, 2, 46, 13, 43, 0, 31, 9, 5, 58, 0, 45, 0, 54, 0, 47, 0, 26, 27, 0, 51, 48, 44, 16, 34, 20, 14, 0, 21, 61, 0, 12, 0, 0, 25, 0, 0, 6, 62, 4, 17
|4, 1, 59, 42, 3, 22, 47, 24, 49, 0, 63, 29, 0, 25, 8, 32, 0, 39, 11, 0, 23, 58, 0, 0, 56, 50, 0, 62, 0, 44, 6, 15, 55, 31, 0, 13, 41, 20, 0, 18, 36, 61, 2, 0, 33, 43, 46, 54, 48, 57, 26, 64, 5, 0, 60, 0, 51, 45, 0, 38, 27, 35, 9, 52
|0, 0, 25, 0, 2, 12, 6, 0, 43, 0, 44, 0, 0, 56, 59, 37, 0, 0, 61, 54, 31, 8, 24, 0, 0, 0, 0, 30, 20, 0, 45, 0, 0, 0, 5, 11, 29, 10, 9, 64, 49, 0, 14, 1, 63, 0, 19, 53, 0, 50, 40, 58, 36, 62, 32, 23, 28, 0, 39, 57, 47, 42, 60, 13
|0, 20, 0, 0, 45, 19, 30, 43, 0, 0, 0, 0, 0, 41, 0, 28, 64, 48, 0, 62, 56, 0, 0, 0, 49, 12, 55, 0, 0, 11, 25, 42, 51, 0, 15, 14, 0, 16, 39, 3, 0, 5, 4, 0, 52, 40, 21, 0, 2, 18, 24, 7, 33, 0, 59, 0, 23, 0, 44, 50, 0, 8, 46, 0
|55, 0, 39, 38, 0, 0, 0, 0, 62, 4, 35, 48, 12, 5, 22, 64, 2, 3, 9, 52, 45, 28, 0, 46, 21, 57, 47, 0, 8, 7, 0, 58, 53, 0, 56, 43, 27, 34, 0, 30, 0, 11, 23, 60, 0, 29, 10, 59, 17, 0, 41, 6, 44, 0, 0, 19, 37, 0, 1, 36, 31, 0, 16, 33
|41, 33, 0, 37, 0, 7, 23, 49, 26, 3, 42, 50, 0, 40, 9, 1, 0, 43, 5, 0, 13, 29, 0, 57, 36, 0, 0, 52, 54, 53, 60, 63, 38, 0, 48, 35, 8, 0, 0, 0, 25, 20, 0, 17, 58, 45, 39, 0, 0, 0, 55, 51, 30, 47, 27, 4, 0, 56, 0, 12, 19, 0, 61, 21
|0, 0, 58, 0, 21, 32, 0, 0, 20, 24, 6, 31, 0, 60, 45, 2, 51, 18, 47, 4, 27, 1, 44, 7, 26, 19, 35, 0, 14, 64, 0, 0, 59, 17, 52, 46, 50, 42, 0, 62, 0, 0, 28, 9, 3, 57, 12, 13, 43, 39, 0, 0, 37, 25, 10, 0, 48, 63, 0, 34, 49, 11, 30, 55
|48, 61, 13, 31, 0, 0, 0, 44, 19, 11, 0, 21, 0, 0, 51, 0, 33, 55, 12, 41, 0, 0, 0, 20, 39, 40, 37, 27, 0, 10, 18, 1, 32, 60, 0, 4, 23, 36, 57, 0, 64, 30, 0, 35, 62, 38, 50, 0, 45, 0, 8, 9, 63, 52, 3, 0, 0, 43, 29, 22, 0, 0, 0, 59
|44, 0, 34, 0, 43, 41, 12, 0, 25, 15, 20, 0, 0, 45, 61, 0, 0, 24, 3, 63, 48, 0, 0, 33, 16, 0, 30, 4, 57, 55, 49, 40, 64, 0, 11, 8, 9, 0, 0, 1, 31, 0, 21, 0, 18, 53, 26, 0, 29, 0, 6, 0, 59, 50, 0, 13, 10, 37, 22, 0, 54, 17, 52, 23
|35, 0, 0, 57, 53, 0, 56, 0, 8, 38, 46, 62, 23, 44, 43, 0, 0, 13, 55, 16, 0, 7, 19, 30, 0, 6, 0, 25, 21, 37, 64, 29, 3, 45, 0, 0, 20, 49, 61, 52, 0, 60, 12, 54, 28, 34, 47, 40, 31, 0, 48, 27, 18, 22, 1, 33, 26, 2, 0, 0, 59, 51, 63, 24
|6, 0, 33, 5, 29, 0, 4, 9, 0, 64, 52, 3, 21, 30, 60, 34, 37, 11, 42, 15, 53, 2, 51, 49, 8, 39, 0, 0, 27, 0, 1, 0, 25, 57, 24, 0, 12, 26, 0, 0, 23, 16, 0, 0, 59, 0, 38, 0, 7, 10, 0, 0, 40, 20, 43, 0, 31, 0, 50, 35, 13, 36, 0, 0
|0, 13, 0, 49, 59, 8, 0, 38, 14, 32, 40, 63, 53, 11, 0, 0, 25, 0, 0, 10, 20, 0, 1, 5, 0, 0, 60, 54, 62, 52, 35, 36, 18, 0, 34, 0, 39, 0, 31, 42, 2, 44, 61, 0, 57, 58, 43, 6, 0, 37, 0, 0, 12, 41, 26, 0, 16, 46, 21, 47, 0, 48, 28, 27
|0, 0, 40, 32, 62, 2, 58, 30, 17, 27, 0, 24, 54, 22, 0, 41, 6, 61, 0, 34, 18, 47, 0, 12, 31, 0, 0, 28, 0, 26, 46, 0, 10, 0, 43, 0, 19, 37, 0, 53, 52, 9, 0, 0, 20, 11, 29, 0, 57, 3, 5, 16, 0, 45, 4, 60, 8, 1, 0, 0, 56, 33, 44, 0
|21, 50, 1, 63, 25, 10, 0, 0, 6, 0, 0, 0, 37, 0, 0, 35, 0, 0, 60, 22, 0, 0, 43, 0, 0, 32, 61, 5, 59, 9, 0, 0, 0, 16, 29, 23, 0, 4, 2, 27, 0, 41, 13, 7, 36, 0, 17, 51, 8, 0, 0, 30, 53, 39, 0, 64, 0, 34, 20, 3, 0, 0, 55, 0
|0, 37, 0, 23, 26, 0, 0, 60, 50, 16, 36, 0, 0, 59, 12, 9, 39, 0, 41, 57, 0, 45, 56, 0, 15, 7, 34, 3, 13, 42, 53, 0, 0, 0, 32, 5, 0, 55, 40, 38, 19, 0, 0, 10, 24, 49, 4, 1, 0, 0, 47, 52, 11, 0, 44, 25, 62, 61, 18, 14, 43, 6, 29, 64
|0, 0, 17, 19, 61, 46, 0, 16, 0, 0, 1, 0, 31, 39, 26, 42, 14, 9, 0, 35, 40, 21, 27, 29, 58, 11, 0, 0, 44, 20, 0, 41, 54, 30, 36, 33, 22, 6, 0, 0, 55, 15, 64, 50, 0, 3, 0, 45, 0, 62, 49, 0, 34, 0, 63, 0, 0, 4, 12, 0, 32, 60, 0, 0
|47, 29, 0, 22, 12, 0, 17, 46, 0, 40, 54, 0, 32, 20, 39, 3, 0, 0, 48, 5, 11, 16, 0, 64, 63, 34, 62, 0, 0, 6, 61, 45, 41, 4, 44, 53, 43, 59, 24, 56, 21, 0, 0, 25, 0, 0, 30, 14, 26, 60, 23, 0, 28, 42, 50, 0, 7, 33, 0, 0, 58, 15, 49, 2
|0, 35, 57, 0, 0, 0, 1, 2, 0, 0, 56, 37, 0, 23, 42, 55, 0, 0, 6, 49, 10, 33, 9, 61, 32, 0, 21, 7, 58, 29, 3, 0, 0, 0, 62, 18, 0, 60, 48, 12, 13, 0, 52, 38, 26, 24, 34, 16, 0, 0, 27, 41, 0, 63, 20, 43, 53, 51, 28, 46, 0, 0, 64, 25
|54, 0, 44, 64, 14, 48, 42, 56, 0, 0, 0, 15, 13, 8, 7, 0, 0, 34, 39, 31, 0, 0, 0, 36, 41, 51, 11, 0, 0, 0, 55, 18, 37, 0, 0, 9, 52, 0, 30, 0, 0, 0, 0, 0, 1, 0, 59, 0, 12, 2, 58, 0, 25, 17, 0, 57, 61, 6, 24, 16, 0, 21, 19, 60
|0, 18, 43, 0, 34, 60, 37, 31, 41, 29, 0, 10, 19, 6, 33, 61, 17, 50, 0, 7, 4, 53, 20, 0, 47, 15, 22, 24, 5, 2, 39, 16, 13, 0, 58, 25, 1, 14, 11, 35, 0, 49, 0, 0, 9, 63, 0, 0, 30, 59, 0, 8, 64, 48, 40, 52, 0, 44, 0, 27, 45, 57, 0, 36
|0, 0, 0, 0, 16, 27, 62, 39, 9, 30, 0, 5, 17, 0, 47, 44, 8, 0, 58, 40, 2, 38, 0, 3, 52, 49, 64, 50, 0, 48, 0, 31, 0, 29, 20, 42, 57, 0, 10, 32, 45, 0, 0, 15, 60, 33, 0, 0, 24, 35, 51, 0, 55, 61, 56, 14, 0, 0, 11, 43, 0, 1, 0, 37
|59, 49, 0, 21, 0, 40, 52, 20, 45, 57, 16, 0, 0, 36, 4, 60, 23, 0, 24, 0, 43, 56, 0, 0, 46, 17, 26, 0, 53, 0, 27, 25, 0, 51, 3, 0, 5, 0, 0, 0, 0, 6, 0, 19, 44, 37, 35, 7, 15, 33, 32, 38, 22, 0, 9, 29, 30, 13, 55, 62, 8, 34, 48, 18
|0, 0, 0, 53, 15, 30, 8, 61, 2, 25, 24, 0, 48, 31, 64, 43, 29, 28, 1, 0, 26, 44, 57, 55, 60, 13, 40, 35, 37, 59, 56, 14, 0, 27, 0, 16, 33, 0, 0, 17, 39, 4, 11, 0, 47, 36, 0, 0, 18, 45, 21, 62, 0, 6, 0, 3, 0, 12, 0, 10, 50, 32, 5, 9
|58, 0, 28, 9, 0, 50, 3, 45, 63, 46, 51, 0, 11, 0, 27, 62, 52, 0, 0, 0, 42, 15, 13, 0, 57, 0, 8, 44, 38, 23, 0, 43, 6, 36, 0, 55, 47, 61, 0, 0, 22, 0, 0, 0, 2, 54, 64, 0, 10, 1, 4, 49, 16, 7, 0, 5, 39, 40, 14, 56, 29, 59, 41, 35
|0, 0, 36, 34, 20, 0, 7, 23, 0, 0, 61, 16, 0, 0, 37, 0, 54, 0, 0, 0, 30, 48, 0, 4, 18, 33, 10, 0, 0, 39, 0, 50, 44, 0, 26, 0, 0, 0, 45, 58, 38, 47, 0, 43, 32, 59, 52, 11, 0, 22, 64, 63, 3, 0, 21, 0, 9, 0, 0, 0, 55, 56, 12, 0
|15, 0, 63, 44, 8, 18, 5, 40, 47, 45, 62, 0, 49, 0, 17, 33, 13, 21, 28, 11, 0, 20, 0, 0, 48, 29, 0, 0, 30, 16, 23, 64, 0, 0, 0, 38, 3, 1, 4, 0, 0, 0, 27, 53, 0, 51, 36, 61, 46, 52, 37, 31, 2, 55, 57, 32, 0, 24, 34, 7, 60, 25, 10, 54
|25, 30, 21, 47, 48, 57, 9, 10, 0, 31, 0, 34, 6, 0, 0, 23, 56, 60, 0, 58, 3, 5, 7, 45, 12, 4, 49, 32, 0, 61, 14, 0, 15, 0, 39, 0, 0, 35, 20, 59, 0, 2, 17, 0, 22, 19, 55, 44, 0, 51, 43, 0, 24, 29, 0, 0, 50, 0, 27, 13, 64, 63, 0, 53
|46, 0, 26, 11, 54, 0, 0, 0, 21, 0, 0, 36, 55, 27, 2, 40, 19, 6, 10, 0, 0, 32, 15, 34, 37, 0, 3, 38, 24, 0, 41, 0, 47, 5, 13, 29, 62, 0, 18, 57, 63, 0, 45, 0, 7, 1, 28, 50, 0, 30, 44, 60, 0, 0, 8, 0, 52, 16, 17, 0, 4, 39, 31, 0
|0, 43, 32, 0, 50, 38, 19, 0, 4, 20, 29, 64, 44, 57, 15, 11, 26, 0, 0, 33, 51, 39, 42, 40, 0, 0, 53, 34, 0, 0, 0, 9, 16, 0, 60, 0, 55, 24, 23, 6, 3, 48, 56, 8, 49, 13, 31, 10, 0, 25, 17, 59, 0, 0, 58, 7, 41, 28, 36, 30, 2, 46, 21, 22
|0, 0, 37, 0, 0, 0, 13, 41, 60, 0, 19, 25, 0, 7, 35, 48, 22, 0, 17, 38, 50, 27, 63, 0, 62, 59, 44, 46, 6, 36, 57, 55, 2, 34, 0, 32, 0, 43, 8, 0, 0, 0, 15, 14, 0, 12, 40, 24, 0, 4, 45, 20, 10, 23, 54, 0, 11, 47, 0, 29, 33, 58, 3, 61
|51, 12, 52, 59, 55, 17, 61, 0, 58, 26, 10, 54, 56, 24, 3, 5, 0, 44, 0, 46, 1, 14, 16, 43, 22, 8, 25, 21, 15, 0, 0, 7, 63, 0, 28, 0, 31, 33, 49, 11, 37, 35, 18, 64, 34, 23, 57, 29, 39, 47, 13, 50, 41, 0, 19, 0, 0, 20, 38, 6, 48, 45, 42, 32
|0, 3, 6, 16, 24, 53, 0, 0, 0, 63, 30, 43, 0, 32, 13, 0, 12, 25, 29, 23, 47, 55, 8, 0, 0, 27, 45, 0, 17, 0, 51, 0, 7, 0, 64, 10, 36, 41, 21, 40, 0, 39, 0, 42, 46, 4, 33, 0, 0, 38, 34, 0, 0, 49, 14, 15, 0, 0, 59, 0, 0, 37, 35, 0
|20, 63, 14, 0, 0, 0, 43, 33, 0, 0, 50, 38, 59, 13, 52, 45, 24, 30, 7, 48, 21, 0, 25, 39, 9, 55, 0, 36, 11, 19, 31, 51, 0, 2, 23, 0, 0, 57, 58, 0, 34, 64, 3, 44, 29, 16, 27, 0, 0, 40, 61, 18, 0, 8, 5, 54, 47, 42, 0, 0, 0, 0, 32, 6
|0, 44, 22, 0, 0, 0, 0, 12, 0, 0, 11, 9, 46, 0, 0, 49, 0, 0, 35, 0, 0, 0, 47, 0, 34, 16, 0, 0, 0, 24, 42, 62, 5, 63, 25, 40, 30, 45, 51, 15, 0, 56, 59, 0, 0, 6, 0, 0, 0, 32, 0, 39, 0, 0, 23, 10, 27, 48, 0, 21, 7, 26, 33, 50
|57, 7, 0, 0, 51, 21, 28, 18, 64, 34, 55, 0, 39, 0, 0, 17, 0, 59, 0, 0, 8, 36, 49, 6, 54, 61, 0, 15, 0, 32, 20, 46, 31, 0, 35, 0, 11, 12, 16, 9, 0, 19, 38, 52, 10, 25, 23, 47, 37, 56, 60, 3, 26, 44, 22, 0, 14, 30, 0, 4, 63, 0, 40, 29
|0, 9, 0, 0, 19, 0, 46, 53, 27, 33, 22, 0, 20, 0, 0, 16, 15, 58, 0, 1, 34, 17, 0, 26, 43, 0, 0, 56, 0, 63, 21, 49, 36, 59, 18, 62, 7, 32, 38, 0, 35, 24, 42, 0, 0, 61, 60, 0, 0, 13, 0, 48, 0, 0, 47, 0, 2, 54, 3, 55, 23, 10, 8, 0
|0, 0, 60, 0, 38, 0, 59, 0, 0, 56, 32, 26, 3, 0, 30, 47, 62, 51, 46, 2, 0, 4, 61, 18, 14, 0, 27, 53, 23, 35, 40, 52, 20, 10, 54, 39, 0, 64, 37, 22, 17, 43, 7, 21, 55, 9, 63, 41, 50, 34, 0, 29, 49, 36, 15, 28, 0, 11, 0, 58, 0, 12, 1, 31
|31, 27, 5, 13, 56, 16, 35, 32, 0, 23, 43, 8, 0, 51, 53, 21, 0, 40, 54, 42, 63, 22, 0, 44, 17, 3, 39, 45, 26, 0, 10, 57, 0, 0, 55, 1, 4, 47, 33, 0, 14, 12, 0, 58, 0, 0, 18, 28, 52, 0, 30, 2, 38, 9, 7, 0, 36, 59, 46, 0, 0, 61, 62, 34
|11, 0, 49, 26, 30, 0, 0, 54, 40, 12, 7, 0, 41, 0, 14, 0, 9, 0, 13, 29, 0, 3, 50, 10, 4, 5, 1, 6, 0, 18, 0, 0, 27, 0, 0, 0, 28, 0, 43, 0, 62, 36, 0, 46, 39, 2, 0, 15, 0, 0, 33, 0, 58, 0, 64, 21, 0, 0, 19, 25, 0, 52, 57, 0
|61, 55, 24, 0, 47, 15, 48, 36, 44, 5, 25, 4, 2, 35, 54, 10, 11, 53, 19, 0, 57, 12, 23, 56, 0, 64, 7, 59, 41, 38, 30, 0, 0, 0, 50, 52, 14, 3, 6, 0, 32, 0, 33, 0, 40, 26, 0, 37, 62, 0, 16, 1, 0, 43, 42, 0, 0, 39, 60, 28, 9, 18, 0, 49
|45, 53, 0, 56, 64, 0, 0, 0, 51, 0, 26, 0, 16, 46, 1, 63, 0, 15, 22, 0, 0, 34, 21, 41, 25, 60, 17, 0, 0, 5, 0, 54, 62, 0, 33, 0, 13, 0, 19, 24, 0, 10, 8, 2, 0, 0, 32, 35, 58, 27, 36, 12, 0, 0, 52, 39, 0, 0, 7, 48, 40, 0, 6, 57
|50, 46, 12, 48, 42, 6, 26, 59, 18, 0, 3, 0, 35, 43, 10, 0, 0, 38, 0, 0, 64, 37, 0, 0, 0, 0, 36, 0, 0, 0, 11, 32, 23, 0, 31, 0, 58, 39, 0, 20, 27, 0, 16, 45, 25, 15, 9, 52, 0, 28, 63, 14, 51, 21, 0, 2, 0, 0, 13, 24, 0, 0, 22, 0
|1, 17, 0, 27, 0, 9, 0, 13, 54, 21, 58, 0, 45, 0, 5, 39, 50, 47, 0, 36, 0, 0, 0, 0, 0, 43, 33, 14, 22, 28, 34, 44, 42, 64, 57, 60, 2, 52, 29, 55, 48, 0, 40, 0, 0, 56, 20, 0, 35, 0, 18, 24, 6, 4, 0, 37, 59, 31, 8, 0, 25, 0, 0, 0
|0, 41, 19, 15, 0, 0, 25, 51, 42, 8, 53, 33, 0, 14, 0, 12, 0, 2, 0, 17, 24, 61, 54, 11, 3, 0, 52, 0, 0, 30, 48, 6, 26, 43, 47, 63, 37, 5, 32, 4, 0, 13, 57, 55, 38, 7, 49, 60, 22, 29, 10, 56, 0, 46, 0, 59, 34, 27, 62, 9, 21, 0, 0, 39
|0, 10, 16, 61, 37, 24, 2, 58, 13, 60, 4, 55, 28, 0, 34, 20, 3, 7, 0, 27, 29, 25, 46, 0, 23, 0, 19, 64, 0, 0, 0, 21, 48, 0, 17, 49, 6, 30, 36, 0, 43, 14, 54, 0, 12, 0, 62, 39, 53, 41, 0, 5, 57, 0, 33, 1, 0, 52, 0, 42, 38, 44, 47, 26
|38, 21, 54, 3, 52, 29, 22, 55, 56, 37, 41, 27, 7, 2, 6, 24, 1, 23, 43, 39, 62, 42, 33, 0, 20, 0, 31, 0, 9, 47, 13, 4, 0, 18, 40, 0, 0, 50, 46, 0, 0, 53, 34, 0, 0, 0, 5, 58, 60, 8, 25, 17, 0, 19, 11, 49, 12, 0, 30, 63, 61, 16, 45, 15
|0, 0, 0, 62, 36, 0, 39, 34, 30, 0, 57, 17, 0, 9, 44, 38, 53, 49, 4, 6, 0, 35, 31, 0, 27, 0, 16, 0, 0, 51, 0, 10, 14, 56, 1, 7, 15, 11, 0, 0, 24, 0, 22, 29, 19, 18, 41, 0, 0, 64, 42, 61, 43, 13, 45, 48, 32, 5, 37, 33, 0, 28, 0, 46
|0, 5, 35, 43, 28, 49, 57, 0, 23, 48, 64, 22, 62, 29, 32, 0, 0, 0, 40, 0, 0, 18, 26, 13, 61, 41, 15, 0, 0, 46, 0, 24, 9, 53, 0, 0, 0, 0, 0, 16, 0, 0, 0, 0, 30, 21, 6, 17, 0, 0, 31, 54, 7, 3, 0, 44, 56, 58, 0, 0, 0, 0, 50, 10|];