order = 8;
grid = [|62, 0, 0, 24, 47, 38, 42, 35, 0, 0, 53, 0, 64, 0, 0, 54, 16, 6, 56, 39, 2, 8, 32, 49, 0, 57, 31, 14, 0, 48, 26, 5, 17, 0, 0, 58, 9, 30, 0, 0, 0, 60, 36, 61, 0, 20, 12, 46, 4, 59, 0, 0, 0, 23, 7, 13, 1, 34, 51, 41, 0, 15, 0, 25
|54, 18, 0, 26, 0, 36, 0, 0, 10, 5, 8, 60, 0, 42, 39, 29, 50, 30, 15, 0, 0, 11, 0, 1, 22, 61, 0, 25, 55, 49, 52, 23, 45, 43, 33, 0, 53, 56, 62, 64, 51, 0, 41, 7, 19, 57, 16, 35, 37, 14, 0, 47, 34, 0, 0, 0, 0, 31, 0, 17, 2, 20, 0, 38
|0, 19, 39, 9, 0, 46, 45, 56, 0, 2, 1, 50, 59, 11, 20, 18, 0, 48, 0, 3, 54, 29, 57, 14, 36, 0, 0, 8, 0, 12, 0, 4, 0, 21, 13, 41, 51, 0, 34, 0, 5, 37, 0, 62, 27, 0, 0, 10, 0, 24, 52, 25, 0, 31, 0, 0, 33, 26, 0, 0, 42, 55, 28, 44
|52, 0, 53, 12, 0, 8, 37, 14, 28, 38, 41, 35, 0, 9, 6, 15, 23, 19, 0, 36, 0, 0, 0, 64, 3, 0, 39, 51, 2, 0, 0, 0, 0, 18, 24, 5, 0, 31, 55, 0, 34, 13, 25, 0, 0, 26, 48, 30, 16, 58, 57, 42, 0, 0, 60, 49, 59, 4, 56, 10, 0, 54, 62, 40
|6, 10, 0, 48, 20, 28, 41, 7, 47, 58, 26, 23, 30, 0, 0, 44, 0, 40, 43, 0, 42, 62, 0, 0, 46, 34, 27, 13, 0, 63, 29, 18, 0, 59, 19, 54, 0, 2, 37, 14, 0, 53, 8, 17, 38, 31, 11, 33, 56, 45, 36, 55, 15, 35, 0, 0, 16, 9, 0, 50, 0, 32, 0, 0
|61, 64, 51, 34, 0, 13, 23, 40, 0, 31, 62, 56, 45, 17, 0, 0, 47, 0, 0, 53, 33, 0, 22, 12, 0, 0, 10, 0, 0, 43, 42, 0, 4, 36, 44, 1, 0, 3, 49, 57, 58, 63, 0, 0, 55, 50, 14, 0, 26, 20, 11, 54, 0, 5, 38, 48, 0, 37, 52, 8, 60, 6, 35, 0
|30, 11, 0, 60, 21, 43, 33, 0, 57, 37, 13, 7, 48, 16, 55, 0, 25, 4, 18, 59, 0, 45, 0, 20, 50, 17, 40, 0, 1, 54, 44, 9, 47, 61, 28, 26, 12, 6, 38, 35, 3, 0, 56, 24, 32, 42, 0, 0, 41, 0, 0, 53, 8, 39, 29, 51, 46, 5, 0, 0, 58, 36, 14, 63
|0, 5, 25, 2, 57, 3, 0, 15, 51, 0, 49, 0, 14, 4, 36, 19, 60, 35, 0, 31, 58, 0, 26, 0, 0, 56, 64, 47, 0, 0, 38, 62, 8, 0, 23, 42, 11, 48, 0, 32, 0, 44, 6, 59, 54, 9, 18, 45, 40, 1, 0, 33, 0, 17, 0, 0, 30, 7, 0, 0, 27, 43, 13, 39
|0, 17, 0, 55, 0, 0, 35, 53, 62, 63, 0, 15, 0, 0, 27, 57, 0, 0, 50, 38, 0, 30, 29, 0, 40, 64, 0, 42, 19, 0, 28, 52, 49, 7, 45, 46, 61, 44, 1, 6, 41, 26, 0, 0, 20, 11, 8, 0, 0, 0, 31, 0, 23, 0, 54, 47, 0, 59, 13, 48, 0, 24, 60, 33
|0, 0, 21, 0, 6, 22, 1, 43, 35, 4, 18, 33, 42, 0, 19, 0, 0, 46, 27, 48, 61, 57, 0, 63, 47, 41, 5, 44, 13, 59, 25, 2, 31, 0, 20, 0, 37, 26, 24, 28, 60, 0, 12, 3, 0, 0, 29, 15, 36, 0, 50, 56, 30, 0, 53, 0, 0, 0, 0, 49, 64, 10, 54, 62
|40, 24, 58, 7, 28, 0, 3, 44, 0, 54, 12, 11, 0, 2, 0, 13, 9, 0, 0, 62, 8, 22, 17, 45, 60, 0, 14, 0, 33, 0, 37, 63, 41, 52, 21, 19, 0, 10, 48, 27, 35, 0, 30, 46, 0, 0, 43, 64, 0, 29, 4, 15, 57, 49, 34, 0, 38, 53, 6, 20, 36, 16, 5, 42
|10, 59, 54, 0, 0, 15, 34, 26, 30, 48, 31, 9, 16, 43, 14, 0, 13, 28, 20, 23, 1, 0, 49, 0, 0, 0, 0, 0, 0, 0, 6, 46, 11, 55, 60, 0, 8, 35, 29, 38, 0, 0, 61, 39, 0, 0, 42, 17, 0, 0, 24, 0, 19, 7, 25, 32, 27, 47, 44, 56, 18, 51, 50, 2
|42, 36, 14, 5, 30, 60, 19, 38, 0, 41, 22, 0, 44, 0, 0, 56, 0, 59, 0, 35, 0, 47, 0, 32, 0, 39, 54, 0, 24, 62, 50, 61, 0, 13, 0, 0, 0, 58, 0, 9, 0, 27, 63, 4, 21, 23, 57, 0, 33, 3, 51, 52, 0, 0, 8, 1, 31, 0, 37, 25, 0, 0, 15, 7
|37, 0, 13, 0, 23, 31, 48, 52, 6, 17, 20, 29, 61, 0, 0, 7, 3, 0, 0, 2, 0, 0, 0, 33, 0, 53, 32, 21, 0, 27, 0, 0, 36, 30, 63, 47, 34, 43, 5, 56, 0, 38, 19, 0, 0, 22, 50, 54, 59, 0, 46, 0, 0, 64, 62, 11, 35, 14, 0, 0, 0, 0, 9, 12
|0, 62, 64, 29, 51, 61, 20, 0, 50, 3, 32, 0, 46, 47, 8, 60, 0, 18, 24, 0, 5, 52, 37, 6, 55, 0, 9, 11, 49, 0, 31, 38, 0, 4, 59, 0, 33, 25, 0, 23, 14, 36, 53, 0, 58, 7, 34, 1, 39, 48, 0, 0, 0, 0, 27, 0, 19, 45, 0, 30, 63, 0, 43, 0
|46, 47, 27, 49, 63, 4, 8, 0, 1, 24, 59, 0, 53, 5, 0, 0, 56, 42, 0, 0, 64, 0, 0, 0, 12, 0, 0, 29, 45, 34, 43, 26, 62, 0, 0, 22, 0, 39, 16, 50, 10, 48, 31, 13, 6, 0, 28, 2, 18, 0, 0, 0, 0, 0, 0, 14, 40, 0, 32, 0, 52, 61, 23, 11
|9, 43, 18, 0, 45, 0, 54, 33, 21, 6, 36, 2, 0, 34, 22, 4, 29, 8, 25, 64, 0, 58, 13, 3, 0, 59, 0, 0, 41, 39, 48, 53, 10, 0, 57, 15, 47, 0, 0, 24, 26, 0, 0, 14, 42, 12, 0, 27, 20, 51, 0, 50, 55, 62, 46, 23, 28, 19, 63, 7, 61, 60, 16, 32
|0, 31, 5, 22, 0, 32, 6, 13, 16, 27, 0, 28, 11, 26, 51, 9, 0, 21, 41, 44, 14, 1, 39, 42, 33, 29, 43, 55, 57, 20, 0, 12, 23, 64, 34, 35, 0, 0, 30, 0, 53, 18, 60, 40, 0, 54, 52, 50, 24, 15, 25, 17, 59, 0, 58, 2, 36, 46, 0, 37, 38, 48, 10, 3
|47, 0, 41, 0, 7, 10, 46, 27, 17, 49, 33, 0, 39, 0, 45, 0, 36, 55, 59, 24, 0, 51, 0, 37, 5, 15, 52, 2, 18, 16, 0, 58, 50, 6, 0, 0, 20, 19, 9, 54, 13, 0, 4, 0, 57, 64, 35, 0, 14, 56, 22, 44, 0, 0, 11, 0, 62, 0, 8, 12, 26, 30, 25, 0
|16, 51, 57, 25, 61, 0, 59, 0, 0, 0, 19, 64, 63, 12, 23, 58, 2, 32, 0, 0, 62, 35, 0, 43, 0, 40, 24, 36, 28, 47, 0, 0, 56, 3, 1, 60, 14, 0, 4, 0, 46, 0, 0, 0, 39, 0, 5, 0, 7, 52, 42, 9, 31, 54, 49, 38, 13, 0, 17, 15, 55, 11, 0, 0
|60, 0, 0, 17, 0, 20, 28, 36, 38, 7, 44, 0, 55, 57, 15, 41, 31, 16, 33, 49, 12, 40, 11, 19, 4, 42, 34, 62, 26, 0, 0, 0, 0, 46, 5, 32, 0, 29, 59, 63, 2, 1, 0, 51, 0, 21, 58, 0, 45, 35, 61, 0, 0, 6, 0, 0, 24, 0, 22, 0, 0, 56, 47, 52
|35, 12, 0, 21, 0, 39, 56, 0, 0, 46, 10, 24, 31, 8, 59, 47, 53, 15, 52, 27, 18, 54, 38, 7, 44, 1, 0, 0, 32, 0, 64, 0, 28, 0, 48, 45, 0, 33, 22, 0, 55, 25, 3, 30, 62, 34, 6, 61, 0, 16, 37, 63, 13, 36, 41, 4, 0, 0, 9, 40, 0, 49, 0, 58
|48, 2, 24, 58, 62, 23, 0, 64, 0, 0, 0, 61, 54, 0, 37, 5, 10, 0, 28, 0, 60, 0, 4, 0, 0, 46, 0, 22, 0, 38, 17, 0, 0, 44, 7, 0, 0, 13, 27, 52, 19, 0, 16, 9, 0, 15, 0, 56, 57, 8, 0, 30, 12, 18, 1, 0, 29, 0, 42, 0, 14, 59, 0, 53
|0, 0, 0, 0, 0, 34, 55, 0, 14, 25, 60, 0, 3, 30, 1, 48, 0, 23, 0, 0, 0, 0, 5, 0, 13, 0, 0, 45, 63, 21, 61, 56, 58, 0, 12, 18, 0, 0, 53, 39, 7, 10, 59, 0, 11, 0, 36, 47, 27, 26, 0, 0, 29, 40, 0, 0, 6, 35, 0, 54, 44, 4, 2, 51
|19, 21, 50, 13, 10, 14, 0, 48, 41, 20, 0, 0, 0, 0, 0, 0, 54, 5, 0, 0, 0, 61, 12, 0, 0, 52, 8, 0, 22, 0, 1, 43, 42, 9, 32, 24, 18, 0, 39, 0, 0, 62, 35, 47, 59, 40, 30, 16, 0, 55, 0, 57, 56, 33, 51, 15, 26, 36, 46, 29, 53, 7, 0, 0
|53, 37, 32, 6, 0, 0, 15, 28, 0, 0, 0, 0, 0, 56, 29, 51, 4, 24, 0, 22, 57, 43, 40, 36, 0, 0, 21, 0, 0, 41, 0, 35, 14, 45, 0, 13, 0, 0, 63, 0, 0, 12, 44, 18, 34, 48, 55, 3, 62, 0, 8, 0, 52, 50, 2, 7, 0, 0, 25, 1, 9, 5, 0, 0
|33, 42, 0, 46, 29, 11, 0, 61, 13, 45, 38, 0, 0, 0, 0, 50, 41, 56, 30, 14, 0, 2, 35, 59, 63, 55, 12, 0, 0, 0, 34, 0, 43, 51, 0, 62, 58, 27, 0, 0, 54, 31, 20, 60, 7, 53, 4, 9, 0, 39, 28, 10, 5, 26, 36, 18, 0, 57, 40, 52, 0, 47, 24, 17
|34, 0, 26, 0, 22, 55, 62, 17, 4, 64, 0, 5, 0, 21, 60, 36, 37, 27, 0, 9, 3, 50, 53, 0, 0, 2, 46, 0, 0, 28, 18, 30, 0, 11, 25, 0, 10, 41, 8, 33, 0, 39, 0, 29, 52, 0, 63, 51, 1, 0, 43, 38, 0, 0, 48, 20, 54, 32, 35, 0, 13, 45, 0, 0
|64, 0, 0, 0, 49, 40, 0, 0, 9, 39, 6, 0, 35, 27, 62, 59, 32, 0, 0, 55, 45, 0, 18, 48, 25, 5, 15, 10, 61, 7, 54, 11, 0, 0, 16, 0, 0, 0, 0, 12, 33, 0, 14, 0, 13, 8, 1, 38, 44, 17, 0, 21, 0, 60, 19, 24, 23, 2, 31, 0, 30, 42, 4, 28
|0, 60, 23, 45, 54, 5, 0, 24, 33, 0, 47, 52, 18, 53, 43, 14, 19, 13, 39, 34, 29, 28, 8, 17, 0, 38, 62, 50, 59, 0, 4, 20, 1, 2, 35, 44, 0, 0, 26, 0, 0, 42, 11, 15, 64, 0, 10, 0, 25, 0, 41, 61, 40, 32, 0, 0, 0, 51, 16, 22, 21, 58, 3, 48
|0, 38, 56, 36, 4, 35, 30, 9, 58, 0, 0, 48, 8, 40, 0, 34, 62, 10, 1, 20, 7, 49, 0, 51, 0, 60, 29, 0, 16, 19, 3, 42, 15, 0, 50, 0, 52, 0, 57, 21, 17, 2, 46, 32, 0, 0, 25, 0, 64, 27, 13, 23, 37, 0, 47, 12, 0, 63, 14, 33, 0, 18, 41, 43
|1, 0, 7, 0, 31, 63, 0, 8, 0, 0, 25, 0, 24, 10, 3, 42, 64, 33, 0, 0, 52, 38, 16, 15, 57, 32, 17, 49, 0, 36, 0, 13, 5, 48, 0, 30, 46, 34, 20, 40, 21, 19, 0, 56, 28, 45, 26, 23, 29, 11, 54, 0, 0, 59, 0, 9, 61, 44, 27, 55, 0, 50, 6, 0
|0, 4, 0, 0, 0, 0, 0, 30, 0, 44, 0, 32, 0, 64, 50, 21, 0, 43, 12, 0, 19, 0, 0, 0, 0, 49, 0, 16, 58, 14, 9, 55, 0, 34, 40, 3, 54, 0, 61, 51, 59, 57, 10, 8, 0, 0, 45, 13, 28, 41, 20, 24, 0, 0, 6, 62, 47, 52, 53, 46, 0, 27, 0, 0
|21, 0, 45, 42, 0, 37, 0, 0, 0, 57, 24, 19, 0, 39, 7, 26, 6, 17, 54, 16, 55, 0, 27, 4, 0, 33, 3, 60, 44, 25, 40, 36, 32, 38, 46, 0, 0, 59, 0, 47, 11, 0, 51, 63, 0, 52, 61, 34, 15, 12, 0, 0, 53, 1, 0, 0, 20, 18, 30, 2, 48, 28, 8, 41
|0, 0, 33, 0, 0, 27, 26, 18, 0, 0, 0, 0, 17, 14, 5, 53, 0, 61, 62, 0, 35, 0, 0, 38, 31, 0, 0, 0, 34, 0, 23, 37, 22, 0, 9, 25, 0, 0, 6, 45, 20, 21, 1, 12, 44, 2, 24, 58, 48, 43, 29, 51, 11, 56, 0, 64, 4, 49, 39, 0, 7, 3, 36, 0
|23, 0, 47, 59, 46, 12, 40, 34, 0, 0, 43, 20, 2, 18, 63, 25, 0, 58, 45, 32, 0, 7, 52, 8, 0, 0, 4, 27, 64, 0, 39, 0, 16, 35, 31, 0, 13, 0, 44, 11, 38, 30, 29, 36, 0, 60, 3, 0, 9, 10, 33, 0, 14, 0, 17, 54, 55, 24, 57, 21, 51, 19, 42, 0
|24, 39, 16, 0, 0, 54, 0, 11, 0, 62, 35, 0, 0, 59, 34, 0, 26, 0, 64, 1, 13, 36, 0, 0, 15, 0, 61, 38, 8, 0, 0, 21, 18, 56, 27, 53, 0, 0, 2, 58, 0, 22, 55, 42, 49, 0, 19, 0, 0, 0, 60, 0, 63, 46, 31, 45, 5, 40, 33, 43, 0, 14, 32, 9
|49, 0, 0, 53, 14, 25, 0, 19, 0, 8, 0, 55, 37, 0, 33, 0, 46, 22, 0, 0, 0, 44, 3, 39, 28, 63, 59, 0, 54, 26, 56, 0, 24, 12, 15, 10, 0, 0, 0, 60, 62, 5, 0, 48, 31, 41, 64, 0, 13, 0, 16, 2, 0, 57, 23, 52, 0, 17, 38, 58, 29, 1, 0, 6
|36, 0, 0, 31, 0, 64, 5, 60, 0, 61, 46, 58, 56, 41, 0, 3, 49, 37, 14, 0, 0, 0, 59, 24, 42, 0, 0, 7, 51, 11, 32, 17, 57, 8, 55, 50, 4, 52, 43, 62, 0, 33, 26, 6, 53, 16, 27, 18, 19, 0, 47, 39, 38, 30, 0, 44, 12, 22, 34, 45, 25, 0, 63, 54
|2, 22, 0, 0, 13, 58, 52, 0, 49, 9, 29, 10, 38, 51, 0, 28, 0, 0, 0, 63, 25, 0, 47, 0, 1, 24, 45, 12, 5, 18, 30, 50, 33, 0, 0, 7, 39, 14, 19, 48, 56, 35, 54, 23, 17, 32, 46, 43, 42, 4, 0, 27, 0, 34, 55, 8, 44, 62, 15, 16, 59, 64, 26, 0
|14, 27, 9, 4, 24, 0, 0, 0, 61, 59, 58, 0, 50, 44, 56, 8, 52, 0, 46, 0, 41, 55, 0, 0, 0, 19, 60, 32, 17, 0, 10, 31, 13, 0, 26, 34, 1, 37, 33, 5, 6, 54, 47, 43, 0, 28, 38, 12, 21, 7, 0, 18, 0, 63, 16, 36, 0, 64, 0, 42, 0, 53, 0, 22
|0, 32, 38, 28, 48, 1, 7, 5, 55, 35, 21, 0, 0, 0, 0, 0, 39, 53, 8, 6, 0, 17, 0, 0, 30, 37, 20, 46, 47, 3, 0, 59, 12, 58, 4, 56, 0, 0, 0, 0, 42, 11, 64, 0, 16, 19, 0, 62, 10, 0, 49, 60, 0, 52, 33, 0, 25, 15, 0, 24, 41, 0, 61, 57
|51, 46, 2, 37, 0, 21, 0, 39, 5, 28, 0, 31, 62, 7, 0, 0, 18, 0, 44, 25, 0, 13, 56, 54, 0, 8, 33, 43, 36, 22, 14, 16, 38, 60, 61, 52, 6, 55, 10, 30, 29, 3, 0, 0, 24, 4, 23, 0, 35, 0, 59, 48, 45, 41, 50, 0, 0, 0, 58, 9, 34, 63, 0, 26
|26, 58, 0, 16, 33, 42, 13, 63, 23, 29, 39, 0, 15, 0, 41, 0, 57, 1, 22, 4, 38, 48, 21, 2, 61, 50, 53, 6, 56, 35, 0, 64, 19, 0, 49, 20, 0, 9, 0, 31, 18, 0, 5, 0, 10, 36, 7, 44, 0, 40, 32, 34, 47, 14, 28, 37, 0, 60, 0, 3, 43, 12, 27, 46
|3, 0, 49, 0, 0, 0, 17, 23, 18, 42, 0, 26, 12, 33, 0, 38, 0, 62, 19, 5, 0, 0, 15, 0, 0, 0, 0, 0, 7, 0, 55, 39, 0, 24, 11, 43, 63, 8, 32, 2, 0, 50, 48, 22, 25, 14, 53, 59, 0, 54, 44, 46, 4, 58, 61, 30, 52, 1, 0, 13, 6, 0, 40, 0
|0, 54, 22, 0, 60, 0, 12, 45, 0, 0, 4, 43, 9, 0, 53, 63, 42, 7, 0, 33, 59, 31, 64, 58, 38, 23, 44, 18, 62, 0, 5, 51, 35, 57, 0, 0, 48, 15, 40, 16, 0, 0, 34, 21, 61, 0, 2, 0, 3, 19, 55, 6, 0, 11, 39, 26, 17, 56, 28, 36, 50, 8, 0, 47
|50, 40, 0, 8, 59, 30, 18, 31, 0, 10, 52, 36, 60, 6, 32, 49, 0, 9, 0, 26, 43, 16, 45, 0, 0, 0, 13, 28, 48, 42, 11, 15, 3, 0, 47, 0, 0, 0, 17, 46, 63, 0, 57, 41, 51, 55, 33, 0, 0, 53, 1, 12, 62, 0, 20, 0, 0, 38, 0, 14, 4, 37, 44, 5
|0, 0, 0, 19, 64, 0, 0, 0, 48, 16, 40, 46, 0, 3, 24, 22, 11, 0, 10, 37, 63, 32, 20, 34, 0, 0, 0, 52, 21, 4, 12, 0, 53, 50, 14, 0, 0, 28, 7, 42, 30, 0, 17, 27, 45, 56, 31, 0, 38, 0, 23, 0, 9, 8, 13, 29, 2, 0, 0, 62, 35, 33, 39, 55
|41, 30, 0, 44, 2, 49, 0, 16, 52, 23, 11, 0, 28, 0, 0, 61, 8, 63, 4, 19, 31, 20, 48, 0, 17, 7, 55, 39, 12, 37, 36, 27, 6, 33, 29, 0, 57, 51, 45, 0, 0, 24, 15, 0, 14, 43, 60, 0, 32, 18, 0, 0, 0, 3, 26, 46, 9, 0, 5, 0, 0, 25, 58, 34
|0, 0, 35, 39, 43, 24, 0, 0, 0, 56, 0, 49, 34, 25, 0, 62, 55, 0, 2, 7, 6, 5, 0, 61, 14, 51, 23, 26, 38, 58, 13, 22, 0, 42, 54, 0, 19, 16, 60, 59, 0, 52, 40, 53, 12, 29, 0, 63, 11, 31, 64, 4, 33, 10, 44, 57, 15, 48, 50, 0, 47, 41, 18, 45
|55, 0, 11, 0, 1, 18, 4, 0, 0, 19, 63, 16, 0, 0, 12, 46, 0, 0, 13, 51, 0, 0, 62, 29, 53, 3, 0, 61, 0, 60, 0, 25, 37, 0, 30, 38, 17, 64, 41, 43, 44, 28, 58, 35, 2, 0, 49, 26, 52, 5, 7, 59, 0, 24, 40, 0, 42, 6, 36, 32, 56, 21, 33, 0
|17, 0, 37, 51, 36, 0, 0, 46, 43, 0, 3, 57, 5, 29, 21, 20, 27, 54, 16, 58, 0, 42, 10, 28, 59, 0, 63, 56, 40, 0, 2, 44, 34, 47, 22, 39, 31, 18, 0, 7, 9, 0, 45, 0, 30, 1, 0, 8, 61, 0, 0, 35, 60, 55, 15, 0, 0, 23, 0, 0, 0, 0, 52, 14
|28, 0, 0, 61, 25, 57, 60, 12, 7, 0, 48, 8, 22, 0, 54, 32, 0, 0, 37, 18, 0, 0, 33, 56, 0, 45, 41, 0, 0, 6, 19, 24, 55, 0, 2, 11, 35, 0, 58, 0, 39, 0, 21, 0, 5, 10, 62, 36, 63, 42, 38, 13, 27, 9, 14, 0, 43, 16, 20, 59, 0, 40, 46, 0
|29, 0, 0, 27, 34, 45, 21, 0, 0, 0, 0, 14, 1, 58, 4, 6, 22, 39, 60, 52, 50, 64, 41, 0, 18, 0, 0, 0, 46, 5, 0, 28, 0, 0, 8, 9, 0, 32, 13, 0, 25, 0, 33, 38, 3, 17, 0, 31, 0, 0, 12, 16, 54, 2, 43, 19, 7, 0, 11, 51, 0, 57, 55, 0
|58, 0, 0, 23, 5, 7, 14, 6, 44, 26, 37, 0, 41, 60, 64, 0, 17, 38, 0, 0, 0, 0, 9, 11, 52, 0, 42, 31, 43, 15, 33, 1, 48, 0, 62, 0, 0, 50, 0, 0, 0, 61, 0, 0, 46, 18, 54, 55, 0, 28, 34, 8, 0, 51, 0, 21, 53, 30, 0, 0, 0, 0, 29, 19
|13, 15, 0, 64, 38, 19, 31, 0, 0, 0, 9, 18, 40, 0, 2, 33, 35, 45, 26, 57, 0, 0, 43, 46, 21, 54, 30, 0, 0, 8, 0, 10, 27, 0, 3, 14, 28, 61, 52, 1, 48, 6, 42, 11, 23, 59, 56, 7, 0, 0, 53, 0, 20, 0, 37, 41, 0, 12, 60, 0, 22, 39, 0, 4
|38, 23, 28, 0, 8, 53, 0, 0, 0, 15, 0, 0, 51, 13, 52, 31, 0, 0, 21, 54, 46, 18, 36, 47, 24, 0, 26, 1, 39, 0, 22, 45, 0, 19, 0, 16, 27, 60, 25, 41, 0, 0, 2, 33, 0, 30, 0, 5, 58, 9, 0, 0, 0, 48, 57, 0, 37, 42, 0, 11, 0, 0, 7, 20
|18, 34, 36, 14, 0, 59, 24, 1, 0, 0, 0, 0, 33, 0, 28, 16, 0, 49, 29, 8, 15, 12, 25, 55, 6, 0, 48, 64, 0, 0, 0, 0, 0, 0, 39, 0, 0, 0, 3, 44, 31, 17, 27, 0, 43, 63, 0, 11, 0, 47, 0, 20, 7, 0, 56, 22, 41, 10, 2, 26, 32, 35, 51, 50
|0, 25, 48, 0, 0, 6, 22, 41, 11, 0, 45, 27, 29, 0, 9, 10, 0, 60, 0, 56, 0, 24, 28, 13, 16, 0, 38, 53, 0, 30, 0, 33, 52, 0, 18, 51, 5, 46, 0, 4, 8, 0, 50, 0, 0, 35, 0, 0, 12, 61, 14, 36, 2, 15, 42, 40, 58, 55, 0, 63, 19, 17, 64, 23
|31, 33, 60, 0, 12, 29, 44, 0, 56, 0, 7, 0, 47, 62, 18, 0, 0, 64, 53, 17, 27, 26, 42, 0, 20, 0, 35, 5, 0, 51, 0, 0, 2, 32, 0, 0, 38, 24, 0, 0, 15, 55, 28, 37, 48, 0, 40, 19, 0, 34, 39, 0, 0, 43, 10, 63, 0, 25, 54, 0, 16, 52, 49, 30
|27, 7, 19, 56, 42, 47, 61, 58, 64, 50, 55, 0, 4, 48, 49, 37, 44, 0, 38, 40, 0, 34, 0, 0, 11, 36, 18, 54, 23, 0, 46, 0, 0, 17, 43, 33, 0, 45, 15, 0, 22, 32, 0, 0, 41, 3, 21, 0, 31, 0, 26, 1, 51, 0, 52, 35, 0, 28, 29, 5, 12, 9, 0, 24
|0, 13, 15, 11, 26, 51, 49, 0, 0, 0, 34, 0, 58, 24, 35, 39, 33, 0, 0, 43, 30, 0, 31, 16, 8, 12, 28, 9, 37, 2, 41, 0, 63, 29, 10, 48, 50, 53, 14, 36, 0, 7, 52, 57, 1, 6, 0, 42, 54, 25, 0, 0, 44, 0, 5, 55, 60, 27, 4, 61, 46, 38, 56, 0
|5, 9, 63, 30, 3, 2, 16, 55, 0, 43, 54, 0, 20, 19, 44, 0, 48, 0, 35, 61, 22, 4, 0, 62, 0, 47, 0, 17, 42, 50, 49, 29, 7, 1, 0, 23, 64, 0, 0, 34, 0, 56, 18, 10, 36, 46, 51, 53, 8, 0, 27, 0, 41, 0, 24, 60, 0, 39, 21, 31, 15, 13, 0, 59
|0, 52, 46, 43, 37, 17, 32, 54, 8, 0, 2, 25, 57, 61, 30, 12, 59, 0, 0, 0, 51, 14, 19, 41, 7, 27, 56, 63, 15, 13, 58, 0, 0, 62, 42, 31, 26, 0, 0, 0, 23, 16, 9, 49, 60, 38, 39, 24, 53, 50, 6, 0, 0, 4, 18, 28, 0, 3, 48, 0, 0, 44, 1, 36|];