order = 8;
grid = [|55, 21, 0, 20, 0, 0, 0, 9, 0, 0, 0, 8, 0, 29, 6, 43, 34, 0, 0, 11, 60, 33, 0, 0, 0, 0, 63, 36, 56, 48, 42, 0, 39, 4, 16, 0, 19, 0, 57, 0, 2, 49, 28, 47, 0, 0, 17, 0, 10, 14, 0, 37, 13, 0, 38, 24, 62, 32, 0, 61, 26, 53, 22, 54
|3, 54, 14, 7, 0, 29, 10, 15, 40, 26, 17, 61, 58, 0, 0, 0, 0, 0, 1, 2, 0, 0, 43, 32, 0, 5, 0, 59, 35, 23, 11, 49, 13, 27, 45, 62, 24, 6, 48, 36, 63, 0, 55, 56, 22, 0, 57, 31, 0, 41, 0, 8, 53, 51, 39, 28, 0, 9, 12, 38, 64, 0, 0, 0
|57, 0, 0, 0, 47, 51, 0, 0, 24, 0, 54, 0, 0, 0, 21, 12, 53, 48, 0, 20, 61, 8, 36, 18, 1, 19, 41, 0, 0, 34, 10, 33, 0, 55, 0, 35, 17, 59, 44, 0, 0, 0, 9, 0, 62, 4, 0, 5, 40, 2, 15, 46, 0, 0, 29, 58, 0, 45, 25, 0, 23, 30, 0, 14
|61, 64, 0, 0, 0, 56, 42, 0, 18, 0, 36, 0, 45, 13, 0, 62, 0, 0, 63, 50, 59, 5, 44, 23, 3, 4, 37, 29, 0, 0, 0, 0, 43, 1, 47, 41, 20, 0, 8, 28, 39, 53, 10, 19, 48, 0, 58, 21, 7, 0, 33, 0, 12, 49, 6, 52, 24, 15, 0, 16, 0, 40, 51, 31
|45, 0, 1, 0, 49, 0, 4, 40, 22, 2, 53, 0, 0, 0, 9, 25, 27, 24, 56, 0, 6, 41, 0, 47, 46, 0, 7, 52, 39, 57, 12, 8, 60, 0, 3, 14, 0, 5, 26, 37, 59, 64, 29, 13, 0, 43, 51, 50, 55, 11, 48, 61, 23, 63, 0, 31, 0, 36, 42, 35, 0, 0, 33, 0
|0, 19, 18, 0, 0, 0, 60, 6, 0, 0, 0, 35, 59, 0, 11, 0, 0, 0, 38, 64, 39, 0, 10, 7, 9, 0, 13, 43, 0, 0, 61, 53, 63, 51, 0, 21, 50, 25, 15, 0, 12, 20, 45, 14, 8, 0, 16, 24, 44, 26, 0, 0, 0, 30, 22, 17, 0, 29, 27, 0, 56, 5, 0, 48
|37, 0, 33, 8, 25, 63, 24, 0, 7, 27, 0, 10, 49, 0, 48, 41, 0, 54, 19, 0, 17, 28, 0, 16, 21, 30, 0, 58, 51, 0, 6, 14, 56, 38, 53, 0, 11, 31, 0, 0, 0, 23, 0, 0, 15, 42, 3, 34, 36, 4, 0, 45, 50, 0, 0, 0, 0, 0, 0, 2, 13, 0, 57, 46
|62, 0, 0, 53, 12, 48, 23, 27, 0, 0, 0, 0, 37, 0, 0, 14, 35, 22, 58, 0, 31, 0, 0, 13, 24, 16, 45, 0, 40, 15, 0, 38, 64, 0, 10, 2, 18, 0, 29, 0, 7, 36, 61, 11, 52, 46, 0, 1, 0, 0, 34, 9, 0, 0, 0, 56, 21, 41, 6, 59, 0, 0, 60, 47
|54, 16, 58, 9, 0, 60, 62, 30, 0, 3, 42, 0, 24, 18, 0, 56, 22, 49, 2, 25, 0, 47, 41, 53, 17, 0, 1, 51, 0, 0, 0, 27, 0, 39, 0, 23, 40, 4, 52, 0, 14, 29, 13, 50, 35, 19, 0, 38, 21, 15, 31, 48, 37, 6, 0, 20, 46, 64, 61, 26, 0, 0, 36, 0
|51, 59, 3, 14, 0, 31, 7, 17, 45, 0, 4, 64, 26, 58, 12, 30, 46, 60, 8, 0, 43, 29, 0, 0, 0, 63, 32, 25, 52, 50, 37, 55, 2, 22, 0, 10, 48, 13, 36, 1, 0, 5, 54, 0, 0, 0, 62, 33, 0, 0, 47, 41, 35, 57, 61, 0, 38, 27, 18, 56, 40, 0, 15, 0
|13, 0, 61, 55, 33, 35, 43, 0, 0, 0, 10, 7, 52, 0, 0, 36, 0, 51, 23, 30, 45, 34, 62, 27, 56, 42, 40, 0, 24, 59, 0, 0, 21, 46, 63, 20, 0, 0, 17, 3, 48, 0, 0, 0, 25, 0, 28, 11, 0, 0, 54, 0, 0, 18, 53, 5, 0, 50, 0, 31, 14, 12, 0, 37
|47, 50, 42, 0, 0, 0, 5, 0, 2, 9, 41, 0, 0, 49, 14, 17, 0, 0, 16, 10, 38, 0, 7, 39, 28, 3, 23, 18, 0, 35, 0, 0, 8, 26, 25, 0, 0, 0, 6, 56, 0, 58, 30, 0, 45, 37, 22, 0, 62, 29, 19, 59, 36, 0, 40, 13, 44, 1, 0, 0, 20, 24, 4, 51
|46, 0, 24, 44, 56, 0, 48, 10, 0, 0, 21, 0, 60, 62, 20, 61, 4, 0, 37, 0, 32, 0, 13, 50, 14, 34, 39, 19, 33, 38, 49, 12, 51, 5, 15, 42, 41, 30, 18, 29, 0, 57, 0, 0, 64, 31, 0, 2, 26, 43, 0, 0, 63, 0, 28, 23, 58, 59, 0, 22, 54, 17, 6, 53
|38, 0, 41, 0, 0, 0, 0, 49, 44, 23, 13, 0, 27, 39, 0, 19, 52, 0, 9, 6, 42, 61, 18, 20, 29, 48, 0, 62, 2, 10, 5, 0, 37, 33, 64, 0, 0, 24, 50, 35, 0, 4, 0, 0, 26, 17, 53, 0, 60, 55, 3, 0, 30, 14, 51, 0, 0, 0, 0, 43, 25, 32, 0, 7
|23, 39, 20, 26, 40, 37, 63, 18, 29, 28, 15, 46, 0, 59, 38, 0, 33, 64, 14, 35, 24, 54, 0, 12, 61, 41, 6, 4, 57, 21, 30, 0, 9, 44, 58, 53, 31, 0, 55, 49, 0, 60, 0, 43, 3, 0, 0, 10, 25, 17, 50, 56, 8, 0, 0, 27, 2, 19, 0, 0, 47, 16, 13, 0
|0, 0, 22, 2, 27, 0, 0, 0, 55, 43, 6, 0, 25, 0, 0, 37, 31, 36, 0, 0, 0, 0, 40, 58, 0, 26, 9, 64, 7, 13, 0, 20, 16, 62, 0, 60, 61, 47, 14, 57, 1, 12, 56, 0, 49, 18, 0, 15, 4, 0, 0, 0, 32, 46, 10, 44, 35, 42, 39, 0, 0, 48, 23, 30
|21, 0, 8, 39, 53, 40, 0, 0, 0, 24, 55, 59, 3, 20, 0, 9, 0, 0, 48, 0, 49, 32, 46, 52, 2, 64, 30, 33, 13, 19, 7, 0, 10, 23, 36, 11, 0, 41, 4, 61, 62, 37, 1, 12, 27, 26, 0, 35, 0, 0, 16, 0, 0, 29, 17, 57, 0, 0, 0, 44, 60, 0, 0, 63
|2, 15, 0, 47, 10, 0, 26, 54, 37, 12, 0, 45, 53, 6, 0, 22, 36, 63, 31, 28, 4, 56, 60, 24, 59, 39, 35, 23, 50, 0, 0, 21, 33, 64, 14, 0, 58, 20, 0, 17, 42, 0, 0, 30, 61, 0, 0, 51, 0, 44, 41, 62, 7, 13, 0, 55, 16, 0, 43, 1, 9, 8, 40, 25
|0, 58, 0, 49, 0, 0, 11, 0, 52, 30, 26, 32, 44, 0, 4, 0, 6, 12, 21, 53, 29, 10, 57, 0, 45, 18, 16, 8, 0, 1, 34, 17, 3, 50, 55, 22, 0, 39, 46, 13, 0, 2, 0, 5, 24, 0, 20, 19, 56, 0, 23, 0, 42, 0, 0, 48, 41, 38, 0, 64, 35, 0, 47, 27
|0, 0, 0, 24, 17, 38, 0, 64, 58, 0, 28, 13, 11, 0, 36, 2, 45, 27, 34, 0, 62, 0, 33, 22, 49, 15, 52, 55, 0, 53, 26, 41, 0, 8, 29, 0, 47, 35, 0, 0, 0, 63, 0, 3, 16, 14, 0, 0, 32, 20, 0, 40, 25, 39, 0, 1, 10, 57, 0, 12, 4, 56, 0, 23
|0, 62, 0, 57, 22, 0, 0, 51, 16, 47, 0, 18, 0, 8, 61, 10, 0, 58, 0, 26, 44, 0, 5, 55, 40, 37, 12, 46, 9, 4, 32, 29, 0, 28, 54, 1, 43, 53, 24, 27, 23, 0, 0, 33, 56, 34, 0, 0, 0, 0, 0, 11, 14, 3, 21, 45, 39, 20, 0, 0, 59, 31, 19, 6
|0, 56, 19, 31, 55, 16, 45, 0, 15, 57, 33, 17, 0, 38, 27, 1, 14, 50, 35, 0, 41, 0, 59, 0, 0, 25, 0, 60, 0, 0, 47, 0, 32, 52, 18, 49, 0, 9, 7, 62, 21, 44, 64, 10, 29, 6, 13, 0, 54, 5, 0, 12, 0, 4, 8, 0, 30, 0, 24, 37, 46, 11, 0, 0
|4, 35, 7, 0, 46, 6, 0, 37, 0, 0, 49, 19, 0, 0, 31, 0, 0, 0, 11, 0, 23, 3, 16, 1, 38, 10, 0, 0, 0, 42, 0, 0, 0, 0, 5, 15, 26, 12, 60, 63, 0, 28, 36, 22, 0, 47, 9, 0, 52, 0, 43, 53, 27, 0, 30, 64, 55, 0, 51, 17, 18, 0, 0, 33
|0, 33, 0, 27, 1, 0, 28, 41, 35, 0, 0, 43, 50, 56, 23, 0, 8, 61, 30, 37, 0, 15, 47, 25, 58, 14, 20, 6, 63, 31, 57, 0, 48, 34, 0, 0, 21, 44, 45, 16, 18, 0, 17, 0, 4, 39, 55, 53, 59, 22, 60, 19, 10, 24, 46, 9, 0, 13, 3, 5, 0, 26, 0, 52
|43, 26, 51, 4, 34, 11, 39, 7, 0, 15, 0, 0, 54, 5, 0, 53, 60, 28, 25, 56, 13, 9, 2, 48, 64, 0, 33, 47, 0, 0, 58, 0, 49, 36, 0, 63, 57, 14, 12, 0, 0, 27, 20, 23, 0, 50, 24, 30, 18, 0, 37, 0, 1, 44, 62, 0, 19, 6, 0, 32, 0, 52, 0, 40
|28, 0, 0, 5, 0, 9, 64, 16, 0, 13, 62, 49, 8, 14, 0, 47, 43, 39, 0, 17, 40, 11, 22, 0, 51, 31, 0, 7, 41, 0, 2, 1, 27, 0, 32, 56, 10, 52, 0, 34, 37, 0, 15, 6, 54, 0, 21, 57, 0, 30, 0, 35, 19, 38, 23, 4, 20, 0, 0, 25, 0, 0, 42, 45
|10, 8, 6, 21, 0, 49, 18, 0, 0, 61, 44, 0, 1, 0, 24, 0, 41, 0, 0, 31, 0, 0, 55, 0, 0, 0, 53, 9, 0, 37, 46, 63, 11, 0, 0, 59, 25, 0, 0, 54, 32, 40, 51, 64, 0, 13, 0, 0, 14, 48, 42, 3, 52, 0, 7, 36, 0, 28, 22, 27, 16, 0, 35, 29
|17, 24, 13, 33, 35, 36, 29, 19, 26, 0, 25, 52, 31, 2, 30, 60, 1, 0, 42, 15, 54, 4, 0, 49, 57, 28, 21, 0, 6, 0, 43, 0, 18, 0, 0, 0, 55, 61, 0, 0, 11, 0, 22, 41, 12, 62, 38, 44, 20, 0, 10, 27, 46, 0, 63, 34, 47, 0, 14, 7, 48, 37, 64, 39
|59, 0, 54, 15, 45, 30, 3, 57, 41, 37, 7, 0, 0, 0, 63, 20, 51, 32, 50, 16, 27, 64, 0, 29, 0, 8, 0, 10, 18, 0, 0, 0, 4, 0, 23, 0, 0, 26, 0, 48, 0, 46, 52, 42, 36, 35, 0, 47, 12, 0, 0, 49, 60, 0, 2, 0, 0, 44, 62, 55, 0, 0, 0, 61
|41, 52, 0, 46, 0, 0, 1, 60, 12, 0, 9, 48, 21, 0, 28, 51, 44, 62, 18, 63, 35, 20, 0, 0, 13, 27, 38, 49, 0, 61, 0, 26, 40, 0, 31, 29, 42, 16, 22, 0, 56, 7, 25, 34, 53, 58, 0, 45, 0, 57, 0, 0, 55, 0, 32, 0, 0, 54, 33, 24, 36, 0, 0, 0
|25, 23, 0, 42, 0, 20, 0, 0, 27, 18, 19, 0, 38, 0, 64, 0, 0, 3, 0, 58, 33, 21, 6, 0, 0, 54, 5, 12, 15, 30, 0, 39, 50, 35, 37, 51, 8, 7, 1, 44, 29, 26, 0, 48, 14, 55, 10, 0, 16, 0, 45, 43, 0, 41, 24, 0, 49, 60, 56, 0, 57, 0, 17, 2
|40, 0, 27, 0, 50, 0, 0, 12, 33, 6, 32, 55, 0, 45, 42, 39, 0, 57, 0, 0, 10, 0, 52, 0, 23, 35, 0, 44, 20, 29, 0, 0, 41, 47, 46, 43, 15, 64, 62, 0, 0, 17, 2, 49, 0, 5, 0, 3, 0, 13, 53, 0, 51, 0, 0, 54, 26, 0, 0, 0, 0, 38, 1, 21
|0, 0, 25, 60, 0, 13, 30, 35, 63, 0, 46, 0, 20, 0, 62, 3, 16, 21, 39, 38, 37, 0, 0, 54, 31, 57, 56, 14, 26, 47, 55, 64, 0, 0, 0, 48, 59, 1, 34, 4, 40, 0, 0, 28, 0, 52, 0, 0, 2, 18, 22, 44, 15, 53, 41, 0, 6, 17, 32, 0, 24, 33, 0, 19
|22, 6, 0, 12, 0, 8, 51, 0, 64, 54, 56, 0, 43, 48, 2, 0, 18, 1, 49, 0, 0, 36, 31, 42, 5, 45, 59, 0, 37, 0, 23, 0, 15, 0, 0, 16, 14, 3, 0, 19, 50, 25, 11, 0, 20, 41, 0, 13, 38, 0, 0, 0, 21, 0, 55, 0, 53, 30, 0, 60, 0, 0, 26, 35
|27, 0, 50, 58, 9, 44, 0, 0, 13, 31, 8, 0, 30, 19, 32, 35, 5, 0, 20, 34, 12, 23, 17, 64, 53, 0, 48, 0, 0, 49, 62, 16, 45, 25, 60, 38, 29, 11, 2, 0, 0, 10, 0, 7, 6, 0, 46, 14, 63, 37, 24, 0, 59, 40, 57, 3, 56, 4, 52, 0, 55, 51, 0, 0
|0, 2, 45, 29, 0, 43, 0, 55, 53, 42, 37, 1, 22, 36, 0, 44, 57, 0, 61, 46, 56, 0, 0, 41, 35, 9, 10, 0, 60, 17, 38, 30, 24, 58, 0, 13, 32, 0, 0, 0, 51, 48, 0, 4, 21, 15, 64, 0, 49, 7, 25, 31, 54, 12, 27, 8, 34, 14, 28, 0, 3, 59, 0, 0
|0, 0, 32, 56, 41, 0, 14, 0, 17, 4, 45, 0, 0, 12, 49, 26, 0, 59, 53, 27, 48, 43, 0, 44, 0, 0, 0, 34, 19, 46, 1, 52, 62, 0, 0, 54, 0, 18, 21, 0, 57, 31, 0, 0, 0, 29, 0, 63, 0, 50, 0, 6, 20, 42, 58, 30, 25, 0, 38, 40, 7, 22, 39, 0
|24, 0, 49, 48, 59, 57, 20, 21, 0, 58, 23, 0, 0, 50, 60, 38, 0, 10, 62, 22, 26, 55, 3, 33, 15, 29, 4, 0, 61, 6, 8, 7, 44, 0, 0, 0, 39, 17, 40, 53, 0, 0, 0, 27, 0, 2, 0, 37, 51, 16, 0, 0, 28, 0, 52, 0, 64, 12, 0, 42, 0, 41, 0, 9
|31, 0, 11, 17, 63, 0, 0, 0, 39, 52, 18, 29, 9, 0, 10, 0, 7, 30, 45, 14, 58, 40, 35, 4, 25, 0, 0, 0, 0, 0, 51, 13, 5, 57, 6, 64, 22, 0, 49, 0, 26, 61, 0, 0, 38, 24, 33, 0, 0, 1, 0, 60, 34, 0, 0, 19, 8, 0, 16, 50, 2, 21, 20, 0
|1, 0, 34, 40, 26, 0, 0, 47, 6, 16, 59, 41, 51, 21, 0, 24, 2, 25, 60, 29, 19, 13, 15, 0, 43, 22, 50, 27, 32, 0, 28, 0, 55, 56, 52, 0, 0, 0, 10, 0, 58, 42, 3, 17, 44, 8, 30, 0, 0, 39, 0, 64, 11, 36, 4, 33, 0, 46, 37, 62, 45, 54, 49, 57
|64, 12, 37, 1, 31, 0, 57, 0, 20, 59, 40, 3, 5, 10, 47, 49, 29, 0, 0, 32, 0, 48, 39, 6, 42, 53, 46, 0, 22, 60, 9, 28, 0, 63, 62, 19, 30, 33, 0, 45, 0, 0, 38, 16, 58, 56, 0, 18, 8, 25, 36, 50, 0, 17, 34, 41, 0, 7, 35, 51, 52, 27, 24, 0
|26, 0, 0, 16, 39, 4, 8, 61, 38, 34, 14, 0, 13, 32, 22, 0, 0, 17, 0, 19, 0, 52, 0, 59, 0, 7, 0, 45, 23, 18, 0, 5, 28, 41, 2, 0, 1, 10, 47, 6, 31, 0, 33, 0, 37, 64, 12, 0, 0, 60, 58, 51, 24, 0, 15, 21, 9, 56, 49, 54, 43, 57, 53, 0
|0, 30, 62, 0, 7, 0, 58, 52, 0, 48, 39, 0, 0, 0, 15, 0, 0, 53, 28, 33, 47, 35, 9, 36, 10, 6, 31, 16, 0, 0, 41, 0, 26, 21, 24, 0, 0, 0, 51, 40, 0, 22, 8, 2, 63, 57, 23, 43, 37, 56, 64, 14, 38, 0, 0, 46, 18, 0, 17, 13, 5, 1, 44, 0
|63, 17, 0, 0, 28, 5, 47, 0, 31, 1, 30, 53, 0, 64, 0, 58, 10, 7, 24, 41, 0, 16, 21, 0, 0, 0, 0, 61, 0, 51, 52, 0, 0, 0, 43, 0, 0, 0, 0, 14, 36, 54, 34, 15, 50, 40, 25, 29, 0, 42, 12, 4, 6, 9, 44, 26, 23, 62, 45, 0, 22, 3, 48, 59
|32, 25, 21, 3, 20, 41, 50, 36, 57, 8, 0, 16, 23, 0, 35, 0, 56, 46, 51, 49, 0, 18, 4, 0, 62, 0, 19, 26, 34, 33, 0, 44, 58, 17, 39, 52, 5, 0, 42, 64, 53, 6, 0, 60, 9, 0, 27, 28, 30, 40, 13, 0, 45, 54, 59, 22, 31, 0, 47, 10, 0, 2, 12, 0
|29, 49, 56, 23, 0, 0, 53, 0, 0, 63, 2, 26, 36, 52, 54, 55, 62, 44, 22, 0, 0, 45, 0, 60, 39, 17, 14, 50, 38, 64, 59, 40, 20, 48, 4, 0, 9, 0, 0, 15, 5, 3, 41, 35, 51, 30, 47, 7, 31, 10, 57, 28, 0, 0, 43, 32, 0, 33, 11, 46, 0, 6, 16, 0
|0, 34, 46, 51, 0, 45, 0, 0, 28, 11, 0, 62, 17, 9, 0, 6, 0, 40, 13, 23, 0, 14, 0, 0, 12, 47, 24, 0, 0, 56, 35, 37, 38, 16, 0, 0, 49, 50, 0, 0, 61, 39, 44, 0, 59, 10, 19, 4, 3, 53, 0, 5, 18, 55, 20, 7, 0, 26, 30, 29, 32, 64, 0, 60
|14, 0, 35, 6, 11, 0, 9, 0, 19, 0, 12, 33, 18, 51, 37, 50, 61, 31, 54, 57, 0, 0, 1, 5, 0, 43, 2, 0, 0, 58, 3, 4, 0, 53, 59, 0, 7, 55, 0, 0, 0, 24, 0, 45, 0, 32, 52, 0, 29, 0, 49, 0, 39, 16, 48, 62, 0, 40, 41, 28, 21, 15, 0, 8
|0, 1, 0, 36, 0, 17, 0, 0, 0, 64, 0, 50, 62, 42, 33, 54, 49, 35, 44, 0, 16, 0, 20, 11, 4, 13, 18, 28, 0, 5, 14, 9, 52, 30, 26, 47, 0, 48, 43, 25, 60, 0, 37, 24, 41, 63, 6, 56, 46, 34, 0, 0, 40, 10, 0, 51, 61, 31, 0, 0, 15, 7, 55, 38
|0, 27, 4, 22, 48, 0, 40, 11, 43, 0, 0, 24, 0, 0, 0, 28, 38, 0, 41, 7, 18, 0, 0, 0, 26, 0, 25, 56, 0, 52, 64, 10, 0, 45, 1, 17, 63, 36, 16, 0, 0, 55, 50, 0, 0, 44, 29, 9, 57, 23, 62, 0, 5, 61, 0, 37, 13, 2, 19, 0, 53, 60, 8, 32
|5, 47, 52, 43, 13, 0, 46, 29, 49, 0, 16, 0, 57, 37, 0, 18, 0, 42, 36, 40, 9, 12, 0, 26, 0, 51, 22, 0, 1, 44, 0, 23, 0, 6, 0, 8, 4, 34, 0, 0, 3, 0, 53, 38, 7, 61, 15, 0, 64, 24, 56, 0, 31, 58, 60, 0, 0, 25, 59, 0, 28, 35, 10, 17
|53, 0, 0, 0, 60, 24, 0, 34, 11, 40, 58, 27, 10, 63, 8, 5, 3, 0, 0, 51, 2, 0, 61, 0, 41, 0, 62, 0, 48, 36, 19, 15, 7, 18, 44, 0, 46, 38, 0, 20, 28, 14, 0, 0, 13, 22, 39, 0, 0, 0, 4, 0, 0, 32, 0, 25, 12, 52, 0, 23, 6, 0, 45, 56
|0, 0, 26, 35, 0, 39, 55, 32, 56, 36, 61, 0, 0, 53, 51, 52, 0, 0, 47, 0, 34, 58, 0, 62, 0, 24, 57, 0, 17, 0, 33, 0, 29, 31, 0, 5, 28, 40, 13, 0, 0, 8, 4, 25, 2, 16, 48, 49, 0, 38, 44, 0, 0, 0, 50, 43, 22, 37, 46, 20, 63, 18, 9, 1
|0, 0, 16, 28, 15, 7, 37, 63, 23, 0, 22, 0, 0, 44, 55, 13, 59, 33, 10, 24, 53, 31, 0, 46, 60, 0, 43, 2, 58, 39, 40, 34, 61, 42, 56, 50, 0, 57, 54, 0, 20, 0, 21, 52, 5, 45, 35, 17, 19, 0, 8, 0, 0, 48, 36, 14, 0, 11, 0, 4, 0, 0, 62, 0
|33, 0, 10, 0, 3, 23, 56, 38, 60, 41, 1, 15, 47, 17, 0, 0, 21, 5, 4, 45, 28, 30, 0, 57, 0, 0, 29, 37, 46, 0, 16, 31, 0, 49, 22, 55, 0, 62, 64, 0, 27, 34, 58, 36, 0, 0, 0, 12, 13, 52, 0, 18, 0, 7, 26, 63, 40, 43, 0, 0, 0, 39, 14, 24
|44, 31, 0, 54, 0, 62, 0, 0, 9, 0, 0, 12, 0, 0, 39, 4, 0, 29, 64, 0, 52, 0, 14, 56, 27, 38, 47, 0, 0, 7, 63, 61, 0, 37, 41, 24, 60, 15, 11, 0, 0, 0, 0, 18, 0, 23, 40, 46, 0, 0, 28, 22, 0, 21, 45, 0, 0, 49, 0, 30, 58, 36, 3, 16
|56, 46, 30, 62, 29, 26, 0, 20, 54, 0, 50, 37, 41, 60, 52, 8, 24, 0, 57, 61, 14, 25, 0, 63, 0, 40, 0, 48, 0, 27, 13, 35, 0, 0, 19, 58, 6, 32, 0, 18, 0, 0, 5, 31, 55, 36, 45, 64, 28, 3, 11, 0, 33, 15, 12, 53, 0, 47, 23, 21, 39, 44, 0, 22
|39, 0, 0, 52, 8, 34, 17, 3, 51, 19, 64, 14, 0, 22, 0, 31, 15, 37, 40, 0, 36, 44, 0, 43, 33, 0, 26, 20, 30, 32, 0, 11, 54, 12, 35, 9, 45, 27, 0, 50, 25, 56, 0, 29, 10, 49, 0, 48, 0, 0, 61, 1, 0, 0, 13, 16, 0, 24, 0, 0, 62, 28, 0, 0
|35, 0, 0, 13, 61, 1, 27, 0, 0, 7, 3, 2, 29, 0, 26, 34, 11, 9, 0, 54, 50, 46, 64, 31, 55, 12, 51, 0, 0, 62, 18, 0, 47, 14, 0, 4, 52, 49, 0, 43, 0, 19, 0, 59, 0, 0, 8, 6, 0, 63, 0, 0, 48, 37, 5, 38, 57, 16, 0, 0, 0, 20, 56, 0
|12, 53, 0, 63, 16, 0, 22, 0, 25, 0, 38, 5, 0, 27, 43, 48, 0, 2, 6, 39, 20, 59, 26, 35, 50, 61, 54, 0, 0, 0, 36, 60, 46, 15, 8, 0, 0, 0, 3, 7, 0, 0, 24, 58, 1, 28, 37, 40, 41, 0, 0, 21, 64, 52, 0, 10, 17, 55, 13, 18, 29, 42, 31, 11
|48, 40, 15, 18, 38, 55, 31, 43, 61, 32, 0, 0, 63, 47, 13, 46, 17, 0, 33, 4, 22, 53, 0, 0, 37, 0, 64, 5, 10, 16, 39, 0, 0, 59, 20, 30, 0, 21, 25, 24, 44, 35, 42, 0, 0, 7, 14, 27, 45, 0, 0, 57, 56, 0, 9, 49, 1, 3, 0, 0, 50, 58, 54, 12
|11, 28, 9, 0, 54, 33, 49, 24, 62, 0, 20, 23, 12, 35, 59, 42, 0, 34, 27, 18, 0, 7, 56, 21, 44, 46, 0, 22, 14, 0, 29, 0, 57, 0, 48, 0, 0, 51, 5, 2, 30, 13, 60, 32, 47, 0, 61, 52, 0, 31, 55, 36, 0, 0, 19, 50, 4, 63, 26, 53, 38, 0, 37, 64
|42, 57, 59, 25, 0, 21, 41, 4, 36, 44, 24, 0, 40, 0, 18, 0, 55, 8, 52, 5, 51, 0, 45, 30, 47, 23, 49, 1, 3, 0, 31, 0, 17, 0, 0, 37, 33, 28, 53, 0, 38, 50, 0, 62, 46, 12, 2, 22, 0, 0, 20, 0, 58, 26, 0, 39, 0, 35, 48, 34, 61, 0, 0, 10
|19, 51, 36, 0, 0, 47, 6, 50, 1, 39, 57, 9, 0, 30, 58, 21, 12, 13, 29, 48, 0, 62, 0, 0, 7, 56, 0, 0, 0, 25, 17, 43, 31, 60, 61, 0, 64, 0, 23, 55, 0, 0, 16, 20, 11, 53, 63, 54, 24, 59, 32, 34, 44, 2, 35, 0, 33, 5, 40, 14, 0, 46, 52, 49|];