order = 8;
grid = [|31, 42, 20, 0, 39, 59, 56, 36, 50, 0, 1, 6, 22, 0, 62, 60, 46, 0, 0, 0, 26, 0, 34, 55, 3, 0, 0, 0, 33, 38, 58, 0, 21, 54, 0, 29, 0, 0, 0, 18, 0, 43, 47, 15, 10, 7, 63, 4, 30, 19, 57, 0, 0, 28, 12, 40, 53, 0, 0, 0, 32, 0, 2, 14
|43, 11, 58, 55, 16, 0, 35, 30, 0, 33, 0, 38, 64, 57, 0, 18, 2, 37, 0, 62, 0, 0, 61, 1, 0, 5, 0, 36, 0, 9, 17, 29, 31, 4, 40, 0, 14, 23, 48, 59, 19, 50, 12, 0, 0, 25, 45, 0, 6, 56, 13, 10, 8, 63, 44, 0, 54, 20, 0, 52, 60, 42, 0, 39
|0, 24, 0, 0, 0, 22, 0, 0, 0, 27, 49, 52, 48, 20, 63, 45, 18, 4, 39, 25, 38, 0, 50, 0, 0, 10, 16, 44, 0, 31, 53, 54, 51, 56, 9, 3, 19, 30, 0, 58, 55, 28, 64, 36, 0, 0, 57, 6, 41, 0, 61, 33, 2, 0, 47, 59, 5, 46, 40, 62, 0, 0, 34, 21
|0, 0, 27, 46, 0, 18, 28, 0, 31, 0, 44, 25, 21, 8, 41, 11, 29, 53, 0, 0, 35, 0, 63, 0, 61, 56, 0, 48, 62, 12, 32, 42, 33, 2, 1, 43, 0, 45, 0, 0, 16, 0, 58, 0, 59, 9, 24, 40, 14, 0, 38, 39, 0, 36, 17, 15, 0, 22, 10, 55, 0, 7, 30, 0
|23, 15, 0, 63, 57, 61, 51, 0, 59, 34, 35, 29, 7, 0, 0, 39, 9, 42, 33, 56, 20, 12, 0, 30, 0, 55, 4, 1, 19, 41, 40, 6, 32, 0, 0, 38, 16, 0, 0, 50, 0, 48, 0, 22, 46, 54, 0, 0, 62, 0, 26, 0, 24, 0, 60, 11, 45, 17, 0, 18, 8, 28, 36, 37
|0, 0, 9, 53, 62, 25, 2, 40, 55, 30, 0, 17, 10, 0, 19, 42, 21, 31, 0, 27, 51, 0, 60, 44, 57, 63, 0, 0, 34, 50, 20, 22, 11, 0, 39, 41, 12, 0, 0, 5, 0, 26, 0, 1, 33, 0, 8, 0, 35, 64, 0, 4, 46, 16, 37, 0, 48, 29, 15, 0, 0, 59, 43, 61
|0, 49, 44, 12, 14, 19, 0, 48, 9, 53, 46, 26, 56, 40, 5, 61, 0, 43, 36, 16, 59, 0, 0, 11, 47, 60, 27, 15, 2, 18, 0, 7, 0, 0, 34, 8, 35, 28, 42, 13, 0, 0, 0, 23, 20, 29, 0, 0, 0, 1, 25, 0, 32, 55, 31, 58, 63, 50, 3, 0, 0, 24, 38, 0
|0, 5, 0, 54, 64, 38, 1, 21, 0, 12, 0, 0, 37, 13, 0, 36, 10, 6, 58, 24, 32, 40, 17, 0, 0, 0, 49, 0, 8, 0, 25, 45, 0, 15, 44, 26, 63, 57, 53, 55, 0, 14, 62, 0, 0, 0, 34, 41, 48, 0, 52, 0, 7, 51, 18, 0, 35, 0, 0, 0, 27, 56, 0, 0
|0, 22, 56, 58, 32, 53, 15, 19, 0, 0, 0, 40, 28, 0, 61, 0, 0, 36, 16, 0, 0, 0, 0, 34, 42, 62, 0, 47, 0, 26, 37, 30, 0, 12, 31, 18, 60, 0, 23, 0, 51, 44, 20, 39, 38, 57, 14, 43, 0, 17, 0, 13, 52, 21, 0, 0, 0, 0, 48, 29, 41, 0, 0, 33
|35, 18, 26, 64, 55, 0, 23, 0, 21, 0, 0, 12, 60, 0, 58, 1, 59, 19, 43, 0, 61, 48, 53, 2, 0, 0, 31, 0, 28, 4, 46, 0, 25, 11, 15, 51, 8, 41, 63, 0, 40, 0, 17, 47, 0, 56, 13, 9, 49, 0, 0, 16, 44, 10, 42, 0, 57, 0, 0, 5, 30, 0, 39, 54
|46, 54, 40, 0, 0, 17, 39, 0, 35, 63, 64, 50, 0, 56, 4, 44, 27, 0, 7, 15, 37, 57, 28, 6, 16, 13, 18, 24, 0, 0, 2, 61, 36, 26, 42, 0, 58, 38, 0, 0, 1, 0, 0, 60, 5, 0, 22, 21, 32, 20, 0, 59, 43, 8, 51, 0, 19, 53, 0, 0, 0, 10, 25, 62
|30, 41, 0, 0, 48, 45, 14, 0, 26, 18, 0, 43, 0, 15, 0, 32, 31, 10, 0, 0, 25, 51, 0, 50, 9, 22, 63, 38, 58, 17, 5, 0, 53, 57, 21, 0, 20, 0, 62, 47, 0, 55, 0, 35, 28, 19, 0, 0, 0, 23, 0, 60, 3, 1, 39, 56, 0, 61, 0, 6, 12, 16, 64, 13
|59, 37, 13, 7, 44, 62, 57, 52, 0, 0, 0, 14, 24, 25, 33, 0, 0, 49, 21, 60, 0, 0, 11, 0, 0, 39, 8, 51, 64, 36, 55, 50, 40, 1, 10, 5, 29, 56, 4, 16, 0, 63, 53, 42, 2, 18, 3, 61, 0, 46, 28, 0, 27, 0, 34, 0, 31, 0, 0, 43, 58, 0, 0, 9
|63, 0, 5, 61, 11, 0, 60, 51, 0, 17, 0, 57, 23, 37, 30, 48, 0, 35, 0, 0, 29, 9, 56, 62, 0, 19, 15, 0, 20, 44, 0, 33, 0, 39, 54, 34, 0, 13, 0, 0, 58, 59, 10, 8, 0, 16, 7, 26, 40, 0, 53, 55, 0, 64, 24, 41, 52, 27, 28, 49, 2, 18, 1, 50
|6, 0, 8, 0, 9, 31, 42, 50, 0, 36, 16, 51, 46, 52, 53, 0, 39, 0, 44, 13, 0, 26, 20, 14, 10, 0, 23, 0, 0, 0, 0, 0, 0, 28, 0, 0, 0, 37, 0, 30, 0, 0, 34, 62, 64, 4, 11, 25, 0, 0, 7, 0, 22, 0, 33, 0, 15, 21, 24, 56, 35, 47, 60, 0
|28, 0, 25, 16, 10, 2, 0, 27, 3, 0, 39, 11, 31, 59, 0, 0, 45, 32, 18, 5, 1, 17, 55, 8, 54, 40, 0, 56, 49, 60, 0, 41, 0, 61, 35, 0, 44, 64, 0, 22, 6, 0, 33, 52, 15, 0, 23, 0, 19, 0, 58, 0, 0, 57, 30, 0, 0, 51, 0, 46, 63, 26, 20, 0
|3, 0, 0, 25, 0, 13, 21, 39, 51, 10, 20, 0, 0, 16, 27, 37, 11, 0, 8, 12, 64, 0, 0, 46, 63, 0, 48, 6, 61, 0, 56, 24, 15, 49, 0, 36, 54, 29, 7, 40, 14, 23, 28, 0, 0, 47, 53, 0, 0, 42, 0, 0, 38, 33, 35, 60, 59, 0, 43, 0, 45, 31, 0, 17
|0, 16, 29, 43, 0, 0, 20, 0, 42, 22, 0, 13, 0, 1, 28, 0, 6, 0, 23, 10, 60, 0, 27, 0, 64, 30, 5, 40, 39, 21, 54, 46, 0, 17, 26, 0, 57, 0, 34, 25, 0, 58, 51, 0, 32, 33, 49, 2, 36, 0, 0, 41, 31, 0, 53, 0, 11, 48, 12, 37, 50, 8, 0, 35
|64, 50, 28, 10, 46, 14, 5, 63, 0, 43, 0, 0, 0, 17, 31, 0, 61, 22, 37, 0, 47, 33, 48, 26, 29, 49, 0, 0, 1, 0, 59, 0, 0, 20, 8, 39, 41, 53, 13, 0, 0, 0, 24, 0, 60, 40, 52, 56, 25, 44, 45, 3, 18, 0, 32, 51, 21, 58, 19, 0, 9, 0, 16, 2
|34, 9, 19, 27, 0, 56, 0, 0, 4, 24, 41, 60, 29, 47, 64, 0, 49, 0, 0, 31, 44, 53, 38, 28, 52, 2, 36, 0, 14, 32, 57, 35, 16, 51, 0, 0, 0, 0, 1, 0, 37, 61, 63, 0, 62, 0, 59, 54, 12, 11, 21, 17, 55, 39, 0, 0, 42, 0, 0, 3, 40, 0, 5, 23
|54, 53, 0, 0, 36, 40, 0, 60, 48, 0, 0, 32, 0, 55, 14, 8, 43, 0, 5, 21, 50, 16, 18, 0, 0, 37, 17, 0, 11, 0, 0, 31, 63, 0, 3, 2, 24, 62, 61, 0, 15, 10, 1, 7, 39, 30, 12, 35, 29, 58, 19, 20, 47, 0, 0, 46, 27, 4, 41, 0, 34, 13, 51, 64
|37, 32, 48, 2, 0, 57, 41, 8, 0, 26, 59, 63, 58, 46, 54, 0, 3, 7, 0, 35, 36, 0, 15, 0, 12, 0, 9, 0, 0, 51, 43, 0, 22, 31, 0, 0, 0, 0, 0, 42, 45, 13, 21, 4, 17, 6, 29, 0, 0, 40, 16, 64, 28, 49, 1, 14, 56, 39, 18, 38, 0, 61, 62, 0
|0, 17, 0, 0, 0, 12, 59, 0, 0, 61, 5, 0, 0, 36, 6, 52, 1, 29, 0, 2, 30, 0, 9, 0, 45, 41, 26, 0, 16, 8, 62, 47, 0, 19, 58, 21, 0, 14, 37, 56, 0, 0, 25, 31, 43, 0, 64, 20, 10, 0, 48, 23, 15, 34, 54, 57, 60, 63, 49, 33, 0, 0, 0, 0
|0, 0, 30, 24, 61, 0, 31, 0, 57, 49, 40, 35, 3, 45, 44, 0, 56, 20, 17, 54, 14, 0, 0, 51, 0, 0, 0, 0, 25, 13, 28, 4, 60, 23, 0, 59, 0, 0, 64, 10, 0, 16, 9, 0, 36, 0, 0, 0, 63, 0, 0, 43, 50, 37, 2, 7, 1, 32, 52, 47, 0, 46, 0, 0
|26, 62, 64, 59, 0, 32, 33, 0, 36, 0, 0, 45, 12, 2, 0, 53, 34, 38, 50, 44, 43, 1, 16, 18, 7, 14, 0, 0, 4, 3, 0, 0, 0, 0, 29, 0, 0, 52, 21, 9, 0, 24, 61, 57, 0, 27, 5, 55, 0, 0, 47, 0, 0, 0, 20, 49, 10, 35, 30, 28, 54, 0, 17, 60
|8, 2, 0, 23, 60, 6, 0, 31, 0, 9, 58, 39, 1, 14, 0, 28, 32, 0, 57, 11, 42, 15, 0, 0, 18, 0, 22, 41, 55, 61, 24, 5, 43, 47, 16, 0, 0, 19, 0, 62, 21, 64, 29, 0, 45, 53, 50, 30, 46, 10, 36, 0, 0, 44, 40, 13, 7, 49, 63, 0, 0, 38, 37, 20
|0, 0, 57, 1, 51, 44, 0, 15, 0, 0, 24, 20, 40, 7, 0, 0, 35, 60, 22, 26, 6, 0, 39, 9, 17, 0, 13, 21, 42, 0, 0, 0, 30, 0, 12, 11, 31, 59, 0, 23, 0, 0, 38, 34, 0, 3, 41, 19, 54, 63, 33, 0, 56, 0, 4, 25, 0, 5, 0, 0, 61, 64, 58, 0
|45, 0, 36, 13, 0, 28, 50, 61, 0, 57, 51, 0, 42, 63, 35, 38, 8, 33, 0, 41, 4, 0, 0, 59, 39, 53, 58, 31, 48, 6, 60, 0, 54, 40, 18, 0, 5, 7, 44, 34, 26, 62, 0, 0, 14, 0, 20, 10, 16, 12, 0, 0, 23, 0, 0, 21, 2, 0, 0, 0, 47, 43, 15, 1
|0, 0, 55, 34, 58, 3, 25, 18, 61, 15, 29, 4, 0, 0, 50, 17, 0, 12, 0, 53, 0, 19, 21, 37, 36, 46, 1, 11, 40, 0, 0, 26, 64, 38, 63, 0, 0, 32, 22, 0, 23, 35, 60, 43, 0, 13, 56, 0, 5, 0, 0, 51, 59, 7, 27, 62, 6, 41, 0, 24, 0, 0, 31, 44
|38, 63, 0, 9, 0, 27, 12, 11, 54, 3, 43, 0, 0, 32, 0, 55, 28, 5, 56, 48, 46, 0, 0, 61, 49, 29, 47, 64, 59, 62, 10, 44, 0, 58, 0, 14, 53, 0, 0, 15, 42, 7, 0, 2, 4, 37, 0, 52, 0, 0, 0, 34, 0, 35, 0, 0, 50, 45, 8, 39, 51, 0, 21, 0
|0, 48, 46, 14, 21, 4, 30, 43, 37, 60, 0, 62, 0, 0, 0, 0, 24, 0, 0, 17, 55, 31, 40, 7, 0, 54, 20, 0, 12, 0, 35, 57, 41, 0, 6, 61, 0, 3, 39, 0, 63, 1, 16, 32, 47, 44, 9, 58, 53, 0, 0, 15, 42, 0, 64, 45, 29, 0, 0, 59, 0, 36, 18, 27
|39, 19, 24, 49, 35, 52, 16, 0, 0, 21, 6, 5, 0, 11, 18, 64, 63, 14, 10, 20, 23, 47, 62, 58, 8, 38, 0, 2, 27, 25, 0, 34, 45, 37, 46, 0, 0, 0, 33, 26, 59, 31, 40, 54, 0, 0, 28, 0, 61, 29, 55, 0, 0, 43, 50, 32, 4, 42, 22, 0, 53, 9, 13, 0
|0, 0, 39, 41, 26, 21, 0, 44, 34, 5, 32, 0, 43, 35, 40, 46, 0, 0, 4, 42, 0, 36, 0, 53, 55, 59, 50, 8, 0, 28, 31, 64, 23, 0, 0, 12, 22, 0, 3, 63, 9, 0, 13, 30, 37, 0, 17, 24, 47, 14, 49, 54, 0, 61, 29, 0, 0, 15, 6, 1, 20, 0, 56, 11
|17, 64, 0, 0, 1, 24, 55, 62, 0, 2, 9, 37, 20, 19, 52, 0, 0, 0, 32, 28, 34, 58, 10, 43, 22, 27, 45, 12, 0, 56, 14, 36, 48, 29, 50, 0, 7, 4, 0, 0, 60, 33, 8, 0, 57, 51, 44, 49, 42, 25, 6, 11, 5, 41, 59, 31, 18, 13, 26, 40, 21, 35, 53, 47
|49, 45, 53, 22, 15, 34, 11, 59, 62, 29, 57, 0, 0, 4, 38, 3, 14, 61, 24, 40, 9, 46, 30, 63, 13, 47, 0, 52, 41, 42, 0, 37, 18, 0, 0, 33, 0, 10, 0, 21, 0, 19, 0, 6, 23, 1, 35, 0, 0, 55, 64, 44, 12, 17, 58, 26, 36, 0, 0, 0, 0, 25, 0, 5
|9, 47, 14, 18, 2, 37, 29, 20, 0, 59, 0, 21, 13, 44, 25, 0, 50, 0, 26, 7, 0, 22, 0, 0, 0, 24, 0, 0, 0, 43, 3, 0, 5, 34, 41, 0, 6, 55, 15, 45, 11, 39, 31, 56, 0, 0, 40, 48, 27, 0, 23, 36, 30, 4, 52, 35, 46, 0, 38, 0, 64, 49, 33, 28
|12, 0, 51, 0, 0, 0, 40, 35, 18, 7, 0, 61, 45, 26, 15, 33, 0, 0, 2, 49, 0, 25, 1, 0, 4, 6, 0, 0, 0, 53, 34, 39, 0, 32, 0, 0, 0, 31, 47, 64, 50, 21, 0, 0, 63, 52, 16, 28, 0, 24, 46, 22, 13, 60, 8, 19, 55, 14, 59, 17, 23, 57, 10, 41
|57, 28, 33, 60, 56, 0, 38, 0, 0, 50, 0, 49, 8, 0, 55, 51, 44, 64, 0, 29, 31, 59, 0, 54, 0, 0, 30, 35, 0, 0, 0, 16, 17, 36, 13, 1, 0, 26, 46, 19, 47, 0, 0, 20, 12, 0, 61, 42, 43, 3, 0, 0, 34, 32, 0, 0, 24, 2, 0, 45, 48, 27, 9, 22
|36, 25, 6, 30, 63, 50, 13, 0, 22, 0, 60, 31, 0, 0, 12, 0, 55, 8, 0, 23, 62, 0, 0, 15, 5, 33, 46, 18, 51, 0, 49, 19, 44, 53, 24, 52, 11, 40, 28, 37, 38, 2, 0, 64, 58, 26, 4, 14, 0, 9, 0, 56, 0, 20, 0, 10, 34, 3, 61, 54, 7, 32, 29, 43
|0, 0, 61, 32, 0, 48, 46, 0, 6, 1, 23, 58, 0, 0, 0, 0, 17, 3, 0, 47, 21, 20, 13, 5, 0, 11, 2, 0, 10, 0, 0, 9, 59, 35, 49, 25, 43, 16, 0, 0, 41, 36, 0, 53, 55, 45, 18, 34, 28, 39, 40, 0, 33, 0, 0, 0, 0, 0, 4, 0, 19, 62, 42, 0
|14, 8, 0, 0, 47, 42, 61, 53, 0, 28, 27, 0, 0, 0, 0, 0, 62, 45, 64, 18, 40, 3, 51, 39, 60, 58, 10, 32, 30, 11, 4, 21, 12, 63, 56, 31, 15, 0, 52, 36, 34, 0, 46, 0, 0, 0, 37, 38, 55, 0, 0, 0, 0, 0, 0, 22, 0, 0, 0, 0, 0, 0, 59, 0
|0, 20, 60, 21, 4, 64, 62, 55, 19, 38, 0, 24, 53, 10, 29, 26, 0, 0, 0, 0, 0, 52, 14, 31, 48, 34, 57, 50, 45, 47, 44, 56, 0, 46, 59, 0, 0, 0, 18, 1, 3, 0, 7, 33, 0, 61, 25, 0, 8, 15, 0, 0, 11, 0, 13, 42, 39, 36, 0, 35, 5, 0, 23, 16
|0, 0, 16, 39, 25, 0, 0, 29, 49, 0, 30, 44, 59, 12, 42, 31, 15, 46, 6, 0, 0, 60, 23, 0, 1, 51, 28, 43, 0, 0, 52, 53, 2, 8, 14, 47, 50, 22, 11, 38, 13, 0, 0, 0, 48, 55, 26, 0, 56, 35, 4, 57, 36, 0, 0, 0, 3, 9, 0, 27, 62, 34, 61, 0
|41, 59, 31, 19, 28, 23, 0, 9, 17, 0, 0, 46, 35, 0, 36, 4, 0, 2, 29, 43, 27, 61, 0, 13, 40, 0, 33, 54, 0, 64, 16, 3, 6, 5, 55, 0, 0, 20, 0, 60, 0, 51, 56, 0, 21, 0, 15, 57, 34, 7, 30, 0, 53, 0, 38, 0, 0, 1, 58, 42, 10, 11, 49, 0
|15, 13, 2, 57, 33, 35, 52, 5, 23, 25, 0, 9, 0, 61, 22, 14, 53, 26, 20, 0, 28, 34, 49, 21, 24, 31, 41, 19, 0, 0, 0, 63, 27, 10, 64, 16, 48, 0, 29, 0, 0, 40, 39, 45, 1, 8, 60, 11, 0, 59, 0, 6, 0, 12, 46, 43, 51, 47, 0, 0, 56, 17, 4, 18
|11, 0, 0, 0, 0, 0, 0, 45, 0, 0, 55, 0, 57, 21, 56, 58, 5, 1, 0, 0, 7, 44, 37, 10, 2, 36, 29, 17, 0, 15, 6, 49, 19, 25, 51, 0, 23, 54, 41, 39, 52, 18, 0, 59, 0, 28, 30, 0, 0, 0, 0, 27, 61, 62, 0, 33, 0, 60, 31, 0, 43, 0, 12, 8
|10, 51, 50, 36, 3, 0, 18, 0, 32, 39, 0, 41, 11, 0, 20, 15, 0, 16, 55, 38, 54, 42, 8, 19, 27, 0, 0, 62, 23, 35, 13, 0, 0, 44, 17, 30, 61, 0, 0, 57, 43, 29, 0, 14, 24, 2, 0, 47, 45, 26, 37, 0, 0, 0, 5, 1, 22, 0, 0, 53, 46, 0, 40, 63
|27, 0, 12, 0, 54, 0, 0, 6, 8, 51, 0, 0, 0, 18, 45, 2, 41, 0, 11, 0, 63, 0, 59, 0, 46, 0, 0, 0, 0, 39, 0, 14, 62, 0, 4, 13, 0, 0, 58, 33, 31, 53, 0, 9, 0, 35, 0, 0, 0, 0, 10, 47, 0, 19, 28, 29, 32, 0, 64, 7, 37, 0, 0, 15
|20, 0, 0, 11, 7, 9, 63, 64, 16, 41, 19, 33, 39, 38, 0, 35, 60, 34, 54, 1, 18, 37, 0, 42, 56, 44, 0, 0, 0, 24, 15, 40, 26, 0, 23, 32, 52, 0, 5, 48, 61, 22, 50, 58, 0, 31, 0, 0, 17, 28, 27, 46, 0, 47, 0, 4, 62, 6, 55, 8, 0, 14, 3, 0
|47, 39, 37, 0, 27, 0, 3, 46, 64, 55, 0, 8, 52, 34, 0, 63, 0, 21, 0, 0, 0, 23, 32, 36, 41, 42, 7, 0, 54, 22, 26, 20, 56, 43, 19, 40, 13, 18, 59, 0, 0, 60, 0, 44, 9, 0, 48, 33, 1, 31, 15, 61, 0, 2, 11, 0, 17, 10, 5, 0, 0, 0, 28, 25
|25, 44, 0, 0, 31, 16, 48, 14, 30, 20, 26, 15, 51, 29, 2, 24, 33, 0, 63, 0, 0, 49, 12, 40, 6, 4, 62, 9, 60, 5, 64, 0, 0, 3, 37, 46, 28, 0, 10, 0, 0, 47, 54, 55, 56, 36, 32, 1, 57, 8, 0, 0, 0, 42, 0, 38, 0, 7, 23, 61, 0, 0, 0, 59
|0, 61, 52, 33, 13, 36, 6, 0, 0, 0, 0, 42, 32, 0, 21, 9, 57, 56, 46, 64, 8, 10, 26, 0, 59, 23, 35, 27, 3, 2, 51, 28, 20, 16, 60, 49, 4, 44, 50, 17, 7, 41, 14, 37, 30, 15, 43, 62, 58, 5, 12, 40, 48, 0, 55, 0, 47, 54, 1, 0, 39, 0, 45, 34
|0, 4, 62, 17, 0, 60, 53, 0, 1, 6, 61, 56, 0, 0, 47, 40, 19, 24, 0, 55, 11, 35, 22, 20, 0, 50, 25, 46, 52, 10, 8, 0, 14, 33, 30, 64, 9, 36, 54, 0, 0, 3, 45, 16, 34, 39, 0, 63, 0, 51, 32, 0, 0, 0, 7, 44, 43, 12, 27, 31, 13, 37, 0, 0
|51, 0, 10, 8, 0, 1, 0, 0, 7, 37, 50, 3, 36, 0, 46, 0, 25, 17, 14, 61, 0, 0, 0, 0, 0, 0, 0, 16, 31, 0, 0, 58, 47, 0, 27, 62, 0, 15, 57, 35, 2, 20, 0, 0, 26, 21, 0, 29, 23, 54, 0, 9, 0, 0, 0, 52, 64, 0, 42, 0, 22, 33, 11, 0
|2, 40, 41, 28, 5, 55, 19, 32, 12, 0, 53, 54, 44, 48, 60, 59, 30, 47, 0, 3, 0, 50, 4, 38, 37, 61, 34, 0, 43, 29, 0, 13, 42, 6, 0, 0, 1, 0, 51, 0, 0, 0, 23, 18, 52, 0, 0, 46, 0, 45, 20, 0, 0, 25, 14, 36, 26, 56, 0, 16, 15, 21, 0, 49
|24, 58, 15, 0, 42, 54, 0, 23, 43, 4, 17, 0, 14, 0, 0, 22, 7, 9, 0, 0, 0, 28, 52, 48, 0, 1, 19, 55, 47, 45, 36, 11, 34, 41, 53, 63, 21, 61, 31, 0, 64, 12, 57, 0, 13, 5, 38, 8, 33, 37, 39, 18, 0, 50, 49, 3, 0, 0, 60, 2, 0, 30, 0, 46
|13, 35, 18, 5, 6, 33, 44, 0, 0, 48, 21, 59, 61, 0, 34, 0, 0, 0, 27, 46, 0, 38, 31, 0, 20, 0, 0, 39, 22, 19, 45, 0, 29, 0, 36, 0, 62, 63, 26, 54, 12, 0, 55, 28, 40, 43, 0, 16, 7, 0, 17, 49, 4, 14, 10, 0, 30, 11, 32, 23, 24, 50, 41, 52
|56, 0, 59, 20, 0, 0, 0, 22, 29, 14, 13, 64, 33, 5, 0, 0, 0, 0, 61, 37, 10, 18, 57, 16, 31, 17, 0, 0, 53, 54, 47, 8, 0, 9, 0, 19, 25, 48, 0, 46, 30, 0, 0, 0, 0, 49, 0, 0, 26, 0, 42, 63, 0, 11, 41, 12, 0, 43, 0, 15, 6, 0, 27, 45
|48, 46, 63, 62, 53, 47, 0, 17, 38, 31, 2, 10, 19, 0, 0, 41, 23, 0, 34, 39, 22, 21, 43, 0, 0, 9, 0, 26, 35, 49, 61, 51, 52, 59, 5, 0, 32, 6, 56, 44, 33, 57, 15, 11, 27, 58, 0, 0, 0, 18, 0, 0, 40, 24, 45, 55, 0, 64, 7, 4, 0, 3, 54, 0
|21, 43, 11, 0, 30, 26, 58, 2, 45, 35, 8, 7, 0, 0, 0, 57, 40, 0, 53, 9, 19, 6, 5, 60, 23, 64, 44, 0, 24, 52, 33, 0, 13, 18, 38, 10, 3, 0, 0, 31, 20, 56, 36, 17, 0, 14, 62, 0, 51, 16, 0, 25, 1, 0, 61, 28, 49, 34, 0, 22, 59, 39, 47, 48
|61, 0, 49, 0, 29, 8, 9, 28, 60, 0, 12, 22, 63, 0, 11, 23, 26, 0, 0, 14, 0, 32, 0, 0, 0, 7, 42, 0, 13, 27, 1, 10, 4, 0, 43, 0, 45, 0, 16, 41, 46, 38, 18, 0, 25, 0, 39, 31, 52, 34, 2, 58, 20, 0, 6, 5, 37, 62, 0, 21, 0, 19, 44, 36
|16, 0, 0, 52, 0, 0, 0, 3, 28, 44, 47, 36, 4, 6, 1, 20, 13, 41, 48, 50, 2, 8, 7, 49, 0, 32, 0, 0, 63, 58, 29, 0, 37, 14, 0, 0, 55, 11, 17, 0, 0, 34, 35, 21, 61, 59, 0, 0, 0, 22, 56, 38, 0, 23, 0, 27, 0, 26, 51, 60, 31, 0, 46, 0
|50, 0, 0, 0, 41, 0, 0, 0, 0, 32, 15, 55, 0, 53, 0, 43, 0, 0, 0, 58, 52, 0, 24, 64, 0, 21, 40, 60, 56, 46, 11, 12, 57, 22, 47, 35, 0, 39, 49, 0, 29, 6, 48, 5, 42, 0, 19, 13, 44, 33, 0, 0, 37, 0, 0, 9, 61, 18, 16, 10, 17, 0, 0, 38
|55, 60, 32, 0, 34, 39, 27, 37, 46, 40, 0, 0, 49, 24, 17, 0, 42, 0, 12, 59, 0, 11, 29, 4, 38, 16, 6, 5, 36, 48, 41, 0, 0, 21, 28, 23, 0, 1, 2, 0, 22, 9, 26, 0, 7, 63, 10, 0, 13, 0, 0, 19, 35, 30, 15, 50, 33, 57, 25, 20, 0, 0, 8, 56|];