order = 8;
grid = [|26, 58, 2, 49, 56, 19, 46, 0, 11, 42, 0, 44, 41, 6, 35, 47, 45, 21, 20, 34, 53, 0, 0, 27, 62, 0, 15, 54, 18, 0, 13, 10, 57, 0, 5, 63, 50, 39, 36, 9, 0, 7, 0, 38, 0, 23, 33, 29, 25, 31, 22, 0, 37, 1, 0, 0, 0, 64, 0, 0, 40, 52, 48, 0
|60, 12, 57, 3, 0, 17, 0, 52, 64, 0, 59, 55, 0, 0, 20, 23, 1, 13, 0, 0, 0, 0, 58, 41, 31, 51, 34, 2, 40, 46, 63, 6, 0, 47, 21, 48, 24, 19, 0, 0, 0, 62, 44, 0, 5, 36, 28, 10, 0, 0, 38, 39, 29, 45, 0, 43, 0, 0, 4, 61, 18, 35, 14, 26
|16, 0, 32, 25, 43, 0, 5, 33, 50, 39, 53, 63, 0, 61, 36, 40, 0, 9, 51, 64, 0, 0, 0, 19, 0, 48, 49, 57, 7, 0, 21, 0, 0, 29, 0, 6, 59, 34, 4, 54, 0, 56, 3, 0, 27, 0, 58, 1, 35, 23, 2, 14, 0, 0, 17, 47, 10, 0, 0, 13, 0, 62, 41, 30
|59, 62, 64, 0, 27, 0, 36, 14, 57, 5, 43, 0, 51, 1, 33, 21, 16, 12, 61, 3, 0, 18, 32, 10, 25, 22, 41, 60, 23, 52, 11, 17, 35, 0, 0, 0, 0, 0, 30, 20, 47, 40, 63, 42, 4, 26, 0, 2, 53, 15, 6, 19, 0, 0, 0, 54, 7, 0, 37, 45, 0, 0, 0, 29
|0, 45, 0, 7, 10, 0, 0, 15, 60, 0, 0, 25, 0, 18, 22, 26, 63, 44, 46, 24, 31, 38, 57, 29, 0, 0, 0, 0, 0, 55, 0, 56, 0, 17, 8, 49, 28, 0, 2, 62, 0, 35, 51, 0, 0, 39, 0, 37, 36, 48, 0, 40, 0, 9, 13, 4, 42, 21, 32, 1, 0, 0, 54, 27
|30, 0, 31, 50, 41, 0, 0, 4, 0, 58, 2, 34, 0, 45, 0, 32, 36, 0, 0, 8, 33, 55, 35, 6, 0, 38, 19, 14, 5, 1, 0, 59, 23, 26, 0, 10, 0, 0, 0, 0, 46, 0, 57, 12, 9, 43, 48, 13, 0, 28, 20, 0, 62, 0, 21, 7, 63, 44, 51, 53, 3, 56, 49, 11
|9, 48, 0, 63, 13, 0, 0, 39, 12, 31, 0, 7, 0, 49, 0, 28, 15, 50, 62, 47, 0, 0, 4, 43, 0, 8, 36, 26, 35, 61, 30, 24, 0, 51, 0, 0, 0, 33, 37, 44, 20, 0, 0, 14, 45, 60, 0, 0, 0, 46, 56, 0, 3, 0, 27, 64, 2, 55, 23, 58, 0, 6, 0, 17
|24, 51, 35, 42, 0, 47, 0, 1, 62, 8, 56, 13, 29, 52, 30, 0, 48, 0, 2, 40, 0, 5, 14, 37, 0, 0, 0, 53, 0, 64, 44, 9, 0, 43, 18, 60, 0, 25, 12, 45, 0, 59, 49, 17, 0, 21, 0, 16, 0, 41, 58, 26, 34, 50, 63, 61, 20, 31, 0, 0, 28, 0, 19, 0
|0, 0, 39, 0, 21, 13, 0, 6, 32, 61, 55, 0, 0, 0, 4, 58, 0, 56, 10, 37, 50, 0, 0, 42, 63, 40, 44, 0, 57, 60, 24, 12, 25, 0, 0, 0, 52, 17, 31, 30, 5, 0, 29, 19, 23, 0, 1, 62, 11, 14, 0, 51, 7, 36, 3, 0, 0, 28, 45, 46, 27, 0, 0, 16
|0, 52, 42, 0, 16, 38, 0, 25, 44, 35, 20, 0, 0, 29, 34, 7, 8, 31, 63, 0, 13, 2, 11, 17, 23, 36, 50, 30, 22, 27, 3, 1, 19, 0, 57, 0, 15, 46, 58, 64, 6, 47, 59, 40, 0, 41, 43, 32, 60, 33, 28, 62, 0, 61, 53, 56, 9, 5, 21, 26, 51, 14, 37, 0
|0, 64, 0, 0, 33, 1, 7, 0, 8, 63, 0, 0, 0, 0, 38, 56, 24, 62, 53, 4, 34, 0, 43, 0, 46, 0, 10, 17, 0, 49, 58, 37, 48, 50, 59, 16, 51, 0, 28, 12, 15, 30, 45, 0, 55, 25, 26, 42, 57, 18, 21, 0, 39, 0, 32, 23, 44, 0, 0, 6, 13, 2, 0, 41
|5, 43, 0, 29, 0, 59, 0, 0, 0, 0, 0, 0, 14, 0, 41, 19, 51, 47, 26, 0, 0, 0, 45, 16, 4, 0, 56, 11, 2, 34, 52, 55, 37, 0, 0, 20, 63, 42, 1, 0, 61, 0, 13, 57, 0, 17, 49, 35, 0, 9, 0, 0, 0, 0, 25, 38, 60, 0, 10, 15, 0, 8, 0, 58
|0, 41, 50, 0, 55, 0, 31, 0, 30, 0, 33, 21, 11, 22, 16, 48, 49, 0, 0, 46, 0, 1, 15, 57, 14, 62, 13, 59, 47, 42, 29, 39, 0, 61, 9, 2, 0, 3, 5, 38, 0, 54, 4, 7, 51, 0, 63, 34, 0, 58, 0, 45, 10, 37, 0, 0, 0, 53, 19, 18, 24, 0, 0, 32
|0, 53, 24, 0, 0, 49, 57, 0, 6, 0, 18, 15, 0, 10, 0, 43, 59, 33, 22, 52, 0, 0, 60, 64, 0, 21, 35, 41, 32, 8, 7, 61, 39, 0, 23, 0, 13, 26, 0, 47, 50, 0, 11, 3, 48, 0, 9, 28, 40, 27, 44, 55, 4, 54, 0, 0, 0, 38, 0, 0, 17, 25, 56, 1
|0, 0, 27, 0, 40, 35, 28, 56, 0, 0, 0, 47, 64, 0, 1, 0, 0, 0, 41, 0, 0, 61, 23, 7, 19, 26, 5, 33, 25, 6, 20, 48, 18, 0, 0, 22, 0, 0, 43, 0, 37, 52, 0, 16, 36, 10, 0, 0, 0, 63, 24, 0, 0, 0, 42, 15, 0, 0, 0, 39, 34, 54, 0, 59
|46, 0, 58, 37, 4, 0, 9, 34, 3, 57, 0, 39, 52, 0, 0, 62, 19, 40, 54, 27, 6, 25, 36, 48, 28, 31, 64, 18, 15, 0, 45, 38, 0, 56, 0, 33, 10, 35, 0, 32, 8, 0, 53, 0, 22, 14, 0, 60, 5, 0, 41, 0, 43, 47, 1, 16, 55, 12, 0, 63, 50, 11, 23, 0
|0, 13, 0, 0, 18, 0, 0, 35, 26, 56, 0, 33, 17, 51, 21, 0, 30, 3, 0, 0, 23, 6, 25, 52, 0, 15, 58, 0, 0, 2, 0, 47, 9, 42, 49, 39, 20, 61, 55, 0, 24, 45, 0, 41, 0, 1, 38, 48, 12, 0, 8, 0, 5, 62, 7, 50, 14, 27, 28, 19, 0, 0, 0, 10
|58, 0, 51, 44, 0, 8, 50, 55, 43, 7, 13, 2, 28, 40, 23, 30, 60, 29, 4, 0, 42, 0, 0, 5, 45, 0, 61, 1, 39, 41, 12, 0, 26, 0, 17, 14, 0, 59, 52, 0, 21, 31, 0, 37, 0, 20, 62, 57, 9, 24, 32, 0, 48, 16, 0, 0, 11, 36, 63, 0, 15, 22, 35, 3
|36, 0, 5, 0, 24, 52, 0, 0, 0, 62, 35, 50, 18, 0, 0, 0, 40, 45, 43, 0, 14, 26, 0, 0, 27, 0, 8, 34, 10, 0, 49, 33, 16, 0, 25, 0, 21, 0, 51, 0, 60, 0, 17, 0, 2, 0, 3, 0, 13, 20, 57, 0, 22, 42, 39, 41, 0, 0, 0, 0, 0, 64, 61, 38
|0, 38, 48, 0, 12, 34, 41, 0, 52, 0, 16, 9, 1, 0, 57, 0, 0, 49, 24, 35, 0, 13, 28, 61, 0, 6, 55, 62, 51, 20, 0, 64, 2, 0, 0, 8, 7, 5, 0, 29, 42, 19, 0, 0, 0, 0, 25, 0, 31, 26, 0, 0, 40, 63, 56, 0, 58, 0, 18, 32, 0, 47, 60, 45
|56, 33, 15, 16, 29, 0, 0, 7, 36, 47, 49, 0, 53, 0, 32, 41, 54, 39, 11, 19, 12, 0, 22, 0, 50, 37, 63, 48, 43, 0, 14, 0, 10, 38, 45, 0, 34, 62, 13, 57, 44, 51, 52, 28, 26, 0, 6, 0, 58, 64, 30, 0, 0, 55, 0, 0, 0, 2, 9, 25, 0, 31, 1, 8
|45, 21, 28, 62, 32, 64, 17, 11, 19, 34, 61, 5, 48, 42, 0, 15, 0, 7, 38, 2, 27, 0, 33, 9, 0, 29, 57, 31, 52, 16, 0, 3, 43, 37, 0, 50, 23, 0, 63, 41, 49, 0, 14, 36, 12, 40, 18, 22, 1, 6, 35, 0, 60, 51, 46, 10, 0, 54, 0, 0, 26, 30, 0, 55
|2, 0, 61, 31, 20, 63, 25, 0, 38, 10, 0, 37, 45, 44, 6, 39, 58, 16, 1, 56, 8, 53, 51, 0, 0, 42, 30, 21, 4, 13, 9, 7, 36, 0, 40, 18, 64, 11, 48, 0, 55, 15, 35, 59, 46, 0, 32, 47, 0, 0, 0, 3, 14, 52, 0, 0, 0, 43, 62, 0, 57, 0, 0, 24
|0, 37, 26, 39, 9, 14, 0, 57, 59, 0, 29, 4, 25, 58, 27, 64, 50, 0, 0, 17, 48, 36, 62, 55, 18, 24, 0, 40, 46, 0, 0, 0, 54, 1, 0, 35, 0, 30, 53, 3, 10, 5, 61, 0, 8, 7, 56, 63, 43, 34, 49, 11, 2, 15, 44, 45, 51, 6, 20, 23, 33, 0, 0, 52
|39, 25, 0, 52, 0, 9, 14, 13, 0, 0, 0, 0, 32, 43, 0, 51, 7, 36, 0, 0, 4, 33, 0, 20, 0, 0, 22, 0, 0, 47, 46, 62, 49, 0, 56, 0, 31, 63, 0, 5, 59, 0, 0, 53, 54, 24, 15, 50, 0, 0, 16, 1, 27, 29, 0, 8, 0, 11, 35, 3, 44, 26, 0, 28
|0, 20, 3, 6, 0, 18, 0, 26, 33, 37, 38, 23, 0, 48, 19, 4, 32, 25, 0, 0, 54, 30, 0, 44, 0, 0, 0, 52, 0, 63, 0, 0, 50, 58, 0, 57, 1, 7, 62, 11, 39, 0, 12, 0, 10, 16, 51, 0, 34, 0, 0, 43, 28, 0, 0, 0, 15, 60, 14, 9, 0, 0, 47, 49
|0, 0, 12, 40, 42, 48, 2, 63, 56, 53, 62, 0, 61, 28, 0, 34, 52, 22, 0, 31, 35, 49, 0, 0, 0, 0, 51, 24, 9, 32, 1, 54, 4, 59, 30, 46, 39, 0, 0, 0, 41, 0, 58, 11, 0, 13, 19, 0, 0, 7, 0, 20, 45, 44, 0, 36, 33, 25, 6, 16, 38, 50, 29, 0
|4, 0, 23, 28, 36, 7, 53, 0, 0, 0, 0, 20, 0, 25, 50, 0, 0, 11, 0, 62, 64, 0, 17, 26, 3, 0, 48, 0, 58, 14, 61, 0, 32, 0, 43, 0, 41, 0, 40, 2, 18, 60, 0, 33, 0, 47, 5, 38, 15, 0, 0, 30, 35, 10, 0, 49, 19, 0, 0, 0, 8, 24, 0, 34
|32, 59, 60, 0, 17, 27, 44, 30, 54, 0, 0, 10, 0, 0, 0, 0, 0, 0, 50, 29, 0, 24, 12, 0, 0, 2, 0, 64, 0, 53, 0, 0, 0, 8, 0, 0, 3, 0, 15, 6, 43, 0, 0, 61, 0, 0, 45, 9, 62, 57, 40, 38, 63, 0, 0, 42, 5, 52, 1, 0, 0, 0, 0, 18
|0, 35, 56, 0, 49, 54, 1, 0, 16, 52, 57, 0, 60, 0, 59, 55, 10, 0, 34, 51, 2, 14, 37, 58, 8, 0, 31, 50, 21, 23, 28, 15, 0, 25, 61, 29, 0, 53, 0, 42, 0, 0, 62, 0, 0, 44, 36, 0, 19, 39, 5, 0, 0, 0, 6, 17, 48, 20, 30, 22, 0, 0, 12, 13
|50, 24, 38, 34, 0, 5, 19, 0, 13, 26, 47, 0, 63, 30, 0, 0, 55, 53, 57, 61, 0, 0, 0, 56, 7, 45, 42, 6, 59, 44, 25, 16, 0, 0, 48, 0, 36, 12, 35, 27, 0, 4, 8, 49, 0, 0, 31, 0, 3, 60, 37, 18, 32, 33, 2, 58, 0, 0, 17, 0, 0, 0, 0, 0
|0, 8, 10, 0, 15, 37, 62, 29, 27, 41, 0, 1, 0, 0, 0, 35, 9, 19, 0, 0, 47, 40, 63, 0, 12, 60, 0, 0, 20, 0, 0, 0, 0, 22, 13, 17, 16, 0, 0, 0, 0, 34, 0, 2, 7, 42, 30, 6, 0, 0, 0, 50, 55, 0, 26, 25, 61, 46, 59, 31, 53, 0, 32, 36
|0, 0, 13, 55, 0, 24, 12, 32, 0, 0, 0, 14, 62, 60, 25, 0, 31, 0, 0, 0, 0, 27, 0, 0, 49, 0, 18, 39, 34, 0, 48, 8, 38, 0, 10, 5, 0, 2, 0, 4, 17, 0, 0, 15, 19, 0, 7, 45, 0, 0, 0, 42, 1, 11, 22, 28, 46, 0, 0, 64, 23, 59, 57, 20
|0, 0, 19, 0, 39, 58, 27, 38, 0, 44, 12, 51, 54, 37, 0, 13, 43, 0, 56, 0, 45, 10, 50, 36, 0, 1, 0, 22, 64, 0, 55, 14, 41, 9, 0, 25, 35, 28, 0, 17, 48, 3, 0, 31, 0, 6, 57, 4, 2, 61, 26, 0, 16, 21, 47, 46, 0, 18, 11, 8, 32, 49, 30, 0
|63, 0, 7, 0, 25, 0, 33, 50, 5, 4, 0, 46, 0, 56, 29, 8, 44, 0, 0, 16, 18, 35, 21, 38, 37, 59, 20, 0, 3, 26, 42, 40, 60, 32, 51, 55, 47, 48, 34, 0, 12, 28, 2, 0, 0, 61, 39, 0, 0, 0, 14, 10, 0, 0, 49, 0, 13, 41, 53, 52, 6, 0, 17, 54
|49, 0, 20, 0, 61, 4, 26, 44, 0, 30, 58, 0, 21, 23, 0, 0, 0, 0, 47, 28, 0, 48, 2, 0, 0, 5, 0, 51, 19, 0, 0, 0, 0, 46, 31, 0, 29, 6, 0, 59, 36, 27, 40, 25, 32, 0, 37, 0, 8, 17, 7, 53, 0, 34, 0, 63, 0, 0, 0, 35, 39, 55, 0, 50
|28, 15, 62, 11, 35, 30, 16, 51, 24, 1, 0, 32, 2, 0, 26, 0, 17, 42, 0, 22, 49, 0, 19, 39, 61, 7, 43, 0, 13, 9, 0, 50, 45, 53, 37, 54, 0, 0, 20, 36, 29, 0, 18, 56, 0, 63, 0, 64, 33, 0, 0, 44, 23, 4, 60, 5, 47, 0, 40, 21, 31, 48, 27, 12
|14, 54, 17, 8, 2, 46, 0, 37, 7, 0, 0, 16, 39, 0, 28, 53, 41, 34, 58, 0, 62, 4, 55, 40, 56, 0, 60, 35, 0, 30, 31, 21, 64, 0, 0, 0, 43, 1, 19, 63, 33, 26, 20, 22, 0, 0, 0, 49, 32, 36, 12, 27, 59, 3, 0, 13, 25, 61, 38, 0, 45, 51, 15, 0
|0, 18, 0, 22, 0, 0, 48, 42, 55, 38, 3, 0, 0, 15, 61, 0, 6, 8, 12, 0, 51, 11, 0, 59, 47, 41, 25, 0, 63, 29, 4, 46, 7, 39, 58, 21, 14, 56, 26, 49, 0, 0, 5, 44, 62, 30, 53, 43, 37, 45, 54, 64, 50, 40, 35, 20, 28, 10, 0, 0, 36, 19, 0, 0
|40, 3, 1, 53, 0, 0, 0, 59, 47, 0, 52, 0, 19, 9, 43, 49, 0, 15, 37, 20, 46, 7, 29, 13, 38, 28, 32, 16, 12, 0, 2, 0, 0, 27, 44, 11, 18, 0, 33, 0, 0, 24, 60, 0, 35, 54, 41, 8, 39, 51, 0, 0, 6, 58, 55, 48, 56, 42, 22, 0, 0, 4, 62, 0
|38, 0, 16, 10, 0, 62, 39, 28, 0, 0, 14, 6, 33, 47, 0, 0, 3, 0, 36, 58, 63, 12, 0, 51, 21, 32, 54, 4, 0, 0, 18, 0, 5, 57, 26, 42, 0, 43, 0, 0, 53, 1, 15, 55, 24, 22, 27, 0, 20, 0, 60, 56, 13, 25, 0, 0, 17, 49, 8, 0, 0, 29, 0, 37
|0, 31, 14, 58, 22, 45, 4, 0, 15, 43, 37, 41, 35, 3, 53, 1, 47, 0, 17, 11, 10, 8, 38, 32, 55, 64, 0, 25, 0, 24, 5, 2, 0, 28, 63, 51, 48, 52, 0, 39, 0, 20, 26, 60, 0, 57, 40, 0, 50, 0, 62, 6, 0, 0, 30, 9, 36, 23, 33, 54, 61, 12, 0, 42
|48, 1, 0, 46, 0, 33, 0, 0, 0, 19, 0, 40, 26, 32, 60, 0, 35, 27, 14, 53, 56, 41, 61, 31, 51, 30, 59, 13, 0, 10, 57, 49, 17, 0, 36, 15, 55, 21, 11, 34, 25, 0, 0, 0, 43, 5, 0, 0, 0, 0, 0, 63, 47, 28, 0, 0, 4, 22, 58, 20, 52, 38, 9, 6
|6, 26, 8, 19, 52, 41, 43, 9, 18, 59, 11, 28, 36, 13, 51, 57, 0, 20, 0, 15, 0, 54, 0, 2, 44, 27, 46, 38, 48, 7, 22, 60, 0, 24, 0, 0, 37, 29, 50, 25, 62, 63, 0, 34, 0, 0, 0, 0, 61, 53, 0, 49, 0, 23, 0, 0, 1, 35, 5, 14, 55, 32, 31, 0
|17, 0, 25, 47, 0, 0, 35, 53, 58, 24, 0, 61, 0, 62, 0, 27, 0, 55, 44, 49, 0, 19, 59, 1, 9, 0, 0, 63, 0, 15, 41, 34, 20, 40, 32, 45, 12, 0, 6, 0, 0, 14, 0, 48, 16, 46, 4, 18, 0, 37, 43, 22, 54, 0, 36, 29, 50, 13, 3, 10, 0, 7, 11, 2
|37, 29, 63, 0, 57, 21, 55, 0, 42, 9, 54, 0, 0, 0, 31, 20, 5, 26, 16, 7, 43, 50, 48, 18, 35, 12, 0, 61, 14, 0, 19, 0, 27, 49, 53, 23, 60, 0, 41, 0, 45, 11, 10, 8, 17, 32, 52, 36, 0, 1, 33, 0, 51, 64, 58, 59, 24, 39, 34, 0, 30, 15, 25, 62
|27, 0, 36, 0, 0, 0, 0, 0, 29, 49, 0, 12, 0, 34, 0, 0, 28, 52, 0, 60, 22, 45, 40, 24, 0, 20, 37, 8, 0, 62, 50, 53, 46, 0, 0, 0, 0, 0, 0, 0, 0, 6, 9, 0, 56, 58, 61, 0, 38, 55, 0, 32, 0, 39, 0, 0, 18, 26, 0, 43, 19, 63, 16, 21
|0, 32, 18, 23, 59, 56, 3, 20, 22, 21, 39, 8, 0, 63, 0, 5, 29, 0, 13, 42, 25, 37, 0, 62, 52, 0, 0, 58, 0, 45, 36, 43, 0, 35, 33, 0, 61, 54, 0, 7, 0, 44, 41, 64, 49, 2, 50, 19, 14, 0, 4, 34, 0, 26, 0, 11, 0, 0, 0, 48, 60, 28, 53, 0
|7, 57, 40, 9, 51, 12, 24, 16, 0, 20, 0, 62, 31, 11, 48, 61, 0, 0, 0, 0, 0, 0, 5, 0, 2, 55, 53, 15, 37, 39, 38, 32, 47, 0, 34, 0, 56, 22, 0, 0, 63, 49, 0, 52, 0, 45, 0, 46, 17, 0, 10, 58, 18, 30, 0, 0, 26, 29, 64, 50, 21, 44, 8, 0
|0, 39, 0, 0, 11, 36, 0, 48, 34, 54, 0, 0, 0, 0, 58, 0, 23, 0, 0, 9, 19, 0, 46, 0, 0, 18, 62, 44, 60, 0, 43, 30, 6, 0, 52, 0, 53, 0, 32, 21, 3, 64, 50, 0, 0, 0, 0, 0, 0, 47, 61, 31, 56, 20, 0, 27, 59, 0, 0, 2, 0, 0, 55, 14
|1, 10, 33, 0, 0, 42, 63, 43, 28, 0, 15, 0, 4, 0, 0, 24, 11, 38, 18, 26, 20, 32, 0, 50, 48, 52, 21, 3, 49, 59, 54, 0, 0, 0, 0, 0, 17, 36, 0, 55, 0, 0, 31, 5, 60, 0, 23, 0, 0, 0, 46, 13, 0, 35, 0, 0, 6, 40, 47, 7, 0, 57, 0, 22
|61, 0, 29, 15, 0, 0, 58, 0, 0, 0, 0, 18, 38, 19, 0, 2, 0, 17, 8, 0, 0, 0, 24, 0, 64, 0, 0, 0, 26, 0, 35, 13, 11, 0, 0, 28, 0, 51, 0, 50, 57, 0, 1, 0, 41, 34, 20, 0, 0, 22, 23, 33, 36, 0, 40, 37, 0, 30, 46, 0, 0, 43, 52, 5
|22, 0, 54, 59, 3, 31, 38, 2, 40, 0, 0, 52, 57, 0, 55, 0, 0, 10, 21, 44, 41, 63, 0, 12, 58, 46, 0, 45, 0, 0, 34, 0, 33, 0, 0, 0, 25, 16, 0, 24, 9, 36, 0, 62, 18, 0, 47, 51, 48, 42, 0, 0, 15, 53, 0, 0, 32, 0, 0, 60, 11, 13, 28, 35
|18, 60, 0, 30, 64, 0, 0, 45, 53, 17, 0, 29, 42, 50, 0, 22, 0, 14, 59, 48, 0, 43, 7, 4, 36, 0, 23, 56, 33, 0, 40, 11, 62, 20, 35, 0, 5, 0, 39, 37, 28, 61, 32, 21, 38, 15, 0, 55, 41, 19, 0, 0, 0, 0, 34, 24, 49, 0, 25, 51, 54, 0, 58, 31
|0, 0, 0, 20, 28, 25, 0, 0, 1, 0, 60, 0, 43, 0, 14, 36, 34, 0, 29, 0, 30, 57, 64, 0, 6, 19, 27, 42, 8, 5, 51, 0, 31, 44, 2, 58, 9, 40, 0, 0, 0, 0, 22, 26, 0, 0, 16, 0, 0, 52, 55, 4, 0, 0, 11, 0, 23, 33, 15, 17, 10, 61, 18, 53
|0, 34, 0, 26, 0, 0, 0, 0, 0, 51, 0, 49, 13, 21, 45, 46, 62, 2, 40, 33, 58, 16, 3, 47, 0, 25, 1, 28, 0, 22, 17, 31, 15, 18, 0, 7, 0, 0, 57, 43, 56, 53, 0, 0, 11, 0, 35, 0, 59, 5, 9, 0, 64, 6, 50, 14, 38, 63, 12, 36, 20, 27, 24, 39
|3, 44, 0, 57, 37, 16, 15, 0, 4, 29, 41, 0, 0, 38, 62, 45, 12, 32, 0, 6, 17, 47, 52, 11, 60, 0, 0, 20, 30, 43, 0, 27, 40, 5, 14, 0, 33, 9, 25, 0, 0, 48, 34, 58, 28, 8, 0, 0, 0, 0, 0, 21, 0, 18, 23, 1, 39, 24, 55, 56, 35, 36, 26, 64
|47, 0, 52, 24, 8, 50, 22, 17, 51, 40, 7, 0, 0, 16, 5, 0, 64, 58, 3, 0, 0, 0, 56, 0, 13, 0, 4, 46, 0, 0, 0, 44, 21, 2, 6, 0, 45, 55, 27, 1, 26, 10, 36, 0, 53, 18, 0, 0, 63, 0, 0, 61, 57, 43, 29, 35, 12, 59, 54, 38, 49, 0, 42, 25
|0, 11, 30, 35, 38, 0, 10, 36, 49, 0, 28, 0, 0, 64, 2, 37, 57, 5, 33, 45, 61, 51, 8, 0, 39, 14, 16, 0, 62, 31, 59, 0, 63, 7, 20, 41, 26, 32, 3, 18, 4, 17, 25, 47, 0, 0, 60, 21, 27, 0, 15, 24, 58, 0, 9, 0, 0, 48, 43, 34, 1, 0, 44, 46
|55, 63, 53, 41, 0, 29, 34, 27, 0, 18, 1, 0, 15, 8, 0, 52, 42, 0, 19, 14, 60, 20, 31, 28, 0, 33, 12, 0, 45, 25, 0, 0, 0, 13, 50, 24, 0, 47, 56, 10, 0, 23, 6, 35, 0, 0, 54, 5, 44, 0, 3, 0, 38, 46, 64, 0, 0, 0, 0, 30, 16, 37, 40, 9
|33, 9, 4, 56, 0, 0, 0, 61, 46, 0, 0, 19, 34, 35, 63, 42, 0, 48, 27, 0, 29, 21, 10, 25, 40, 49, 0, 7, 6, 0, 64, 58, 52, 0, 60, 0, 0, 0, 38, 0, 0, 43, 37, 45, 31, 59, 24, 0, 26, 30, 47, 0, 53, 14, 16, 62, 8, 3, 50, 28, 0, 18, 0, 0
|25, 46, 45, 14, 26, 60, 59, 0, 21, 6, 0, 43, 23, 0, 13, 0, 53, 0, 35, 36, 0, 0, 44, 0, 0, 50, 3, 47, 38, 56, 37, 18, 61, 0, 0, 30, 0, 15, 0, 51, 0, 12, 7, 0, 29, 27, 64, 40, 55, 0, 0, 52, 33, 0, 0, 34, 0, 32, 41, 11, 63, 20, 2, 19
|21, 40, 6, 0, 62, 2, 0, 12, 14, 27, 48, 0, 44, 17, 0, 0, 18, 59, 0, 63, 38, 34, 26, 30, 1, 35, 24, 0, 41, 36, 8, 0, 0, 11, 64, 43, 54, 58, 49, 0, 19, 16, 46, 0, 0, 3, 22, 15, 0, 25, 13, 60, 20, 0, 37, 51, 31, 45, 0, 0, 0, 0, 4, 47
|31, 7, 0, 18, 1, 28, 51, 64, 0, 0, 26, 36, 47, 33, 0, 60, 2, 24, 0, 50, 0, 0, 16, 46, 0, 61, 0, 5, 53, 21, 15, 42, 34, 0, 0, 62, 22, 37, 17, 0, 52, 38, 30, 0, 20, 0, 44, 0, 4, 8, 19, 0, 0, 59, 0, 0, 29, 14, 13, 27, 58, 10, 6, 0|];