order = 8;
grid = [|10, 46, 31, 48, 20, 43, 50, 42, 9, 35, 0, 55, 18, 11, 41, 0, 63, 16, 0, 26, 0, 3, 6, 7, 0, 0, 47, 52, 12, 33, 53, 2, 19, 0, 17, 58, 0, 0, 32, 23, 0, 15, 5, 8, 64, 34, 0, 59, 0, 0, 44, 27, 61, 60, 0, 21, 40, 29, 0, 38, 57, 1, 54, 0
|0, 40, 0, 0, 0, 1, 41, 7, 25, 46, 30, 0, 0, 48, 15, 4, 23, 9, 59, 0, 0, 0, 38, 0, 0, 0, 51, 8, 11, 60, 50, 0, 49, 0, 0, 0, 5, 0, 13, 0, 61, 29, 0, 2, 20, 28, 0, 0, 54, 0, 56, 16, 42, 0, 0, 36, 22, 33, 0, 31, 63, 52, 26, 35
|0, 47, 53, 3, 22, 16, 19, 30, 44, 0, 0, 28, 36, 40, 8, 49, 1, 0, 13, 0, 17, 25, 14, 0, 0, 57, 38, 0, 64, 0, 54, 32, 21, 9, 56, 0, 15, 62, 35, 29, 6, 0, 18, 11, 23, 43, 31, 50, 0, 55, 20, 45, 26, 33, 48, 46, 37, 0, 0, 41, 0, 0, 7, 0
|49, 0, 0, 38, 6, 51, 32, 29, 21, 1, 50, 53, 0, 0, 0, 0, 19, 0, 46, 43, 62, 0, 20, 12, 0, 0, 0, 23, 0, 39, 18, 0, 42, 61, 60, 31, 55, 10, 2, 34, 27, 47, 63, 25, 26, 37, 36, 4, 17, 0, 3, 14, 0, 52, 0, 8, 48, 30, 9, 11, 0, 44, 0, 0
|5, 37, 0, 27, 33, 17, 0, 54, 51, 62, 0, 52, 3, 26, 56, 0, 0, 0, 11, 0, 58, 0, 64, 48, 9, 29, 28, 0, 16, 22, 0, 0, 24, 0, 36, 59, 41, 63, 53, 25, 49, 0, 14, 0, 0, 12, 0, 0, 23, 47, 1, 38, 35, 0, 43, 15, 0, 0, 50, 39, 6, 2, 13, 46
|0, 4, 0, 0, 57, 0, 28, 11, 0, 0, 13, 34, 64, 61, 19, 54, 0, 0, 0, 0, 22, 21, 36, 41, 31, 46, 14, 0, 49, 26, 1, 17, 0, 12, 6, 0, 0, 43, 30, 0, 51, 0, 44, 0, 0, 33, 3, 24, 58, 62, 29, 7, 9, 59, 32, 0, 5, 23, 25, 0, 0, 0, 18, 15
|0, 34, 25, 0, 36, 13, 15, 12, 31, 0, 42, 5, 63, 2, 47, 33, 0, 0, 0, 0, 51, 0, 0, 29, 6, 43, 0, 59, 0, 20, 27, 0, 54, 0, 0, 0, 48, 38, 39, 14, 0, 0, 55, 0, 46, 9, 0, 0, 0, 0, 0, 11, 18, 53, 49, 40, 0, 10, 21, 61, 0, 0, 19, 17
|60, 18, 63, 0, 9, 0, 26, 23, 59, 6, 0, 12, 45, 0, 38, 43, 28, 55, 10, 52, 27, 0, 5, 15, 34, 48, 0, 4, 0, 61, 13, 42, 1, 40, 33, 22, 46, 8, 44, 11, 0, 32, 0, 41, 54, 58, 0, 17, 37, 25, 0, 0, 0, 51, 64, 0, 16, 0, 14, 49, 0, 24, 20, 3
|0, 0, 41, 2, 0, 0, 40, 0, 7, 30, 27, 39, 26, 34, 43, 0, 0, 5, 0, 63, 0, 62, 61, 9, 50, 0, 1, 56, 32, 0, 8, 13, 29, 23, 12, 15, 6, 31, 18, 48, 10, 58, 52, 16, 0, 0, 57, 49, 47, 0, 0, 0, 55, 44, 38, 60, 0, 17, 54, 0, 25, 0, 37, 0
|30, 28, 36, 0, 21, 61, 56, 53, 41, 0, 55, 23, 5, 47, 0, 0, 10, 19, 39, 6, 0, 17, 49, 57, 51, 14, 4, 29, 27, 43, 38, 22, 0, 42, 24, 34, 58, 7, 46, 0, 15, 12, 20, 63, 0, 0, 60, 0, 32, 45, 13, 31, 0, 16, 0, 35, 0, 0, 0, 48, 44, 18, 50, 0
|0, 13, 0, 0, 0, 46, 16, 38, 57, 15, 52, 59, 42, 19, 62, 18, 0, 27, 44, 11, 50, 34, 37, 8, 0, 20, 5, 7, 0, 55, 0, 39, 64, 0, 22, 45, 0, 35, 61, 10, 24, 4, 53, 0, 56, 6, 1, 0, 63, 0, 48, 0, 0, 0, 29, 0, 2, 51, 0, 23, 12, 0, 32, 30
|50, 44, 18, 1, 34, 0, 10, 45, 0, 37, 24, 6, 33, 13, 0, 17, 2, 20, 29, 0, 40, 0, 51, 55, 0, 9, 15, 0, 61, 0, 0, 16, 26, 25, 28, 4, 47, 0, 19, 27, 38, 0, 59, 48, 0, 21, 0, 32, 41, 52, 0, 62, 64, 23, 0, 3, 0, 53, 0, 35, 60, 0, 63, 31
|19, 63, 0, 11, 12, 48, 6, 26, 3, 21, 0, 32, 16, 31, 29, 46, 64, 0, 43, 24, 25, 60, 42, 47, 0, 0, 52, 18, 54, 0, 37, 23, 30, 8, 50, 36, 0, 0, 0, 0, 0, 22, 41, 0, 2, 45, 17, 44, 34, 1, 4, 28, 0, 27, 7, 56, 15, 9, 33, 57, 0, 49, 0, 14
|31, 29, 49, 17, 7, 52, 23, 0, 53, 14, 48, 60, 22, 12, 4, 2, 54, 15, 32, 0, 0, 18, 46, 0, 64, 24, 19, 28, 45, 0, 0, 0, 37, 16, 0, 21, 0, 44, 56, 0, 55, 62, 0, 34, 33, 40, 35, 26, 0, 50, 9, 10, 43, 39, 20, 0, 0, 27, 11, 1, 13, 5, 41, 6
|0, 32, 3, 0, 54, 60, 22, 57, 28, 9, 10, 63, 56, 20, 0, 40, 52, 0, 0, 0, 16, 30, 0, 0, 35, 6, 44, 17, 53, 31, 48, 11, 41, 0, 43, 55, 49, 1, 0, 5, 0, 25, 64, 36, 47, 18, 50, 13, 0, 26, 0, 0, 14, 2, 15, 12, 0, 0, 42, 8, 0, 19, 0, 29
|0, 15, 0, 0, 64, 5, 0, 55, 54, 45, 44, 0, 38, 0, 49, 1, 12, 0, 31, 48, 35, 0, 56, 53, 26, 40, 63, 2, 36, 0, 21, 59, 9, 0, 0, 62, 11, 52, 0, 0, 30, 0, 0, 7, 3, 14, 0, 61, 46, 42, 0, 25, 22, 6, 19, 57, 0, 24, 0, 4, 10, 16, 0, 0
|34, 58, 7, 42, 16, 63, 0, 46, 6, 13, 51, 50, 32, 24, 61, 62, 0, 1, 45, 3, 53, 0, 0, 27, 60, 23, 37, 0, 59, 49, 22, 10, 57, 11, 0, 0, 52, 0, 0, 39, 64, 36, 15, 19, 48, 0, 2, 43, 0, 0, 14, 47, 21, 40, 18, 0, 0, 0, 29, 17, 54, 0, 0, 33
|22, 14, 0, 40, 45, 0, 3, 31, 42, 0, 53, 17, 12, 0, 0, 56, 6, 59, 0, 10, 13, 50, 0, 11, 0, 36, 39, 44, 0, 64, 0, 0, 0, 27, 48, 0, 21, 58, 25, 8, 63, 0, 4, 23, 57, 41, 0, 7, 0, 0, 37, 51, 30, 0, 34, 0, 24, 0, 20, 47, 18, 61, 0, 60
|55, 0, 0, 57, 0, 54, 0, 0, 0, 60, 8, 47, 0, 14, 0, 11, 0, 0, 0, 16, 0, 37, 39, 0, 0, 0, 0, 61, 0, 48, 0, 33, 28, 59, 0, 3, 0, 17, 0, 49, 58, 18, 46, 0, 24, 25, 42, 0, 5, 10, 23, 44, 45, 9, 0, 6, 0, 63, 0, 22, 50, 41, 0, 51
|62, 27, 15, 0, 0, 53, 64, 0, 16, 38, 0, 41, 0, 3, 52, 10, 57, 0, 33, 22, 43, 61, 44, 56, 0, 50, 0, 0, 0, 58, 55, 6, 0, 45, 0, 0, 51, 23, 0, 54, 60, 40, 0, 1, 32, 0, 49, 5, 0, 0, 59, 20, 13, 0, 46, 0, 39, 11, 48, 0, 30, 9, 0, 21
|17, 0, 1, 52, 0, 0, 21, 59, 46, 7, 0, 18, 43, 64, 0, 0, 42, 23, 60, 25, 0, 5, 0, 0, 0, 3, 2, 24, 8, 53, 0, 27, 0, 0, 0, 0, 31, 29, 34, 6, 0, 0, 11, 61, 9, 47, 0, 33, 0, 0, 35, 39, 48, 58, 50, 32, 12, 57, 0, 0, 0, 10, 38, 0
|6, 50, 0, 0, 61, 0, 2, 35, 30, 0, 25, 20, 39, 0, 54, 0, 0, 47, 63, 21, 0, 51, 15, 62, 18, 32, 11, 12, 13, 41, 40, 34, 5, 0, 19, 37, 9, 46, 1, 0, 0, 0, 17, 0, 29, 0, 38, 55, 60, 56, 64, 57, 52, 0, 36, 4, 0, 14, 49, 0, 23, 3, 8, 59
|38, 43, 5, 0, 0, 0, 60, 39, 48, 0, 23, 0, 15, 0, 34, 0, 18, 29, 0, 28, 24, 46, 32, 31, 54, 19, 45, 20, 42, 0, 52, 47, 10, 56, 0, 0, 64, 2, 55, 33, 50, 59, 16, 21, 14, 3, 8, 6, 25, 63, 12, 0, 0, 11, 41, 27, 0, 0, 40, 0, 0, 0, 1, 0
|23, 0, 30, 0, 10, 20, 12, 19, 0, 28, 0, 0, 0, 1, 0, 59, 0, 36, 38, 0, 14, 0, 0, 49, 25, 35, 0, 57, 0, 0, 17, 0, 0, 50, 61, 60, 0, 13, 4, 18, 37, 0, 45, 51, 0, 62, 0, 22, 53, 33, 54, 3, 15, 24, 42, 2, 52, 64, 6, 58, 31, 43, 46, 32
|54, 0, 60, 9, 0, 40, 0, 28, 15, 10, 22, 0, 30, 51, 25, 52, 16, 0, 0, 53, 0, 1, 4, 17, 11, 34, 0, 0, 62, 0, 0, 56, 0, 0, 32, 0, 0, 5, 0, 0, 23, 49, 0, 0, 18, 8, 59, 20, 2, 14, 50, 58, 19, 0, 37, 38, 29, 46, 41, 0, 55, 63, 0, 57
|61, 30, 0, 0, 0, 0, 0, 4, 45, 49, 0, 62, 0, 0, 0, 0, 51, 46, 19, 31, 5, 57, 40, 3, 0, 0, 29, 16, 28, 63, 20, 8, 58, 0, 0, 0, 54, 36, 33, 0, 21, 7, 6, 0, 0, 0, 25, 0, 52, 0, 42, 43, 47, 41, 17, 0, 64, 0, 0, 9, 0, 0, 27, 0
|35, 25, 0, 6, 0, 41, 17, 0, 0, 4, 34, 0, 58, 59, 7, 28, 0, 62, 36, 60, 42, 0, 0, 37, 22, 52, 0, 1, 30, 47, 23, 45, 27, 0, 0, 64, 0, 24, 0, 40, 43, 31, 10, 0, 15, 61, 55, 54, 0, 21, 46, 56, 0, 63, 9, 44, 0, 0, 18, 5, 32, 48, 16, 53
|8, 1, 37, 49, 5, 57, 31, 0, 0, 0, 54, 56, 46, 36, 12, 63, 33, 52, 21, 0, 64, 20, 50, 58, 27, 4, 43, 55, 14, 18, 0, 0, 7, 26, 0, 53, 0, 6, 0, 0, 9, 11, 30, 29, 0, 24, 45, 0, 3, 0, 34, 13, 28, 32, 61, 0, 51, 0, 38, 42, 40, 35, 62, 0
|36, 19, 62, 26, 50, 0, 38, 27, 0, 11, 0, 37, 0, 5, 6, 16, 29, 48, 25, 0, 23, 0, 43, 0, 0, 58, 42, 53, 44, 21, 12, 40, 0, 46, 31, 57, 0, 0, 0, 0, 41, 33, 22, 60, 0, 0, 63, 47, 0, 0, 0, 64, 8, 49, 24, 10, 0, 39, 52, 20, 15, 54, 17, 0
|63, 48, 0, 56, 0, 7, 42, 33, 40, 44, 64, 0, 60, 35, 0, 20, 11, 32, 0, 61, 0, 8, 0, 2, 13, 15, 0, 0, 0, 17, 10, 3, 43, 62, 38, 0, 0, 45, 0, 0, 0, 19, 37, 52, 36, 39, 27, 51, 0, 0, 55, 0, 23, 0, 57, 5, 6, 0, 28, 0, 0, 14, 31, 58
|0, 2, 0, 34, 46, 0, 59, 52, 43, 0, 0, 24, 31, 27, 39, 8, 22, 14, 0, 44, 10, 47, 0, 26, 0, 0, 35, 0, 51, 32, 61, 5, 56, 49, 0, 0, 29, 50, 0, 42, 17, 0, 28, 57, 0, 48, 58, 0, 0, 6, 0, 0, 4, 45, 40, 20, 11, 21, 23, 13, 3, 33, 0, 19
|58, 53, 0, 12, 24, 23, 44, 0, 13, 48, 33, 0, 21, 17, 0, 42, 0, 45, 18, 30, 0, 0, 0, 63, 0, 0, 31, 26, 7, 6, 36, 25, 0, 19, 0, 28, 8, 0, 11, 0, 0, 3, 32, 50, 5, 46, 34, 38, 0, 27, 0, 15, 29, 35, 54, 1, 47, 43, 22, 59, 61, 37, 0, 56
|59, 20, 9, 53, 56, 47, 0, 0, 0, 43, 41, 40, 25, 0, 0, 60, 46, 0, 0, 0, 61, 14, 11, 6, 39, 16, 0, 35, 33, 0, 26, 0, 31, 0, 54, 10, 63, 21, 48, 0, 13, 50, 7, 37, 49, 64, 32, 0, 0, 0, 62, 0, 0, 38, 55, 34, 28, 45, 1, 29, 2, 0, 42, 18
|40, 33, 46, 0, 0, 12, 0, 60, 0, 16, 19, 38, 2, 54, 0, 0, 0, 58, 0, 0, 0, 42, 0, 30, 62, 37, 55, 34, 6, 27, 0, 31, 53, 47, 29, 41, 35, 0, 3, 7, 11, 0, 39, 15, 28, 4, 0, 23, 9, 24, 0, 17, 0, 20, 25, 52, 0, 8, 0, 32, 14, 64, 0, 10
|18, 62, 24, 35, 37, 38, 0, 44, 0, 32, 47, 0, 7, 0, 0, 64, 49, 3, 15, 29, 26, 63, 16, 0, 0, 0, 21, 25, 52, 4, 57, 54, 60, 0, 55, 8, 0, 22, 23, 50, 0, 34, 58, 0, 31, 27, 20, 0, 0, 40, 0, 0, 51, 0, 59, 61, 0, 56, 12, 46, 33, 53, 6, 0
|29, 7, 2, 5, 23, 22, 0, 50, 20, 36, 39, 0, 27, 53, 45, 0, 0, 28, 9, 0, 37, 54, 0, 52, 56, 0, 18, 46, 17, 0, 58, 0, 15, 0, 0, 33, 0, 25, 42, 24, 16, 0, 51, 10, 0, 44, 43, 0, 0, 35, 26, 0, 0, 64, 0, 11, 0, 62, 4, 19, 59, 55, 0, 0
|0, 57, 0, 58, 42, 25, 0, 0, 11, 51, 62, 15, 52, 55, 0, 0, 4, 10, 0, 20, 0, 22, 18, 0, 53, 61, 0, 43, 0, 14, 0, 0, 12, 6, 27, 0, 0, 0, 64, 28, 19, 24, 47, 59, 8, 60, 40, 41, 44, 0, 0, 46, 63, 29, 0, 37, 35, 31, 16, 50, 0, 36, 0, 54
|14, 21, 55, 0, 0, 0, 0, 43, 61, 0, 0, 49, 37, 0, 24, 31, 62, 53, 0, 17, 38, 40, 35, 13, 5, 11, 12, 0, 0, 0, 64, 29, 0, 1, 20, 19, 2, 57, 45, 59, 0, 46, 36, 33, 0, 0, 9, 56, 28, 0, 8, 0, 54, 18, 0, 42, 0, 0, 0, 60, 22, 0, 0, 39
|4, 39, 0, 31, 15, 64, 54, 41, 50, 8, 5, 35, 10, 23, 42, 12, 24, 56, 0, 0, 57, 0, 59, 1, 19, 0, 60, 40, 0, 44, 63, 0, 0, 38, 0, 32, 30, 61, 37, 0, 2, 0, 29, 0, 52, 0, 6, 0, 0, 49, 43, 33, 0, 22, 58, 53, 34, 0, 0, 25, 0, 26, 0, 0
|51, 0, 0, 0, 0, 19, 0, 6, 0, 0, 46, 30, 59, 4, 57, 29, 32, 0, 8, 64, 60, 0, 25, 39, 20, 22, 0, 15, 47, 0, 41, 28, 62, 0, 44, 14, 0, 11, 49, 0, 35, 42, 3, 54, 1, 63, 18, 0, 16, 0, 0, 50, 0, 5, 0, 13, 38, 40, 37, 0, 27, 21, 43, 52
|3, 0, 44, 39, 0, 29, 0, 16, 0, 40, 45, 31, 53, 0, 63, 47, 0, 42, 2, 62, 0, 58, 7, 10, 21, 26, 27, 49, 0, 0, 24, 0, 17, 48, 0, 50, 25, 64, 43, 13, 0, 35, 38, 20, 0, 0, 37, 11, 36, 0, 57, 5, 0, 54, 12, 22, 33, 59, 30, 55, 1, 15, 52, 23
|12, 64, 34, 0, 32, 0, 0, 36, 8, 50, 60, 22, 0, 46, 0, 51, 0, 0, 37, 13, 28, 59, 0, 0, 55, 54, 20, 45, 9, 15, 0, 0, 11, 24, 23, 35, 0, 0, 0, 19, 25, 1, 2, 0, 62, 10, 4, 39, 42, 61, 41, 52, 38, 47, 63, 0, 0, 0, 56, 43, 0, 0, 0, 0
|0, 0, 20, 61, 0, 10, 14, 37, 0, 24, 36, 0, 57, 0, 0, 0, 0, 43, 6, 23, 0, 56, 0, 45, 40, 0, 0, 11, 39, 30, 31, 35, 33, 51, 4, 46, 0, 0, 8, 38, 0, 63, 48, 58, 17, 0, 12, 0, 13, 59, 15, 18, 25, 0, 21, 0, 49, 54, 19, 7, 29, 60, 0, 27
|11, 31, 0, 0, 60, 6, 0, 62, 64, 2, 56, 16, 49, 0, 20, 48, 15, 63, 57, 4, 0, 0, 19, 40, 0, 0, 25, 22, 1, 50, 0, 0, 0, 29, 21, 44, 59, 47, 26, 61, 0, 0, 0, 0, 55, 0, 33, 0, 0, 51, 32, 35, 58, 0, 0, 23, 10, 38, 34, 12, 39, 8, 0, 37
|0, 8, 54, 19, 55, 49, 0, 5, 4, 12, 59, 42, 13, 15, 58, 39, 44, 0, 48, 38, 21, 27, 0, 51, 63, 64, 10, 0, 23, 16, 0, 0, 32, 36, 1, 52, 22, 30, 0, 62, 0, 57, 40, 46, 50, 56, 24, 0, 31, 9, 53, 0, 34, 0, 3, 33, 26, 0, 45, 0, 41, 20, 0, 61
|25, 0, 40, 0, 0, 0, 0, 63, 0, 0, 43, 54, 1, 28, 30, 21, 14, 49, 55, 18, 0, 24, 0, 50, 0, 59, 33, 36, 2, 29, 32, 48, 45, 31, 9, 56, 57, 0, 5, 37, 0, 41, 27, 0, 0, 7, 52, 15, 11, 0, 19, 8, 62, 10, 0, 64, 46, 0, 35, 6, 58, 13, 22, 0
|41, 52, 56, 50, 27, 0, 33, 47, 0, 0, 37, 11, 29, 0, 55, 0, 0, 22, 0, 0, 30, 0, 0, 32, 61, 0, 13, 0, 34, 12, 46, 57, 0, 15, 14, 40, 10, 39, 28, 0, 31, 0, 19, 26, 45, 16, 21, 60, 49, 0, 0, 1, 7, 48, 44, 24, 53, 18, 0, 63, 0, 42, 64, 4
|0, 0, 57, 0, 35, 0, 0, 15, 34, 3, 0, 27, 23, 0, 10, 19, 53, 39, 64, 33, 0, 0, 0, 5, 8, 44, 7, 6, 0, 38, 4, 52, 63, 54, 2, 12, 42, 41, 58, 0, 0, 9, 0, 43, 22, 0, 61, 30, 40, 20, 60, 0, 46, 37, 0, 45, 31, 32, 62, 0, 21, 47, 24, 0
|0, 55, 11, 29, 0, 3, 0, 34, 49, 59, 0, 33, 28, 60, 0, 0, 5, 50, 24, 45, 0, 23, 0, 0, 0, 0, 0, 27, 4, 52, 6, 0, 0, 58, 0, 2, 20, 14, 10, 0, 36, 0, 0, 64, 13, 1, 51, 48, 0, 38, 0, 0, 31, 46, 0, 62, 19, 16, 44, 0, 17, 32, 12, 22
|44, 56, 0, 45, 0, 0, 0, 49, 12, 19, 9, 14, 20, 6, 0, 0, 0, 0, 1, 55, 8, 64, 27, 0, 16, 47, 32, 3, 0, 36, 0, 0, 50, 7, 0, 24, 17, 26, 52, 46, 54, 53, 33, 35, 0, 0, 62, 34, 48, 4, 22, 0, 0, 0, 0, 41, 23, 2, 10, 28, 37, 39, 15, 5
|0, 0, 4, 0, 17, 33, 48, 32, 0, 52, 0, 13, 35, 21, 27, 61, 36, 6, 62, 7, 0, 19, 0, 46, 10, 0, 64, 54, 55, 45, 2, 0, 22, 0, 0, 0, 37, 53, 29, 56, 12, 16, 60, 49, 59, 0, 47, 40, 0, 0, 0, 9, 24, 1, 11, 18, 50, 41, 0, 30, 43, 31, 14, 42
|1, 0, 0, 41, 0, 36, 62, 21, 23, 34, 15, 46, 51, 0, 18, 55, 3, 0, 0, 49, 29, 16, 52, 59, 7, 28, 0, 31, 40, 0, 14, 50, 25, 30, 45, 9, 38, 33, 27, 0, 39, 37, 24, 32, 0, 20, 44, 8, 0, 5, 17, 12, 0, 42, 2, 19, 60, 48, 57, 0, 47, 58, 4, 0
|0, 60, 27, 59, 13, 14, 9, 2, 10, 0, 17, 1, 0, 22, 0, 0, 0, 61, 0, 0, 15, 38, 0, 4, 0, 39, 0, 48, 0, 0, 0, 58, 0, 55, 16, 6, 12, 0, 21, 0, 28, 43, 31, 5, 30, 0, 23, 63, 33, 0, 0, 0, 36, 3, 0, 0, 18, 7, 8, 62, 45, 0, 0, 40
|0, 16, 6, 7, 0, 0, 5, 64, 29, 56, 57, 3, 41, 8, 2, 53, 48, 0, 14, 37, 47, 32, 10, 0, 44, 12, 34, 51, 20, 0, 62, 0, 0, 0, 11, 23, 1, 28, 40, 0, 22, 55, 0, 17, 42, 52, 0, 58, 43, 13, 0, 21, 27, 0, 0, 54, 59, 26, 24, 33, 0, 38, 25, 49
|47, 12, 0, 63, 0, 31, 46, 24, 5, 42, 4, 0, 11, 45, 37, 32, 56, 51, 54, 0, 44, 9, 58, 22, 33, 17, 53, 0, 21, 1, 15, 38, 39, 60, 8, 0, 62, 0, 57, 0, 26, 14, 25, 18, 27, 0, 41, 3, 50, 7, 0, 23, 16, 0, 10, 59, 20, 35, 13, 34, 52, 0, 29, 55
|0, 0, 8, 15, 0, 58, 20, 0, 0, 47, 16, 44, 62, 63, 48, 30, 39, 31, 28, 12, 33, 2, 0, 0, 23, 49, 22, 0, 0, 59, 19, 60, 13, 43, 0, 54, 18, 0, 0, 0, 29, 0, 56, 4, 7, 0, 46, 0, 35, 0, 0, 34, 0, 55, 26, 14, 1, 61, 0, 51, 9, 27, 0, 0
|32, 45, 0, 24, 2, 0, 36, 40, 63, 0, 12, 7, 61, 0, 59, 3, 50, 17, 16, 51, 49, 4, 33, 0, 52, 27, 6, 60, 26, 0, 44, 55, 48, 41, 46, 29, 28, 0, 62, 9, 56, 38, 0, 0, 0, 22, 30, 10, 1, 15, 0, 0, 20, 34, 0, 43, 25, 0, 39, 0, 19, 11, 0, 8
|16, 51, 0, 4, 0, 0, 25, 3, 0, 17, 0, 43, 40, 29, 46, 15, 0, 38, 53, 0, 41, 0, 48, 0, 14, 0, 0, 0, 10, 9, 34, 0, 0, 64, 0, 0, 0, 59, 6, 45, 0, 0, 0, 31, 0, 19, 54, 28, 57, 36, 27, 0, 39, 26, 22, 49, 55, 60, 63, 0, 24, 7, 30, 47
|33, 41, 38, 20, 49, 11, 63, 0, 0, 39, 0, 0, 0, 0, 13, 27, 37, 24, 61, 9, 0, 15, 0, 34, 48, 21, 46, 62, 57, 54, 0, 64, 52, 0, 58, 7, 4, 0, 22, 0, 59, 60, 0, 0, 0, 23, 14, 25, 19, 31, 47, 40, 2, 8, 30, 50, 43, 6, 32, 0, 0, 17, 0, 12
|0, 59, 0, 0, 0, 44, 0, 0, 38, 0, 0, 0, 34, 32, 1, 6, 60, 25, 3, 5, 18, 0, 62, 0, 15, 0, 0, 19, 22, 2, 30, 0, 8, 57, 0, 0, 33, 0, 0, 21, 42, 20, 0, 40, 0, 17, 0, 0, 51, 46, 52, 55, 0, 56, 28, 16, 13, 0, 58, 0, 26, 29, 0, 41
|53, 10, 52, 22, 62, 56, 55, 1, 0, 58, 21, 45, 0, 42, 60, 5, 47, 57, 30, 19, 54, 13, 28, 14, 32, 63, 8, 38, 43, 0, 0, 41, 20, 0, 0, 17, 0, 15, 0, 36, 7, 0, 0, 0, 35, 49, 39, 16, 0, 0, 0, 59, 44, 61, 23, 9, 0, 4, 31, 0, 46, 51, 33, 2
|7, 0, 0, 54, 28, 27, 57, 61, 52, 53, 11, 19, 47, 0, 0, 23, 0, 0, 12, 0, 31, 43, 63, 0, 36, 0, 17, 39, 58, 40, 0, 4, 3, 35, 49, 1, 13, 55, 16, 0, 33, 0, 8, 6, 41, 29, 15, 18, 0, 32, 0, 0, 37, 14, 60, 25, 0, 0, 0, 0, 20, 34, 48, 64
|46, 6, 19, 37, 29, 15, 0, 48, 55, 22, 2, 0, 8, 30, 16, 41, 7, 0, 56, 39, 0, 52, 26, 23, 1, 0, 59, 33, 25, 28, 35, 61, 44, 14, 51, 0, 60, 0, 54, 47, 4, 45, 43, 24, 0, 0, 5, 27, 12, 3, 0, 63, 0, 0, 0, 17, 9, 42, 53, 0, 0, 50, 0, 38
|21, 5, 17, 60, 0, 42, 39, 13, 26, 18, 20, 0, 14, 0, 50, 24, 27, 8, 58, 0, 55, 0, 0, 0, 0, 0, 0, 47, 37, 0, 16, 12, 0, 53, 63, 38, 0, 0, 31, 43, 44, 0, 0, 9, 34, 11, 64, 46, 45, 29, 33, 0, 41, 4, 35, 7, 54, 15, 0, 10, 28, 0, 0, 0|];