order = 8;
grid = [|32, 0, 29, 50, 2, 17, 0, 59, 43, 21, 6, 0, 0, 52, 51, 0, 15, 40, 1, 63, 13, 62, 36, 0, 28, 0, 0, 0, 49, 54, 0, 3, 53, 0, 0, 24, 26, 7, 33, 18, 61, 0, 0, 0, 25, 4, 38, 44, 39, 0, 46, 20, 11, 58, 19, 57, 8, 55, 47, 56, 0, 0, 0, 0
|64, 37, 42, 57, 14, 0, 0, 48, 32, 0, 15, 26, 0, 17, 23, 4, 33, 20, 0, 47, 0, 60, 0, 0, 63, 0, 16, 45, 12, 0, 0, 2, 38, 11, 58, 0, 0, 5, 10, 8, 30, 6, 53, 35, 39, 0, 50, 46, 3, 44, 25, 0, 0, 54, 40, 28, 1, 52, 61, 49, 19, 29, 59, 0
|5, 0, 25, 0, 31, 3, 4, 6, 0, 0, 0, 0, 27, 0, 49, 39, 0, 18, 10, 0, 0, 12, 22, 9, 0, 14, 23, 47, 1, 13, 0, 11, 34, 45, 15, 59, 0, 42, 0, 43, 48, 63, 41, 62, 20, 57, 54, 19, 2, 26, 0, 50, 60, 0, 53, 35, 0, 0, 0, 33, 38, 40, 21, 51
|26, 20, 0, 28, 0, 52, 0, 43, 33, 53, 48, 62, 45, 46, 54, 16, 0, 3, 8, 44, 14, 7, 0, 24, 41, 9, 25, 34, 56, 40, 51, 36, 0, 37, 0, 0, 60, 30, 22, 17, 0, 59, 0, 11, 5, 10, 0, 18, 31, 15, 0, 63, 0, 32, 29, 47, 0, 4, 39, 6, 57, 0, 0, 27
|0, 22, 46, 58, 7, 27, 0, 0, 9, 37, 0, 0, 0, 41, 59, 50, 0, 45, 54, 0, 6, 0, 0, 49, 0, 26, 42, 29, 17, 53, 8, 38, 0, 31, 4, 0, 48, 23, 39, 62, 0, 14, 0, 0, 0, 33, 0, 60, 36, 21, 55, 43, 0, 0, 30, 0, 44, 34, 13, 63, 0, 25, 20, 35
|53, 40, 15, 45, 38, 0, 41, 55, 1, 64, 0, 28, 25, 60, 0, 20, 0, 43, 17, 0, 0, 48, 16, 0, 32, 0, 0, 44, 27, 0, 0, 10, 57, 63, 0, 29, 0, 0, 56, 46, 0, 0, 2, 36, 8, 26, 0, 52, 14, 0, 5, 0, 0, 24, 51, 23, 9, 42, 62, 0, 0, 18, 12, 37
|19, 0, 0, 44, 36, 0, 51, 18, 3, 2, 63, 47, 56, 35, 38, 7, 0, 42, 50, 25, 0, 21, 0, 4, 0, 22, 0, 0, 0, 59, 57, 52, 0, 16, 0, 6, 20, 49, 0, 28, 0, 13, 40, 12, 23, 0, 17, 29, 9, 41, 0, 8, 0, 37, 45, 48, 64, 5, 11, 0, 14, 0, 24, 46
|0, 62, 24, 8, 0, 10, 21, 0, 0, 0, 22, 13, 0, 40, 42, 14, 5, 0, 59, 35, 57, 32, 38, 61, 46, 50, 39, 0, 30, 55, 48, 0, 64, 0, 0, 27, 41, 52, 36, 0, 51, 0, 0, 15, 0, 56, 58, 31, 33, 0, 16, 0, 0, 17, 34, 4, 0, 45, 3, 0, 54, 53, 0, 0
|1, 0, 2, 11, 0, 37, 50, 0, 51, 5, 31, 6, 9, 36, 28, 12, 43, 0, 62, 0, 59, 26, 58, 30, 13, 27, 34, 0, 52, 0, 32, 44, 56, 57, 0, 40, 0, 0, 15, 21, 0, 29, 20, 33, 63, 41, 0, 7, 48, 0, 14, 64, 54, 49, 0, 19, 23, 0, 55, 38, 0, 0, 42, 61
|31, 54, 14, 39, 56, 0, 48, 34, 2, 15, 40, 49, 33, 19, 26, 13, 0, 7, 0, 45, 0, 46, 0, 16, 35, 12, 22, 0, 57, 6, 0, 4, 27, 23, 10, 47, 43, 28, 3, 44, 55, 0, 0, 18, 0, 61, 62, 42, 32, 38, 0, 11, 9, 0, 0, 58, 0, 53, 8, 0, 59, 64, 30, 0
|0, 0, 55, 0, 3, 0, 27, 60, 23, 0, 42, 63, 0, 14, 0, 18, 47, 0, 11, 53, 40, 38, 10, 51, 25, 15, 54, 0, 0, 49, 0, 21, 31, 0, 35, 20, 0, 61, 48, 7, 9, 46, 0, 0, 64, 1, 12, 34, 57, 0, 0, 33, 0, 0, 0, 13, 41, 0, 56, 0, 28, 4, 26, 50
|33, 8, 12, 0, 0, 38, 61, 0, 16, 45, 3, 60, 48, 37, 0, 32, 36, 0, 2, 23, 56, 0, 39, 0, 0, 40, 0, 0, 64, 0, 11, 0, 41, 50, 51, 18, 0, 0, 13, 53, 0, 24, 0, 43, 26, 0, 0, 0, 55, 0, 0, 0, 0, 22, 21, 42, 0, 9, 27, 46, 63, 54, 0, 62
|0, 30, 51, 26, 62, 22, 0, 0, 56, 4, 44, 25, 7, 0, 0, 0, 0, 0, 34, 21, 48, 0, 0, 32, 10, 45, 41, 33, 0, 14, 39, 55, 0, 0, 11, 0, 0, 0, 0, 12, 49, 0, 28, 0, 0, 13, 35, 58, 29, 0, 59, 27, 16, 60, 17, 0, 52, 0, 57, 43, 37, 20, 0, 0
|52, 0, 0, 23, 0, 19, 10, 64, 20, 57, 0, 27, 55, 0, 0, 58, 3, 0, 29, 28, 0, 9, 0, 33, 0, 0, 26, 59, 63, 30, 1, 46, 25, 62, 16, 34, 38, 24, 14, 0, 0, 32, 48, 17, 56, 0, 8, 21, 61, 40, 37, 6, 7, 41, 0, 0, 15, 39, 0, 13, 12, 44, 22, 11
|28, 43, 0, 63, 17, 7, 24, 0, 0, 29, 41, 0, 46, 11, 21, 30, 0, 0, 12, 0, 42, 6, 35, 57, 9, 31, 50, 0, 61, 0, 0, 58, 8, 0, 32, 64, 33, 4, 59, 37, 45, 16, 0, 27, 0, 52, 0, 0, 0, 62, 0, 0, 3, 10, 0, 20, 48, 40, 49, 2, 51, 0, 1, 36
|45, 41, 20, 0, 9, 0, 6, 57, 52, 24, 1, 0, 59, 39, 10, 64, 61, 15, 22, 27, 63, 0, 0, 13, 16, 0, 48, 8, 62, 23, 5, 53, 49, 36, 55, 54, 0, 0, 0, 0, 40, 3, 0, 30, 0, 2, 47, 11, 4, 0, 31, 26, 56, 12, 28, 50, 0, 21, 33, 34, 7, 32, 35, 17
|0, 32, 1, 62, 53, 0, 31, 4, 46, 47, 0, 23, 10, 44, 13, 2, 0, 0, 42, 36, 0, 63, 20, 0, 33, 56, 17, 52, 50, 0, 12, 43, 28, 60, 27, 61, 0, 11, 0, 29, 25, 38, 18, 22, 34, 0, 49, 6, 5, 59, 30, 55, 35, 48, 26, 3, 51, 16, 7, 0, 0, 24, 0, 15
|22, 11, 40, 48, 23, 42, 19, 51, 54, 0, 58, 7, 32, 59, 25, 0, 37, 0, 9, 0, 33, 28, 14, 60, 57, 29, 15, 39, 26, 64, 31, 5, 17, 20, 0, 45, 0, 0, 35, 38, 0, 21, 61, 16, 41, 36, 0, 3, 0, 56, 0, 4, 43, 52, 0, 12, 50, 13, 44, 1, 30, 27, 0, 55
|0, 28, 0, 52, 26, 0, 58, 0, 45, 9, 35, 0, 21, 0, 0, 51, 0, 0, 0, 0, 31, 0, 29, 23, 0, 8, 0, 0, 18, 19, 0, 0, 0, 10, 24, 53, 3, 0, 25, 0, 39, 43, 60, 47, 0, 27, 7, 62, 0, 50, 44, 0, 33, 13, 38, 14, 32, 17, 4, 20, 46, 2, 0, 22
|20, 7, 43, 12, 29, 56, 60, 44, 0, 18, 37, 14, 6, 0, 0, 11, 45, 48, 0, 26, 0, 10, 25, 2, 42, 0, 61, 0, 53, 0, 62, 16, 50, 0, 0, 30, 4, 0, 9, 0, 58, 0, 55, 63, 59, 28, 0, 0, 24, 54, 17, 15, 0, 0, 64, 46, 0, 57, 35, 47, 33, 5, 0, 8
|0, 0, 10, 61, 21, 33, 0, 0, 64, 0, 29, 55, 20, 0, 16, 60, 27, 32, 0, 19, 22, 34, 62, 0, 49, 25, 0, 0, 4, 0, 46, 0, 52, 0, 0, 0, 0, 14, 26, 39, 17, 53, 44, 8, 13, 48, 0, 50, 51, 57, 0, 36, 0, 0, 11, 31, 28, 0, 0, 3, 43, 0, 0, 0
|46, 2, 39, 14, 45, 0, 64, 16, 49, 17, 4, 0, 8, 53, 48, 3, 0, 55, 58, 30, 24, 40, 59, 50, 21, 41, 1, 63, 0, 0, 0, 51, 43, 13, 0, 36, 44, 33, 0, 5, 11, 56, 35, 0, 42, 15, 0, 54, 0, 28, 0, 0, 0, 9, 0, 27, 60, 0, 38, 26, 29, 19, 0, 0
|54, 50, 34, 47, 0, 0, 37, 17, 19, 52, 0, 61, 0, 28, 27, 0, 0, 0, 49, 4, 44, 13, 0, 53, 0, 3, 0, 55, 14, 11, 22, 0, 0, 46, 64, 0, 42, 31, 0, 32, 20, 30, 0, 29, 9, 0, 0, 0, 7, 2, 1, 16, 45, 8, 62, 0, 6, 0, 40, 36, 21, 63, 0, 59
|36, 0, 0, 59, 30, 35, 3, 13, 26, 31, 57, 43, 41, 0, 0, 62, 51, 39, 0, 0, 12, 0, 0, 46, 54, 28, 32, 6, 0, 0, 44, 45, 0, 47, 0, 8, 0, 16, 0, 0, 19, 10, 14, 0, 0, 37, 0, 33, 40, 0, 0, 0, 29, 0, 0, 53, 0, 48, 0, 11, 0, 9, 0, 49
|56, 6, 27, 60, 0, 2, 32, 0, 29, 0, 0, 18, 49, 64, 57, 0, 58, 0, 35, 38, 55, 47, 42, 54, 31, 4, 13, 53, 43, 51, 52, 12, 9, 0, 40, 14, 0, 48, 41, 0, 37, 0, 34, 0, 11, 0, 0, 36, 59, 8, 0, 21, 63, 33, 0, 0, 0, 23, 0, 25, 61, 46, 19, 3
|43, 10, 54, 38, 46, 12, 5, 30, 44, 0, 45, 21, 53, 0, 0, 22, 56, 0, 0, 3, 0, 0, 0, 17, 36, 0, 28, 49, 6, 63, 26, 34, 15, 8, 37, 33, 25, 51, 0, 11, 57, 0, 0, 42, 0, 31, 0, 59, 35, 0, 50, 47, 2, 0, 55, 62, 40, 60, 0, 0, 4, 7, 48, 0
|0, 0, 23, 34, 25, 40, 0, 20, 41, 33, 16, 15, 0, 0, 32, 0, 59, 53, 0, 0, 36, 1, 50, 0, 0, 30, 24, 18, 22, 46, 64, 48, 3, 28, 60, 17, 0, 0, 2, 0, 0, 0, 0, 0, 49, 0, 9, 51, 27, 58, 61, 7, 0, 45, 37, 6, 31, 54, 0, 0, 44, 8, 63, 14
|58, 1, 16, 19, 48, 57, 0, 35, 37, 0, 2, 0, 31, 7, 0, 0, 0, 21, 30, 33, 4, 0, 0, 25, 39, 0, 55, 40, 0, 44, 0, 29, 12, 53, 62, 0, 45, 32, 5, 59, 63, 0, 15, 0, 14, 8, 43, 64, 0, 3, 13, 51, 26, 34, 0, 11, 18, 0, 6, 0, 27, 17, 9, 38
|55, 24, 0, 4, 39, 51, 15, 21, 27, 59, 12, 17, 23, 0, 0, 34, 46, 26, 63, 18, 37, 64, 11, 48, 8, 38, 57, 62, 33, 35, 2, 0, 0, 22, 29, 0, 56, 19, 61, 0, 0, 54, 30, 5, 3, 40, 13, 53, 0, 14, 0, 10, 0, 16, 0, 0, 58, 0, 0, 0, 47, 0, 0, 0
|61, 45, 0, 53, 18, 26, 7, 22, 11, 40, 13, 9, 0, 62, 0, 36, 0, 51, 28, 43, 2, 8, 19, 0, 0, 21, 0, 27, 16, 1, 0, 0, 55, 34, 38, 0, 0, 10, 46, 58, 50, 47, 12, 48, 0, 44, 0, 20, 41, 4, 29, 57, 5, 42, 49, 17, 37, 0, 30, 52, 39, 15, 33, 64
|0, 47, 9, 31, 0, 13, 33, 28, 0, 42, 0, 0, 52, 10, 58, 35, 0, 44, 14, 49, 41, 61, 32, 39, 0, 7, 11, 0, 45, 25, 15, 0, 0, 0, 6, 0, 21, 0, 16, 23, 0, 4, 24, 46, 0, 29, 0, 0, 1, 0, 38, 0, 0, 36, 22, 0, 12, 43, 59, 53, 34, 0, 55, 2
|0, 63, 49, 37, 64, 0, 59, 0, 47, 25, 0, 8, 19, 51, 56, 55, 40, 0, 7, 16, 0, 0, 45, 0, 20, 58, 10, 61, 3, 17, 54, 0, 30, 24, 0, 44, 27, 36, 52, 0, 18, 2, 33, 23, 38, 6, 21, 1, 0, 0, 43, 46, 12, 53, 48, 32, 0, 22, 0, 42, 5, 0, 0, 13
|51, 0, 0, 3, 0, 36, 40, 63, 28, 38, 0, 35, 61, 0, 0, 1, 14, 0, 56, 0, 7, 19, 24, 27, 6, 0, 0, 15, 0, 0, 0, 0, 5, 42, 18, 25, 23, 58, 0, 30, 0, 0, 17, 64, 44, 32, 4, 0, 10, 29, 41, 2, 0, 0, 50, 0, 13, 33, 52, 48, 0, 0, 43, 0
|25, 64, 0, 0, 32, 0, 0, 0, 42, 54, 11, 0, 43, 8, 0, 57, 0, 46, 23, 59, 0, 0, 47, 26, 2, 44, 0, 1, 19, 0, 13, 28, 62, 38, 0, 60, 34, 0, 31, 10, 0, 51, 56, 3, 36, 12, 33, 37, 16, 22, 0, 9, 20, 5, 0, 63, 53, 61, 24, 30, 40, 55, 49, 4
|38, 44, 57, 9, 13, 0, 0, 39, 31, 23, 51, 24, 62, 58, 3, 6, 0, 0, 0, 52, 0, 55, 34, 29, 43, 64, 56, 46, 32, 26, 0, 22, 0, 41, 17, 37, 11, 12, 47, 14, 7, 50, 0, 53, 2, 0, 18, 16, 30, 25, 40, 19, 0, 0, 8, 0, 21, 20, 42, 0, 15, 0, 0, 63
|7, 21, 58, 43, 20, 1, 26, 2, 22, 0, 53, 36, 44, 18, 0, 49, 17, 28, 45, 50, 0, 41, 4, 0, 23, 16, 0, 57, 29, 61, 0, 42, 0, 0, 9, 0, 59, 56, 24, 0, 5, 0, 52, 19, 0, 0, 0, 13, 11, 64, 0, 48, 62, 47, 12, 34, 0, 0, 25, 37, 35, 14, 31, 39
|11, 33, 0, 5, 0, 31, 34, 0, 0, 30, 55, 48, 37, 2, 4, 0, 54, 0, 44, 39, 32, 42, 0, 22, 0, 0, 18, 20, 47, 12, 38, 0, 0, 52, 43, 16, 0, 46, 1, 27, 0, 28, 49, 40, 15, 21, 0, 41, 53, 0, 6, 60, 14, 61, 13, 56, 19, 64, 29, 8, 0, 59, 7, 0
|27, 55, 19, 0, 54, 0, 8, 12, 0, 41, 17, 0, 39, 16, 0, 21, 0, 2, 31, 0, 0, 0, 0, 0, 4, 0, 40, 9, 0, 58, 59, 0, 26, 32, 0, 13, 64, 29, 0, 0, 0, 0, 63, 0, 0, 47, 0, 45, 0, 49, 42, 44, 1, 3, 52, 37, 0, 28, 0, 18, 11, 0, 36, 23
|6, 48, 0, 30, 42, 0, 47, 23, 13, 0, 0, 0, 40, 0, 9, 0, 35, 0, 43, 64, 18, 0, 0, 8, 27, 37, 51, 25, 11, 41, 0, 31, 2, 0, 19, 0, 28, 0, 4, 0, 22, 0, 0, 61, 0, 34, 20, 0, 0, 0, 0, 38, 0, 57, 58, 26, 0, 0, 0, 60, 16, 0, 32, 56
|37, 29, 18, 0, 0, 61, 46, 52, 59, 19, 56, 0, 47, 0, 64, 0, 0, 13, 40, 12, 0, 0, 0, 0, 45, 0, 36, 30, 7, 5, 34, 14, 20, 35, 21, 55, 0, 8, 51, 0, 42, 58, 0, 0, 60, 62, 6, 48, 0, 23, 54, 28, 24, 39, 27, 33, 3, 26, 41, 0, 0, 38, 0, 1
|8, 0, 44, 0, 24, 64, 0, 0, 0, 12, 43, 37, 13, 0, 55, 48, 38, 59, 0, 9, 0, 20, 18, 0, 0, 49, 4, 54, 5, 39, 0, 6, 47, 56, 0, 23, 0, 2, 0, 41, 0, 15, 7, 32, 0, 0, 29, 25, 50, 0, 22, 0, 34, 30, 61, 0, 33, 0, 63, 0, 3, 26, 0, 19
|0, 0, 28, 41, 6, 43, 0, 58, 35, 49, 0, 0, 17, 0, 19, 52, 29, 33, 4, 7, 64, 0, 1, 62, 0, 0, 46, 0, 13, 36, 0, 0, 0, 51, 5, 26, 9, 0, 53, 15, 47, 48, 0, 10, 61, 0, 27, 30, 0, 12, 11, 0, 23, 0, 39, 18, 55, 0, 0, 14, 0, 21, 57, 0
|35, 38, 0, 0, 19, 15, 0, 0, 53, 51, 36, 0, 58, 31, 0, 47, 0, 12, 0, 40, 61, 5, 44, 0, 26, 0, 21, 0, 59, 0, 16, 1, 60, 25, 0, 22, 0, 18, 8, 0, 24, 41, 9, 39, 62, 23, 0, 0, 0, 6, 48, 0, 0, 55, 0, 0, 0, 27, 0, 4, 0, 0, 2, 0
|4, 0, 21, 18, 60, 16, 29, 0, 0, 32, 26, 1, 14, 0, 0, 0, 2, 24, 0, 11, 0, 15, 0, 55, 64, 33, 58, 51, 23, 57, 61, 47, 6, 48, 50, 0, 0, 35, 0, 0, 13, 17, 3, 52, 40, 22, 44, 0, 20, 37, 0, 53, 36, 0, 41, 0, 43, 10, 5, 45, 0, 34, 0, 7
|57, 0, 26, 55, 0, 0, 62, 33, 6, 0, 18, 56, 0, 20, 0, 0, 8, 54, 41, 0, 47, 3, 0, 52, 0, 0, 45, 0, 0, 32, 25, 37, 29, 0, 63, 19, 0, 34, 27, 64, 12, 5, 21, 0, 0, 46, 0, 28, 38, 43, 35, 40, 51, 0, 4, 1, 22, 0, 9, 24, 53, 13, 39, 16
|39, 17, 5, 0, 37, 0, 12, 42, 40, 61, 7, 2, 16, 25, 62, 28, 23, 22, 0, 31, 0, 30, 6, 14, 0, 20, 29, 0, 0, 3, 0, 56, 10, 1, 0, 52, 49, 0, 32, 36, 59, 0, 57, 34, 4, 54, 45, 8, 0, 0, 24, 58, 0, 0, 0, 0, 38, 11, 50, 51, 0, 48, 41, 44
|0, 3, 48, 40, 11, 0, 22, 10, 0, 39, 23, 34, 0, 5, 0, 9, 32, 17, 60, 51, 50, 0, 56, 28, 38, 19, 0, 0, 44, 62, 30, 8, 4, 7, 0, 0, 24, 0, 20, 57, 31, 33, 64, 0, 18, 0, 53, 14, 0, 63, 26, 0, 27, 15, 16, 49, 36, 47, 58, 0, 0, 1, 0, 0
|47, 59, 0, 0, 1, 49, 0, 53, 4, 46, 38, 10, 0, 22, 24, 33, 63, 27, 13, 34, 16, 37, 26, 36, 0, 0, 0, 0, 48, 0, 50, 0, 21, 58, 44, 0, 55, 3, 42, 61, 6, 20, 0, 56, 0, 19, 0, 0, 62, 32, 60, 5, 57, 0, 25, 0, 0, 8, 0, 23, 0, 12, 17, 0
|3, 58, 56, 0, 51, 4, 17, 27, 0, 55, 47, 33, 12, 23, 29, 19, 26, 6, 0, 0, 15, 43, 0, 7, 1, 61, 30, 0, 21, 0, 0, 25, 18, 44, 0, 5, 0, 59, 50, 0, 2, 34, 31, 37, 0, 0, 0, 10, 64, 0, 36, 39, 0, 0, 54, 8, 49, 14, 0, 35, 52, 0, 62, 9
|16, 15, 32, 0, 5, 48, 2, 29, 30, 0, 46, 64, 1, 0, 37, 41, 62, 0, 38, 10, 0, 0, 33, 40, 44, 59, 3, 4, 0, 45, 0, 0, 0, 0, 0, 12, 0, 54, 0, 24, 53, 0, 22, 25, 0, 0, 11, 47, 28, 18, 63, 23, 13, 26, 56, 51, 7, 19, 43, 0, 50, 39, 58, 34
|0, 12, 37, 0, 22, 62, 0, 61, 58, 8, 21, 39, 0, 0, 0, 17, 24, 0, 27, 57, 52, 0, 9, 35, 18, 0, 38, 26, 28, 16, 56, 15, 23, 3, 0, 0, 53, 0, 0, 0, 0, 19, 50, 0, 55, 64, 0, 43, 49, 20, 10, 41, 48, 0, 6, 45, 0, 46, 0, 0, 0, 11, 0, 0
|30, 53, 41, 0, 59, 47, 23, 54, 7, 0, 9, 20, 35, 6, 31, 43, 0, 63, 37, 0, 1, 44, 48, 0, 0, 51, 52, 24, 39, 42, 14, 0, 11, 55, 0, 28, 29, 26, 19, 33, 15, 0, 16, 45, 17, 58, 60, 27, 34, 5, 57, 0, 0, 50, 46, 22, 25, 38, 2, 0, 8, 36, 0, 10
|10, 57, 0, 0, 0, 14, 0, 0, 24, 13, 25, 22, 2, 48, 52, 59, 0, 0, 18, 0, 11, 53, 54, 3, 34, 36, 63, 43, 0, 20, 33, 7, 37, 0, 0, 4, 0, 0, 0, 0, 29, 62, 23, 51, 21, 0, 5, 61, 0, 35, 19, 0, 58, 38, 60, 30, 47, 44, 0, 27, 32, 0, 15, 26
|18, 35, 60, 6, 0, 20, 25, 0, 57, 28, 5, 0, 50, 49, 61, 53, 42, 36, 0, 0, 23, 0, 8, 0, 17, 2, 19, 11, 0, 47, 0, 64, 58, 27, 0, 48, 22, 0, 0, 40, 26, 9, 13, 59, 0, 0, 32, 4, 0, 1, 62, 14, 55, 21, 43, 44, 63, 3, 54, 31, 0, 37, 29, 12
|34, 26, 38, 13, 40, 39, 0, 1, 14, 11, 0, 45, 0, 27, 0, 44, 49, 25, 0, 0, 5, 59, 0, 0, 0, 57, 31, 50, 35, 22, 58, 32, 51, 43, 0, 41, 10, 15, 0, 16, 52, 0, 46, 54, 6, 3, 28, 56, 37, 33, 2, 24, 42, 29, 7, 0, 20, 30, 23, 17, 0, 61, 4, 53
|42, 36, 31, 64, 50, 11, 0, 19, 0, 26, 0, 0, 54, 0, 18, 40, 21, 58, 0, 0, 45, 14, 2, 20, 37, 23, 49, 5, 55, 8, 29, 13, 35, 0, 0, 32, 62, 0, 34, 0, 0, 44, 39, 0, 0, 30, 48, 12, 0, 0, 0, 59, 53, 27, 3, 52, 57, 1, 0, 0, 24, 33, 60, 6
|40, 25, 11, 0, 12, 0, 0, 31, 39, 7, 0, 58, 0, 0, 0, 37, 20, 0, 24, 42, 0, 4, 61, 43, 52, 0, 5, 21, 0, 0, 60, 0, 45, 29, 0, 9, 0, 63, 23, 0, 32, 36, 59, 6, 0, 16, 0, 22, 18, 48, 0, 0, 17, 0, 14, 41, 0, 49, 0, 54, 0, 3, 13, 0
|14, 52, 59, 10, 27, 24, 0, 9, 0, 16, 49, 44, 28, 21, 2, 25, 34, 23, 15, 56, 8, 33, 0, 0, 62, 39, 6, 0, 51, 48, 4, 26, 0, 0, 30, 11, 17, 55, 54, 35, 3, 61, 29, 50, 53, 0, 0, 38, 45, 0, 20, 13, 37, 0, 57, 43, 46, 0, 0, 12, 41, 31, 64, 0
|23, 0, 0, 0, 0, 0, 57, 38, 17, 48, 32, 0, 36, 12, 1, 0, 41, 52, 0, 6, 0, 49, 30, 0, 22, 63, 7, 14, 25, 34, 0, 54, 13, 0, 3, 0, 31, 0, 28, 0, 43, 42, 0, 58, 45, 9, 24, 40, 0, 0, 0, 29, 47, 2, 5, 16, 59, 15, 10, 0, 62, 50, 8, 20
|48, 0, 64, 1, 0, 6, 54, 26, 50, 22, 52, 41, 0, 9, 33, 29, 13, 0, 47, 14, 0, 0, 7, 59, 11, 17, 0, 56, 58, 24, 28, 49, 0, 4, 0, 62, 32, 53, 37, 25, 0, 31, 51, 20, 19, 35, 15, 55, 42, 34, 0, 12, 0, 40, 0, 60, 61, 2, 18, 16, 36, 23, 5, 21
|21, 51, 7, 0, 0, 0, 39, 45, 62, 6, 0, 5, 3, 13, 0, 23, 19, 64, 0, 1, 35, 54, 63, 31, 59, 53, 2, 0, 8, 50, 9, 18, 24, 61, 42, 58, 16, 0, 43, 0, 28, 57, 37, 49, 47, 0, 41, 17, 25, 10, 33, 22, 44, 4, 15, 0, 11, 32, 0, 40, 26, 0, 0, 30
|63, 60, 8, 0, 33, 0, 16, 3, 10, 0, 27, 40, 51, 54, 15, 31, 11, 50, 0, 0, 0, 22, 55, 37, 47, 35, 64, 13, 42, 38, 0, 61, 39, 14, 36, 46, 5, 41, 49, 20, 44, 12, 62, 0, 52, 18, 34, 0, 0, 24, 23, 30, 19, 6, 0, 7, 4, 29, 0, 58, 1, 57, 56, 0
|62, 19, 0, 20, 15, 0, 49, 37, 61, 34, 24, 4, 57, 0, 14, 42, 0, 0, 0, 32, 53, 0, 0, 0, 0, 46, 44, 16, 31, 0, 41, 40, 59, 0, 0, 10, 47, 64, 18, 48, 33, 7, 8, 13, 54, 11, 0, 23, 56, 0, 3, 0, 50, 0, 9, 38, 35, 63, 45, 39, 17, 0, 51, 25
|50, 13, 47, 17, 41, 5, 18, 56, 0, 0, 60, 59, 11, 45, 0, 0, 0, 0, 46, 29, 0, 0, 57, 0, 3, 55, 43, 0, 0, 33, 19, 23, 1, 15, 0, 2, 7, 40, 0, 52, 14, 64, 4, 26, 48, 0, 30, 39, 0, 61, 49, 0, 32, 62, 31, 0, 24, 37, 22, 9, 0, 28, 34, 42|];