order = 8;
grid = [|22, 20, 36, 13, 0, 0, 0, 29, 50, 8, 2, 0, 0, 3, 0, 45, 0, 15, 4, 0, 14, 61, 0, 0, 46, 16, 19, 59, 12, 52, 55, 54, 49, 37, 48, 26, 0, 0, 39, 38, 23, 18, 1, 63, 17, 32, 35, 44, 42, 0, 6, 62, 30, 41, 0, 0, 5, 47, 58, 57, 40, 51, 9, 0
|1, 9, 0, 2, 17, 23, 0, 43, 28, 64, 60, 59, 42, 46, 0, 0, 22, 25, 0, 0, 38, 52, 0, 41, 3, 44, 0, 0, 58, 18, 0, 0, 0, 15, 0, 56, 0, 10, 34, 0, 53, 5, 55, 8, 51, 14, 0, 49, 48, 0, 21, 13, 40, 57, 0, 0, 20, 61, 0, 37, 0, 54, 6, 32
|6, 61, 42, 0, 0, 18, 51, 24, 16, 0, 4, 38, 0, 40, 9, 33, 31, 2, 13, 0, 26, 59, 58, 0, 25, 21, 0, 34, 0, 60, 0, 0, 0, 41, 1, 20, 52, 45, 50, 0, 0, 37, 46, 62, 30, 54, 0, 22, 0, 32, 0, 19, 12, 23, 0, 0, 0, 0, 7, 53, 48, 0, 11, 15
|48, 0, 38, 49, 0, 0, 0, 62, 19, 57, 5, 15, 24, 0, 0, 17, 0, 56, 37, 60, 3, 54, 0, 0, 0, 6, 30, 0, 61, 20, 0, 33, 43, 8, 21, 0, 0, 18, 9, 0, 12, 47, 11, 7, 64, 25, 26, 0, 10, 0, 0, 51, 45, 0, 1, 59, 22, 0, 50, 63, 13, 52, 0, 35
|5, 56, 0, 45, 60, 54, 0, 25, 37, 32, 48, 61, 1, 0, 30, 0, 0, 51, 9, 0, 20, 63, 11, 21, 15, 31, 0, 38, 39, 0, 40, 22, 3, 44, 47, 55, 42, 59, 2, 0, 6, 52, 4, 43, 16, 41, 58, 13, 7, 64, 50, 0, 8, 17, 33, 24, 14, 0, 46, 23, 0, 0, 19, 18
|10, 0, 0, 14, 0, 0, 37, 32, 26, 0, 20, 0, 0, 58, 51, 11, 0, 0, 0, 18, 29, 34, 43, 44, 0, 23, 0, 0, 5, 62, 0, 42, 25, 40, 0, 0, 0, 19, 0, 30, 21, 27, 38, 56, 48, 45, 3, 33, 0, 53, 61, 54, 49, 60, 0, 55, 0, 17, 59, 41, 0, 4, 12, 0
|0, 0, 40, 0, 0, 19, 3, 59, 0, 63, 0, 0, 49, 21, 0, 41, 0, 1, 64, 42, 45, 48, 0, 7, 2, 0, 37, 51, 56, 47, 43, 17, 58, 12, 13, 0, 31, 4, 6, 33, 39, 24, 0, 10, 15, 50, 28, 9, 5, 0, 18, 0, 0, 34, 0, 38, 44, 27, 36, 30, 55, 60, 0, 26
|47, 52, 33, 44, 0, 8, 26, 0, 36, 6, 39, 0, 53, 0, 56, 0, 50, 0, 0, 5, 30, 0, 16, 49, 57, 7, 63, 0, 0, 27, 0, 29, 54, 17, 11, 23, 35, 51, 64, 0, 34, 42, 59, 0, 61, 2, 60, 0, 37, 3, 58, 43, 15, 0, 22, 46, 24, 28, 1, 45, 38, 10, 25, 21
|30, 12, 41, 46, 38, 0, 47, 10, 58, 0, 0, 14, 19, 8, 0, 3, 61, 0, 23, 56, 15, 11, 45, 60, 50, 13, 21, 36, 62, 29, 0, 40, 17, 5, 32, 7, 1, 44, 54, 34, 57, 0, 0, 53, 22, 43, 0, 0, 39, 51, 24, 0, 64, 63, 18, 4, 25, 0, 0, 55, 28, 27, 48, 33
|34, 0, 0, 0, 33, 16, 45, 36, 49, 9, 29, 39, 0, 54, 38, 7, 24, 58, 0, 0, 52, 43, 64, 3, 0, 4, 1, 0, 32, 0, 28, 0, 26, 46, 0, 27, 0, 8, 0, 23, 51, 62, 47, 12, 21, 11, 63, 55, 0, 0, 40, 53, 50, 44, 25, 0, 0, 56, 0, 35, 0, 19, 0, 10
|39, 0, 0, 0, 0, 22, 0, 63, 0, 27, 44, 32, 0, 0, 0, 43, 7, 0, 0, 0, 0, 40, 0, 35, 51, 34, 0, 47, 0, 0, 53, 18, 45, 59, 0, 64, 28, 0, 49, 55, 0, 30, 25, 26, 23, 4, 0, 15, 0, 56, 0, 16, 19, 52, 48, 57, 21, 0, 42, 61, 0, 29, 60, 9
|0, 14, 0, 55, 31, 0, 48, 26, 2, 36, 0, 0, 51, 5, 13, 0, 38, 0, 39, 29, 4, 18, 32, 25, 12, 35, 17, 0, 43, 15, 0, 59, 21, 62, 30, 0, 61, 33, 57, 0, 0, 10, 34, 0, 0, 0, 0, 0, 49, 54, 22, 0, 27, 6, 58, 42, 0, 16, 0, 24, 53, 0, 47, 23
|44, 2, 8, 0, 40, 43, 0, 21, 55, 59, 63, 56, 0, 0, 0, 28, 0, 0, 0, 37, 53, 33, 19, 20, 0, 0, 42, 0, 25, 22, 3, 45, 47, 24, 0, 38, 0, 50, 0, 51, 27, 29, 58, 36, 0, 35, 16, 0, 62, 13, 10, 15, 31, 30, 0, 0, 41, 0, 52, 0, 32, 46, 64, 5
|13, 19, 23, 11, 9, 0, 35, 0, 0, 0, 0, 0, 0, 62, 31, 0, 0, 36, 0, 47, 55, 0, 0, 63, 6, 56, 33, 2, 0, 48, 10, 38, 0, 0, 43, 40, 16, 0, 60, 58, 14, 41, 52, 61, 8, 18, 17, 1, 0, 0, 32, 28, 34, 21, 0, 0, 51, 0, 4, 0, 50, 26, 39, 12
|37, 58, 0, 0, 64, 4, 18, 50, 17, 0, 53, 0, 34, 47, 20, 46, 49, 28, 10, 51, 41, 0, 26, 0, 23, 57, 39, 0, 0, 0, 14, 0, 9, 0, 52, 0, 0, 0, 31, 12, 59, 56, 0, 24, 32, 0, 0, 19, 29, 0, 0, 45, 11, 0, 61, 0, 15, 0, 44, 62, 43, 0, 30, 13
|29, 62, 53, 7, 32, 51, 61, 0, 12, 50, 30, 21, 35, 4, 0, 48, 57, 46, 34, 0, 13, 0, 0, 0, 55, 24, 0, 0, 26, 0, 5, 0, 37, 19, 56, 10, 6, 0, 25, 42, 44, 40, 45, 38, 0, 33, 39, 60, 9, 23, 0, 36, 0, 0, 59, 43, 1, 58, 54, 11, 0, 8, 0, 0
|27, 40, 21, 32, 0, 3, 53, 0, 0, 58, 0, 1, 44, 50, 42, 29, 2, 38, 12, 0, 0, 0, 18, 0, 0, 0, 11, 48, 30, 0, 54, 56, 0, 0, 0, 57, 63, 31, 16, 15, 0, 26, 41, 0, 14, 0, 0, 59, 0, 55, 17, 0, 0, 5, 8, 0, 0, 10, 49, 64, 6, 0, 28, 46
|0, 36, 6, 51, 52, 0, 14, 57, 0, 31, 0, 0, 21, 12, 28, 40, 0, 27, 0, 0, 49, 16, 13, 58, 0, 0, 0, 18, 7, 0, 35, 60, 0, 0, 53, 5, 38, 0, 23, 0, 43, 4, 0, 0, 62, 0, 0, 46, 64, 0, 33, 0, 39, 0, 19, 32, 54, 0, 20, 42, 59, 0, 24, 17
|55, 0, 0, 0, 54, 11, 0, 0, 34, 25, 16, 0, 30, 26, 64, 57, 14, 20, 42, 28, 46, 36, 50, 0, 13, 0, 0, 15, 0, 12, 27, 62, 44, 6, 17, 58, 56, 48, 33, 43, 10, 8, 0, 0, 24, 63, 1, 35, 31, 0, 52, 21, 29, 59, 0, 49, 45, 19, 5, 32, 0, 0, 22, 0
|64, 0, 49, 41, 0, 0, 22, 56, 48, 62, 23, 17, 60, 51, 5, 0, 35, 34, 31, 10, 8, 26, 0, 61, 0, 36, 16, 0, 0, 33, 24, 52, 29, 54, 0, 0, 37, 32, 0, 40, 0, 0, 7, 44, 39, 58, 38, 6, 0, 0, 57, 0, 0, 11, 20, 0, 9, 55, 27, 0, 12, 3, 13, 1
|24, 17, 44, 0, 0, 35, 13, 8, 33, 38, 37, 4, 0, 52, 54, 56, 29, 43, 41, 25, 63, 62, 0, 11, 40, 26, 51, 57, 42, 5, 0, 32, 50, 0, 9, 3, 0, 39, 0, 0, 18, 49, 0, 0, 27, 28, 61, 20, 22, 0, 7, 46, 47, 15, 6, 45, 60, 14, 53, 31, 0, 23, 0, 34
|61, 0, 0, 0, 37, 0, 10, 58, 32, 11, 0, 0, 0, 22, 45, 0, 0, 0, 57, 44, 0, 24, 21, 23, 31, 50, 28, 0, 17, 49, 20, 1, 0, 47, 8, 18, 34, 0, 27, 19, 30, 0, 3, 40, 53, 5, 54, 48, 14, 43, 12, 0, 0, 13, 62, 0, 33, 0, 35, 56, 0, 0, 52, 0
|0, 43, 0, 5, 50, 0, 23, 7, 0, 46, 18, 0, 0, 36, 55, 0, 6, 22, 40, 17, 59, 1, 52, 30, 44, 0, 29, 0, 19, 0, 0, 9, 0, 49, 0, 0, 20, 62, 14, 2, 0, 0, 0, 21, 47, 57, 33, 0, 54, 10, 3, 56, 48, 35, 27, 60, 16, 11, 41, 0, 63, 0, 0, 38
|12, 0, 62, 15, 0, 28, 60, 31, 0, 61, 19, 6, 20, 49, 27, 63, 0, 53, 54, 0, 5, 47, 3, 48, 0, 41, 10, 0, 2, 21, 46, 14, 4, 36, 0, 42, 11, 26, 30, 52, 64, 23, 13, 22, 45, 0, 34, 0, 58, 38, 0, 0, 1, 0, 24, 40, 50, 18, 43, 8, 29, 0, 44, 51
|0, 5, 0, 31, 16, 0, 2, 0, 0, 0, 0, 0, 0, 11, 19, 53, 13, 4, 0, 24, 62, 0, 0, 52, 32, 28, 41, 0, 27, 0, 61, 0, 39, 51, 22, 45, 0, 57, 56, 46, 55, 58, 15, 29, 33, 0, 18, 63, 43, 42, 1, 0, 10, 64, 21, 36, 0, 44, 0, 17, 23, 7, 40, 54
|23, 6, 0, 28, 58, 0, 0, 35, 39, 30, 15, 37, 0, 42, 18, 61, 25, 47, 22, 43, 44, 49, 1, 50, 45, 20, 8, 0, 34, 36, 0, 46, 10, 0, 0, 59, 0, 0, 62, 13, 0, 32, 0, 54, 31, 64, 7, 52, 33, 5, 60, 0, 0, 56, 4, 11, 48, 0, 55, 0, 27, 53, 2, 0
|0, 22, 64, 43, 0, 7, 39, 15, 38, 0, 12, 0, 0, 35, 14, 50, 51, 40, 26, 55, 0, 46, 36, 6, 4, 58, 9, 62, 57, 56, 42, 44, 1, 27, 5, 17, 29, 3, 11, 16, 60, 45, 0, 47, 25, 61, 53, 0, 30, 52, 63, 23, 0, 24, 0, 48, 8, 37, 0, 21, 33, 28, 59, 20
|0, 0, 0, 53, 59, 0, 50, 60, 0, 44, 1, 51, 63, 0, 0, 55, 10, 48, 0, 0, 54, 27, 12, 8, 43, 39, 24, 17, 52, 0, 38, 7, 23, 33, 61, 0, 36, 0, 18, 9, 0, 0, 35, 34, 46, 37, 0, 0, 26, 0, 0, 20, 58, 0, 15, 41, 32, 0, 62, 0, 19, 0, 57, 47
|17, 54, 0, 36, 10, 55, 0, 0, 40, 52, 46, 33, 28, 6, 2, 32, 23, 41, 7, 30, 21, 53, 0, 45, 16, 0, 18, 0, 15, 3, 0, 0, 12, 0, 25, 0, 47, 0, 38, 0, 0, 44, 43, 0, 50, 0, 0, 11, 19, 0, 0, 61, 59, 51, 57, 35, 64, 0, 39, 0, 56, 0, 0, 0
|4, 0, 19, 8, 34, 56, 24, 37, 21, 0, 0, 26, 45, 0, 0, 36, 20, 42, 33, 39, 0, 0, 0, 32, 10, 0, 0, 0, 0, 64, 30, 53, 14, 0, 0, 0, 44, 55, 0, 63, 0, 0, 40, 16, 6, 22, 49, 0, 18, 46, 31, 0, 38, 29, 0, 0, 35, 0, 0, 51, 61, 11, 15, 60
|62, 44, 61, 30, 18, 57, 52, 33, 47, 0, 41, 34, 56, 0, 17, 27, 15, 0, 29, 0, 9, 19, 0, 0, 0, 11, 0, 21, 40, 2, 0, 0, 32, 58, 50, 0, 49, 37, 0, 7, 28, 39, 0, 48, 59, 20, 0, 0, 53, 6, 14, 3, 25, 12, 54, 13, 42, 46, 10, 38, 22, 1, 4, 45
|46, 32, 3, 0, 14, 38, 40, 0, 0, 0, 62, 0, 58, 7, 0, 20, 11, 61, 0, 31, 0, 56, 5, 18, 33, 0, 0, 0, 29, 23, 22, 25, 2, 28, 60, 0, 0, 30, 42, 35, 41, 21, 27, 57, 13, 1, 0, 12, 0, 0, 34, 0, 0, 0, 45, 0, 0, 0, 0, 36, 52, 43, 0, 50
|50, 3, 18, 56, 62, 9, 5, 0, 44, 0, 13, 0, 0, 64, 36, 0, 30, 39, 55, 0, 35, 0, 0, 34, 0, 49, 12, 0, 0, 40, 26, 16, 19, 0, 51, 0, 14, 0, 0, 8, 29, 63, 60, 33, 0, 53, 57, 0, 0, 0, 0, 25, 54, 22, 32, 58, 52, 0, 17, 0, 10, 47, 43, 59
|15, 57, 0, 33, 12, 13, 17, 0, 0, 34, 49, 7, 37, 48, 32, 38, 64, 21, 61, 19, 28, 0, 40, 31, 36, 42, 27, 29, 0, 8, 47, 0, 0, 1, 6, 0, 0, 0, 0, 3, 0, 0, 0, 0, 35, 23, 44, 4, 63, 62, 0, 0, 2, 0, 60, 52, 56, 0, 0, 0, 51, 18, 53, 16
|54, 0, 31, 20, 47, 0, 16, 11, 63, 39, 55, 0, 26, 15, 0, 0, 58, 52, 43, 0, 60, 50, 7, 33, 0, 0, 32, 56, 0, 4, 18, 2, 36, 10, 23, 0, 64, 0, 21, 0, 24, 25, 62, 0, 12, 3, 8, 51, 0, 0, 59, 48, 0, 53, 42, 0, 38, 45, 57, 46, 5, 40, 35, 0
|25, 64, 0, 34, 43, 53, 36, 40, 42, 0, 52, 0, 27, 61, 22, 0, 26, 5, 0, 6, 11, 0, 0, 9, 0, 0, 13, 23, 55, 0, 57, 15, 56, 63, 58, 2, 4, 0, 0, 0, 17, 0, 30, 45, 19, 47, 10, 37, 0, 18, 16, 38, 21, 31, 0, 51, 39, 49, 0, 29, 60, 0, 0, 28
|38, 23, 0, 0, 8, 60, 44, 49, 18, 0, 0, 40, 12, 2, 4, 58, 56, 59, 17, 0, 22, 0, 53, 0, 28, 0, 54, 10, 24, 43, 64, 61, 48, 32, 27, 52, 0, 0, 0, 62, 0, 13, 39, 15, 11, 31, 6, 0, 47, 7, 30, 57, 35, 14, 50, 26, 19, 63, 21, 0, 37, 0, 0, 0
|14, 26, 32, 0, 0, 0, 6, 0, 57, 56, 35, 29, 0, 0, 0, 0, 27, 54, 62, 38, 24, 8, 0, 0, 0, 45, 5, 58, 0, 63, 0, 48, 53, 61, 0, 9, 0, 0, 0, 17, 52, 2, 18, 49, 1, 0, 22, 16, 55, 4, 0, 0, 0, 28, 46, 64, 13, 0, 15, 3, 11, 41, 20, 44
|35, 1, 22, 58, 4, 48, 59, 30, 3, 41, 14, 0, 16, 19, 11, 31, 18, 0, 63, 46, 10, 23, 0, 0, 53, 60, 52, 7, 0, 0, 9, 39, 42, 0, 0, 34, 13, 54, 40, 47, 0, 43, 56, 28, 5, 21, 55, 0, 24, 20, 15, 6, 0, 0, 37, 12, 36, 25, 61, 2, 8, 64, 0, 62
|52, 41, 37, 21, 24, 61, 0, 42, 0, 17, 28, 5, 62, 53, 59, 60, 4, 57, 15, 14, 1, 2, 47, 51, 0, 25, 20, 3, 35, 46, 6, 50, 18, 0, 33, 11, 0, 16, 0, 0, 48, 0, 0, 0, 40, 0, 36, 34, 56, 9, 45, 49, 0, 8, 39, 44, 27, 0, 0, 0, 0, 55, 0, 30
|0, 49, 0, 22, 0, 64, 12, 52, 56, 21, 0, 24, 0, 34, 15, 16, 32, 30, 0, 0, 40, 20, 33, 0, 17, 46, 48, 27, 14, 61, 25, 58, 0, 9, 2, 13, 18, 0, 0, 45, 0, 0, 0, 35, 36, 62, 31, 39, 11, 50, 29, 60, 6, 4, 0, 0, 0, 59, 0, 54, 0, 38, 23, 37
|18, 60, 54, 27, 0, 0, 62, 1, 0, 0, 0, 55, 64, 9, 63, 4, 19, 35, 50, 59, 57, 6, 22, 0, 56, 0, 40, 20, 0, 10, 16, 12, 11, 29, 0, 0, 21, 0, 53, 39, 7, 33, 8, 51, 2, 49, 47, 0, 45, 17, 0, 37, 0, 0, 13, 23, 0, 36, 32, 44, 34, 0, 0, 52
|43, 0, 50, 0, 45, 44, 19, 0, 62, 2, 17, 0, 46, 38, 0, 54, 36, 7, 18, 49, 31, 51, 41, 0, 8, 59, 6, 33, 13, 0, 37, 34, 35, 30, 14, 60, 10, 52, 0, 64, 56, 20, 23, 27, 0, 0, 4, 58, 57, 15, 0, 0, 0, 32, 47, 21, 3, 0, 11, 39, 42, 22, 0, 24
|0, 0, 5, 37, 0, 17, 38, 20, 1, 35, 22, 27, 8, 14, 58, 0, 34, 23, 48, 52, 25, 60, 54, 0, 0, 30, 45, 42, 41, 0, 0, 64, 0, 56, 4, 32, 33, 43, 44, 50, 19, 11, 12, 0, 10, 0, 0, 0, 0, 59, 26, 31, 7, 0, 0, 3, 0, 62, 29, 6, 0, 63, 16, 55
|8, 13, 0, 47, 29, 34, 41, 0, 45, 0, 0, 19, 59, 28, 33, 5, 63, 11, 1, 15, 37, 39, 4, 0, 49, 0, 44, 52, 50, 9, 0, 26, 0, 16, 55, 24, 0, 23, 0, 57, 3, 61, 0, 0, 0, 17, 48, 30, 51, 0, 53, 22, 42, 36, 35, 0, 40, 60, 12, 43, 25, 0, 18, 7
|40, 0, 30, 26, 6, 21, 32, 39, 7, 60, 0, 36, 0, 29, 0, 25, 0, 3, 24, 27, 42, 0, 0, 46, 0, 0, 0, 35, 63, 1, 23, 0, 22, 48, 0, 12, 8, 47, 17, 20, 5, 0, 44, 55, 0, 9, 15, 57, 52, 19, 62, 0, 18, 54, 38, 33, 0, 0, 0, 10, 58, 13, 0, 61
|0, 0, 16, 63, 0, 14, 11, 53, 13, 47, 31, 12, 50, 44, 57, 37, 43, 10, 38, 58, 0, 64, 0, 0, 5, 15, 0, 0, 60, 0, 0, 51, 0, 7, 0, 0, 40, 36, 0, 61, 45, 0, 42, 18, 54, 52, 41, 0, 0, 1, 20, 24, 0, 49, 55, 30, 0, 35, 0, 33, 9, 48, 0, 0
|0, 35, 59, 24, 0, 58, 33, 3, 6, 18, 11, 0, 23, 0, 10, 0, 5, 17, 21, 0, 0, 0, 29, 0, 0, 62, 57, 0, 0, 0, 0, 55, 38, 26, 49, 37, 54, 28, 51, 0, 22, 60, 50, 0, 0, 0, 32, 0, 40, 0, 0, 0, 41, 0, 34, 39, 0, 2, 64, 4, 15, 0, 0, 27
|0, 0, 56, 62, 13, 0, 27, 0, 0, 19, 10, 63, 7, 0, 61, 26, 0, 60, 25, 1, 43, 58, 6, 0, 35, 51, 34, 12, 45, 41, 0, 0, 8, 22, 44, 39, 0, 38, 37, 0, 0, 0, 21, 31, 0, 0, 46, 64, 0, 48, 0, 14, 0, 42, 0, 20, 18, 50, 40, 28, 24, 5, 54, 49
|0, 0, 0, 0, 0, 45, 34, 0, 0, 49, 0, 0, 5, 17, 41, 62, 21, 31, 11, 26, 56, 55, 0, 59, 37, 40, 60, 0, 0, 42, 33, 36, 0, 0, 19, 48, 0, 61, 24, 0, 0, 0, 14, 0, 44, 0, 0, 28, 15, 58, 35, 10, 52, 1, 29, 0, 23, 0, 47, 22, 20, 16, 7, 43
|31, 38, 14, 61, 0, 2, 42, 17, 59, 53, 64, 11, 36, 0, 0, 47, 41, 37, 0, 0, 0, 28, 0, 15, 52, 29, 26, 4, 0, 39, 0, 19, 7, 0, 12, 0, 30, 35, 20, 25, 0, 16, 22, 1, 55, 10, 62, 0, 60, 24, 0, 0, 23, 43, 0, 34, 0, 0, 45, 48, 21, 9, 0, 63
|58, 10, 1, 52, 26, 41, 20, 23, 25, 15, 56, 46, 18, 37, 21, 51, 48, 0, 49, 50, 16, 17, 30, 42, 9, 3, 31, 24, 8, 38, 32, 13, 40, 43, 29, 63, 0, 11, 0, 5, 0, 35, 2, 19, 0, 0, 0, 36, 6, 47, 64, 0, 0, 45, 0, 22, 55, 39, 0, 0, 44, 0, 61, 53
|51, 7, 28, 0, 63, 36, 0, 0, 31, 40, 58, 45, 38, 0, 48, 34, 33, 0, 32, 0, 19, 22, 0, 2, 54, 61, 15, 1, 16, 0, 17, 10, 64, 42, 26, 62, 0, 0, 47, 60, 11, 0, 5, 39, 0, 13, 25, 0, 0, 12, 9, 0, 3, 18, 44, 8, 0, 52, 30, 59, 35, 0, 14, 57
|19, 55, 0, 60, 21, 49, 8, 22, 27, 0, 0, 28, 0, 0, 12, 42, 45, 0, 47, 34, 39, 35, 9, 62, 7, 0, 23, 44, 64, 57, 63, 0, 16, 3, 0, 14, 0, 0, 52, 0, 32, 0, 24, 17, 58, 0, 43, 26, 0, 40, 0, 59, 0, 0, 30, 0, 10, 15, 31, 0, 41, 33, 36, 0
|33, 47, 48, 0, 57, 24, 4, 0, 14, 43, 6, 35, 9, 32, 0, 44, 52, 63, 36, 0, 64, 10, 61, 38, 22, 0, 56, 11, 0, 30, 50, 0, 31, 55, 15, 1, 0, 58, 0, 41, 42, 3, 37, 0, 20, 34, 0, 18, 13, 16, 54, 39, 62, 0, 49, 53, 12, 0, 2, 19, 0, 17, 51, 29
|32, 37, 35, 54, 46, 0, 25, 18, 0, 1, 33, 16, 0, 57, 0, 30, 40, 0, 0, 23, 12, 44, 0, 0, 0, 43, 58, 28, 59, 14, 62, 20, 34, 13, 10, 49, 51, 9, 36, 56, 47, 7, 61, 41, 60, 15, 50, 0, 0, 31, 55, 2, 26, 0, 17, 63, 4, 42, 38, 27, 64, 0, 3, 11
|26, 21, 0, 0, 36, 37, 28, 38, 0, 0, 0, 44, 0, 33, 62, 0, 46, 0, 51, 53, 0, 0, 56, 39, 58, 18, 61, 0, 0, 54, 0, 41, 57, 23, 24, 19, 0, 17, 32, 0, 0, 1, 10, 0, 63, 0, 0, 47, 20, 8, 5, 4, 0, 3, 40, 29, 6, 9, 0, 0, 0, 12, 34, 14
|9, 50, 13, 10, 61, 12, 0, 41, 0, 37, 0, 58, 32, 56, 7, 15, 42, 18, 0, 21, 36, 5, 20, 0, 60, 0, 0, 46, 28, 0, 59, 8, 0, 14, 31, 47, 25, 0, 45, 54, 35, 0, 17, 30, 34, 24, 40, 29, 38, 63, 49, 26, 55, 0, 51, 0, 11, 43, 0, 0, 0, 0, 0, 39
|0, 63, 47, 17, 0, 32, 0, 54, 51, 10, 36, 18, 25, 45, 46, 24, 0, 49, 35, 11, 27, 15, 60, 0, 29, 0, 4, 16, 0, 50, 39, 23, 30, 0, 0, 43, 59, 40, 26, 0, 61, 6, 33, 0, 0, 48, 14, 62, 2, 34, 0, 58, 28, 0, 0, 37, 53, 64, 8, 20, 1, 42, 55, 0
|0, 29, 0, 0, 53, 0, 55, 34, 60, 54, 21, 0, 17, 59, 50, 0, 0, 19, 0, 61, 48, 13, 25, 0, 0, 0, 0, 5, 0, 51, 45, 0, 28, 0, 42, 0, 9, 1, 0, 44, 0, 0, 31, 4, 26, 0, 37, 0, 0, 0, 0, 0, 46, 27, 52, 18, 0, 33, 16, 0, 0, 30, 10, 0
|16, 8, 39, 59, 1, 33, 7, 0, 5, 48, 34, 52, 29, 63, 53, 6, 17, 62, 45, 0, 50, 0, 31, 54, 0, 0, 0, 0, 9, 11, 44, 57, 60, 0, 0, 36, 46, 0, 10, 37, 49, 51, 0, 0, 0, 0, 27, 43, 0, 35, 19, 0, 0, 47, 0, 15, 61, 0, 28, 13, 0, 58, 26, 22
|2, 0, 43, 42, 0, 40, 15, 48, 30, 12, 0, 64, 0, 0, 0, 49, 59, 26, 52, 0, 47, 4, 34, 10, 0, 37, 0, 22, 0, 35, 56, 0, 33, 0, 63, 53, 0, 27, 0, 6, 46, 0, 0, 13, 0, 19, 23, 0, 0, 0, 44, 11, 0, 62, 31, 54, 29, 0, 0, 18, 17, 32, 38, 0
|60, 25, 24, 4, 30, 62, 46, 44, 20, 28, 57, 23, 0, 0, 0, 35, 37, 33, 0, 3, 32, 0, 0, 0, 27, 0, 14, 40, 49, 34, 0, 6, 51, 11, 16, 0, 0, 0, 12, 48, 8, 0, 53, 0, 18, 42, 21, 38, 17, 61, 56, 1, 22, 50, 64, 0, 47, 54, 63, 15, 0, 59, 31, 19
|49, 0, 27, 3, 0, 6, 31, 0, 9, 55, 0, 0, 40, 1, 0, 19, 8, 24, 0, 64, 23, 29, 63, 57, 21, 0, 25, 0, 0, 17, 15, 30, 52, 34, 20, 0, 41, 13, 61, 0, 0, 36, 54, 11, 0, 44, 2, 32, 59, 45, 0, 33, 53, 0, 10, 14, 37, 0, 60, 5, 46, 0, 62, 0|];