order = 8;
grid = [|56, 10, 57, 0, 59, 6, 36, 0, 8, 7, 0, 0, 16, 0, 29, 14, 52, 19, 58, 0, 63, 3, 15, 47, 27, 0, 0, 1, 0, 25, 0, 0, 60, 38, 64, 20, 11, 0, 49, 2, 21, 0, 31, 30, 0, 34, 54, 35, 0, 53, 0, 18, 39, 41, 22, 50, 0, 12, 0, 33, 42, 55, 43, 0
|14, 15, 0, 0, 0, 37, 9, 3, 0, 1, 25, 0, 0, 28, 0, 39, 0, 6, 0, 0, 49, 64, 4, 30, 21, 53, 0, 0, 2, 38, 56, 0, 24, 31, 52, 0, 13, 0, 0, 63, 19, 45, 36, 0, 27, 0, 58, 0, 48, 40, 42, 0, 10, 12, 7, 35, 47, 41, 20, 61, 8, 0, 44, 16
|0, 34, 0, 13, 49, 0, 53, 25, 0, 0, 43, 11, 15, 4, 42, 30, 27, 0, 0, 0, 24, 0, 56, 9, 44, 0, 0, 48, 19, 58, 0, 31, 0, 17, 3, 21, 41, 8, 46, 59, 40, 0, 61, 12, 57, 33, 60, 63, 0, 29, 51, 0, 0, 28, 32, 62, 54, 52, 1, 37, 50, 0, 18, 5
|27, 31, 60, 63, 0, 0, 24, 8, 22, 38, 3, 64, 26, 57, 37, 56, 0, 20, 21, 2, 18, 0, 0, 28, 39, 11, 42, 40, 0, 14, 35, 13, 10, 0, 43, 51, 6, 0, 58, 55, 32, 0, 1, 9, 5, 0, 0, 62, 0, 0, 59, 33, 54, 44, 52, 30, 0, 17, 36, 19, 7, 0, 4, 0
|55, 0, 0, 0, 11, 61, 0, 29, 5, 24, 60, 0, 58, 21, 51, 0, 0, 43, 0, 48, 35, 57, 36, 0, 15, 64, 10, 50, 20, 4, 0, 63, 7, 0, 39, 0, 54, 44, 40, 0, 47, 0, 59, 46, 17, 13, 8, 2, 27, 25, 3, 49, 37, 0, 0, 0, 62, 56, 0, 32, 0, 53, 22, 6
|30, 35, 0, 0, 0, 18, 51, 21, 0, 55, 54, 52, 31, 40, 0, 17, 33, 38, 44, 62, 0, 5, 50, 0, 3, 41, 0, 0, 29, 37, 0, 61, 0, 0, 27, 32, 0, 0, 26, 1, 15, 0, 7, 0, 6, 0, 24, 0, 0, 11, 4, 60, 36, 64, 63, 13, 14, 25, 10, 0, 57, 58, 2, 9
|26, 0, 0, 0, 62, 39, 20, 42, 44, 2, 50, 49, 47, 45, 41, 35, 32, 0, 59, 0, 25, 54, 31, 0, 55, 0, 8, 0, 36, 7, 52, 57, 0, 53, 12, 5, 37, 0, 61, 4, 22, 18, 29, 0, 38, 3, 0, 10, 0, 1, 56, 0, 21, 43, 0, 24, 27, 46, 51, 0, 23, 0, 13, 0
|32, 0, 0, 7, 5, 1, 28, 0, 20, 63, 33, 6, 0, 13, 0, 27, 0, 40, 41, 11, 22, 39, 0, 0, 34, 54, 0, 45, 12, 9, 24, 43, 0, 18, 0, 56, 36, 62, 30, 0, 49, 23, 44, 0, 4, 0, 50, 0, 0, 31, 2, 58, 8, 47, 57, 0, 38, 0, 60, 0, 0, 26, 0, 21
|44, 19, 5, 62, 0, 49, 63, 33, 27, 50, 37, 30, 0, 0, 31, 58, 18, 9, 0, 32, 57, 0, 0, 0, 45, 25, 15, 56, 1, 6, 48, 22, 0, 8, 7, 40, 61, 39, 38, 64, 3, 10, 4, 21, 28, 60, 0, 41, 0, 0, 29, 0, 47, 36, 14, 0, 11, 59, 42, 26, 0, 20, 52, 2
|6, 38, 0, 0, 0, 0, 45, 0, 12, 0, 24, 33, 2, 0, 3, 46, 54, 34, 0, 47, 1, 52, 30, 64, 0, 59, 28, 0, 50, 43, 58, 0, 0, 0, 0, 15, 9, 55, 31, 20, 36, 11, 0, 42, 0, 48, 17, 5, 21, 60, 0, 61, 51, 57, 0, 40, 19, 49, 8, 25, 62, 37, 39, 0
|0, 39, 3, 64, 17, 40, 0, 9, 0, 0, 0, 54, 8, 18, 43, 22, 50, 11, 0, 0, 36, 0, 48, 5, 20, 55, 0, 34, 0, 24, 41, 0, 63, 51, 0, 59, 0, 0, 28, 60, 57, 0, 0, 6, 44, 19, 0, 0, 0, 0, 31, 26, 58, 45, 0, 42, 23, 27, 53, 4, 33, 15, 29, 12
|51, 46, 12, 16, 0, 0, 0, 22, 0, 9, 28, 0, 0, 41, 59, 1, 42, 0, 26, 61, 2, 6, 0, 0, 0, 0, 36, 52, 49, 39, 0, 0, 18, 3, 58, 45, 17, 0, 4, 0, 7, 0, 25, 0, 64, 32, 30, 33, 0, 20, 54, 27, 19, 35, 34, 15, 31, 50, 57, 43, 56, 60, 14, 48
|28, 54, 0, 1, 15, 30, 23, 13, 38, 45, 63, 40, 49, 0, 20, 26, 24, 51, 0, 0, 31, 0, 60, 12, 33, 0, 2, 42, 0, 0, 0, 19, 41, 6, 62, 52, 0, 56, 27, 0, 58, 53, 14, 43, 34, 55, 0, 22, 4, 0, 7, 8, 25, 0, 0, 0, 61, 9, 0, 64, 36, 47, 0, 17
|59, 4, 0, 0, 43, 56, 2, 50, 0, 51, 0, 0, 11, 0, 52, 48, 20, 0, 55, 0, 0, 0, 7, 41, 16, 60, 0, 23, 0, 27, 0, 0, 44, 0, 0, 0, 5, 10, 1, 53, 0, 8, 26, 61, 0, 0, 12, 24, 0, 9, 17, 6, 28, 30, 33, 49, 13, 34, 63, 58, 40, 21, 3, 18
|0, 0, 0, 57, 0, 42, 47, 58, 60, 0, 4, 29, 0, 32, 0, 16, 15, 17, 0, 0, 56, 33, 63, 27, 0, 21, 0, 46, 62, 26, 3, 11, 0, 50, 0, 0, 0, 30, 43, 49, 0, 1, 9, 39, 59, 0, 0, 45, 2, 13, 0, 23, 0, 18, 64, 37, 44, 0, 28, 38, 41, 6, 0, 0
|0, 0, 7, 0, 48, 20, 0, 26, 0, 34, 0, 5, 0, 36, 53, 64, 37, 8, 49, 0, 28, 58, 40, 3, 0, 44, 63, 61, 0, 12, 17, 0, 33, 0, 21, 24, 42, 19, 0, 0, 56, 13, 0, 50, 16, 0, 23, 18, 11, 43, 62, 38, 41, 52, 39, 59, 0, 0, 55, 45, 0, 54, 46, 10
|0, 6, 0, 26, 63, 44, 0, 38, 0, 0, 17, 51, 0, 0, 62, 0, 59, 0, 15, 0, 60, 35, 20, 0, 0, 56, 47, 31, 39, 55, 21, 12, 43, 0, 23, 0, 22, 1, 0, 0, 0, 27, 0, 40, 49, 0, 7, 0, 0, 0, 33, 36, 0, 32, 0, 0, 0, 14, 13, 0, 52, 30, 0, 0
|0, 0, 16, 0, 0, 7, 27, 19, 23, 35, 53, 0, 28, 22, 60, 0, 21, 33, 0, 40, 0, 0, 0, 0, 0, 0, 0, 43, 0, 32, 0, 0, 57, 30, 15, 0, 26, 0, 56, 0, 18, 52, 58, 14, 39, 0, 0, 0, 0, 49, 0, 0, 11, 37, 24, 9, 36, 29, 2, 20, 47, 44, 0, 55
|53, 57, 22, 0, 0, 36, 39, 0, 0, 0, 0, 3, 0, 0, 2, 33, 10, 28, 30, 31, 0, 56, 51, 52, 58, 23, 35, 60, 15, 40, 0, 42, 55, 29, 0, 0, 45, 32, 20, 18, 11, 5, 13, 41, 63, 59, 0, 12, 7, 0, 26, 50, 14, 1, 54, 8, 46, 62, 48, 49, 25, 38, 6, 43
|0, 0, 25, 35, 28, 0, 0, 0, 46, 0, 11, 4, 6, 31, 1, 0, 62, 47, 32, 0, 9, 44, 0, 26, 0, 16, 0, 17, 37, 50, 0, 0, 0, 21, 14, 0, 0, 5, 3, 33, 43, 48, 54, 57, 36, 10, 15, 8, 0, 0, 52, 41, 56, 0, 0, 63, 58, 64, 45, 23, 12, 0, 0, 51
|1, 56, 52, 2, 37, 0, 0, 61, 43, 32, 41, 0, 50, 58, 48, 0, 46, 39, 25, 36, 3, 29, 64, 17, 0, 8, 33, 28, 14, 0, 0, 18, 13, 0, 53, 60, 7, 54, 0, 27, 38, 24, 0, 23, 45, 35, 47, 0, 44, 22, 20, 12, 40, 0, 19, 0, 42, 31, 16, 0, 4, 0, 34, 26
|13, 0, 8, 34, 0, 17, 11, 14, 57, 10, 52, 0, 40, 59, 39, 7, 53, 0, 24, 0, 50, 12, 0, 0, 0, 0, 62, 20, 5, 0, 2, 36, 48, 0, 51, 38, 58, 6, 47, 46, 33, 55, 19, 31, 0, 64, 0, 0, 18, 0, 35, 0, 23, 61, 30, 29, 0, 21, 15, 41, 0, 28, 27, 56
|46, 0, 33, 54, 60, 32, 0, 0, 29, 0, 36, 47, 56, 0, 21, 0, 48, 41, 0, 0, 11, 13, 0, 49, 26, 0, 27, 0, 61, 0, 0, 45, 40, 0, 31, 37, 50, 24, 63, 0, 4, 2, 34, 22, 30, 20, 3, 0, 28, 6, 58, 15, 62, 39, 51, 16, 7, 19, 35, 17, 0, 0, 0, 59
|0, 12, 0, 55, 0, 0, 0, 0, 45, 0, 30, 18, 0, 0, 26, 15, 0, 0, 0, 0, 58, 42, 57, 7, 51, 52, 41, 29, 6, 19, 11, 46, 59, 61, 35, 28, 8, 9, 25, 36, 62, 21, 0, 32, 53, 37, 44, 0, 31, 27, 0, 47, 13, 34, 0, 0, 5, 24, 39, 22, 63, 0, 60, 33
|4, 24, 32, 0, 30, 43, 19, 47, 0, 8, 12, 1, 9, 34, 0, 0, 35, 22, 57, 37, 64, 0, 41, 29, 42, 0, 16, 0, 0, 0, 0, 6, 0, 62, 0, 44, 0, 0, 0, 0, 45, 17, 0, 27, 3, 58, 0, 52, 0, 0, 0, 55, 0, 7, 36, 0, 39, 0, 46, 0, 38, 18, 0, 0
|49, 9, 62, 52, 40, 58, 1, 0, 28, 57, 0, 21, 42, 43, 44, 0, 38, 60, 12, 15, 16, 47, 0, 56, 61, 63, 29, 0, 25, 0, 0, 4, 19, 24, 8, 7, 0, 17, 6, 11, 10, 59, 53, 37, 0, 0, 35, 39, 13, 32, 22, 2, 50, 48, 0, 5, 34, 23, 33, 0, 0, 0, 30, 36
|54, 0, 31, 0, 0, 0, 0, 12, 0, 41, 18, 0, 29, 2, 23, 60, 0, 58, 0, 0, 26, 10, 21, 4, 59, 20, 34, 30, 48, 36, 0, 0, 32, 39, 0, 49, 0, 0, 0, 28, 6, 0, 38, 62, 40, 42, 64, 43, 35, 45, 0, 3, 0, 0, 44, 19, 37, 47, 0, 0, 0, 24, 0, 22
|63, 0, 27, 44, 57, 0, 0, 56, 0, 36, 5, 35, 55, 37, 0, 0, 31, 49, 62, 28, 40, 2, 0, 39, 41, 32, 13, 51, 11, 0, 0, 52, 21, 22, 0, 0, 53, 58, 10, 0, 46, 0, 48, 0, 7, 4, 19, 20, 17, 64, 60, 30, 18, 0, 0, 34, 26, 16, 0, 1, 59, 0, 25, 61
|0, 17, 50, 0, 2, 34, 22, 18, 64, 54, 13, 0, 0, 56, 11, 0, 23, 36, 33, 0, 51, 1, 0, 59, 19, 31, 14, 24, 45, 35, 0, 47, 27, 26, 0, 48, 4, 12, 5, 0, 0, 44, 15, 25, 9, 28, 55, 60, 0, 0, 46, 0, 57, 0, 61, 6, 43, 7, 3, 29, 21, 52, 49, 0
|41, 36, 45, 3, 53, 29, 42, 0, 0, 0, 15, 10, 39, 26, 33, 59, 7, 0, 0, 50, 0, 0, 25, 54, 18, 0, 0, 57, 40, 56, 23, 17, 0, 0, 20, 0, 30, 0, 0, 16, 31, 0, 0, 0, 61, 51, 0, 13, 24, 28, 9, 37, 49, 4, 62, 21, 60, 0, 44, 5, 11, 27, 12, 63
|25, 0, 0, 11, 10, 0, 5, 0, 50, 4, 49, 0, 30, 19, 27, 52, 0, 46, 61, 24, 44, 0, 17, 0, 38, 0, 21, 7, 22, 0, 37, 58, 3, 41, 0, 33, 23, 29, 9, 15, 0, 56, 0, 0, 18, 63, 2, 34, 12, 0, 47, 43, 42, 51, 59, 0, 35, 0, 62, 6, 20, 0, 32, 53
|7, 37, 0, 51, 26, 16, 21, 28, 17, 14, 20, 0, 3, 0, 24, 25, 43, 0, 63, 0, 0, 0, 34, 32, 62, 0, 9, 49, 33, 0, 0, 0, 42, 0, 0, 47, 18, 46, 0, 13, 41, 22, 50, 5, 0, 11, 0, 23, 0, 52, 0, 0, 31, 38, 0, 56, 4, 0, 58, 0, 0, 8, 64, 0
|43, 50, 28, 42, 56, 5, 0, 0, 30, 17, 38, 0, 64, 24, 0, 19, 39, 0, 4, 12, 15, 0, 26, 51, 0, 0, 6, 18, 0, 13, 44, 0, 0, 9, 0, 23, 16, 34, 0, 3, 29, 49, 11, 47, 46, 0, 0, 21, 0, 0, 0, 0, 0, 0, 58, 10, 1, 60, 59, 7, 0, 33, 0, 20
|60, 0, 6, 0, 16, 41, 0, 62, 48, 21, 0, 39, 44, 1, 12, 54, 45, 56, 31, 46, 38, 24, 0, 0, 36, 0, 59, 63, 0, 64, 0, 49, 47, 20, 40, 0, 0, 27, 13, 19, 8, 0, 0, 4, 52, 18, 32, 0, 34, 0, 0, 35, 3, 50, 28, 0, 9, 5, 0, 42, 29, 43, 58, 14
|3, 55, 59, 45, 44, 10, 7, 11, 4, 31, 2, 41, 13, 47, 35, 29, 0, 57, 0, 58, 0, 18, 0, 20, 17, 34, 26, 14, 54, 0, 0, 0, 50, 0, 0, 0, 33, 21, 15, 43, 39, 60, 0, 0, 0, 6, 63, 64, 1, 30, 0, 0, 46, 27, 0, 0, 0, 48, 0, 0, 0, 49, 37, 32
|52, 20, 0, 0, 0, 0, 29, 51, 32, 0, 0, 58, 0, 33, 56, 53, 0, 2, 1, 7, 19, 0, 0, 43, 37, 4, 0, 0, 9, 42, 0, 15, 46, 60, 48, 57, 64, 35, 24, 30, 28, 3, 0, 59, 26, 44, 36, 25, 62, 18, 5, 11, 17, 54, 0, 12, 0, 0, 50, 0, 0, 0, 21, 34
|61, 33, 24, 53, 0, 38, 48, 0, 0, 0, 62, 57, 0, 50, 8, 43, 29, 0, 0, 0, 5, 37, 0, 0, 60, 0, 52, 32, 0, 0, 20, 56, 1, 58, 54, 11, 0, 4, 0, 41, 2, 0, 42, 34, 0, 0, 13, 14, 47, 0, 55, 64, 26, 21, 25, 39, 15, 0, 17, 0, 0, 46, 0, 23
|64, 1, 37, 46, 19, 0, 58, 27, 63, 0, 42, 15, 60, 0, 22, 3, 0, 32, 34, 0, 21, 0, 47, 40, 0, 12, 0, 11, 43, 10, 28, 39, 49, 55, 38, 0, 2, 7, 44, 0, 5, 57, 24, 0, 0, 41, 0, 17, 33, 56, 8, 14, 59, 0, 0, 53, 0, 61, 0, 0, 35, 36, 62, 30
|0, 8, 47, 21, 32, 0, 57, 35, 0, 59, 23, 34, 10, 0, 0, 37, 44, 55, 64, 17, 33, 0, 0, 13, 46, 48, 5, 16, 0, 45, 0, 3, 0, 0, 36, 0, 29, 0, 14, 56, 51, 7, 43, 1, 58, 54, 40, 27, 0, 4, 0, 24, 6, 42, 60, 41, 0, 0, 0, 18, 2, 0, 0, 39
|0, 63, 0, 18, 23, 54, 26, 0, 25, 40, 7, 14, 46, 5, 49, 11, 60, 53, 36, 6, 0, 9, 0, 35, 50, 0, 1, 58, 24, 51, 55, 21, 45, 37, 22, 39, 59, 42, 0, 32, 61, 0, 0, 16, 0, 12, 33, 0, 29, 38, 44, 13, 43, 0, 2, 0, 41, 28, 64, 27, 3, 0, 56, 0
|50, 3, 0, 23, 0, 0, 0, 34, 41, 33, 29, 7, 52, 0, 0, 32, 0, 26, 0, 51, 0, 0, 27, 45, 8, 24, 38, 15, 56, 20, 13, 9, 36, 12, 18, 58, 19, 22, 48, 0, 0, 54, 0, 10, 47, 0, 1, 55, 0, 0, 16, 28, 0, 31, 0, 0, 0, 0, 14, 0, 39, 4, 63, 40
|35, 62, 0, 19, 0, 31, 44, 54, 42, 3, 1, 0, 0, 23, 0, 28, 64, 0, 0, 59, 47, 34, 0, 0, 12, 0, 0, 37, 0, 60, 40, 0, 25, 0, 50, 63, 0, 51, 32, 8, 0, 0, 46, 48, 24, 0, 18, 36, 0, 0, 0, 0, 5, 0, 0, 0, 2, 22, 49, 21, 27, 10, 0, 0
|45, 0, 26, 28, 20, 0, 25, 5, 40, 15, 0, 44, 17, 0, 36, 0, 0, 31, 0, 33, 0, 30, 0, 2, 0, 19, 48, 10, 52, 41, 61, 0, 9, 4, 47, 55, 60, 13, 53, 0, 0, 63, 37, 11, 14, 49, 39, 0, 0, 0, 0, 0, 22, 0, 0, 64, 16, 32, 0, 51, 46, 0, 23, 57
|0, 11, 40, 48, 0, 0, 56, 52, 54, 18, 0, 27, 22, 60, 57, 0, 9, 7, 20, 41, 0, 49, 0, 1, 47, 0, 3, 0, 28, 23, 31, 59, 0, 34, 46, 29, 15, 0, 0, 45, 12, 25, 64, 19, 2, 16, 4, 44, 50, 17, 13, 63, 32, 24, 0, 33, 0, 36, 0, 30, 0, 61, 35, 42
|29, 0, 10, 0, 51, 33, 13, 0, 0, 0, 0, 0, 63, 35, 0, 0, 6, 14, 39, 23, 54, 0, 5, 19, 0, 46, 11, 36, 4, 34, 0, 27, 64, 49, 0, 0, 0, 3, 0, 17, 60, 50, 41, 53, 62, 21, 28, 40, 56, 44, 30, 45, 1, 0, 18, 38, 0, 0, 43, 15, 58, 12, 20, 0
|22, 53, 21, 36, 18, 8, 12, 46, 0, 0, 19, 24, 0, 0, 0, 0, 0, 0, 60, 16, 4, 0, 10, 55, 5, 17, 44, 2, 0, 0, 0, 35, 0, 52, 6, 27, 1, 33, 54, 0, 0, 31, 0, 56, 0, 45, 43, 0, 9, 41, 23, 57, 34, 58, 0, 0, 29, 37, 0, 28, 0, 13, 50, 0
|0, 41, 1, 0, 47, 2, 0, 59, 62, 43, 34, 56, 37, 0, 45, 21, 0, 35, 0, 63, 46, 8, 0, 36, 32, 0, 0, 0, 26, 30, 25, 0, 0, 40, 0, 0, 0, 38, 0, 5, 0, 51, 52, 0, 0, 0, 9, 0, 0, 0, 12, 0, 61, 0, 3, 48, 64, 33, 54, 60, 0, 0, 11, 31
|42, 0, 15, 60, 55, 63, 0, 17, 16, 58, 14, 20, 0, 12, 13, 0, 3, 18, 48, 0, 0, 0, 0, 24, 43, 45, 64, 54, 21, 0, 6, 29, 0, 0, 0, 41, 0, 31, 35, 23, 26, 61, 32, 33, 8, 22, 57, 7, 36, 47, 0, 51, 53, 0, 46, 27, 25, 0, 34, 56, 0, 5, 38, 19
|37, 58, 4, 0, 27, 45, 55, 0, 0, 29, 22, 50, 0, 52, 0, 23, 0, 0, 2, 25, 0, 16, 0, 0, 0, 0, 18, 0, 3, 0, 14, 24, 28, 0, 33, 17, 31, 61, 12, 62, 0, 64, 6, 60, 56, 7, 0, 32, 49, 46, 34, 40, 15, 9, 42, 47, 0, 26, 0, 53, 0, 0, 0, 0
|0, 26, 51, 0, 13, 25, 62, 64, 24, 44, 0, 43, 1, 0, 32, 4, 58, 29, 9, 22, 0, 15, 45, 21, 35, 27, 57, 6, 41, 17, 63, 60, 53, 16, 55, 0, 0, 47, 39, 38, 0, 34, 12, 2, 37, 23, 5, 42, 0, 36, 0, 54, 0, 0, 0, 61, 18, 11, 52, 46, 49, 0, 0, 50
|17, 32, 0, 30, 0, 0, 31, 0, 0, 64, 0, 42, 36, 8, 0, 45, 61, 5, 40, 35, 43, 11, 37, 33, 53, 26, 19, 21, 0, 0, 29, 0, 51, 56, 44, 25, 20, 0, 0, 0, 63, 28, 0, 0, 0, 47, 10, 4, 0, 24, 41, 0, 7, 55, 0, 58, 48, 0, 23, 59, 0, 16, 9, 0
|40, 0, 0, 56, 22, 35, 0, 0, 0, 0, 0, 60, 12, 53, 0, 61, 49, 42, 7, 0, 41, 26, 38, 14, 23, 0, 32, 64, 0, 2, 39, 0, 0, 27, 10, 1, 24, 0, 11, 21, 50, 9, 0, 0, 55, 31, 59, 0, 0, 0, 0, 0, 16, 20, 0, 43, 0, 0, 47, 0, 0, 29, 51, 25
|19, 0, 0, 0, 21, 23, 38, 0, 34, 0, 0, 0, 62, 0, 17, 57, 0, 12, 0, 10, 48, 0, 39, 60, 7, 37, 30, 22, 0, 5, 45, 40, 58, 42, 9, 64, 32, 36, 41, 0, 44, 16, 8, 26, 43, 25, 0, 49, 3, 33, 50, 29, 52, 53, 13, 2, 55, 20, 24, 31, 0, 0, 0, 0
|0, 0, 20, 10, 9, 0, 0, 41, 37, 47, 39, 0, 38, 0, 15, 63, 36, 64, 54, 53, 0, 55, 0, 46, 56, 61, 12, 8, 0, 0, 0, 62, 4, 45, 19, 0, 3, 26, 18, 34, 52, 40, 22, 29, 35, 57, 11, 30, 23, 0, 0, 48, 60, 17, 21, 0, 0, 42, 27, 2, 0, 32, 1, 58
|47, 0, 53, 15, 14, 28, 59, 16, 2, 49, 21, 48, 20, 9, 40, 18, 0, 24, 27, 3, 0, 23, 32, 0, 52, 43, 50, 25, 55, 33, 0, 54, 5, 0, 30, 46, 63, 60, 8, 29, 13, 58, 39, 51, 41, 0, 62, 61, 38, 37, 64, 1, 0, 6, 0, 11, 56, 0, 0, 0, 34, 0, 57, 44
|0, 7, 54, 0, 29, 11, 61, 57, 56, 16, 0, 0, 41, 0, 5, 0, 30, 62, 0, 52, 0, 4, 1, 50, 31, 58, 20, 9, 42, 47, 36, 0, 23, 59, 2, 0, 43, 0, 22, 48, 24, 14, 0, 3, 0, 38, 53, 0, 51, 0, 0, 44, 45, 19, 27, 0, 0, 63, 37, 0, 60, 39, 40, 64
|0, 59, 48, 31, 0, 46, 54, 45, 49, 11, 40, 17, 5, 30, 0, 10, 26, 0, 0, 64, 12, 63, 43, 0, 57, 36, 56, 19, 0, 15, 51, 38, 6, 0, 0, 8, 47, 53, 0, 22, 55, 62, 2, 28, 0, 61, 34, 0, 60, 23, 27, 42, 4, 0, 50, 32, 20, 0, 29, 0, 0, 35, 33, 1
|0, 0, 39, 0, 33, 62, 8, 40, 55, 0, 0, 26, 14, 0, 28, 0, 0, 54, 47, 56, 30, 0, 2, 15, 48, 50, 45, 35, 17, 18, 9, 23, 34, 1, 0, 31, 0, 59, 37, 51, 0, 29, 60, 44, 12, 0, 0, 0, 58, 61, 19, 10, 0, 0, 16, 7, 0, 0, 38, 52, 13, 25, 42, 46
|0, 28, 42, 38, 0, 0, 0, 0, 0, 60, 0, 23, 48, 0, 0, 20, 0, 0, 35, 27, 7, 0, 0, 62, 6, 0, 55, 41, 13, 21, 0, 10, 2, 57, 0, 12, 44, 18, 0, 39, 0, 43, 0, 49, 19, 17, 22, 47, 37, 63, 0, 0, 9, 46, 5, 0, 50, 8, 26, 0, 32, 59, 45, 11
|36, 13, 14, 29, 3, 64, 34, 0, 0, 52, 0, 38, 43, 0, 50, 0, 41, 0, 18, 49, 32, 20, 0, 0, 0, 42, 0, 0, 16, 61, 27, 2, 56, 54, 0, 30, 62, 40, 60, 10, 37, 0, 33, 35, 0, 0, 26, 0, 57, 0, 45, 59, 44, 11, 8, 0, 63, 58, 19, 55, 22, 23, 0, 0
|0, 0, 2, 20, 0, 19, 0, 0, 21, 61, 51, 0, 33, 29, 25, 44, 34, 59, 8, 1, 14, 17, 9, 11, 0, 62, 0, 5, 58, 63, 0, 0, 26, 0, 0, 3, 38, 0, 0, 0, 42, 0, 23, 15, 32, 52, 45, 54, 43, 35, 24, 53, 64, 0, 0, 28, 12, 18, 41, 57, 0, 56, 31, 27
|10, 49, 55, 0, 12, 0, 0, 53, 0, 19, 57, 8, 35, 27, 34, 13, 51, 45, 29, 5, 23, 0, 44, 48, 25, 0, 54, 0, 0, 52, 0, 0, 14, 33, 0, 0, 0, 63, 64, 58, 9, 30, 0, 7, 11, 1, 0, 50, 41, 15, 18, 21, 38, 0, 47, 0, 0, 4, 61, 0, 28, 62, 24, 0
|57, 27, 0, 9, 0, 0, 35, 63, 0, 62, 45, 0, 18, 15, 16, 2, 22, 50, 38, 42, 39, 46, 55, 25, 24, 0, 0, 0, 32, 29, 0, 34, 0, 19, 28, 43, 21, 20, 23, 0, 0, 0, 10, 58, 13, 8, 41, 59, 52, 54, 0, 31, 12, 0, 0, 3, 30, 44, 5, 36, 0, 7, 48, 60
|23, 22, 0, 0, 25, 4, 32, 37, 1, 42, 56, 59, 24, 0, 58, 0, 0, 3, 19, 57, 0, 0, 0, 6, 64, 7, 43, 12, 8, 11, 60, 0, 0, 15, 41, 9, 52, 50, 45, 35, 27, 20, 63, 0, 48, 0, 38, 31, 0, 14, 39, 34, 29, 62, 55, 26, 51, 54, 0, 16, 53, 2, 47, 49|];