order = 8;
grid = [|0, 3, 0, 0, 0, 26, 0, 0, 0, 21, 7, 2, 39, 6, 0, 15, 43, 48, 58, 0, 29, 0, 17, 0, 51, 0, 1, 49, 25, 0, 0, 54, 14, 10, 0, 0, 64, 0, 24, 34, 0, 0, 56, 22, 60, 9, 4, 36, 40, 30, 31, 62, 27, 61, 38, 52, 0, 33, 16, 13, 45, 5, 0, 32
|55, 54, 9, 0, 46, 60, 0, 48, 18, 40, 27, 56, 0, 20, 24, 22, 50, 32, 21, 19, 53, 52, 0, 45, 30, 0, 0, 37, 23, 36, 63, 38, 15, 62, 0, 0, 8, 0, 44, 0, 42, 3, 57, 11, 43, 47, 10, 59, 0, 1, 0, 64, 39, 0, 28, 17, 2, 51, 34, 0, 6, 14, 4, 0
|42, 30, 0, 0, 0, 0, 33, 15, 25, 0, 49, 12, 23, 13, 36, 58, 0, 24, 54, 2, 0, 0, 0, 11, 56, 0, 64, 48, 0, 8, 41, 46, 6, 39, 0, 0, 9, 43, 0, 0, 50, 7, 26, 29, 20, 17, 45, 37, 3, 22, 34, 16, 0, 5, 4, 35, 44, 0, 18, 60, 0, 62, 53, 0
|0, 29, 43, 19, 11, 6, 4, 58, 30, 0, 0, 1, 28, 26, 17, 0, 37, 0, 0, 5, 13, 33, 0, 46, 31, 61, 45, 0, 50, 2, 22, 15, 60, 0, 0, 36, 42, 40, 0, 57, 0, 48, 0, 23, 0, 51, 0, 12, 55, 0, 56, 53, 18, 10, 7, 24, 21, 54, 0, 63, 52, 41, 38, 8
|62, 25, 14, 51, 56, 53, 50, 0, 46, 34, 11, 8, 0, 0, 52, 0, 26, 42, 0, 0, 18, 0, 0, 12, 0, 0, 29, 28, 3, 16, 57, 4, 1, 35, 0, 37, 48, 45, 19, 17, 0, 38, 39, 54, 0, 31, 13, 32, 0, 59, 23, 58, 0, 0, 21, 60, 0, 30, 64, 0, 0, 36, 27, 40
|23, 0, 0, 10, 0, 59, 52, 2, 33, 60, 14, 45, 38, 3, 19, 0, 15, 8, 62, 35, 57, 36, 0, 0, 12, 20, 47, 5, 0, 13, 53, 0, 28, 22, 50, 55, 11, 0, 7, 54, 44, 0, 6, 0, 64, 0, 21, 0, 9, 51, 0, 32, 46, 63, 43, 29, 0, 0, 0, 56, 58, 1, 39, 48
|61, 38, 39, 0, 1, 63, 7, 37, 0, 53, 0, 43, 48, 10, 0, 51, 60, 0, 20, 0, 56, 0, 25, 0, 62, 21, 17, 0, 59, 35, 44, 0, 18, 0, 29, 0, 0, 31, 13, 0, 0, 8, 0, 0, 28, 0, 5, 58, 15, 12, 0, 54, 26, 45, 36, 2, 47, 0, 0, 22, 0, 55, 24, 57
|0, 22, 0, 45, 41, 49, 36, 0, 31, 0, 0, 0, 54, 0, 55, 0, 63, 64, 27, 0, 51, 4, 34, 0, 0, 39, 18, 43, 32, 9, 60, 33, 20, 5, 0, 38, 56, 0, 25, 3, 2, 1, 46, 24, 30, 0, 0, 53, 0, 0, 8, 48, 0, 0, 50, 0, 15, 42, 35, 0, 12, 10, 7, 17
|0, 39, 0, 58, 59, 54, 0, 27, 56, 0, 22, 7, 11, 16, 42, 32, 0, 40, 49, 41, 21, 15, 57, 62, 24, 38, 52, 33, 0, 23, 0, 19, 5, 50, 47, 18, 1, 4, 46, 35, 60, 53, 0, 12, 0, 0, 0, 48, 44, 6, 0, 13, 25, 64, 29, 9, 51, 0, 28, 26, 30, 8, 0, 61
|7, 42, 63, 18, 0, 48, 0, 0, 0, 51, 30, 54, 53, 49, 57, 29, 32, 39, 60, 0, 31, 0, 6, 35, 0, 10, 5, 50, 16, 15, 28, 34, 0, 0, 8, 56, 0, 20, 37, 26, 43, 13, 4, 3, 21, 1, 0, 0, 17, 0, 0, 47, 0, 0, 22, 46, 14, 0, 55, 0, 0, 0, 0, 0
|0, 50, 24, 64, 5, 35, 0, 4, 0, 46, 0, 9, 52, 28, 33, 47, 56, 0, 0, 27, 0, 34, 0, 25, 3, 13, 61, 42, 21, 32, 0, 0, 39, 15, 23, 10, 0, 59, 57, 36, 58, 41, 22, 0, 0, 54, 18, 6, 0, 48, 38, 12, 31, 0, 1, 0, 16, 60, 0, 20, 0, 7, 37, 11
|37, 0, 46, 0, 0, 61, 60, 56, 0, 35, 12, 19, 50, 41, 15, 55, 0, 5, 30, 36, 7, 13, 0, 0, 0, 18, 39, 53, 0, 0, 48, 0, 45, 0, 0, 49, 34, 9, 14, 58, 0, 40, 47, 0, 8, 0, 0, 0, 26, 28, 57, 59, 63, 3, 24, 4, 0, 38, 0, 32, 44, 6, 1, 10
|16, 28, 10, 33, 12, 0, 13, 0, 39, 59, 0, 34, 0, 17, 2, 24, 53, 0, 29, 18, 0, 0, 0, 61, 27, 0, 0, 30, 41, 7, 0, 20, 51, 42, 0, 25, 60, 48, 38, 22, 52, 19, 55, 56, 0, 50, 63, 44, 45, 0, 14, 35, 21, 49, 62, 0, 58, 0, 46, 36, 0, 0, 5, 47
|25, 49, 41, 6, 38, 40, 0, 0, 37, 18, 58, 48, 10, 44, 0, 0, 1, 0, 0, 46, 42, 0, 23, 33, 0, 31, 35, 47, 8, 22, 4, 59, 61, 0, 0, 0, 13, 55, 3, 12, 26, 0, 5, 64, 0, 0, 0, 0, 16, 11, 53, 0, 60, 0, 34, 0, 50, 0, 56, 0, 19, 0, 15, 39
|47, 0, 53, 0, 51, 23, 0, 0, 0, 0, 0, 0, 21, 5, 20, 13, 3, 45, 63, 12, 0, 19, 50, 38, 0, 43, 6, 26, 0, 60, 0, 44, 0, 28, 16, 0, 24, 0, 0, 0, 61, 59, 0, 42, 0, 46, 0, 0, 30, 58, 39, 10, 0, 0, 55, 0, 17, 18, 0, 62, 0, 35, 48, 49
|26, 62, 55, 9, 43, 2, 1, 3, 36, 6, 61, 27, 60, 38, 0, 0, 48, 0, 37, 16, 0, 0, 0, 0, 58, 51, 49, 46, 0, 45, 17, 11, 40, 0, 0, 29, 0, 53, 41, 0, 7, 14, 0, 20, 0, 0, 35, 57, 18, 0, 32, 23, 56, 0, 0, 0, 64, 22, 0, 33, 0, 34, 31, 13
|0, 44, 0, 35, 47, 18, 58, 1, 0, 14, 15, 32, 62, 8, 53, 31, 21, 0, 57, 38, 0, 7, 41, 55, 46, 59, 19, 24, 36, 0, 20, 12, 0, 9, 0, 30, 26, 0, 22, 2, 11, 25, 64, 40, 52, 29, 51, 42, 61, 0, 0, 0, 50, 13, 0, 33, 63, 39, 0, 4, 43, 17, 16, 0
|57, 21, 0, 0, 50, 15, 0, 23, 0, 33, 55, 0, 13, 0, 39, 3, 46, 0, 0, 45, 0, 0, 0, 0, 0, 0, 30, 8, 0, 37, 0, 63, 19, 0, 0, 0, 40, 28, 31, 0, 16, 24, 61, 0, 0, 53, 60, 14, 6, 0, 0, 38, 5, 62, 0, 12, 27, 64, 2, 51, 11, 56, 26, 44
|0, 0, 19, 0, 30, 51, 38, 0, 47, 28, 46, 22, 57, 35, 0, 18, 11, 62, 3, 54, 0, 0, 60, 23, 0, 0, 27, 1, 0, 4, 33, 56, 0, 0, 20, 44, 61, 5, 17, 42, 32, 36, 0, 13, 45, 0, 26, 0, 0, 14, 0, 0, 8, 53, 0, 64, 55, 0, 31, 0, 0, 24, 25, 0
|0, 0, 0, 0, 0, 52, 31, 5, 48, 23, 0, 0, 6, 63, 0, 59, 0, 0, 61, 20, 0, 64, 15, 0, 0, 60, 55, 62, 13, 0, 26, 0, 0, 41, 0, 43, 33, 0, 45, 37, 0, 35, 50, 58, 0, 0, 0, 1, 0, 54, 0, 29, 40, 24, 11, 0, 12, 0, 47, 30, 0, 0, 46, 3
|0, 63, 4, 0, 0, 0, 64, 36, 11, 45, 0, 30, 24, 0, 0, 25, 0, 0, 59, 17, 12, 16, 0, 0, 39, 53, 57, 58, 0, 43, 49, 0, 0, 34, 46, 21, 38, 6, 29, 60, 54, 44, 3, 55, 0, 20, 22, 0, 42, 27, 0, 31, 28, 52, 0, 23, 0, 48, 0, 0, 0, 13, 40, 35
|60, 0, 0, 26, 45, 0, 16, 29, 0, 0, 54, 44, 43, 12, 10, 52, 0, 30, 56, 24, 58, 48, 8, 51, 38, 32, 40, 61, 5, 17, 11, 25, 62, 57, 59, 50, 15, 18, 36, 55, 63, 37, 41, 47, 31, 0, 27, 0, 0, 0, 0, 1, 0, 46, 9, 39, 42, 20, 19, 14, 28, 33, 0, 0
|0, 0, 3, 24, 13, 10, 55, 33, 16, 1, 19, 61, 0, 0, 50, 60, 0, 0, 26, 43, 37, 63, 31, 5, 45, 7, 0, 0, 64, 0, 15, 48, 0, 0, 35, 27, 0, 39, 53, 0, 0, 0, 18, 46, 0, 30, 12, 17, 0, 56, 0, 57, 22, 32, 47, 44, 0, 8, 9, 0, 21, 0, 34, 54
|46, 11, 61, 37, 62, 27, 12, 0, 0, 26, 0, 0, 41, 2, 51, 7, 40, 0, 0, 39, 4, 14, 19, 0, 0, 3, 0, 44, 28, 0, 10, 6, 63, 54, 24, 13, 0, 0, 64, 25, 0, 33, 48, 0, 9, 38, 0, 0, 43, 36, 30, 49, 0, 0, 16, 0, 60, 58, 0, 53, 0, 0, 0, 22
|27, 55, 0, 17, 0, 0, 25, 61, 0, 0, 62, 28, 42, 40, 44, 50, 18, 57, 1, 22, 26, 0, 58, 0, 8, 0, 4, 39, 45, 24, 0, 3, 0, 60, 38, 5, 0, 19, 49, 0, 21, 43, 33, 15, 54, 6, 20, 0, 0, 0, 10, 11, 0, 34, 30, 14, 0, 2, 0, 41, 0, 12, 35, 51
|43, 32, 50, 34, 0, 5, 18, 38, 41, 13, 60, 0, 15, 64, 14, 37, 61, 63, 48, 0, 24, 20, 27, 52, 0, 0, 51, 0, 49, 0, 62, 0, 8, 4, 7, 0, 22, 42, 0, 0, 53, 0, 31, 0, 19, 0, 0, 10, 21, 0, 44, 0, 2, 47, 0, 58, 3, 55, 0, 25, 39, 45, 17, 16
|49, 4, 0, 29, 0, 42, 22, 40, 43, 48, 36, 58, 27, 0, 0, 0, 0, 33, 53, 31, 54, 44, 3, 0, 37, 15, 21, 60, 35, 20, 32, 57, 26, 25, 0, 59, 0, 0, 16, 0, 56, 30, 51, 0, 11, 8, 0, 0, 63, 55, 0, 0, 62, 9, 46, 0, 52, 7, 5, 10, 0, 28, 50, 6
|33, 35, 60, 0, 0, 0, 0, 54, 2, 17, 26, 6, 0, 22, 0, 53, 0, 0, 0, 21, 15, 46, 59, 8, 55, 0, 0, 19, 0, 28, 5, 0, 27, 52, 0, 3, 0, 0, 43, 29, 0, 0, 32, 44, 25, 49, 0, 63, 31, 50, 0, 45, 37, 51, 0, 0, 0, 0, 40, 18, 0, 0, 36, 0
|0, 12, 0, 0, 9, 57, 0, 0, 0, 0, 33, 3, 0, 0, 31, 5, 19, 43, 50, 6, 17, 55, 62, 41, 14, 46, 53, 0, 27, 63, 58, 0, 2, 48, 10, 34, 37, 51, 21, 45, 0, 16, 35, 0, 38, 24, 61, 40, 39, 0, 36, 0, 15, 54, 0, 49, 0, 32, 0, 8, 13, 20, 60, 0
|0, 48, 15, 21, 24, 62, 56, 7, 10, 30, 51, 35, 19, 46, 8, 12, 0, 0, 42, 11, 40, 28, 4, 39, 17, 54, 38, 0, 0, 50, 18, 23, 36, 32, 0, 0, 14, 61, 55, 0, 0, 64, 0, 0, 0, 58, 41, 29, 5, 26, 13, 60, 0, 0, 25, 59, 0, 34, 0, 49, 0, 47, 0, 0
|0, 0, 0, 31, 26, 14, 0, 0, 24, 0, 0, 29, 1, 54, 18, 21, 0, 0, 0, 51, 36, 45, 37, 9, 34, 25, 0, 0, 11, 0, 13, 61, 30, 47, 44, 0, 6, 62, 40, 0, 55, 42, 17, 39, 50, 22, 7, 0, 57, 16, 28, 56, 48, 0, 53, 3, 19, 46, 58, 27, 33, 43, 0, 4
|0, 13, 51, 46, 3, 0, 0, 53, 0, 16, 20, 39, 49, 55, 0, 0, 0, 10, 0, 0, 0, 30, 29, 0, 40, 47, 48, 6, 0, 44, 0, 0, 17, 0, 0, 0, 0, 0, 0, 18, 0, 34, 36, 0, 0, 5, 37, 2, 8, 19, 64, 27, 43, 22, 0, 0, 61, 9, 21, 42, 38, 0, 62, 0
|0, 59, 56, 49, 0, 1, 0, 50, 34, 55, 40, 10, 63, 0, 23, 0, 0, 28, 11, 0, 41, 39, 43, 0, 60, 48, 62, 0, 47, 5, 0, 64, 57, 12, 53, 4, 0, 21, 9, 44, 29, 51, 13, 0, 0, 0, 52, 16, 46, 0, 58, 22, 30, 27, 0, 0, 25, 14, 26, 7, 36, 54, 18, 0
|29, 0, 12, 14, 0, 9, 51, 26, 3, 31, 0, 41, 33, 30, 43, 6, 0, 38, 0, 62, 19, 1, 0, 58, 7, 37, 23, 0, 0, 18, 39, 13, 56, 61, 36, 0, 0, 0, 10, 28, 49, 57, 59, 34, 17, 15, 53, 20, 11, 47, 21, 0, 45, 16, 0, 0, 0, 40, 27, 0, 46, 0, 42, 64
|31, 6, 5, 55, 0, 46, 40, 47, 27, 50, 0, 11, 44, 7, 0, 14, 45, 16, 17, 0, 48, 2, 0, 15, 43, 52, 33, 0, 30, 58, 21, 10, 0, 20, 22, 0, 0, 60, 39, 41, 24, 4, 0, 35, 0, 0, 36, 26, 0, 38, 63, 8, 64, 25, 59, 0, 34, 0, 1, 3, 51, 19, 23, 28
|0, 23, 22, 38, 48, 0, 0, 62, 57, 0, 0, 52, 56, 45, 0, 46, 4, 60, 25, 61, 30, 0, 0, 24, 32, 16, 0, 0, 14, 34, 27, 0, 31, 13, 18, 19, 0, 35, 6, 11, 64, 47, 10, 63, 44, 0, 3, 43, 0, 0, 1, 0, 53, 0, 33, 0, 0, 59, 0, 50, 9, 0, 58, 2
|58, 18, 44, 0, 2, 0, 0, 0, 61, 0, 8, 0, 0, 62, 0, 20, 49, 29, 40, 0, 3, 59, 22, 7, 15, 26, 46, 25, 1, 11, 36, 35, 24, 0, 64, 0, 23, 34, 27, 0, 0, 9, 45, 19, 0, 48, 28, 0, 52, 43, 6, 51, 0, 56, 39, 42, 0, 0, 17, 57, 32, 0, 21, 53
|53, 0, 64, 63, 0, 4, 15, 10, 35, 58, 18, 0, 0, 1, 0, 42, 0, 21, 23, 32, 0, 27, 54, 37, 6, 50, 0, 22, 17, 59, 0, 8, 25, 7, 0, 0, 0, 38, 48, 0, 46, 0, 0, 0, 0, 41, 0, 56, 0, 49, 9, 0, 19, 20, 12, 0, 0, 52, 13, 45, 31, 0, 29, 62
|35, 0, 52, 54, 28, 19, 17, 43, 0, 22, 25, 5, 0, 48, 21, 0, 36, 0, 31, 0, 14, 0, 64, 18, 0, 63, 0, 38, 29, 0, 0, 49, 0, 0, 0, 45, 0, 2, 0, 0, 8, 39, 1, 0, 27, 40, 58, 50, 32, 0, 0, 0, 0, 4, 0, 34, 6, 0, 33, 11, 0, 60, 0, 41
|0, 27, 0, 0, 7, 21, 37, 39, 0, 24, 38, 15, 0, 4, 16, 0, 52, 12, 9, 47, 34, 6, 46, 56, 2, 40, 28, 0, 57, 0, 31, 53, 58, 63, 62, 8, 17, 33, 0, 50, 0, 22, 54, 32, 55, 0, 42, 25, 0, 0, 35, 26, 14, 29, 13, 41, 43, 10, 61, 0, 49, 0, 0, 30
|39, 0, 31, 22, 52, 33, 61, 32, 1, 0, 16, 0, 40, 0, 0, 10, 30, 0, 4, 0, 59, 37, 14, 0, 18, 8, 15, 0, 54, 57, 7, 0, 53, 23, 48, 63, 0, 50, 60, 0, 19, 0, 2, 0, 36, 55, 6, 0, 34, 9, 0, 28, 35, 38, 49, 11, 45, 41, 0, 12, 0, 64, 47, 0
|15, 51, 30, 50, 64, 44, 3, 28, 0, 39, 23, 49, 14, 27, 63, 34, 0, 0, 6, 55, 0, 0, 21, 22, 4, 35, 36, 0, 26, 0, 25, 47, 0, 33, 0, 54, 0, 7, 11, 43, 45, 20, 0, 0, 46, 37, 59, 18, 41, 0, 52, 19, 17, 2, 40, 13, 0, 53, 8, 1, 16, 61, 56, 42
|0, 37, 59, 0, 42, 34, 9, 14, 4, 32, 47, 0, 8, 31, 6, 36, 0, 20, 13, 48, 27, 0, 33, 0, 61, 45, 63, 16, 38, 49, 40, 28, 35, 0, 5, 0, 10, 17, 56, 19, 51, 54, 52, 21, 0, 64, 23, 39, 0, 46, 0, 25, 29, 0, 58, 18, 7, 11, 24, 0, 60, 26, 43, 15
|0, 0, 62, 16, 27, 55, 26, 17, 0, 15, 0, 13, 0, 43, 5, 35, 39, 7, 0, 25, 61, 0, 38, 0, 0, 0, 0, 11, 24, 1, 46, 0, 22, 44, 0, 0, 59, 14, 42, 0, 30, 10, 40, 57, 0, 60, 0, 3, 0, 53, 0, 33, 20, 0, 63, 0, 0, 31, 23, 0, 2, 4, 0, 0
|4, 47, 0, 53, 58, 0, 54, 0, 0, 57, 0, 25, 2, 52, 26, 44, 8, 0, 41, 40, 0, 49, 9, 10, 22, 55, 43, 0, 0, 0, 51, 0, 38, 6, 21, 24, 45, 16, 15, 0, 12, 50, 7, 33, 0, 42, 34, 0, 23, 0, 5, 39, 36, 37, 0, 0, 48, 0, 32, 0, 0, 0, 0, 0
|0, 0, 49, 0, 0, 0, 2, 0, 28, 0, 45, 0, 59, 60, 0, 0, 31, 11, 47, 0, 0, 56, 35, 17, 53, 0, 0, 41, 0, 27, 52, 50, 34, 18, 39, 0, 55, 0, 4, 0, 14, 0, 43, 61, 13, 44, 0, 0, 48, 0, 0, 6, 42, 57, 26, 0, 0, 0, 51, 46, 10, 9, 0, 33
|0, 46, 35, 56, 40, 0, 6, 0, 22, 20, 0, 0, 61, 33, 7, 62, 24, 15, 19, 1, 45, 53, 18, 26, 23, 34, 2, 0, 31, 29, 42, 14, 0, 58, 0, 0, 30, 0, 28, 0, 48, 63, 8, 0, 16, 11, 9, 4, 47, 44, 3, 0, 0, 21, 0, 51, 0, 13, 0, 5, 0, 49, 0, 0
|0, 7, 29, 57, 8, 25, 19, 45, 42, 11, 0, 50, 0, 53, 0, 9, 34, 0, 0, 0, 52, 0, 16, 36, 44, 33, 13, 0, 20, 0, 6, 39, 41, 0, 31, 61, 0, 46, 26, 64, 0, 56, 0, 5, 58, 32, 47, 62, 54, 4, 60, 15, 59, 1, 0, 10, 0, 0, 0, 55, 35, 38, 0, 0
|6, 52, 13, 0, 35, 28, 11, 0, 8, 0, 4, 18, 16, 0, 58, 0, 64, 61, 46, 30, 22, 29, 45, 0, 0, 0, 0, 63, 48, 12, 54, 0, 0, 49, 55, 40, 0, 3, 0, 0, 37, 27, 53, 60, 0, 62, 15, 0, 20, 25, 0, 42, 1, 0, 0, 5, 0, 23, 43, 0, 17, 51, 0, 59
|0, 45, 1, 25, 0, 0, 32, 0, 0, 0, 44, 0, 29, 51, 12, 28, 0, 59, 34, 26, 55, 18, 0, 27, 0, 42, 56, 4, 0, 0, 43, 2, 0, 14, 30, 15, 36, 23, 33, 52, 10, 17, 16, 0, 22, 0, 8, 0, 64, 35, 46, 9, 0, 60, 48, 0, 13, 63, 3, 24, 0, 58, 0, 0
|3, 14, 58, 61, 0, 0, 62, 0, 6, 27, 0, 24, 7, 0, 34, 38, 5, 52, 0, 37, 39, 21, 12, 43, 57, 1, 0, 0, 15, 0, 0, 31, 0, 26, 25, 17, 0, 63, 59, 47, 36, 23, 28, 41, 0, 35, 0, 13, 49, 8, 0, 0, 54, 0, 32, 22, 56, 4, 30, 2, 40, 29, 0, 46
|56, 40, 27, 0, 0, 17, 39, 0, 62, 0, 63, 46, 3, 47, 0, 2, 58, 14, 24, 15, 50, 0, 0, 48, 21, 22, 0, 13, 34, 53, 29, 26, 44, 64, 41, 9, 35, 0, 54, 0, 33, 0, 20, 43, 32, 0, 0, 30, 38, 10, 55, 36, 0, 23, 52, 45, 28, 37, 57, 0, 8, 0, 0, 18
|18, 26, 23, 59, 57, 0, 63, 34, 0, 41, 10, 53, 17, 37, 0, 19, 20, 9, 38, 8, 49, 0, 1, 60, 0, 0, 3, 36, 51, 52, 64, 16, 43, 0, 13, 0, 0, 27, 0, 61, 0, 5, 11, 25, 56, 0, 44, 46, 2, 21, 29, 0, 58, 0, 6, 62, 33, 0, 0, 47, 54, 42, 0, 31
|9, 33, 7, 0, 0, 0, 53, 0, 60, 42, 31, 14, 0, 59, 22, 23, 6, 0, 36, 0, 47, 11, 28, 0, 49, 19, 0, 17, 44, 46, 35, 37, 0, 24, 34, 58, 18, 10, 62, 32, 38, 12, 29, 2, 48, 0, 64, 51, 0, 13, 40, 41, 61, 43, 57, 26, 1, 45, 52, 39, 5, 25, 55, 20
|0, 43, 8, 48, 0, 50, 0, 30, 64, 52, 35, 26, 32, 0, 1, 0, 42, 54, 0, 13, 16, 25, 0, 0, 41, 62, 58, 7, 61, 55, 23, 18, 0, 0, 28, 6, 20, 29, 0, 56, 3, 21, 34, 9, 0, 45, 0, 31, 0, 39, 12, 37, 24, 17, 19, 63, 53, 44, 0, 38, 0, 27, 11, 60
|5, 0, 38, 36, 0, 29, 46, 20, 54, 43, 57, 0, 45, 0, 13, 56, 17, 41, 10, 23, 63, 62, 53, 0, 11, 24, 59, 40, 39, 0, 9, 27, 37, 31, 42, 60, 19, 1, 8, 16, 18, 52, 58, 0, 6, 26, 0, 0, 0, 0, 7, 44, 34, 15, 51, 0, 35, 21, 49, 0, 22, 48, 61, 12
|0, 0, 0, 7, 0, 36, 47, 6, 40, 0, 56, 42, 55, 58, 11, 0, 54, 0, 22, 60, 62, 61, 39, 4, 52, 49, 16, 57, 0, 51, 0, 0, 13, 0, 0, 23, 0, 15, 35, 24, 0, 32, 0, 0, 10, 19, 0, 64, 0, 0, 18, 0, 44, 59, 3, 25, 30, 0, 38, 21, 26, 50, 14, 0
|0, 0, 40, 43, 0, 11, 21, 46, 0, 37, 24, 0, 26, 0, 0, 27, 0, 1, 2, 52, 35, 58, 5, 63, 13, 28, 0, 15, 19, 6, 0, 0, 16, 8, 17, 33, 31, 44, 20, 0, 0, 0, 0, 0, 0, 0, 62, 41, 0, 34, 50, 30, 49, 39, 42, 0, 32, 0, 0, 9, 47, 0, 64, 45
|52, 58, 33, 5, 0, 0, 27, 13, 12, 0, 6, 16, 64, 14, 35, 48, 7, 50, 18, 0, 20, 0, 56, 0, 63, 17, 42, 32, 46, 39, 2, 36, 9, 38, 0, 41, 0, 0, 0, 1, 22, 0, 0, 0, 61, 3, 0, 21, 53, 62, 19, 43, 51, 0, 31, 47, 59, 57, 4, 40, 15, 11, 8, 0
|14, 17, 0, 28, 15, 30, 20, 49, 51, 29, 13, 0, 46, 0, 47, 45, 0, 55, 0, 33, 9, 0, 42, 57, 48, 4, 22, 18, 37, 0, 61, 0, 3, 53, 56, 12, 5, 52, 58, 62, 35, 31, 0, 59, 40, 0, 11, 8, 24, 64, 27, 0, 38, 0, 0, 6, 39, 1, 60, 0, 34, 2, 19, 36
|0, 16, 34, 62, 31, 0, 59, 9, 44, 0, 52, 23, 22, 39, 61, 0, 27, 13, 12, 0, 0, 40, 0, 21, 20, 29, 11, 35, 0, 56, 8, 60, 0, 0, 49, 0, 43, 26, 0, 6, 1, 46, 63, 0, 15, 0, 54, 45, 0, 41, 33, 0, 32, 58, 37, 36, 0, 25, 48, 17, 42, 53, 0, 55
|0, 61, 26, 4, 0, 0, 35, 18, 9, 62, 0, 60, 0, 32, 41, 49, 0, 19, 45, 64, 46, 3, 36, 30, 1, 23, 24, 27, 0, 40, 59, 43, 0, 11, 37, 0, 7, 22, 0, 10, 47, 58, 0, 50, 2, 14, 0, 0, 12, 0, 15, 0, 13, 48, 17, 55, 0, 0, 0, 16, 56, 31, 44, 52
|38, 64, 42, 1, 44, 56, 48, 0, 15, 2, 0, 31, 34, 18, 4, 0, 29, 37, 16, 53, 11, 8, 0, 0, 47, 12, 26, 3, 62, 41, 50, 45, 55, 19, 40, 28, 21, 30, 0, 59, 39, 0, 0, 36, 51, 0, 24, 5, 0, 0, 54, 52, 9, 14, 60, 20, 23, 35, 22, 0, 7, 46, 0, 63
|0, 19, 57, 60, 29, 12, 24, 55, 0, 7, 0, 0, 0, 21, 0, 0, 0, 25, 15, 0, 0, 0, 48, 0, 54, 44, 0, 0, 0, 33, 30, 58, 46, 36, 0, 39, 50, 32, 0, 14, 9, 6, 0, 53, 0, 0, 43, 52, 22, 45, 11, 2, 16, 0, 8, 40, 0, 49, 62, 0, 27, 18, 13, 37|];