order = 8;
grid = [|0, 0, 57, 11, 63, 0, 49, 16, 27, 40, 41, 43, 17, 0, 47, 3, 44, 0, 20, 37, 28, 4, 34, 55, 13, 29, 42, 21, 39, 54, 59, 8, 0, 62, 22, 52, 0, 0, 14, 0, 45, 33, 56, 53, 31, 25, 46, 7, 60, 12, 50, 0, 5, 48, 30, 1, 0, 38, 0, 15, 2, 0, 19, 0
|12, 52, 0, 24, 53, 38, 0, 55, 23, 0, 0, 0, 0, 0, 6, 0, 35, 11, 0, 1, 0, 13, 25, 54, 50, 2, 0, 26, 30, 3, 51, 33, 10, 46, 27, 41, 0, 48, 0, 40, 39, 19, 22, 0, 4, 59, 37, 43, 0, 56, 29, 0, 34, 58, 16, 47, 63, 0, 31, 45, 36, 0, 0, 20
|0, 39, 10, 9, 43, 0, 0, 37, 48, 64, 46, 25, 0, 0, 31, 29, 0, 0, 26, 8, 5, 15, 19, 24, 1, 0, 0, 16, 35, 53, 0, 20, 2, 44, 0, 23, 36, 0, 55, 0, 58, 11, 27, 0, 60, 0, 50, 0, 0, 51, 45, 54, 38, 0, 0, 0, 0, 34, 52, 12, 21, 22, 18, 0
|0, 27, 35, 31, 56, 20, 17, 50, 1, 10, 49, 45, 62, 42, 11, 0, 63, 0, 60, 0, 0, 0, 7, 59, 14, 18, 0, 0, 57, 23, 19, 48, 37, 43, 0, 64, 16, 53, 0, 4, 0, 0, 38, 8, 36, 0, 24, 61, 44, 21, 55, 33, 3, 0, 26, 0, 13, 30, 39, 0, 29, 25, 51, 54
|0, 0, 51, 59, 42, 18, 8, 5, 39, 50, 34, 4, 35, 21, 0, 12, 0, 0, 0, 64, 41, 45, 14, 0, 0, 10, 58, 0, 0, 52, 11, 61, 60, 0, 29, 25, 0, 0, 0, 47, 48, 0, 0, 26, 16, 40, 0, 57, 20, 46, 63, 13, 53, 19, 0, 0, 43, 32, 0, 0, 0, 7, 23, 56
|0, 34, 19, 54, 60, 0, 26, 44, 0, 56, 0, 18, 0, 53, 59, 51, 58, 0, 29, 38, 47, 22, 43, 16, 40, 5, 25, 45, 63, 0, 36, 0, 17, 7, 9, 24, 49, 1, 0, 11, 41, 64, 55, 0, 21, 12, 6, 14, 0, 10, 42, 2, 0, 0, 15, 31, 50, 0, 0, 0, 33, 0, 0, 8
|32, 0, 0, 0, 45, 0, 29, 0, 7, 36, 9, 61, 54, 55, 37, 58, 30, 40, 21, 0, 10, 0, 57, 0, 49, 0, 0, 0, 43, 60, 24, 34, 26, 38, 20, 0, 0, 0, 19, 0, 0, 13, 0, 35, 5, 63, 1, 51, 14, 25, 62, 23, 8, 64, 22, 0, 11, 16, 53, 27, 17, 0, 47, 0
|58, 22, 23, 0, 0, 13, 28, 0, 0, 60, 32, 16, 26, 63, 0, 19, 0, 50, 0, 61, 36, 48, 0, 33, 38, 47, 46, 0, 64, 0, 55, 31, 42, 45, 12, 56, 0, 0, 5, 0, 17, 10, 20, 0, 29, 0, 0, 3, 7, 9, 11, 24, 40, 27, 0, 0, 0, 14, 0, 0, 0, 41, 1, 44
|0, 10, 3, 0, 33, 61, 24, 0, 37, 19, 15, 34, 56, 6, 57, 26, 0, 0, 64, 4, 9, 28, 21, 0, 7, 41, 5, 38, 8, 11, 0, 0, 48, 0, 54, 35, 14, 25, 60, 0, 30, 0, 16, 27, 23, 0, 0, 0, 42, 62, 18, 40, 31, 50, 0, 0, 32, 46, 0, 36, 0, 0, 58, 29
|46, 0, 63, 47, 30, 57, 2, 60, 29, 23, 31, 0, 18, 14, 27, 11, 20, 0, 0, 16, 59, 19, 32, 13, 45, 50, 21, 0, 34, 0, 25, 56, 0, 3, 38, 0, 7, 49, 39, 15, 22, 0, 9, 44, 10, 62, 28, 35, 58, 1, 53, 0, 0, 54, 0, 37, 26, 4, 0, 33, 42, 0, 24, 41
|48, 0, 29, 15, 8, 0, 22, 17, 0, 4, 58, 0, 0, 36, 40, 39, 46, 57, 0, 3, 0, 23, 60, 7, 0, 62, 55, 0, 2, 0, 44, 42, 43, 32, 0, 30, 34, 52, 0, 0, 20, 47, 11, 0, 63, 0, 0, 41, 64, 33, 0, 0, 56, 26, 0, 0, 61, 35, 16, 0, 0, 19, 45, 13
|23, 38, 0, 12, 64, 11, 13, 56, 0, 33, 0, 0, 0, 0, 45, 61, 37, 24, 0, 15, 43, 0, 62, 18, 0, 1, 40, 0, 59, 14, 0, 54, 50, 53, 10, 57, 0, 0, 29, 51, 0, 7, 2, 0, 46, 4, 0, 0, 0, 19, 30, 34, 55, 16, 41, 9, 60, 52, 0, 3, 49, 39, 20, 0
|0, 0, 53, 4, 0, 58, 36, 18, 46, 62, 7, 35, 47, 25, 30, 41, 27, 39, 10, 0, 38, 0, 0, 0, 48, 43, 13, 0, 0, 49, 0, 0, 0, 2, 1, 0, 26, 42, 59, 0, 0, 15, 40, 19, 61, 6, 0, 37, 24, 17, 0, 52, 12, 3, 5, 45, 34, 23, 21, 0, 9, 14, 8, 22
|43, 19, 39, 14, 0, 62, 0, 6, 38, 51, 0, 12, 13, 32, 64, 0, 42, 48, 40, 30, 26, 25, 0, 5, 37, 0, 53, 47, 31, 33, 9, 46, 58, 0, 55, 0, 23, 17, 61, 0, 0, 0, 0, 18, 3, 45, 34, 54, 35, 36, 0, 0, 2, 10, 29, 0, 56, 57, 0, 59, 44, 50, 0, 11
|34, 5, 27, 25, 9, 1, 0, 52, 55, 0, 0, 0, 44, 48, 54, 53, 61, 0, 0, 51, 14, 33, 22, 63, 6, 0, 26, 19, 16, 0, 10, 23, 56, 4, 0, 0, 41, 0, 45, 20, 42, 0, 29, 21, 64, 57, 38, 58, 15, 43, 47, 59, 46, 0, 0, 0, 2, 31, 17, 0, 0, 30, 37, 62
|0, 50, 26, 42, 0, 37, 0, 28, 20, 16, 0, 49, 43, 2, 5, 9, 0, 35, 34, 17, 45, 0, 29, 1, 0, 0, 64, 15, 3, 0, 39, 0, 44, 0, 0, 19, 46, 11, 33, 62, 13, 31, 48, 12, 56, 51, 14, 52, 8, 57, 0, 4, 61, 0, 0, 0, 0, 10, 27, 40, 6, 0, 0, 25
|22, 0, 13, 5, 17, 40, 25, 0, 59, 15, 10, 38, 45, 27, 44, 0, 60, 16, 0, 50, 48, 0, 30, 0, 0, 0, 3, 0, 0, 0, 56, 24, 19, 57, 53, 11, 58, 7, 18, 0, 6, 0, 61, 28, 0, 35, 0, 32, 0, 0, 0, 0, 33, 46, 0, 14, 0, 49, 0, 41, 0, 0, 0, 37
|20, 59, 58, 7, 2, 0, 53, 0, 9, 61, 0, 42, 36, 11, 19, 18, 21, 64, 52, 27, 39, 55, 12, 3, 31, 30, 32, 0, 41, 28, 0, 35, 22, 49, 46, 45, 43, 0, 0, 38, 33, 29, 0, 5, 47, 23, 56, 40, 25, 63, 16, 62, 15, 8, 60, 4, 0, 0, 6, 50, 0, 57, 0, 34
|24, 4, 34, 62, 1, 0, 33, 32, 25, 0, 21, 8, 50, 28, 20, 35, 0, 0, 51, 54, 0, 57, 11, 0, 17, 37, 0, 7, 48, 44, 43, 0, 40, 30, 39, 2, 0, 14, 0, 5, 38, 46, 0, 0, 0, 0, 31, 22, 47, 64, 61, 55, 0, 42, 27, 3, 16, 0, 0, 56, 10, 0, 26, 0
|18, 0, 56, 0, 10, 0, 46, 0, 54, 0, 33, 55, 6, 0, 7, 17, 38, 41, 47, 2, 20, 14, 9, 8, 22, 0, 0, 64, 0, 21, 0, 0, 0, 16, 0, 42, 31, 29, 0, 37, 60, 51, 12, 15, 1, 0, 59, 11, 52, 48, 34, 0, 0, 28, 53, 0, 45, 19, 0, 30, 62, 44, 0, 0
|0, 0, 37, 16, 49, 48, 0, 31, 0, 47, 12, 0, 0, 0, 3, 62, 29, 5, 22, 0, 13, 17, 46, 4, 9, 39, 60, 53, 0, 40, 58, 25, 15, 50, 26, 0, 0, 0, 52, 64, 27, 14, 45, 54, 0, 30, 0, 0, 18, 35, 43, 11, 0, 41, 0, 38, 21, 59, 8, 20, 1, 36, 0, 61
|61, 12, 28, 60, 47, 0, 38, 57, 0, 0, 2, 32, 0, 41, 48, 43, 0, 0, 53, 24, 44, 56, 26, 62, 52, 0, 45, 20, 0, 16, 0, 50, 0, 0, 13, 55, 0, 0, 21, 0, 18, 8, 49, 34, 7, 3, 0, 4, 54, 37, 0, 5, 17, 36, 1, 51, 0, 64, 0, 0, 15, 29, 46, 27
|51, 9, 21, 35, 23, 45, 0, 42, 5, 0, 29, 0, 53, 60, 56, 46, 49, 0, 0, 32, 61, 37, 15, 19, 0, 59, 2, 0, 27, 47, 13, 0, 0, 24, 4, 0, 63, 0, 1, 41, 55, 16, 0, 0, 48, 0, 25, 17, 57, 30, 22, 20, 0, 7, 0, 50, 39, 43, 14, 11, 0, 40, 3, 38
|0, 8, 14, 0, 0, 41, 0, 63, 16, 30, 51, 22, 31, 0, 1, 0, 23, 59, 28, 0, 35, 34, 40, 42, 33, 15, 0, 62, 0, 55, 38, 0, 36, 20, 60, 47, 17, 32, 0, 27, 53, 37, 10, 43, 58, 50, 57, 21, 13, 2, 56, 0, 45, 0, 49, 0, 18, 5, 0, 4, 24, 54, 0, 0
|8, 26, 2, 40, 21, 60, 42, 41, 33, 0, 0, 59, 7, 0, 51, 0, 18, 0, 0, 28, 15, 32, 16, 31, 24, 19, 57, 39, 4, 50, 23, 0, 11, 5, 64, 0, 0, 37, 9, 45, 46, 25, 43, 1, 0, 22, 20, 27, 29, 3, 0, 0, 0, 0, 56, 55, 0, 0, 10, 17, 0, 0, 0, 63
|31, 7, 64, 22, 28, 5, 6, 54, 24, 0, 56, 27, 55, 0, 62, 34, 0, 0, 41, 0, 0, 9, 0, 40, 0, 14, 0, 0, 0, 36, 47, 29, 53, 0, 61, 0, 19, 0, 0, 0, 52, 4, 0, 57, 49, 38, 58, 0, 0, 11, 0, 45, 1, 21, 20, 35, 23, 18, 0, 51, 46, 12, 43, 16
|10, 16, 47, 0, 59, 55, 43, 62, 13, 3, 48, 29, 25, 18, 42, 1, 22, 27, 0, 52, 12, 39, 36, 0, 41, 0, 37, 56, 17, 63, 0, 0, 0, 8, 28, 0, 24, 4, 58, 60, 0, 9, 33, 0, 15, 32, 0, 44, 0, 23, 0, 50, 49, 0, 0, 54, 0, 0, 45, 57, 61, 20, 38, 0
|38, 20, 0, 63, 14, 19, 3, 0, 35, 45, 43, 0, 12, 49, 50, 0, 33, 0, 0, 0, 0, 0, 10, 0, 18, 31, 0, 0, 32, 58, 1, 9, 21, 26, 0, 7, 27, 22, 0, 56, 34, 28, 59, 55, 37, 41, 40, 0, 46, 60, 39, 30, 0, 0, 0, 17, 6, 0, 0, 0, 5, 62, 13, 0
|29, 57, 15, 36, 0, 35, 48, 1, 4, 6, 61, 41, 19, 0, 14, 44, 0, 26, 37, 45, 30, 63, 53, 49, 0, 46, 51, 60, 0, 22, 12, 11, 0, 17, 23, 43, 40, 0, 20, 32, 56, 50, 64, 42, 0, 5, 47, 0, 16, 58, 10, 38, 0, 0, 8, 0, 27, 28, 9, 0, 54, 21, 59, 0
|45, 0, 46, 39, 13, 0, 4, 0, 17, 54, 22, 0, 11, 0, 16, 63, 59, 8, 0, 58, 57, 21, 24, 29, 55, 20, 48, 0, 53, 7, 26, 28, 35, 34, 44, 0, 12, 0, 41, 42, 0, 0, 30, 6, 14, 61, 51, 0, 27, 18, 19, 36, 47, 0, 52, 5, 40, 0, 56, 0, 37, 31, 15, 50
|25, 0, 0, 61, 37, 33, 12, 27, 64, 32, 57, 39, 9, 38, 21, 20, 50, 0, 2, 0, 55, 7, 0, 0, 16, 3, 43, 44, 54, 0, 0, 0, 63, 0, 59, 46, 15, 31, 47, 36, 0, 23, 17, 13, 19, 29, 8, 0, 0, 42, 6, 22, 26, 53, 28, 41, 0, 60, 0, 1, 35, 58, 11, 0
|50, 58, 0, 44, 11, 34, 23, 53, 8, 0, 0, 0, 5, 0, 0, 0, 1, 47, 6, 19, 56, 20, 35, 48, 62, 27, 38, 2, 61, 0, 21, 64, 14, 0, 30, 13, 10, 0, 0, 0, 16, 45, 0, 24, 12, 60, 18, 0, 9, 4, 33, 0, 63, 51, 37, 0, 3, 22, 0, 55, 0, 0, 41, 0
|0, 0, 50, 18, 16, 64, 0, 24, 0, 7, 0, 63, 42, 0, 58, 0, 12, 52, 0, 46, 37, 0, 56, 6, 61, 48, 4, 0, 49, 2, 29, 0, 20, 0, 0, 0, 30, 28, 53, 0, 0, 0, 57, 31, 0, 10, 0, 9, 59, 5, 0, 17, 27, 23, 25, 19, 33, 62, 54, 34, 0, 43, 21, 39
|19, 11, 5, 1, 62, 63, 0, 0, 21, 38, 0, 0, 0, 0, 29, 33, 26, 42, 49, 0, 51, 50, 2, 25, 60, 52, 39, 59, 15, 0, 27, 7, 46, 0, 35, 6, 37, 41, 57, 24, 54, 30, 23, 48, 53, 34, 16, 56, 22, 47, 12, 28, 0, 43, 0, 32, 36, 55, 0, 13, 45, 4, 44, 17
|21, 46, 38, 49, 26, 0, 0, 0, 0, 0, 25, 0, 1, 4, 0, 0, 24, 0, 0, 18, 0, 30, 44, 41, 0, 32, 0, 0, 0, 10, 0, 53, 33, 56, 11, 22, 13, 64, 43, 31, 14, 27, 39, 17, 45, 0, 61, 19, 0, 20, 15, 29, 0, 62, 0, 2, 47, 0, 40, 37, 16, 6, 52, 12
|41, 0, 0, 0, 55, 52, 56, 0, 32, 0, 20, 30, 0, 37, 0, 6, 0, 0, 0, 59, 27, 0, 31, 60, 21, 0, 12, 13, 18, 38, 0, 43, 49, 40, 0, 17, 47, 45, 7, 0, 62, 36, 44, 58, 22, 11, 0, 0, 0, 34, 54, 53, 16, 0, 14, 26, 1, 24, 28, 19, 3, 0, 0, 57
|37, 42, 0, 58, 54, 25, 39, 0, 0, 0, 28, 13, 0, 16, 0, 0, 62, 0, 0, 0, 40, 3, 0, 0, 0, 51, 0, 0, 22, 20, 5, 47, 32, 12, 0, 18, 44, 9, 34, 8, 0, 6, 60, 0, 24, 0, 2, 15, 1, 38, 7, 0, 50, 4, 0, 57, 29, 0, 23, 49, 48, 53, 10, 35
|0, 17, 12, 45, 44, 6, 15, 13, 62, 39, 0, 31, 48, 47, 53, 10, 9, 1, 36, 0, 19, 11, 54, 32, 0, 0, 35, 57, 24, 34, 37, 0, 29, 61, 0, 58, 0, 0, 51, 0, 50, 40, 46, 0, 25, 0, 43, 0, 3, 0, 0, 21, 0, 49, 63, 42, 20, 7, 5, 0, 0, 0, 0, 64
|36, 28, 43, 29, 31, 0, 32, 22, 0, 24, 17, 15, 57, 34, 0, 0, 48, 38, 23, 0, 0, 5, 4, 64, 58, 33, 19, 55, 6, 30, 62, 0, 27, 59, 0, 63, 50, 0, 42, 14, 12, 0, 7, 37, 13, 20, 0, 47, 0, 0, 40, 35, 39, 60, 0, 0, 0, 0, 41, 46, 8, 18, 2, 26
|60, 53, 7, 57, 20, 47, 40, 33, 0, 0, 11, 19, 0, 12, 52, 0, 34, 63, 15, 0, 16, 10, 28, 61, 0, 25, 41, 36, 45, 0, 64, 14, 38, 54, 21, 0, 39, 0, 62, 3, 4, 0, 8, 51, 42, 1, 29, 18, 37, 6, 13, 0, 0, 55, 58, 0, 59, 9, 0, 22, 50, 56, 27, 31
|0, 3, 49, 0, 35, 24, 0, 0, 0, 0, 6, 7, 34, 45, 28, 5, 55, 19, 11, 0, 4, 26, 20, 2, 25, 9, 18, 52, 0, 43, 31, 0, 30, 1, 42, 8, 60, 62, 37, 17, 63, 12, 53, 38, 40, 54, 0, 16, 0, 59, 48, 0, 58, 0, 61, 0, 46, 13, 29, 32, 23, 64, 57, 36
|13, 37, 32, 8, 12, 59, 0, 34, 40, 42, 64, 36, 61, 0, 4, 38, 0, 28, 27, 23, 31, 60, 48, 22, 0, 7, 50, 0, 0, 62, 0, 0, 25, 9, 43, 0, 0, 58, 56, 46, 11, 24, 14, 2, 33, 0, 3, 45, 30, 29, 52, 1, 44, 17, 57, 39, 0, 21, 0, 0, 53, 0, 6, 0
|26, 0, 0, 41, 50, 22, 58, 0, 0, 29, 8, 9, 32, 0, 13, 0, 52, 0, 12, 0, 42, 0, 3, 34, 20, 0, 33, 24, 0, 4, 46, 17, 18, 0, 15, 44, 57, 27, 40, 16, 43, 0, 6, 56, 28, 37, 0, 10, 5, 49, 21, 0, 0, 2, 64, 53, 7, 1, 11, 63, 25, 48, 39, 14
|17, 60, 31, 0, 0, 23, 0, 47, 63, 0, 39, 2, 30, 46, 25, 15, 14, 58, 5, 29, 0, 6, 49, 45, 53, 0, 22, 35, 56, 26, 8, 0, 0, 64, 24, 21, 0, 13, 0, 48, 61, 42, 51, 20, 59, 9, 0, 34, 0, 32, 36, 16, 11, 0, 33, 12, 19, 0, 0, 0, 27, 3, 0, 0
|0, 51, 40, 0, 27, 14, 0, 11, 0, 20, 0, 33, 60, 0, 49, 16, 32, 0, 0, 0, 46, 64, 0, 21, 5, 0, 36, 58, 1, 0, 41, 0, 0, 0, 34, 59, 22, 12, 3, 0, 25, 17, 50, 29, 0, 7, 48, 13, 19, 24, 0, 0, 43, 63, 55, 0, 8, 54, 62, 10, 0, 0, 31, 0
|15, 0, 0, 0, 48, 42, 62, 19, 11, 0, 0, 0, 10, 31, 0, 24, 57, 0, 25, 0, 54, 51, 37, 0, 0, 0, 27, 30, 55, 6, 60, 0, 47, 29, 0, 53, 0, 35, 0, 61, 1, 5, 21, 46, 26, 58, 0, 39, 0, 7, 3, 8, 4, 18, 0, 20, 0, 0, 0, 52, 34, 45, 16, 43
|2, 0, 55, 0, 25, 4, 1, 46, 3, 43, 0, 48, 0, 0, 12, 37, 8, 0, 17, 0, 7, 0, 18, 36, 64, 21, 14, 34, 40, 0, 32, 45, 0, 0, 31, 50, 0, 63, 26, 33, 0, 57, 0, 49, 0, 27, 62, 0, 0, 0, 0, 15, 41, 9, 13, 22, 42, 20, 24, 58, 30, 59, 0, 0
|9, 18, 16, 0, 6, 44, 57, 0, 53, 58, 27, 62, 21, 1, 55, 0, 40, 61, 63, 35, 24, 43, 59, 39, 0, 28, 15, 0, 11, 0, 0, 12, 0, 23, 7, 0, 52, 36, 4, 49, 31, 32, 0, 60, 0, 64, 19, 0, 26, 45, 25, 10, 0, 37, 0, 46, 0, 0, 38, 0, 0, 17, 0, 33
|62, 44, 20, 34, 22, 0, 0, 7, 31, 0, 1, 53, 39, 59, 0, 21, 10, 46, 0, 63, 29, 24, 0, 14, 51, 26, 16, 0, 58, 64, 18, 0, 12, 41, 49, 0, 48, 19, 54, 35, 0, 52, 28, 33, 17, 43, 13, 55, 0, 0, 38, 25, 36, 0, 47, 23, 0, 11, 42, 0, 0, 27, 56, 0
|0, 35, 0, 46, 15, 0, 60, 21, 45, 14, 16, 20, 64, 61, 10, 42, 31, 55, 3, 49, 0, 52, 0, 57, 54, 0, 30, 9, 12, 0, 0, 38, 59, 25, 50, 0, 53, 47, 17, 63, 19, 48, 0, 62, 8, 0, 27, 0, 0, 13, 2, 37, 0, 0, 44, 33, 4, 40, 51, 0, 58, 0, 0, 18
|55, 49, 8, 48, 58, 26, 0, 0, 44, 12, 0, 37, 23, 33, 0, 40, 0, 21, 19, 53, 0, 0, 0, 9, 39, 0, 47, 6, 60, 0, 22, 62, 3, 13, 0, 0, 0, 56, 46, 43, 24, 61, 32, 30, 51, 15, 35, 0, 10, 50, 57, 41, 0, 5, 17, 16, 0, 25, 20, 31, 63, 34, 29, 0
|52, 31, 30, 23, 61, 53, 9, 4, 49, 0, 47, 11, 63, 43, 18, 27, 54, 37, 16, 26, 50, 59, 0, 0, 57, 40, 0, 25, 36, 46, 20, 55, 28, 0, 5, 32, 64, 0, 24, 7, 0, 0, 0, 0, 0, 14, 12, 0, 48, 22, 1, 0, 19, 0, 21, 0, 0, 6, 33, 2, 38, 13, 0, 45
|39, 41, 33, 19, 29, 0, 64, 0, 15, 55, 0, 26, 0, 5, 22, 56, 0, 0, 4, 40, 0, 0, 58, 0, 35, 24, 0, 28, 21, 48, 2, 13, 0, 0, 0, 10, 42, 34, 0, 0, 0, 0, 0, 45, 0, 0, 0, 0, 0, 61, 51, 7, 62, 31, 59, 0, 54, 12, 0, 9, 32, 1, 0, 53
|63, 13, 0, 27, 3, 28, 16, 38, 58, 52, 62, 6, 0, 9, 32, 57, 43, 51, 0, 42, 0, 12, 0, 0, 0, 0, 34, 31, 0, 0, 61, 0, 0, 0, 33, 60, 20, 15, 0, 30, 2, 18, 0, 40, 54, 0, 7, 49, 53, 8, 46, 0, 0, 56, 0, 0, 0, 0, 50, 0, 19, 10, 22, 47
|57, 0, 45, 51, 5, 0, 50, 40, 28, 0, 13, 54, 46, 0, 17, 25, 0, 60, 32, 0, 33, 27, 61, 47, 0, 0, 0, 43, 52, 41, 15, 0, 0, 22, 62, 29, 21, 55, 8, 18, 36, 0, 31, 4, 34, 16, 0, 38, 63, 14, 58, 42, 20, 30, 6, 11, 48, 37, 0, 23, 64, 49, 7, 3
|42, 0, 0, 17, 36, 10, 0, 0, 41, 48, 0, 0, 4, 51, 8, 7, 0, 15, 0, 13, 0, 35, 64, 28, 11, 0, 0, 0, 14, 0, 0, 32, 1, 0, 45, 0, 38, 0, 6, 58, 23, 59, 0, 22, 57, 0, 0, 0, 55, 0, 9, 18, 52, 29, 12, 0, 30, 39, 0, 21, 26, 0, 0, 46
|56, 0, 18, 52, 41, 0, 45, 35, 6, 9, 53, 14, 58, 29, 39, 49, 4, 43, 50, 36, 0, 0, 13, 37, 32, 64, 62, 46, 0, 31, 0, 21, 0, 33, 17, 40, 59, 0, 0, 44, 5, 0, 0, 16, 0, 8, 10, 0, 2, 55, 27, 19, 23, 20, 42, 7, 24, 47, 3, 28, 60, 26, 63, 30
|0, 25, 42, 0, 34, 2, 27, 43, 0, 5, 4, 64, 16, 22, 24, 32, 0, 20, 61, 57, 8, 0, 55, 0, 47, 58, 0, 0, 7, 37, 0, 40, 31, 14, 51, 0, 18, 60, 0, 21, 15, 56, 35, 39, 6, 0, 23, 46, 0, 53, 17, 44, 9, 33, 50, 36, 0, 0, 13, 38, 41, 11, 0, 1
|14, 0, 9, 32, 57, 16, 11, 58, 61, 0, 0, 17, 41, 0, 46, 31, 51, 0, 0, 0, 52, 18, 27, 38, 23, 22, 0, 12, 0, 35, 30, 2, 34, 36, 6, 3, 54, 39, 28, 19, 59, 49, 13, 0, 55, 33, 60, 0, 43, 0, 37, 0, 25, 0, 62, 63, 5, 0, 0, 48, 0, 0, 53, 10
|5, 0, 6, 13, 38, 0, 31, 12, 52, 27, 35, 56, 28, 0, 33, 0, 0, 0, 59, 60, 62, 40, 1, 0, 19, 16, 0, 49, 0, 57, 54, 0, 0, 37, 8, 48, 32, 20, 0, 23, 51, 22, 58, 0, 43, 0, 42, 0, 45, 41, 4, 46, 14, 47, 0, 0, 64, 0, 2, 39, 0, 61, 0, 21
|3, 30, 0, 0, 46, 50, 0, 64, 0, 1, 59, 0, 38, 0, 0, 13, 0, 0, 31, 48, 32, 41, 63, 53, 0, 8, 0, 61, 51, 18, 34, 0, 4, 15, 47, 27, 29, 5, 0, 26, 0, 21, 52, 25, 20, 36, 17, 28, 0, 16, 24, 49, 22, 57, 0, 0, 12, 45, 35, 0, 0, 0, 14, 9
|28, 62, 0, 33, 40, 39, 0, 8, 26, 18, 54, 0, 2, 50, 15, 36, 0, 0, 24, 0, 17, 0, 47, 35, 4, 0, 44, 14, 9, 1, 53, 52, 0, 42, 41, 49, 25, 46, 64, 10, 57, 0, 63, 3, 27, 19, 0, 0, 0, 0, 0, 0, 21, 13, 11, 0, 37, 58, 0, 6, 0, 23, 0, 59
|7, 23, 0, 0, 24, 0, 47, 0, 0, 25, 44, 57, 8, 0, 63, 0, 64, 0, 0, 0, 3, 0, 0, 15, 36, 6, 0, 5, 0, 56, 33, 0, 0, 55, 0, 0, 1, 43, 11, 12, 37, 0, 4, 14, 0, 2, 9, 26, 61, 28, 59, 51, 0, 0, 35, 30, 17, 27, 19, 0, 0, 0, 32, 49
|0, 54, 48, 0, 19, 0, 63, 49, 12, 11, 42, 3, 37, 0, 34, 0, 0, 22, 7, 0, 0, 2, 0, 0, 43, 13, 28, 0, 26, 59, 17, 60, 52, 58, 56, 9, 0, 0, 35, 53, 0, 44, 62, 0, 0, 31, 41, 0, 0, 15, 5, 39, 0, 1, 18, 0, 0, 0, 46, 16, 0, 33, 0, 0|];