order = 8;
grid = [|33, 6, 22, 0, 59, 42, 15, 0, 32, 23, 19, 0, 0, 4, 9, 0, 17, 41, 0, 7, 26, 21, 35, 0, 0, 5, 25, 53, 56, 2, 8, 24, 31, 0, 20, 0, 0, 55, 48, 45, 0, 18, 36, 28, 50, 54, 29, 40, 63, 44, 13, 43, 16, 62, 12, 0, 0, 60, 0, 0, 38, 30, 14, 0
|23, 24, 18, 0, 19, 0, 35, 51, 0, 44, 0, 0, 50, 0, 0, 16, 0, 14, 0, 0, 0, 47, 28, 56, 26, 52, 59, 0, 0, 4, 12, 0, 8, 0, 40, 58, 36, 62, 0, 42, 43, 17, 32, 5, 9, 0, 0, 53, 20, 33, 0, 0, 0, 21, 1, 49, 54, 0, 6, 57, 2, 29, 0, 48
|46, 53, 0, 28, 36, 34, 39, 31, 0, 6, 40, 0, 26, 52, 0, 12, 0, 0, 5, 61, 0, 25, 58, 16, 0, 0, 48, 38, 62, 57, 1, 42, 0, 0, 30, 24, 13, 0, 7, 0, 27, 56, 15, 55, 47, 8, 0, 20, 3, 0, 37, 0, 11, 29, 14, 0, 0, 49, 0, 0, 0, 35, 32, 0
|0, 14, 63, 0, 32, 4, 2, 43, 41, 28, 8, 49, 30, 29, 59, 48, 6, 0, 36, 39, 0, 44, 0, 53, 17, 0, 13, 19, 0, 0, 0, 60, 0, 33, 56, 35, 0, 22, 0, 38, 0, 1, 10, 64, 0, 23, 0, 46, 0, 51, 0, 0, 0, 54, 42, 18, 5, 9, 0, 11, 24, 55, 15, 62
|13, 0, 29, 37, 45, 52, 44, 17, 2, 0, 56, 42, 0, 55, 0, 0, 43, 0, 3, 23, 10, 0, 40, 0, 20, 15, 0, 0, 49, 30, 0, 54, 18, 41, 32, 1, 0, 0, 14, 25, 62, 48, 33, 11, 60, 26, 6, 16, 57, 0, 0, 39, 5, 7, 19, 59, 0, 36, 47, 12, 0, 4, 0, 0
|48, 5, 11, 55, 56, 0, 9, 8, 0, 62, 18, 0, 14, 0, 33, 10, 24, 54, 51, 0, 0, 49, 50, 0, 0, 0, 21, 37, 0, 22, 44, 61, 53, 29, 23, 19, 43, 0, 17, 12, 0, 63, 0, 41, 25, 35, 7, 52, 4, 0, 32, 36, 6, 2, 0, 0, 28, 26, 27, 40, 59, 42, 20, 13
|0, 0, 16, 0, 1, 0, 26, 49, 58, 0, 21, 45, 0, 0, 5, 0, 48, 29, 0, 0, 57, 0, 0, 18, 0, 32, 33, 0, 47, 46, 55, 41, 0, 52, 60, 54, 3, 34, 4, 2, 51, 22, 30, 38, 13, 19, 12, 42, 35, 64, 31, 0, 28, 8, 40, 0, 0, 0, 0, 53, 0, 17, 56, 25
|54, 0, 0, 0, 10, 41, 57, 25, 31, 0, 13, 51, 0, 0, 53, 63, 0, 2, 19, 11, 42, 0, 0, 62, 23, 35, 0, 40, 36, 9, 0, 0, 0, 6, 39, 47, 37, 15, 28, 5, 59, 3, 44, 0, 0, 49, 4, 0, 0, 26, 38, 56, 0, 17, 0, 48, 0, 22, 52, 45, 0, 0, 7, 18
|60, 0, 0, 31, 0, 8, 41, 61, 6, 29, 59, 0, 3, 40, 47, 9, 1, 48, 17, 34, 23, 15, 25, 55, 0, 44, 0, 10, 0, 0, 0, 12, 30, 50, 27, 38, 49, 0, 0, 52, 64, 7, 43, 18, 0, 0, 0, 62, 0, 11, 16, 32, 0, 14, 5, 20, 56, 4, 0, 54, 0, 24, 2, 51
|62, 46, 4, 0, 0, 48, 1, 28, 0, 31, 27, 7, 41, 64, 21, 0, 19, 11, 26, 0, 0, 12, 42, 10, 18, 61, 57, 0, 63, 0, 58, 38, 59, 44, 0, 0, 14, 17, 0, 47, 16, 25, 2, 6, 0, 0, 56, 0, 0, 36, 0, 50, 0, 24, 0, 0, 8, 53, 0, 49, 37, 32, 40, 22
|0, 19, 0, 33, 35, 10, 58, 26, 0, 0, 0, 0, 51, 32, 39, 56, 0, 40, 0, 45, 43, 59, 38, 22, 2, 0, 49, 0, 48, 54, 0, 47, 20, 13, 53, 0, 55, 63, 0, 18, 15, 0, 0, 42, 0, 1, 37, 5, 27, 4, 3, 61, 8, 0, 0, 28, 17, 14, 0, 0, 50, 62, 52, 9
|32, 54, 20, 64, 13, 45, 6, 0, 8, 14, 2, 25, 58, 19, 0, 0, 0, 27, 49, 50, 5, 46, 21, 4, 9, 17, 53, 1, 41, 3, 62, 0, 7, 0, 29, 56, 0, 28, 0, 61, 12, 0, 51, 57, 63, 47, 52, 22, 60, 42, 59, 0, 18, 10, 26, 40, 0, 0, 38, 55, 11, 31, 48, 0
|0, 16, 36, 23, 55, 53, 0, 27, 0, 17, 46, 5, 48, 33, 18, 42, 32, 57, 0, 0, 2, 35, 56, 58, 0, 30, 40, 20, 11, 45, 0, 21, 54, 0, 19, 0, 0, 39, 0, 0, 9, 10, 0, 0, 61, 59, 0, 14, 0, 7, 0, 0, 51, 43, 29, 34, 12, 28, 26, 63, 64, 15, 1, 3
|11, 0, 40, 0, 0, 25, 63, 12, 54, 30, 0, 60, 0, 15, 22, 50, 0, 0, 29, 3, 6, 61, 37, 9, 56, 0, 14, 39, 46, 0, 0, 0, 0, 57, 45, 41, 31, 43, 8, 36, 34, 20, 23, 33, 32, 0, 17, 35, 53, 1, 21, 0, 48, 49, 2, 0, 7, 0, 5, 58, 27, 47, 13, 19
|9, 17, 0, 29, 7, 30, 59, 14, 62, 10, 53, 36, 49, 37, 34, 0, 47, 18, 0, 0, 63, 60, 33, 0, 0, 0, 16, 32, 0, 0, 50, 0, 21, 3, 0, 0, 48, 12, 58, 0, 0, 55, 4, 27, 0, 0, 0, 31, 0, 0, 0, 0, 22, 52, 56, 39, 0, 25, 57, 0, 6, 61, 0, 0
|3, 0, 49, 47, 0, 56, 38, 15, 55, 52, 1, 28, 13, 57, 44, 61, 41, 20, 53, 0, 14, 54, 8, 30, 22, 34, 43, 27, 0, 0, 7, 25, 64, 2, 5, 0, 32, 9, 35, 0, 0, 0, 50, 0, 39, 0, 58, 26, 0, 0, 62, 19, 0, 33, 0, 0, 16, 0, 42, 0, 36, 60, 59, 21
|56, 0, 3, 46, 34, 0, 0, 0, 0, 15, 0, 53, 0, 9, 0, 21, 0, 64, 52, 43, 0, 7, 27, 0, 48, 11, 0, 50, 6, 47, 10, 62, 0, 0, 0, 23, 38, 58, 0, 26, 1, 31, 18, 35, 0, 0, 0, 63, 0, 0, 0, 40, 19, 28, 54, 0, 33, 24, 25, 0, 30, 45, 4, 5
|16, 32, 6, 51, 0, 22, 61, 57, 0, 0, 39, 26, 63, 38, 50, 37, 0, 28, 41, 47, 0, 0, 0, 49, 64, 0, 0, 42, 60, 27, 36, 19, 4, 8, 0, 45, 10, 14, 56, 0, 0, 0, 0, 48, 0, 62, 54, 25, 0, 0, 30, 52, 0, 59, 0, 21, 29, 7, 55, 3, 0, 0, 0, 12
|0, 0, 0, 0, 30, 0, 0, 0, 29, 19, 0, 31, 0, 34, 35, 23, 0, 8, 56, 0, 24, 0, 10, 12, 3, 0, 9, 2, 58, 18, 14, 53, 5, 62, 55, 32, 28, 61, 42, 15, 22, 52, 41, 17, 37, 21, 0, 4, 36, 0, 27, 20, 0, 0, 0, 7, 6, 0, 1, 0, 46, 0, 57, 47
|17, 0, 0, 0, 28, 0, 27, 29, 12, 0, 48, 13, 0, 0, 20, 0, 0, 0, 38, 30, 62, 57, 36, 0, 24, 43, 0, 25, 55, 15, 63, 4, 0, 0, 18, 33, 0, 51, 64, 0, 8, 16, 0, 3, 56, 0, 50, 0, 41, 47, 26, 0, 1, 42, 9, 35, 21, 61, 31, 60, 23, 0, 0, 0
|0, 0, 7, 0, 9, 0, 23, 0, 49, 4, 0, 56, 16, 0, 3, 33, 0, 55, 0, 0, 0, 19, 22, 0, 1, 0, 61, 57, 0, 0, 13, 0, 0, 0, 35, 21, 47, 0, 0, 0, 0, 0, 0, 34, 24, 36, 46, 30, 45, 12, 0, 38, 14, 0, 0, 15, 0, 44, 0, 26, 0, 63, 62, 8
|0, 12, 0, 21, 41, 0, 0, 55, 40, 0, 64, 0, 0, 0, 0, 0, 44, 51, 34, 0, 50, 0, 0, 48, 0, 56, 0, 54, 5, 0, 30, 37, 52, 0, 0, 63, 7, 0, 25, 0, 53, 0, 0, 26, 57, 60, 47, 33, 23, 24, 0, 16, 4, 22, 0, 0, 0, 19, 15, 35, 42, 9, 10, 14
|0, 50, 53, 4, 14, 44, 62, 0, 0, 0, 52, 47, 24, 42, 30, 51, 45, 26, 0, 37, 0, 31, 63, 6, 32, 29, 0, 35, 21, 49, 16, 20, 0, 54, 0, 0, 0, 46, 12, 48, 38, 39, 19, 7, 10, 0, 0, 9, 0, 0, 11, 60, 33, 61, 0, 8, 0, 40, 13, 56, 0, 64, 17, 0
|10, 15, 8, 1, 40, 19, 0, 35, 61, 57, 62, 18, 0, 36, 11, 0, 0, 21, 4, 0, 0, 14, 23, 13, 0, 51, 0, 0, 31, 0, 26, 0, 0, 0, 0, 0, 0, 24, 0, 34, 0, 45, 59, 20, 42, 64, 55, 0, 0, 58, 56, 0, 63, 0, 3, 17, 0, 52, 48, 50, 0, 54, 28, 0
|42, 0, 5, 0, 60, 17, 10, 0, 47, 48, 37, 40, 43, 0, 29, 0, 57, 32, 35, 0, 46, 0, 0, 0, 0, 0, 63, 16, 0, 0, 18, 0, 58, 0, 0, 0, 22, 2, 0, 54, 0, 27, 0, 0, 0, 0, 30, 59, 24, 20, 0, 0, 0, 38, 51, 25, 45, 56, 12, 39, 13, 44, 8, 31
|29, 43, 35, 44, 63, 0, 0, 22, 0, 54, 0, 24, 59, 30, 58, 0, 0, 7, 6, 51, 55, 0, 39, 0, 47, 13, 45, 0, 0, 50, 60, 5, 0, 36, 0, 37, 27, 56, 21, 53, 46, 0, 0, 40, 0, 20, 38, 0, 14, 2, 9, 11, 17, 41, 0, 52, 0, 34, 64, 33, 0, 0, 0, 15
|30, 1, 45, 0, 0, 6, 52, 21, 19, 0, 31, 0, 22, 44, 32, 11, 13, 0, 0, 17, 41, 0, 0, 25, 0, 4, 54, 43, 0, 8, 0, 58, 50, 15, 26, 62, 60, 5, 0, 57, 49, 0, 47, 56, 35, 61, 51, 12, 7, 0, 0, 0, 59, 46, 0, 23, 0, 27, 53, 28, 55, 36, 0, 0
|19, 0, 0, 62, 0, 20, 0, 0, 21, 0, 63, 33, 6, 16, 27, 46, 0, 60, 54, 5, 0, 22, 44, 15, 37, 0, 0, 0, 0, 0, 35, 28, 49, 10, 59, 31, 0, 64, 29, 7, 39, 0, 25, 1, 53, 11, 0, 57, 30, 34, 45, 26, 13, 55, 48, 3, 43, 2, 58, 23, 32, 38, 51, 0
|0, 0, 54, 27, 64, 0, 13, 59, 53, 0, 9, 15, 0, 2, 25, 14, 0, 0, 63, 0, 29, 45, 20, 31, 0, 46, 56, 55, 32, 0, 0, 48, 51, 0, 38, 0, 6, 41, 52, 39, 44, 0, 7, 22, 33, 24, 8, 34, 0, 57, 5, 49, 37, 0, 43, 16, 50, 1, 10, 4, 0, 40, 35, 42
|36, 11, 39, 0, 0, 40, 0, 0, 5, 51, 57, 35, 23, 8, 41, 28, 49, 59, 24, 2, 56, 0, 16, 34, 42, 19, 52, 7, 0, 44, 6, 0, 0, 12, 0, 48, 33, 45, 1, 43, 0, 60, 0, 58, 31, 13, 62, 0, 10, 61, 18, 0, 32, 53, 0, 0, 0, 29, 9, 21, 25, 37, 63, 20
|0, 18, 0, 0, 46, 37, 0, 41, 52, 34, 12, 4, 56, 13, 64, 17, 27, 47, 48, 0, 0, 0, 43, 11, 0, 20, 0, 31, 0, 53, 0, 0, 24, 0, 16, 0, 42, 23, 0, 28, 50, 0, 63, 0, 45, 0, 5, 29, 21, 62, 54, 0, 40, 1, 8, 36, 14, 59, 22, 6, 26, 49, 30, 60
|0, 48, 34, 0, 51, 0, 3, 0, 0, 42, 49, 38, 61, 0, 0, 1, 21, 0, 62, 4, 37, 64, 26, 0, 33, 0, 10, 0, 0, 25, 57, 22, 63, 14, 13, 8, 40, 35, 0, 46, 0, 23, 16, 52, 43, 9, 32, 55, 28, 19, 44, 58, 29, 0, 6, 56, 47, 0, 11, 7, 54, 5, 0, 0
|0, 30, 37, 5, 3, 35, 53, 32, 0, 45, 34, 0, 0, 59, 0, 0, 18, 10, 33, 48, 0, 55, 0, 47, 0, 21, 41, 0, 23, 20, 49, 46, 0, 56, 36, 22, 12, 57, 2, 13, 24, 0, 0, 14, 0, 0, 0, 17, 44, 28, 61, 0, 0, 27, 16, 11, 38, 0, 40, 25, 1, 0, 60, 0
|61, 0, 0, 36, 0, 18, 0, 58, 17, 0, 5, 0, 54, 11, 0, 40, 16, 44, 43, 42, 59, 41, 0, 28, 19, 0, 35, 30, 25, 13, 9, 31, 14, 34, 4, 27, 63, 0, 32, 64, 20, 47, 6, 53, 38, 0, 22, 0, 37, 49, 8, 0, 23, 45, 50, 0, 55, 51, 62, 15, 0, 52, 21, 29
|2, 25, 0, 0, 0, 21, 64, 46, 15, 16, 3, 30, 7, 14, 23, 20, 0, 62, 45, 60, 34, 37, 19, 38, 0, 6, 32, 61, 29, 10, 52, 18, 42, 28, 0, 50, 53, 1, 0, 0, 56, 5, 12, 39, 48, 0, 0, 51, 22, 0, 4, 13, 41, 36, 35, 0, 0, 0, 8, 43, 31, 0, 26, 0
|43, 45, 0, 52, 15, 0, 19, 44, 0, 2, 0, 22, 60, 27, 61, 58, 25, 30, 21, 56, 0, 0, 11, 3, 0, 57, 0, 36, 59, 39, 0, 0, 0, 48, 7, 0, 29, 0, 49, 0, 35, 34, 0, 32, 0, 0, 42, 0, 62, 38, 14, 6, 46, 0, 64, 33, 20, 47, 63, 9, 0, 0, 0, 50
|8, 60, 27, 9, 20, 0, 16, 4, 33, 38, 36, 0, 0, 10, 51, 44, 22, 5, 14, 0, 35, 13, 0, 0, 63, 58, 2, 0, 0, 1, 56, 50, 0, 0, 21, 39, 0, 0, 3, 41, 0, 61, 55, 25, 26, 0, 23, 43, 34, 0, 0, 0, 42, 0, 24, 32, 0, 17, 7, 19, 28, 0, 49, 45
|1, 42, 47, 41, 39, 50, 0, 13, 9, 43, 28, 6, 37, 0, 31, 25, 12, 0, 8, 0, 0, 0, 24, 29, 27, 0, 0, 3, 64, 14, 45, 0, 23, 61, 0, 0, 0, 30, 62, 58, 0, 11, 60, 0, 19, 18, 49, 0, 56, 52, 0, 0, 21, 0, 20, 54, 59, 35, 34, 0, 22, 0, 0, 16
|38, 40, 14, 0, 22, 0, 56, 0, 48, 13, 0, 41, 8, 0, 24, 32, 31, 61, 50, 20, 27, 51, 49, 0, 4, 0, 28, 0, 17, 11, 33, 0, 0, 45, 0, 52, 35, 0, 10, 55, 36, 0, 46, 15, 44, 58, 16, 1, 9, 18, 29, 53, 43, 63, 60, 5, 23, 0, 30, 0, 3, 57, 12, 2
|63, 29, 51, 59, 6, 12, 28, 62, 0, 35, 42, 52, 55, 50, 1, 49, 39, 15, 23, 0, 4, 32, 7, 0, 8, 0, 24, 60, 34, 0, 22, 44, 37, 9, 54, 16, 0, 11, 0, 33, 0, 30, 0, 31, 64, 27, 45, 0, 19, 0, 0, 0, 25, 47, 57, 58, 36, 0, 18, 0, 14, 41, 61, 46
|44, 35, 64, 32, 31, 26, 0, 0, 0, 9, 0, 0, 0, 23, 0, 4, 58, 3, 27, 29, 60, 11, 53, 45, 5, 0, 7, 0, 0, 0, 17, 39, 61, 0, 0, 6, 57, 19, 36, 0, 0, 21, 1, 37, 49, 52, 0, 8, 0, 54, 22, 0, 55, 56, 38, 12, 0, 62, 28, 16, 47, 10, 0, 43
|22, 20, 30, 38, 0, 5, 8, 0, 27, 55, 32, 12, 0, 17, 62, 47, 0, 0, 25, 63, 16, 34, 48, 0, 0, 0, 11, 0, 51, 59, 61, 0, 1, 0, 52, 3, 23, 7, 37, 0, 42, 64, 0, 0, 41, 0, 36, 50, 0, 31, 0, 0, 44, 18, 21, 0, 0, 0, 0, 24, 0, 56, 0, 6
|0, 3, 0, 0, 58, 0, 46, 18, 42, 26, 16, 34, 20, 1, 56, 0, 59, 22, 61, 36, 49, 62, 51, 33, 0, 54, 55, 45, 19, 37, 0, 6, 35, 39, 12, 0, 64, 21, 63, 50, 40, 0, 14, 60, 7, 43, 27, 0, 48, 0, 52, 0, 30, 32, 41, 10, 57, 8, 0, 0, 0, 11, 29, 38
|39, 0, 60, 56, 0, 0, 43, 33, 0, 0, 0, 8, 21, 0, 0, 0, 38, 0, 42, 55, 44, 0, 54, 26, 16, 22, 0, 12, 40, 34, 32, 36, 62, 47, 24, 20, 45, 29, 41, 27, 18, 46, 0, 0, 23, 5, 0, 15, 17, 3, 50, 0, 49, 0, 37, 14, 63, 13, 0, 31, 51, 1, 25, 64
|14, 9, 0, 42, 4, 13, 11, 0, 60, 3, 0, 44, 0, 28, 0, 29, 23, 35, 12, 32, 8, 50, 47, 24, 49, 10, 0, 46, 0, 41, 38, 27, 56, 0, 48, 34, 0, 0, 51, 31, 26, 58, 22, 0, 0, 55, 0, 39, 16, 0, 0, 1, 0, 0, 0, 57, 53, 45, 20, 30, 61, 21, 37, 0
|15, 55, 41, 0, 37, 51, 36, 50, 0, 22, 0, 59, 0, 0, 63, 0, 7, 17, 10, 21, 19, 0, 6, 1, 31, 23, 0, 64, 0, 0, 53, 0, 60, 58, 0, 2, 4, 0, 33, 30, 57, 0, 34, 0, 0, 44, 0, 47, 11, 0, 20, 24, 0, 40, 61, 0, 18, 0, 14, 52, 0, 0, 46, 0
|12, 49, 0, 0, 17, 1, 0, 54, 36, 64, 30, 0, 52, 0, 0, 19, 0, 13, 0, 18, 28, 56, 15, 40, 0, 47, 29, 58, 3, 42, 0, 63, 22, 0, 14, 11, 9, 53, 5, 32, 6, 38, 0, 51, 0, 31, 0, 61, 8, 25, 0, 33, 7, 35, 4, 0, 0, 0, 59, 27, 44, 23, 0, 55
|0, 27, 62, 0, 48, 29, 7, 24, 11, 0, 51, 2, 5, 58, 37, 0, 0, 39, 0, 14, 20, 9, 31, 41, 50, 1, 26, 52, 35, 60, 0, 8, 38, 18, 28, 55, 17, 44, 40, 49, 32, 19, 45, 13, 16, 0, 10, 56, 59, 0, 23, 0, 47, 34, 53, 42, 0, 3, 54, 22, 15, 12, 33, 36
|0, 39, 15, 12, 0, 0, 21, 0, 51, 7, 44, 27, 2, 48, 0, 0, 20, 42, 60, 0, 13, 23, 64, 37, 0, 0, 47, 0, 53, 0, 41, 35, 3, 38, 10, 18, 50, 32, 0, 0, 0, 0, 29, 36, 0, 56, 24, 0, 43, 22, 0, 0, 61, 0, 11, 0, 0, 0, 16, 0, 49, 25, 45, 0
|0, 26, 0, 19, 25, 0, 17, 56, 37, 0, 22, 54, 1, 31, 0, 41, 0, 6, 47, 0, 30, 27, 0, 21, 55, 45, 58, 9, 24, 38, 3, 51, 13, 7, 0, 60, 0, 20, 39, 62, 48, 40, 11, 0, 15, 46, 0, 23, 33, 16, 42, 18, 12, 5, 0, 50, 32, 0, 61, 29, 0, 2, 0, 0
|41, 23, 58, 10, 0, 0, 60, 0, 0, 36, 45, 21, 0, 56, 0, 0, 29, 0, 16, 0, 38, 33, 12, 43, 34, 26, 39, 5, 22, 48, 20, 40, 0, 1, 57, 17, 24, 4, 53, 0, 0, 0, 31, 62, 27, 7, 61, 0, 49, 0, 0, 59, 2, 0, 44, 47, 51, 15, 37, 18, 9, 8, 54, 11
|51, 0, 42, 13, 11, 3, 31, 0, 4, 33, 20, 16, 53, 25, 6, 34, 26, 49, 15, 22, 48, 39, 55, 8, 60, 62, 27, 0, 57, 23, 0, 1, 0, 21, 46, 59, 0, 0, 61, 19, 0, 0, 0, 43, 52, 41, 18, 0, 29, 32, 40, 14, 9, 30, 7, 64, 0, 12, 24, 10, 17, 0, 0, 56
|6, 44, 0, 0, 16, 27, 0, 37, 13, 11, 0, 19, 17, 18, 26, 15, 53, 45, 0, 46, 36, 0, 0, 50, 12, 7, 4, 0, 0, 33, 25, 10, 48, 51, 22, 0, 54, 40, 47, 35, 5, 0, 0, 0, 8, 2, 64, 49, 0, 60, 58, 57, 3, 20, 52, 31, 62, 0, 39, 42, 0, 59, 0, 34
|0, 0, 9, 22, 0, 64, 32, 34, 35, 49, 24, 55, 12, 62, 14, 0, 52, 0, 57, 59, 7, 0, 4, 63, 13, 16, 19, 6, 18, 0, 11, 17, 0, 0, 41, 29, 15, 42, 0, 0, 10, 0, 26, 47, 1, 39, 20, 0, 54, 0, 48, 21, 36, 23, 45, 0, 30, 0, 60, 38, 58, 28, 27, 40
|53, 8, 46, 0, 0, 33, 45, 20, 23, 47, 58, 50, 0, 63, 57, 60, 28, 56, 18, 0, 11, 17, 0, 0, 43, 37, 15, 0, 42, 32, 59, 0, 0, 30, 0, 0, 5, 52, 31, 16, 14, 6, 0, 4, 0, 0, 25, 19, 38, 10, 1, 27, 24, 39, 0, 51, 0, 0, 0, 13, 7, 26, 55, 0
|35, 7, 0, 0, 38, 0, 14, 1, 30, 32, 29, 43, 40, 61, 10, 39, 0, 24, 9, 0, 51, 0, 34, 5, 36, 0, 0, 0, 50, 52, 46, 0, 11, 27, 0, 12, 0, 26, 45, 0, 13, 57, 0, 16, 0, 42, 0, 3, 25, 0, 41, 8, 15, 37, 62, 19, 31, 20, 0, 48, 53, 22, 47, 33
|18, 0, 48, 63, 0, 24, 42, 0, 0, 0, 61, 32, 0, 5, 0, 27, 0, 1, 28, 33, 25, 2, 62, 19, 46, 38, 60, 4, 0, 0, 51, 30, 55, 35, 50, 14, 52, 6, 54, 20, 37, 13, 53, 59, 22, 17, 43, 10, 26, 8, 0, 12, 0, 11, 0, 41, 0, 23, 3, 64, 0, 0, 39, 58
|49, 0, 59, 0, 43, 9, 0, 19, 0, 21, 54, 23, 62, 12, 2, 0, 0, 34, 55, 16, 47, 48, 57, 44, 61, 14, 42, 13, 0, 0, 40, 45, 25, 11, 0, 7, 39, 0, 0, 56, 33, 0, 0, 46, 3, 32, 26, 0, 52, 53, 64, 0, 35, 0, 0, 0, 15, 5, 0, 1, 60, 20, 0, 0
|50, 0, 61, 40, 12, 14, 54, 10, 0, 25, 11, 20, 42, 22, 7, 13, 0, 38, 39, 64, 9, 6, 30, 59, 53, 36, 17, 23, 33, 58, 34, 0, 0, 37, 44, 43, 2, 0, 19, 51, 0, 0, 27, 8, 5, 63, 15, 18, 1, 21, 55, 0, 60, 0, 0, 29, 0, 57, 35, 47, 4, 0, 0, 0
|0, 4, 25, 39, 23, 15, 5, 36, 14, 46, 55, 48, 19, 51, 17, 53, 0, 58, 22, 27, 0, 24, 29, 0, 0, 0, 0, 18, 8, 0, 0, 56, 16, 0, 62, 0, 30, 49, 60, 0, 7, 54, 52, 61, 0, 34, 35, 28, 0, 13, 10, 31, 20, 57, 59, 44, 0, 37, 33, 2, 45, 43, 38, 63
|52, 28, 0, 3, 29, 0, 30, 0, 45, 8, 6, 9, 0, 0, 60, 0, 5, 36, 31, 49, 54, 18, 0, 61, 25, 50, 20, 0, 43, 35, 0, 55, 12, 22, 0, 57, 26, 0, 24, 40, 19, 0, 56, 23, 4, 51, 0, 38, 46, 0, 63, 62, 27, 15, 33, 2, 0, 16, 32, 44, 48, 0, 53, 10
|58, 13, 17, 0, 0, 32, 22, 16, 0, 0, 0, 0, 0, 47, 4, 0, 51, 0, 0, 41, 52, 26, 0, 20, 21, 0, 1, 0, 0, 7, 39, 49, 34, 5, 0, 15, 8, 38, 0, 29, 0, 0, 48, 9, 2, 30, 57, 0, 0, 37, 43, 0, 45, 0, 25, 0, 0, 55, 0, 61, 12, 14, 50, 28
|55, 34, 44, 0, 33, 46, 0, 6, 0, 0, 50, 37, 0, 0, 49, 52, 14, 4, 11, 10, 45, 0, 60, 0, 28, 0, 5, 26, 0, 62, 0, 57, 27, 0, 17, 53, 41, 0, 13, 0, 0, 12, 40, 29, 0, 0, 31, 0, 18, 39, 24, 7, 38, 3, 23, 61, 0, 30, 0, 0, 21, 19, 0, 59
|57, 41, 0, 35, 0, 60, 20, 11, 3, 63, 0, 29, 34, 0, 16, 38, 40, 12, 0, 8, 53, 43, 0, 0, 59, 2, 6, 22, 0, 19, 15, 52, 28, 23, 64, 61, 21, 0, 46, 4, 25, 14, 0, 50, 0, 45, 1, 44, 32, 17, 36, 5, 0, 9, 0, 0, 24, 54, 51, 62, 0, 0, 42, 49|];