order = 8;
grid = [|0, 0, 0, 6, 28, 11, 60, 0, 1, 0, 59, 13, 20, 53, 0, 33, 37, 27, 0, 42, 0, 35, 50, 0, 30, 14, 46, 51, 0, 26, 36, 44, 56, 18, 0, 10, 23, 34, 2, 62, 0, 0, 0, 0, 0, 0, 0, 64, 12, 0, 32, 0, 52, 8, 58, 24, 38, 0, 55, 0, 0, 0, 43, 0
|0, 53, 19, 31, 12, 33, 32, 37, 27, 36, 30, 2, 29, 0, 54, 17, 0, 0, 34, 25, 11, 63, 51, 56, 15, 41, 47, 13, 22, 20, 0, 0, 24, 1, 44, 0, 0, 0, 58, 42, 35, 6, 39, 40, 0, 45, 26, 14, 38, 3, 0, 18, 28, 43, 61, 60, 5, 64, 23, 52, 62, 50, 10, 0
|38, 45, 35, 49, 42, 30, 9, 5, 55, 47, 0, 31, 22, 21, 16, 50, 0, 0, 15, 0, 7, 62, 39, 28, 8, 53, 0, 61, 0, 1, 52, 64, 0, 0, 32, 4, 41, 60, 3, 0, 0, 36, 37, 57, 13, 11, 12, 20, 34, 44, 0, 19, 29, 40, 54, 27, 46, 33, 58, 2, 63, 0, 51, 59
|39, 22, 57, 0, 1, 51, 0, 40, 25, 0, 0, 64, 0, 3, 12, 0, 46, 44, 0, 47, 55, 9, 0, 0, 0, 29, 42, 23, 0, 43, 27, 60, 38, 33, 59, 45, 0, 17, 35, 19, 31, 30, 58, 28, 24, 18, 32, 54, 20, 0, 48, 50, 62, 7, 41, 0, 53, 36, 4, 0, 15, 61, 56, 0
|0, 41, 15, 0, 10, 8, 44, 13, 0, 0, 51, 39, 18, 52, 57, 63, 0, 0, 4, 0, 20, 22, 12, 59, 0, 35, 0, 0, 0, 0, 0, 0, 0, 0, 49, 31, 21, 0, 27, 0, 0, 0, 19, 0, 0, 5, 34, 60, 23, 25, 37, 2, 0, 1, 64, 46, 29, 7, 24, 11, 9, 26, 32, 0
|0, 0, 55, 0, 0, 0, 0, 14, 42, 24, 46, 44, 35, 0, 0, 45, 38, 3, 43, 0, 31, 33, 41, 32, 0, 0, 0, 0, 34, 37, 4, 19, 0, 0, 64, 30, 40, 5, 39, 9, 52, 16, 61, 56, 29, 50, 0, 59, 11, 49, 53, 15, 0, 17, 51, 0, 20, 12, 1, 27, 6, 22, 54, 0
|24, 18, 64, 0, 56, 27, 0, 0, 32, 58, 7, 0, 0, 48, 28, 60, 21, 61, 0, 16, 57, 26, 52, 17, 38, 0, 2, 11, 3, 25, 0, 62, 63, 55, 53, 0, 46, 13, 54, 0, 51, 0, 43, 41, 15, 8, 0, 33, 35, 22, 31, 0, 0, 10, 59, 42, 14, 44, 30, 0, 19, 49, 37, 34
|59, 25, 0, 3, 62, 43, 52, 7, 23, 34, 19, 61, 15, 49, 26, 56, 1, 36, 10, 58, 64, 6, 40, 0, 48, 12, 0, 21, 31, 28, 0, 54, 14, 22, 0, 0, 0, 0, 37, 51, 2, 4, 0, 44, 46, 0, 0, 0, 0, 5, 39, 0, 0, 0, 0, 0, 60, 0, 45, 47, 0, 13, 41, 42
|16, 0, 58, 52, 14, 31, 0, 0, 22, 59, 50, 0, 6, 24, 0, 48, 0, 0, 0, 0, 49, 0, 21, 7, 40, 57, 12, 43, 0, 34, 0, 63, 0, 23, 35, 9, 26, 62, 13, 0, 0, 0, 33, 8, 0, 47, 56, 0, 0, 2, 10, 29, 0, 0, 0, 44, 0, 0, 32, 0, 0, 1, 45, 0
|21, 39, 60, 7, 0, 47, 12, 2, 0, 0, 52, 46, 0, 42, 25, 9, 0, 51, 0, 36, 8, 43, 0, 63, 54, 19, 0, 56, 0, 0, 0, 20, 15, 0, 0, 14, 38, 55, 0, 30, 0, 31, 0, 37, 0, 0, 6, 13, 48, 0, 35, 0, 45, 0, 3, 1, 58, 18, 29, 41, 24, 0, 53, 10
|0, 0, 17, 0, 0, 64, 20, 45, 26, 61, 0, 0, 2, 37, 60, 32, 0, 10, 12, 0, 47, 38, 19, 57, 44, 27, 7, 3, 24, 21, 8, 31, 6, 0, 5, 29, 0, 56, 25, 36, 9, 46, 0, 58, 49, 40, 41, 48, 13, 52, 42, 30, 0, 22, 34, 0, 0, 0, 0, 50, 55, 51, 63, 16
|23, 43, 44, 0, 34, 24, 26, 59, 20, 38, 0, 0, 51, 0, 0, 40, 0, 56, 0, 45, 0, 11, 31, 29, 16, 2, 32, 9, 47, 0, 10, 35, 8, 0, 22, 27, 53, 63, 0, 7, 57, 55, 0, 0, 0, 62, 52, 0, 6, 28, 58, 54, 0, 41, 5, 37, 0, 19, 17, 13, 12, 0, 49, 30
|18, 0, 0, 0, 0, 29, 0, 51, 47, 17, 64, 45, 63, 0, 44, 0, 5, 46, 52, 0, 0, 0, 0, 0, 28, 39, 0, 48, 42, 55, 15, 25, 31, 24, 0, 32, 11, 0, 34, 1, 26, 0, 12, 14, 30, 0, 0, 27, 16, 56, 0, 23, 0, 38, 36, 53, 33, 8, 2, 0, 0, 3, 22, 43
|56, 48, 53, 54, 0, 28, 55, 0, 0, 0, 62, 19, 0, 0, 58, 18, 40, 13, 0, 59, 0, 1, 15, 0, 0, 61, 6, 5, 52, 0, 26, 51, 0, 0, 10, 2, 12, 20, 49, 0, 60, 24, 0, 17, 0, 63, 0, 0, 43, 33, 27, 39, 8, 50, 0, 31, 0, 47, 9, 64, 23, 35, 34, 0
|41, 5, 8, 22, 63, 61, 42, 9, 12, 0, 43, 34, 0, 0, 31, 55, 17, 24, 23, 0, 28, 16, 0, 2, 1, 50, 13, 29, 0, 14, 18, 0, 52, 58, 4, 54, 48, 19, 0, 0, 0, 7, 0, 0, 0, 53, 0, 35, 40, 51, 0, 49, 0, 0, 21, 25, 15, 0, 60, 0, 0, 0, 0, 38
|0, 0, 0, 62, 0, 0, 3, 50, 0, 13, 49, 21, 1, 28, 0, 35, 26, 6, 33, 0, 14, 27, 0, 55, 59, 60, 0, 0, 17, 53, 58, 23, 16, 0, 42, 0, 0, 0, 47, 64, 19, 43, 0, 0, 2, 39, 0, 15, 0, 7, 57, 0, 11, 24, 0, 12, 0, 0, 44, 46, 31, 48, 36, 20
|62, 0, 0, 64, 19, 6, 17, 30, 28, 45, 12, 58, 52, 33, 3, 14, 56, 25, 24, 29, 0, 13, 0, 23, 0, 46, 21, 0, 0, 0, 0, 15, 0, 0, 63, 16, 0, 2, 51, 60, 0, 18, 40, 26, 0, 35, 0, 0, 10, 53, 4, 0, 57, 20, 39, 0, 31, 48, 61, 38, 32, 54, 42, 36
|34, 0, 20, 0, 18, 0, 46, 1, 60, 48, 9, 0, 36, 35, 59, 53, 61, 39, 41, 15, 0, 49, 63, 12, 13, 0, 55, 2, 33, 0, 54, 6, 25, 0, 37, 0, 47, 45, 0, 22, 16, 21, 31, 30, 14, 58, 62, 0, 8, 27, 56, 5, 23, 52, 28, 40, 17, 43, 11, 0, 0, 0, 57, 19
|35, 7, 23, 0, 0, 0, 54, 28, 51, 57, 11, 1, 0, 56, 13, 0, 0, 34, 0, 0, 0, 14, 6, 33, 18, 0, 38, 4, 26, 9, 25, 0, 53, 0, 0, 48, 17, 0, 36, 21, 55, 41, 0, 0, 19, 10, 37, 29, 0, 12, 63, 0, 30, 32, 0, 0, 50, 0, 40, 24, 0, 0, 52, 15
|57, 0, 33, 58, 60, 0, 0, 48, 34, 0, 32, 0, 0, 23, 49, 5, 0, 21, 37, 4, 17, 52, 55, 0, 0, 62, 11, 28, 0, 7, 0, 42, 0, 27, 0, 26, 61, 0, 20, 3, 12, 13, 36, 63, 0, 24, 0, 56, 50, 46, 0, 0, 54, 0, 0, 19, 0, 45, 39, 30, 1, 0, 0, 35
|49, 3, 52, 43, 8, 39, 0, 56, 0, 55, 0, 62, 0, 27, 18, 31, 44, 0, 58, 19, 0, 59, 1, 40, 32, 23, 64, 45, 48, 0, 53, 16, 57, 11, 0, 34, 42, 0, 24, 15, 38, 22, 5, 0, 7, 0, 2, 46, 0, 21, 36, 47, 37, 35, 0, 0, 0, 20, 10, 0, 0, 0, 14, 0
|61, 63, 0, 44, 21, 36, 40, 15, 30, 0, 16, 8, 43, 0, 22, 20, 0, 0, 35, 54, 32, 28, 0, 11, 58, 0, 0, 59, 5, 19, 29, 0, 18, 12, 13, 0, 14, 23, 41, 0, 27, 0, 0, 39, 60, 42, 0, 57, 62, 45, 25, 0, 0, 3, 0, 48, 4, 0, 0, 0, 53, 0, 55, 0
|0, 4, 38, 11, 0, 0, 0, 0, 6, 0, 21, 0, 26, 46, 50, 0, 16, 0, 57, 53, 3, 5, 45, 42, 0, 36, 61, 0, 0, 56, 1, 40, 0, 0, 0, 52, 35, 0, 7, 0, 49, 33, 0, 48, 44, 0, 0, 0, 29, 15, 22, 64, 34, 60, 0, 17, 13, 0, 0, 62, 58, 63, 18, 47
|14, 13, 0, 47, 37, 53, 50, 32, 0, 25, 0, 29, 39, 54, 4, 42, 0, 0, 7, 51, 46, 0, 38, 0, 10, 63, 35, 57, 30, 0, 20, 8, 58, 40, 62, 0, 55, 33, 59, 56, 17, 0, 52, 45, 64, 61, 15, 43, 31, 41, 0, 0, 0, 6, 49, 18, 0, 26, 34, 23, 3, 5, 0, 44
|64, 0, 14, 0, 51, 0, 8, 0, 0, 42, 28, 16, 33, 18, 0, 36, 27, 0, 0, 61, 0, 55, 29, 26, 0, 48, 0, 46, 0, 30, 19, 34, 22, 0, 7, 0, 45, 49, 0, 47, 23, 38, 21, 0, 25, 31, 0, 6, 41, 0, 0, 12, 17, 0, 0, 43, 35, 39, 0, 37, 50, 52, 24, 62
|0, 33, 63, 12, 59, 0, 10, 0, 0, 14, 23, 60, 49, 50, 0, 0, 20, 43, 0, 0, 38, 3, 34, 5, 37, 17, 16, 6, 8, 27, 2, 0, 0, 9, 29, 56, 44, 15, 0, 41, 0, 0, 28, 24, 32, 57, 36, 0, 0, 30, 52, 61, 31, 51, 47, 35, 40, 25, 19, 54, 46, 18, 64, 0
|43, 27, 0, 0, 0, 42, 0, 0, 37, 51, 44, 0, 0, 13, 30, 0, 18, 0, 54, 22, 15, 58, 47, 0, 0, 9, 50, 0, 1, 3, 62, 38, 0, 16, 0, 0, 31, 0, 0, 0, 41, 0, 4, 19, 0, 0, 0, 0, 0, 32, 64, 14, 0, 0, 0, 0, 6, 61, 57, 0, 49, 33, 28, 60
|9, 0, 7, 23, 31, 0, 56, 0, 4, 6, 0, 53, 46, 5, 62, 22, 42, 49, 32, 0, 51, 0, 37, 48, 29, 0, 54, 15, 0, 35, 21, 47, 0, 20, 0, 33, 8, 0, 0, 14, 64, 0, 50, 3, 40, 1, 18, 30, 0, 34, 24, 0, 19, 44, 13, 58, 36, 55, 0, 12, 38, 0, 2, 0
|4, 0, 0, 0, 0, 0, 30, 46, 0, 0, 26, 0, 0, 40, 45, 0, 0, 23, 6, 56, 36, 39, 8, 0, 22, 31, 0, 41, 0, 52, 12, 0, 0, 50, 0, 28, 19, 64, 38, 0, 0, 51, 42, 0, 61, 33, 48, 0, 9, 29, 3, 62, 63, 0, 0, 0, 0, 0, 16, 34, 0, 7, 13, 17
|53, 0, 0, 40, 39, 20, 13, 60, 0, 0, 0, 10, 64, 38, 47, 0, 33, 0, 63, 0, 12, 50, 25, 1, 0, 55, 51, 26, 61, 0, 28, 58, 0, 0, 24, 17, 36, 3, 6, 0, 45, 34, 2, 16, 37, 46, 43, 5, 4, 8, 0, 21, 7, 49, 23, 22, 48, 41, 56, 15, 27, 29, 0, 0
|0, 0, 0, 0, 17, 0, 0, 35, 0, 0, 29, 12, 3, 11, 34, 1, 52, 41, 0, 40, 0, 44, 60, 0, 0, 45, 0, 0, 64, 23, 0, 0, 2, 32, 0, 0, 37, 61, 5, 54, 22, 62, 56, 10, 0, 0, 0, 0, 46, 0, 26, 38, 25, 0, 55, 0, 0, 31, 0, 0, 21, 30, 0, 58
|19, 55, 37, 38, 0, 52, 1, 47, 0, 32, 41, 59, 25, 17, 24, 15, 0, 64, 0, 0, 0, 31, 0, 0, 39, 56, 0, 18, 36, 40, 0, 13, 30, 51, 34, 21, 62, 0, 12, 53, 14, 49, 0, 11, 27, 29, 60, 44, 2, 48, 54, 57, 5, 0, 33, 6, 22, 10, 26, 0, 42, 20, 0, 3
|22, 20, 0, 0, 0, 0, 29, 0, 35, 0, 33, 0, 34, 0, 9, 0, 0, 1, 51, 8, 63, 30, 0, 25, 0, 26, 52, 0, 0, 24, 0, 61, 12, 0, 41, 0, 27, 4, 46, 0, 40, 0, 0, 32, 62, 60, 3, 49, 5, 36, 0, 13, 48, 23, 50, 10, 0, 42, 37, 58, 45, 21, 31, 18
|0, 52, 11, 10, 0, 0, 7, 0, 0, 46, 36, 55, 21, 19, 0, 4, 32, 9, 44, 0, 34, 57, 0, 0, 60, 51, 41, 0, 54, 31, 5, 30, 26, 63, 39, 0, 49, 53, 0, 0, 25, 12, 24, 61, 23, 43, 38, 0, 27, 6, 1, 35, 47, 37, 18, 0, 16, 62, 48, 14, 13, 59, 0, 2
|0, 0, 43, 0, 9, 62, 18, 0, 45, 12, 37, 0, 0, 1, 0, 41, 50, 33, 27, 7, 60, 2, 0, 49, 14, 38, 8, 22, 0, 57, 48, 46, 61, 52, 31, 13, 0, 0, 0, 55, 53, 35, 47, 34, 5, 59, 30, 58, 3, 54, 40, 0, 16, 15, 63, 29, 23, 0, 25, 56, 39, 44, 26, 51
|27, 0, 41, 26, 4, 44, 16, 0, 15, 18, 3, 49, 0, 63, 0, 43, 0, 5, 31, 52, 13, 0, 0, 0, 53, 0, 58, 0, 0, 62, 45, 36, 0, 28, 14, 40, 32, 24, 9, 0, 29, 19, 17, 0, 39, 54, 8, 50, 57, 20, 33, 0, 51, 64, 30, 34, 0, 60, 12, 10, 35, 46, 0, 11
|8, 31, 24, 0, 48, 60, 0, 0, 0, 30, 22, 25, 59, 0, 38, 0, 3, 26, 0, 6, 41, 47, 62, 10, 64, 0, 0, 16, 0, 15, 40, 27, 37, 0, 18, 0, 51, 11, 0, 0, 0, 63, 0, 46, 36, 0, 14, 1, 7, 0, 43, 42, 58, 0, 19, 52, 49, 9, 33, 32, 34, 55, 4, 0
|51, 14, 0, 56, 46, 40, 0, 0, 0, 26, 0, 0, 58, 10, 61, 23, 0, 29, 0, 35, 0, 37, 20, 38, 0, 18, 0, 0, 0, 11, 0, 0, 59, 34, 33, 47, 57, 0, 48, 8, 7, 9, 0, 0, 31, 0, 64, 0, 0, 62, 60, 0, 41, 2, 17, 32, 54, 3, 0, 19, 30, 53, 0, 0
|37, 34, 49, 13, 0, 1, 19, 63, 0, 0, 60, 51, 42, 8, 14, 39, 4, 12, 53, 48, 23, 0, 24, 15, 33, 6, 3, 44, 0, 29, 7, 32, 0, 25, 50, 0, 64, 54, 30, 38, 18, 57, 10, 0, 0, 0, 27, 16, 21, 55, 46, 59, 9, 56, 11, 26, 0, 0, 22, 20, 47, 28, 61, 5
|2, 0, 32, 35, 30, 0, 0, 23, 0, 27, 0, 57, 0, 7, 0, 24, 58, 0, 0, 46, 54, 18, 11, 39, 43, 0, 0, 19, 56, 10, 0, 55, 0, 62, 0, 0, 60, 1, 15, 44, 37, 48, 26, 51, 33, 22, 20, 0, 14, 31, 49, 25, 0, 28, 45, 0, 8, 63, 0, 40, 64, 0, 0, 50
|5, 58, 0, 63, 36, 55, 0, 12, 0, 56, 0, 24, 0, 39, 27, 0, 45, 40, 20, 33, 52, 25, 22, 8, 35, 0, 30, 62, 0, 2, 31, 41, 47, 10, 0, 0, 15, 42, 26, 6, 44, 32, 48, 49, 1, 14, 28, 34, 0, 50, 61, 3, 4, 21, 7, 0, 0, 11, 38, 53, 37, 16, 0, 0
|60, 23, 30, 0, 49, 0, 0, 24, 0, 1, 38, 6, 37, 9, 11, 0, 35, 28, 3, 31, 26, 12, 61, 51, 52, 22, 0, 27, 58, 46, 43, 56, 50, 14, 48, 62, 25, 44, 0, 29, 0, 2, 0, 15, 0, 0, 0, 0, 53, 18, 5, 40, 33, 47, 16, 63, 0, 34, 0, 0, 10, 32, 0, 55
|0, 10, 39, 53, 0, 35, 64, 0, 43, 0, 34, 47, 0, 55, 0, 0, 29, 14, 5, 0, 0, 0, 4, 36, 7, 33, 49, 42, 15, 51, 44, 0, 54, 56, 0, 37, 0, 52, 0, 27, 8, 25, 59, 18, 0, 17, 0, 26, 19, 0, 12, 0, 46, 30, 38, 41, 63, 0, 31, 45, 0, 0, 50, 22
|7, 51, 48, 0, 54, 57, 37, 52, 14, 15, 35, 36, 50, 25, 53, 30, 0, 55, 16, 9, 1, 24, 42, 43, 45, 8, 0, 0, 0, 17, 13, 29, 34, 5, 2, 61, 63, 22, 0, 0, 33, 20, 60, 0, 3, 12, 21, 0, 49, 23, 11, 6, 59, 58, 27, 39, 0, 56, 28, 0, 4, 40, 0, 26
|0, 8, 56, 50, 41, 0, 0, 11, 7, 0, 45, 5, 4, 31, 42, 58, 0, 15, 46, 0, 0, 34, 53, 0, 36, 1, 60, 0, 55, 16, 23, 0, 9, 17, 30, 49, 39, 40, 32, 24, 0, 27, 57, 29, 0, 38, 22, 10, 37, 35, 20, 28, 26, 13, 0, 0, 52, 21, 54, 0, 33, 0, 12, 61
|40, 21, 2, 9, 47, 0, 34, 31, 19, 20, 61, 28, 54, 0, 52, 49, 6, 60, 11, 38, 62, 17, 57, 41, 50, 10, 0, 53, 18, 63, 3, 37, 1, 7, 0, 0, 33, 16, 0, 4, 46, 39, 30, 35, 58, 0, 23, 24, 36, 14, 45, 32, 15, 48, 44, 64, 25, 5, 42, 0, 43, 27, 8, 13
|0, 0, 25, 14, 15, 4, 61, 42, 33, 22, 63, 41, 32, 2, 48, 12, 59, 58, 0, 27, 0, 7, 13, 30, 21, 28, 34, 54, 9, 0, 39, 5, 20, 53, 0, 46, 0, 35, 45, 0, 50, 0, 16, 55, 52, 0, 40, 31, 0, 10, 62, 8, 0, 0, 29, 0, 0, 51, 49, 0, 0, 23, 47, 1
|28, 1, 0, 0, 44, 32, 33, 29, 46, 0, 10, 26, 17, 59, 0, 57, 0, 37, 0, 23, 39, 54, 49, 50, 61, 4, 0, 25, 0, 47, 0, 12, 0, 0, 0, 8, 58, 21, 18, 43, 0, 45, 0, 13, 0, 0, 0, 53, 55, 60, 34, 52, 0, 42, 31, 51, 3, 0, 62, 0, 0, 2, 30, 0
|29, 56, 13, 4, 0, 58, 38, 0, 36, 21, 42, 35, 24, 60, 0, 59, 34, 0, 1, 37, 18, 8, 27, 31, 2, 54, 15, 64, 53, 45, 47, 3, 0, 19, 55, 20, 9, 0, 62, 0, 30, 0, 63, 22, 48, 28, 46, 0, 39, 0, 17, 10, 49, 14, 0, 0, 44, 23, 50, 0, 61, 41, 25, 32
|47, 11, 1, 0, 61, 46, 49, 17, 31, 0, 0, 23, 0, 12, 0, 0, 0, 22, 14, 10, 40, 53, 30, 62, 6, 52, 0, 0, 0, 13, 0, 18, 60, 38, 0, 0, 24, 39, 63, 0, 20, 64, 0, 43, 45, 0, 0, 55, 0, 37, 44, 48, 42, 59, 15, 36, 2, 0, 51, 0, 0, 0, 0, 21
|50, 26, 54, 42, 0, 0, 24, 43, 3, 33, 25, 63, 0, 6, 0, 62, 12, 0, 39, 11, 29, 23, 0, 0, 9, 20, 36, 0, 0, 59, 0, 0, 0, 8, 52, 5, 0, 30, 0, 0, 47, 0, 53, 0, 0, 15, 58, 41, 45, 0, 55, 27, 0, 34, 35, 28, 18, 57, 14, 0, 22, 37, 0, 49
|52, 16, 0, 48, 57, 9, 59, 0, 41, 0, 0, 11, 0, 61, 0, 29, 0, 35, 38, 0, 5, 45, 3, 58, 62, 40, 63, 10, 0, 22, 24, 50, 0, 0, 0, 64, 6, 32, 0, 2, 0, 44, 13, 0, 21, 51, 0, 25, 54, 47, 0, 26, 12, 46, 8, 4, 0, 27, 53, 17, 60, 15, 20, 31
|55, 28, 12, 0, 20, 37, 35, 39, 0, 2, 58, 30, 53, 0, 15, 13, 24, 42, 0, 0, 0, 0, 0, 64, 26, 0, 5, 32, 0, 4, 16, 0, 27, 0, 47, 0, 56, 0, 22, 0, 0, 14, 62, 23, 8, 34, 49, 40, 1, 19, 7, 0, 0, 61, 60, 0, 10, 59, 46, 63, 52, 11, 0, 0
|25, 15, 0, 41, 22, 23, 2, 0, 44, 9, 0, 4, 0, 14, 0, 0, 13, 52, 17, 0, 61, 0, 56, 0, 0, 0, 37, 7, 51, 48, 57, 11, 49, 0, 1, 42, 0, 43, 21, 35, 0, 0, 27, 38, 0, 32, 39, 0, 58, 63, 0, 20, 24, 31, 53, 3, 0, 0, 64, 0, 0, 8, 0, 45
|31, 30, 3, 45, 7, 63, 53, 8, 64, 5, 0, 17, 47, 0, 0, 27, 54, 19, 0, 26, 50, 51, 32, 4, 34, 0, 33, 55, 49, 0, 46, 0, 41, 57, 0, 15, 59, 18, 0, 48, 10, 61, 35, 60, 12, 37, 29, 52, 56, 0, 0, 0, 21, 25, 6, 62, 24, 38, 13, 9, 36, 58, 40, 39
|44, 0, 0, 60, 64, 0, 14, 62, 10, 49, 48, 52, 45, 43, 46, 0, 15, 0, 0, 0, 59, 0, 0, 20, 31, 25, 0, 58, 27, 0, 38, 1, 40, 0, 11, 53, 28, 29, 61, 33, 6, 17, 7, 4, 50, 3, 24, 0, 22, 0, 9, 51, 18, 5, 0, 23, 26, 30, 0, 55, 0, 0, 19, 12
|0, 46, 0, 25, 0, 19, 4, 0, 50, 52, 13, 14, 30, 58, 35, 0, 0, 17, 8, 12, 0, 42, 36, 60, 0, 32, 27, 47, 37, 44, 0, 0, 0, 48, 9, 38, 34, 26, 43, 49, 0, 29, 0, 33, 59, 2, 51, 45, 15, 57, 0, 56, 6, 18, 62, 5, 0, 0, 0, 22, 54, 24, 39, 23
|1, 62, 47, 33, 43, 17, 58, 27, 11, 0, 0, 48, 19, 0, 41, 61, 0, 4, 40, 5, 0, 46, 23, 54, 25, 15, 0, 30, 45, 39, 60, 26, 13, 29, 28, 55, 2, 36, 10, 20, 3, 50, 0, 12, 42, 49, 7, 38, 52, 24, 59, 31, 44, 0, 0, 9, 37, 0, 21, 6, 0, 34, 35, 64
|32, 60, 40, 57, 2, 7, 22, 38, 5, 29, 15, 18, 23, 47, 43, 0, 9, 31, 26, 39, 37, 0, 48, 27, 56, 58, 20, 52, 62, 33, 0, 0, 21, 0, 61, 0, 0, 0, 8, 46, 13, 10, 54, 64, 0, 6, 63, 0, 0, 0, 51, 0, 35, 11, 1, 55, 0, 50, 3, 28, 44, 0, 17, 0
|0, 37, 26, 0, 23, 5, 0, 44, 59, 53, 8, 22, 28, 51, 0, 6, 57, 38, 49, 41, 0, 64, 33, 34, 4, 11, 0, 0, 7, 18, 35, 2, 3, 15, 0, 1, 54, 27, 0, 0, 0, 58, 0, 25, 0, 0, 31, 9, 0, 0, 50, 0, 39, 19, 20, 0, 0, 13, 63, 42, 29, 47, 60, 46
|0, 36, 9, 28, 0, 12, 51, 49, 17, 64, 57, 0, 0, 45, 0, 25, 2, 0, 50, 14, 24, 21, 18, 44, 0, 16, 29, 8, 0, 38, 6, 0, 0, 0, 56, 63, 5, 0, 42, 32, 0, 15, 46, 27, 0, 0, 55, 61, 26, 58, 0, 0, 0, 54, 40, 0, 1, 53, 0, 48, 20, 43, 11, 4
|45, 59, 61, 30, 52, 0, 41, 0, 49, 39, 1, 42, 12, 34, 0, 46, 63, 62, 13, 20, 6, 15, 7, 22, 0, 24, 10, 0, 0, 5, 14, 0, 23, 35, 0, 51, 4, 25, 44, 0, 32, 0, 11, 53, 0, 26, 19, 17, 47, 43, 8, 0, 27, 29, 48, 33, 0, 0, 18, 31, 0, 38, 9, 56
|15, 6, 0, 0, 0, 56, 0, 0, 0, 4, 0, 7, 27, 26, 0, 38, 30, 32, 0, 1, 45, 61, 0, 52, 23, 0, 0, 0, 0, 0, 41, 9, 33, 64, 12, 0, 22, 47, 53, 40, 5, 8, 44, 62, 0, 48, 16, 0, 60, 17, 28, 0, 3, 63, 14, 21, 51, 0, 36, 25, 0, 0, 0, 0
|20, 50, 16, 0, 24, 14, 0, 18, 54, 60, 0, 9, 62, 36, 0, 0, 0, 59, 0, 43, 0, 0, 0, 0, 46, 42, 0, 17, 63, 61, 51, 53, 19, 0, 45, 39, 0, 0, 31, 57, 28, 40, 22, 52, 56, 0, 47, 21, 64, 38, 13, 0, 0, 4, 12, 49, 30, 32, 15, 26, 0, 10, 0, 27|];