order = 8;
grid = [|37, 0, 15, 0, 55, 61, 3, 0, 0, 40, 14, 0, 0, 38, 0, 0, 0, 44, 0, 54, 0, 0, 29, 0, 0, 57, 0, 17, 20, 28, 0, 0, 42, 53, 58, 0, 0, 34, 22, 13, 0, 0, 0, 47, 0, 51, 27, 10, 56, 0, 48, 11, 50, 0, 0, 59, 0, 0, 0, 63, 64, 0, 0, 39
|0, 58, 0, 49, 0, 17, 0, 13, 0, 18, 0, 2, 0, 31, 0, 32, 28, 0, 48, 0, 50, 43, 0, 7, 0, 38, 21, 0, 0, 12, 10, 16, 46, 0, 0, 30, 52, 3, 24, 0, 0, 20, 42, 5, 37, 0, 61, 15, 0, 0, 0, 14, 0, 33, 39, 0, 0, 45, 8, 62, 26, 9, 0, 1
|25, 2, 0, 39, 0, 63, 0, 59, 0, 0, 0, 26, 0, 0, 19, 48, 58, 17, 57, 12, 0, 20, 0, 33, 11, 0, 18, 54, 0, 0, 0, 0, 36, 4, 0, 0, 0, 0, 0, 44, 0, 56, 1, 52, 0, 0, 3, 31, 32, 10, 64, 0, 38, 0, 6, 0, 0, 0, 47, 21, 55, 0, 53, 24
|54, 30, 22, 0, 0, 0, 0, 18, 0, 9, 0, 0, 0, 52, 0, 0, 40, 55, 0, 34, 5, 0, 0, 0, 42, 1, 36, 0, 64, 44, 0, 33, 50, 0, 29, 12, 0, 0, 8, 20, 0, 28, 7, 0, 0, 16, 62, 26, 0, 49, 51, 0, 0, 0, 60, 35, 32, 0, 19, 23, 0, 2, 0, 46
|19, 0, 10, 0, 33, 62, 0, 52, 30, 0, 0, 0, 0, 0, 0, 49, 0, 0, 0, 0, 0, 18, 39, 0, 0, 0, 24, 0, 56, 0, 0, 3, 0, 0, 1, 21, 0, 0, 60, 0, 0, 0, 0, 0, 0, 55, 0, 25, 0, 0, 0, 0, 0, 15, 57, 0, 48, 58, 0, 0, 54, 0, 42, 27
|0, 16, 35, 0, 0, 64, 5, 0, 0, 0, 0, 39, 0, 0, 0, 0, 14, 1, 15, 0, 0, 0, 23, 0, 0, 34, 0, 46, 0, 0, 7, 50, 56, 61, 0, 2, 41, 0, 0, 63, 0, 0, 57, 32, 13, 0, 58, 49, 0, 0, 0, 0, 36, 0, 4, 0, 3, 0, 0, 0, 31, 0, 52, 0
|0, 0, 0, 28, 34, 50, 42, 43, 0, 37, 0, 17, 57, 0, 41, 44, 64, 9, 60, 63, 36, 0, 27, 3, 0, 0, 0, 25, 0, 0, 29, 0, 54, 0, 0, 0, 0, 10, 0, 23, 6, 22, 0, 46, 2, 19, 40, 39, 0, 0, 0, 0, 62, 0, 0, 0, 0, 35, 38, 5, 18, 20, 0, 14
|0, 0, 0, 36, 47, 0, 0, 0, 0, 51, 10, 0, 0, 56, 3, 23, 19, 0, 0, 61, 31, 0, 25, 0, 0, 62, 0, 0, 39, 6, 52, 0, 55, 64, 37, 15, 0, 0, 0, 0, 17, 43, 0, 0, 21, 0, 33, 48, 0, 0, 1, 0, 29, 54, 18, 0, 59, 13, 0, 16, 0, 0, 50, 44
|0, 0, 0, 37, 46, 0, 0, 0, 0, 2, 31, 3, 0, 1, 0, 7, 0, 13, 0, 0, 0, 39, 0, 0, 6, 0, 43, 0, 42, 56, 48, 61, 0, 17, 53, 5, 0, 21, 0, 55, 27, 62, 32, 0, 63, 54, 51, 35, 40, 0, 34, 0, 0, 0, 59, 20, 15, 14, 0, 0, 0, 28, 0, 0
|0, 32, 0, 33, 0, 57, 0, 0, 0, 0, 0, 0, 0, 49, 0, 25, 47, 0, 0, 56, 6, 0, 12, 0, 14, 0, 9, 60, 0, 19, 0, 0, 51, 59, 46, 0, 0, 0, 16, 8, 11, 0, 0, 43, 61, 7, 0, 53, 0, 62, 26, 24, 2, 31, 0, 30, 21, 0, 17, 0, 0, 5, 18, 20
|0, 0, 0, 54, 12, 0, 15, 39, 0, 21, 44, 0, 0, 32, 40, 26, 0, 31, 0, 0, 0, 60, 42, 0, 38, 7, 33, 0, 0, 0, 20, 27, 62, 0, 45, 37, 0, 0, 63, 3, 0, 0, 50, 19, 0, 14, 0, 58, 0, 11, 0, 0, 4, 0, 0, 64, 29, 0, 10, 0, 46, 8, 0, 57
|0, 48, 26, 53, 0, 0, 10, 58, 51, 23, 6, 0, 8, 62, 5, 0, 43, 0, 0, 33, 0, 25, 7, 0, 0, 0, 54, 3, 0, 32, 0, 12, 0, 0, 0, 64, 61, 0, 0, 0, 22, 37, 0, 9, 29, 0, 31, 36, 28, 0, 0, 0, 0, 1, 21, 0, 27, 0, 50, 45, 39, 0, 19, 4
|0, 0, 0, 0, 7, 0, 0, 3, 0, 30, 0, 59, 61, 0, 16, 0, 0, 0, 62, 0, 0, 22, 53, 51, 0, 11, 13, 64, 0, 25, 0, 45, 0, 1, 52, 38, 0, 0, 10, 0, 47, 0, 0, 0, 42, 0, 0, 20, 0, 0, 57, 18, 49, 17, 0, 5, 0, 0, 36, 58, 0, 0, 37, 0
|0, 0, 38, 0, 0, 0, 60, 29, 20, 46, 64, 0, 18, 0, 0, 0, 0, 0, 5, 0, 59, 0, 0, 0, 37, 0, 17, 0, 0, 0, 36, 0, 27, 0, 39, 0, 13, 0, 12, 0, 33, 4, 34, 56, 3, 0, 6, 0, 0, 0, 15, 0, 0, 22, 0, 0, 35, 0, 0, 0, 62, 0, 43, 30
|6, 18, 31, 52, 19, 36, 0, 27, 0, 0, 0, 58, 0, 0, 0, 22, 0, 8, 23, 0, 20, 0, 28, 40, 0, 0, 62, 0, 16, 47, 35, 0, 29, 0, 14, 56, 24, 0, 9, 0, 0, 0, 30, 49, 46, 0, 0, 0, 0, 0, 45, 10, 48, 0, 38, 0, 0, 51, 0, 0, 41, 0, 32, 0
|50, 62, 0, 35, 0, 0, 61, 51, 0, 48, 0, 0, 47, 0, 11, 0, 34, 0, 0, 0, 30, 27, 46, 0, 5, 0, 23, 59, 0, 0, 0, 41, 0, 0, 0, 0, 60, 0, 0, 43, 44, 38, 10, 0, 17, 21, 0, 1, 39, 32, 0, 55, 3, 19, 37, 33, 0, 0, 0, 0, 53, 0, 12, 63
|15, 0, 0, 41, 0, 0, 0, 0, 0, 42, 0, 0, 0, 44, 8, 0, 24, 30, 20, 49, 25, 54, 0, 0, 0, 43, 51, 2, 0, 11, 55, 0, 5, 63, 56, 0, 0, 61, 46, 0, 0, 0, 0, 22, 0, 0, 0, 47, 0, 0, 0, 0, 33, 32, 52, 0, 10, 57, 0, 0, 0, 6, 0, 38
|55, 61, 0, 0, 0, 16, 59, 7, 29, 38, 0, 57, 0, 27, 33, 0, 15, 0, 2, 53, 0, 9, 63, 48, 0, 0, 10, 47, 0, 64, 23, 0, 0, 28, 62, 50, 0, 6, 32, 0, 0, 0, 8, 20, 52, 0, 18, 0, 25, 0, 58, 34, 51, 43, 56, 0, 0, 60, 0, 17, 5, 4, 21, 36
|40, 31, 23, 0, 52, 0, 49, 0, 0, 0, 3, 0, 11, 24, 51, 34, 33, 0, 19, 7, 0, 58, 0, 17, 57, 0, 0, 0, 0, 0, 0, 6, 0, 0, 0, 10, 2, 20, 21, 0, 0, 60, 0, 0, 64, 46, 0, 9, 15, 29, 0, 4, 42, 26, 5, 0, 0, 0, 43, 56, 27, 0, 48, 12
|38, 34, 19, 0, 27, 28, 9, 0, 59, 0, 2, 0, 0, 39, 0, 0, 1, 0, 31, 43, 0, 12, 0, 0, 0, 63, 0, 5, 0, 61, 4, 26, 37, 24, 0, 14, 22, 0, 0, 51, 49, 54, 0, 0, 0, 0, 0, 45, 7, 0, 41, 20, 0, 40, 0, 55, 8, 0, 0, 0, 0, 0, 0, 42
|0, 8, 0, 48, 26, 46, 51, 54, 0, 47, 13, 0, 56, 17, 6, 0, 0, 0, 61, 0, 0, 0, 60, 0, 21, 0, 0, 1, 38, 33, 0, 24, 0, 0, 57, 0, 0, 0, 43, 0, 0, 16, 0, 55, 0, 0, 36, 42, 10, 0, 19, 0, 44, 63, 0, 0, 0, 18, 52, 0, 0, 22, 0, 0
|47, 0, 36, 0, 58, 10, 0, 24, 0, 0, 0, 7, 19, 12, 0, 0, 27, 0, 11, 0, 0, 8, 0, 0, 34, 0, 0, 42, 48, 20, 0, 40, 64, 0, 59, 31, 53, 49, 0, 0, 0, 35, 0, 0, 0, 13, 5, 0, 17, 0, 28, 61, 0, 0, 0, 0, 0, 44, 45, 46, 0, 0, 0, 0
|0, 0, 0, 22, 11, 21, 0, 5, 0, 0, 20, 0, 46, 0, 0, 37, 57, 0, 41, 0, 0, 6, 0, 0, 49, 0, 30, 0, 0, 52, 13, 0, 0, 48, 33, 0, 0, 4, 34, 0, 0, 0, 0, 0, 62, 61, 0, 12, 50, 59, 0, 39, 64, 23, 47, 0, 24, 0, 0, 14, 0, 0, 28, 0
|0, 0, 0, 0, 0, 0, 20, 63, 36, 14, 58, 48, 0, 0, 52, 30, 0, 56, 0, 18, 40, 51, 0, 0, 0, 46, 60, 0, 9, 37, 0, 44, 0, 8, 47, 0, 17, 0, 0, 16, 0, 0, 0, 15, 4, 10, 0, 43, 22, 24, 0, 0, 0, 3, 54, 57, 61, 31, 53, 0, 34, 0, 35, 55
|0, 0, 0, 0, 0, 0, 22, 10, 0, 0, 0, 0, 0, 0, 59, 36, 0, 0, 0, 21, 0, 0, 0, 62, 0, 8, 0, 15, 0, 46, 0, 0, 0, 0, 64, 57, 32, 14, 0, 0, 24, 0, 0, 29, 33, 0, 23, 61, 0, 0, 50, 52, 0, 35, 0, 0, 0, 9, 0, 0, 17, 0, 0, 19
|52, 53, 2, 0, 0, 51, 23, 0, 0, 0, 0, 0, 0, 0, 0, 14, 10, 32, 0, 0, 17, 59, 43, 58, 39, 40, 0, 0, 0, 0, 0, 0, 0, 0, 8, 42, 62, 0, 0, 0, 35, 15, 0, 54, 0, 44, 11, 3, 4, 0, 0, 63, 45, 21, 0, 60, 64, 20, 25, 0, 0, 0, 0, 0
|0, 0, 0, 57, 29, 0, 21, 38, 50, 0, 0, 11, 34, 0, 49, 0, 0, 51, 64, 0, 54, 63, 0, 5, 12, 30, 0, 0, 23, 10, 14, 0, 0, 41, 27, 0, 0, 0, 47, 0, 58, 0, 0, 28, 6, 0, 0, 0, 0, 0, 0, 43, 7, 0, 15, 0, 46, 8, 39, 0, 45, 0, 0, 3
|0, 0, 5, 6, 25, 41, 48, 0, 0, 0, 47, 12, 0, 0, 0, 13, 0, 29, 0, 0, 0, 0, 14, 0, 0, 0, 0, 36, 19, 51, 1, 22, 43, 26, 17, 0, 0, 52, 53, 60, 0, 31, 4, 21, 0, 32, 0, 0, 11, 28, 30, 0, 0, 0, 0, 0, 23, 0, 0, 0, 7, 44, 59, 10
|58, 0, 0, 0, 0, 0, 30, 14, 0, 0, 0, 56, 0, 42, 0, 0, 16, 20, 0, 0, 0, 0, 35, 15, 33, 60, 59, 31, 0, 0, 37, 48, 0, 0, 0, 18, 0, 22, 0, 50, 0, 17, 0, 53, 0, 64, 47, 0, 0, 46, 0, 32, 0, 2, 34, 10, 43, 0, 57, 0, 0, 0, 11, 61
|0, 24, 54, 8, 37, 0, 50, 0, 0, 5, 0, 0, 0, 0, 0, 29, 0, 19, 0, 0, 0, 0, 0, 0, 0, 47, 0, 28, 0, 0, 25, 42, 0, 7, 15, 13, 23, 35, 36, 45, 34, 0, 0, 10, 0, 48, 2, 56, 0, 0, 0, 0, 0, 59, 22, 51, 0, 0, 0, 30, 0, 33, 6, 21
|59, 39, 0, 46, 56, 0, 0, 0, 10, 17, 0, 0, 0, 0, 32, 41, 52, 0, 0, 0, 23, 11, 45, 0, 20, 0, 0, 0, 43, 0, 24, 2, 0, 21, 38, 0, 55, 16, 0, 49, 1, 19, 51, 0, 0, 0, 0, 30, 0, 0, 9, 0, 5, 6, 53, 36, 0, 0, 15, 0, 58, 27, 22, 31
|0, 0, 4, 0, 63, 0, 0, 0, 0, 0, 23, 0, 0, 51, 60, 57, 0, 61, 40, 0, 47, 46, 6, 28, 35, 21, 41, 0, 0, 9, 0, 0, 0, 0, 0, 0, 3, 54, 0, 10, 55, 0, 0, 0, 0, 0, 0, 0, 0, 26, 0, 0, 0, 0, 0, 0, 14, 0, 32, 0, 0, 42, 0, 50
|0, 0, 42, 0, 62, 0, 6, 15, 0, 0, 0, 0, 0, 0, 17, 47, 0, 0, 1, 23, 0, 13, 48, 0, 0, 26, 0, 0, 59, 0, 11, 0, 41, 38, 0, 35, 30, 0, 0, 53, 61, 14, 0, 0, 0, 0, 39, 0, 0, 21, 0, 31, 8, 0, 64, 27, 0, 54, 0, 43, 0, 0, 0, 32
|39, 40, 0, 59, 0, 0, 0, 0, 18, 44, 0, 0, 38, 20, 13, 0, 11, 0, 0, 0, 0, 16, 0, 0, 48, 0, 19, 21, 60, 2, 5, 0, 0, 0, 3, 47, 0, 0, 45, 0, 0, 25, 0, 36, 43, 0, 0, 0, 0, 63, 7, 15, 35, 37, 0, 0, 0, 62, 0, 22, 9, 14, 0, 0
|33, 50, 0, 0, 0, 4, 55, 0, 40, 0, 0, 49, 0, 46, 22, 28, 0, 0, 17, 0, 0, 62, 24, 32, 0, 13, 0, 37, 0, 41, 0, 1, 14, 15, 61, 0, 0, 56, 0, 0, 7, 52, 45, 0, 0, 0, 0, 38, 0, 0, 0, 0, 0, 36, 0, 0, 0, 47, 0, 0, 21, 39, 23, 8
|0, 0, 11, 38, 0, 0, 16, 0, 0, 32, 57, 33, 64, 0, 61, 0, 0, 40, 63, 14, 51, 0, 2, 0, 50, 0, 0, 35, 8, 43, 9, 0, 31, 12, 0, 28, 0, 0, 0, 0, 21, 10, 53, 24, 0, 0, 15, 17, 0, 34, 0, 0, 13, 0, 0, 39, 0, 52, 18, 0, 60, 0, 27, 0
|36, 0, 9, 17, 0, 20, 0, 0, 0, 0, 16, 0, 51, 5, 0, 0, 59, 45, 0, 0, 53, 47, 0, 0, 0, 44, 39, 0, 0, 58, 0, 0, 0, 19, 0, 0, 0, 0, 0, 0, 37, 0, 35, 2, 0, 1, 0, 13, 0, 50, 0, 0, 60, 0, 26, 0, 11, 7, 0, 40, 0, 0, 0, 0
|57, 0, 0, 45, 8, 31, 0, 12, 3, 58, 53, 0, 48, 43, 14, 39, 5, 0, 0, 27, 4, 49, 41, 0, 0, 24, 0, 23, 15, 63, 54, 30, 2, 55, 0, 60, 0, 0, 13, 0, 0, 0, 0, 62, 9, 0, 26, 40, 44, 17, 0, 1, 52, 28, 0, 0, 0, 19, 0, 0, 0, 61, 25, 0
|0, 0, 0, 0, 54, 43, 53, 2, 52, 0, 4, 0, 0, 0, 34, 0, 0, 0, 42, 31, 0, 0, 0, 0, 61, 64, 0, 0, 0, 0, 3, 17, 0, 0, 0, 0, 0, 0, 0, 21, 0, 63, 0, 16, 0, 0, 0, 0, 18, 0, 0, 25, 0, 47, 0, 0, 0, 1, 5, 50, 30, 0, 51, 48
|48, 26, 0, 14, 0, 0, 58, 0, 0, 0, 0, 0, 0, 0, 1, 0, 22, 0, 0, 0, 0, 0, 21, 8, 0, 25, 0, 0, 57, 0, 62, 47, 0, 40, 36, 0, 5, 33, 42, 27, 29, 12, 0, 0, 0, 0, 0, 0, 51, 61, 54, 53, 0, 0, 43, 38, 20, 0, 28, 49, 0, 13, 46, 34
|0, 0, 52, 60, 14, 0, 0, 40, 0, 26, 15, 0, 0, 0, 0, 0, 51, 48, 0, 0, 0, 23, 56, 64, 46, 9, 1, 0, 36, 0, 8, 55, 0, 33, 0, 0, 0, 32, 17, 57, 43, 45, 39, 0, 20, 31, 0, 24, 35, 2, 6, 29, 0, 42, 28, 0, 54, 5, 58, 0, 0, 21, 0, 0
|0, 0, 8, 0, 0, 34, 0, 0, 0, 10, 0, 5, 62, 41, 44, 52, 0, 22, 9, 6, 11, 29, 0, 0, 0, 0, 14, 58, 26, 59, 0, 13, 0, 23, 2, 39, 0, 63, 1, 28, 0, 0, 21, 0, 51, 0, 0, 0, 0, 48, 0, 0, 27, 57, 49, 19, 40, 0, 35, 42, 0, 25, 0, 45
|32, 29, 24, 0, 0, 13, 56, 42, 12, 0, 0, 40, 58, 60, 0, 0, 55, 0, 0, 0, 0, 0, 0, 0, 18, 15, 0, 41, 35, 62, 0, 0, 0, 3, 0, 51, 0, 0, 7, 0, 10, 0, 0, 0, 0, 0, 34, 14, 0, 1, 0, 0, 46, 0, 17, 0, 0, 0, 0, 0, 4, 0, 0, 0
|0, 5, 0, 31, 0, 33, 0, 55, 0, 0, 0, 0, 14, 0, 0, 0, 0, 0, 0, 40, 0, 0, 0, 46, 52, 6, 29, 10, 0, 0, 0, 63, 0, 16, 0, 0, 25, 62, 0, 11, 0, 50, 0, 0, 0, 0, 0, 0, 0, 22, 0, 0, 0, 0, 36, 0, 0, 48, 0, 15, 3, 17, 0, 0
|0, 15, 6, 26, 9, 22, 45, 46, 49, 0, 0, 0, 37, 2, 0, 0, 0, 0, 0, 52, 0, 14, 8, 0, 25, 51, 47, 40, 0, 0, 57, 31, 0, 0, 0, 54, 0, 0, 19, 0, 0, 7, 0, 0, 0, 23, 0, 64, 0, 0, 0, 0, 55, 0, 32, 0, 0, 0, 0, 39, 28, 1, 0, 29
|0, 59, 1, 2, 50, 0, 0, 17, 0, 0, 48, 51, 0, 55, 53, 0, 18, 0, 4, 0, 0, 0, 16, 57, 0, 28, 0, 49, 32, 39, 12, 0, 0, 45, 0, 0, 58, 0, 5, 42, 0, 61, 22, 0, 36, 62, 30, 0, 64, 0, 0, 26, 47, 0, 0, 0, 31, 10, 44, 41, 0, 46, 0, 33
|12, 0, 0, 0, 0, 0, 0, 0, 1, 0, 0, 0, 0, 0, 29, 0, 0, 0, 0, 0, 0, 0, 0, 2, 0, 45, 0, 19, 30, 16, 0, 0, 0, 27, 10, 0, 40, 0, 52, 24, 46, 0, 0, 0, 0, 0, 0, 32, 21, 15, 0, 0, 0, 62, 13, 0, 0, 0, 0, 37, 0, 55, 0, 0
|0, 47, 20, 0, 0, 53, 0, 21, 9, 35, 38, 34, 0, 0, 0, 0, 13, 39, 32, 0, 0, 41, 0, 26, 0, 37, 0, 0, 0, 0, 2, 43, 0, 46, 0, 0, 14, 55, 0, 0, 63, 1, 0, 0, 19, 52, 0, 28, 0, 0, 0, 30, 0, 51, 0, 45, 0, 11, 0, 6, 0, 0, 0, 0
|0, 42, 53, 58, 0, 48, 0, 11, 45, 0, 0, 44, 0, 6, 27, 0, 0, 26, 0, 32, 46, 0, 0, 0, 51, 41, 40, 14, 0, 0, 0, 0, 3, 0, 0, 0, 59, 0, 0, 62, 39, 0, 0, 60, 0, 0, 0, 0, 0, 0, 0, 19, 22, 0, 0, 7, 0, 30, 21, 0, 0, 0, 0, 0
|0, 17, 0, 19, 59, 37, 0, 0, 0, 0, 0, 0, 31, 0, 26, 0, 7, 23, 0, 0, 0, 0, 0, 10, 0, 48, 2, 0, 0, 0, 47, 32, 45, 44, 54, 55, 33, 27, 0, 34, 0, 0, 0, 0, 49, 56, 0, 21, 30, 64, 0, 0, 28, 0, 29, 0, 4, 39, 0, 24, 25, 0, 41, 22
|0, 0, 43, 29, 0, 0, 0, 45, 63, 0, 32, 14, 0, 0, 20, 0, 30, 0, 47, 42, 0, 0, 22, 0, 0, 0, 0, 11, 55, 0, 0, 10, 4, 0, 0, 9, 0, 23, 0, 0, 28, 0, 0, 0, 0, 40, 0, 27, 2, 0, 0, 0, 24, 0, 41, 0, 34, 61, 6, 0, 0, 0, 56, 7
|13, 0, 55, 0, 0, 0, 0, 62, 0, 3, 0, 50, 25, 30, 12, 59, 0, 0, 58, 9, 14, 2, 0, 0, 8, 0, 0, 39, 61, 0, 0, 0, 22, 0, 16, 0, 0, 37, 0, 0, 48, 42, 0, 0, 0, 0, 7, 57, 0, 40, 4, 0, 0, 0, 0, 0, 0, 15, 49, 32, 0, 0, 0, 51
|0, 3, 0, 20, 36, 40, 0, 25, 0, 56, 7, 37, 15, 9, 0, 53, 6, 38, 24, 11, 44, 0, 59, 0, 0, 16, 0, 0, 49, 0, 0, 0, 13, 60, 0, 17, 0, 1, 0, 18, 14, 26, 0, 41, 31, 43, 0, 50, 54, 42, 0, 33, 0, 0, 51, 0, 58, 0, 0, 8, 47, 23, 0, 0
|0, 51, 0, 24, 2, 44, 0, 0, 0, 1, 29, 0, 0, 0, 38, 4, 62, 0, 43, 15, 0, 17, 40, 0, 53, 0, 46, 0, 25, 21, 26, 0, 0, 0, 50, 8, 0, 0, 0, 39, 52, 0, 54, 0, 0, 45, 0, 0, 31, 6, 0, 0, 9, 0, 16, 0, 42, 12, 3, 55, 0, 59, 0, 18
|16, 0, 50, 0, 18, 7, 31, 30, 0, 62, 8, 46, 0, 47, 0, 43, 20, 36, 0, 0, 0, 33, 49, 12, 9, 3, 38, 44, 0, 0, 42, 60, 0, 0, 32, 48, 56, 53, 0, 0, 0, 0, 17, 0, 0, 0, 19, 0, 13, 52, 59, 0, 15, 39, 1, 0, 0, 29, 0, 26, 0, 0, 0, 0
|0, 0, 0, 0, 10, 60, 32, 0, 0, 0, 0, 19, 41, 0, 39, 17, 8, 54, 3, 0, 52, 0, 18, 31, 0, 59, 37, 0, 34, 35, 0, 0, 21, 6, 40, 7, 42, 0, 38, 0, 30, 0, 0, 51, 0, 0, 16, 0, 0, 57, 23, 48, 26, 0, 25, 43, 0, 0, 20, 0, 50, 0, 0, 28
|0, 0, 48, 0, 1, 47, 40, 8, 5, 0, 24, 0, 0, 0, 0, 46, 23, 0, 0, 16, 61, 0, 0, 6, 0, 0, 55, 0, 13, 0, 0, 0, 53, 14, 34, 0, 9, 0, 3, 0, 41, 0, 60, 0, 39, 0, 63, 22, 26, 0, 0, 0, 20, 64, 0, 18, 0, 0, 0, 0, 51, 50, 0, 0
|35, 57, 39, 0, 0, 0, 33, 60, 0, 0, 0, 54, 27, 18, 0, 0, 0, 28, 8, 48, 64, 0, 26, 22, 0, 0, 0, 24, 7, 0, 0, 59, 0, 56, 55, 19, 0, 0, 40, 0, 62, 46, 0, 34, 32, 47, 0, 0, 1, 9, 0, 41, 0, 0, 11, 44, 0, 16, 0, 0, 0, 58, 0, 5
|21, 0, 51, 3, 31, 0, 0, 0, 0, 12, 41, 0, 43, 0, 4, 33, 0, 0, 0, 0, 0, 0, 9, 27, 0, 53, 0, 0, 0, 17, 0, 34, 7, 50, 26, 0, 0, 0, 39, 22, 0, 30, 0, 57, 0, 0, 48, 0, 0, 19, 61, 0, 0, 29, 0, 0, 0, 32, 2, 52, 10, 35, 64, 0
|46, 10, 41, 0, 0, 14, 26, 0, 15, 0, 0, 9, 0, 48, 0, 0, 32, 0, 29, 20, 7, 0, 11, 0, 0, 19, 0, 0, 0, 4, 51, 0, 38, 43, 28, 45, 0, 44, 0, 0, 8, 0, 0, 64, 0, 24, 0, 0, 47, 0, 42, 0, 30, 58, 50, 0, 33, 21, 56, 0, 0, 0, 17, 40
|45, 0, 34, 0, 15, 55, 0, 32, 0, 8, 25, 0, 0, 0, 0, 61, 0, 0, 39, 0, 0, 0, 38, 0, 56, 0, 0, 62, 29, 0, 0, 0, 0, 0, 42, 6, 21, 13, 27, 0, 20, 0, 3, 0, 0, 28, 9, 19, 0, 16, 0, 59, 0, 0, 2, 49, 57, 0, 30, 0, 0, 0, 1, 0
|0, 0, 59, 0, 0, 0, 17, 0, 26, 0, 0, 0, 0, 0, 0, 16, 0, 3, 0, 10, 0, 0, 33, 0, 0, 0, 64, 0, 0, 42, 0, 25, 0, 62, 0, 0, 0, 30, 54, 0, 0, 0, 0, 1, 7, 0, 0, 0, 0, 5, 24, 0, 32, 0, 31, 14, 28, 0, 11, 0, 61, 48, 0, 0
|56, 0, 13, 0, 24, 5, 0, 19, 0, 64, 0, 38, 0, 58, 0, 0, 0, 0, 0, 0, 0, 40, 0, 0, 0, 18, 0, 0, 1, 54, 0, 35, 0, 37, 41, 61, 31, 0, 59, 25, 0, 0, 26, 45, 0, 17, 0, 23, 8, 0, 0, 0, 43, 0, 0, 15, 39, 22, 0, 44, 20, 0, 0, 9
|0, 0, 0, 30, 42, 0, 27, 28, 0, 0, 22, 0, 6, 11, 0, 63, 17, 0, 36, 25, 2, 0, 15, 0, 0, 0, 48, 32, 10, 0, 46, 9, 0, 0, 60, 0, 0, 64, 57, 0, 40, 49, 18, 31, 0, 38, 0, 0, 33, 0, 0, 0, 21, 0, 3, 0, 0, 0, 0, 47, 8, 0, 55, 41|];