order = 8;
grid = [|54, 0, 29, 0, 0, 0, 60, 61, 1, 0, 0, 13, 0, 53, 0, 33, 37, 0, 0, 42, 0, 35, 0, 0, 0, 0, 46, 0, 0, 0, 0, 0, 0, 18, 0, 10, 0, 0, 2, 62, 21, 47, 49, 0, 22, 0, 0, 0, 12, 4, 0, 0, 52, 0, 0, 24, 38, 0, 55, 0, 0, 31, 0, 40
|46, 53, 19, 0, 0, 33, 0, 0, 27, 0, 30, 0, 29, 0, 54, 0, 0, 0, 0, 25, 11, 63, 51, 56, 0, 0, 47, 13, 0, 0, 0, 0, 0, 0, 0, 57, 16, 7, 58, 0, 35, 6, 0, 40, 0, 45, 26, 0, 0, 3, 21, 18, 28, 43, 61, 60, 5, 64, 23, 0, 0, 0, 0, 48
|0, 45, 0, 0, 0, 0, 9, 0, 0, 47, 0, 31, 22, 0, 16, 0, 23, 0, 0, 24, 0, 62, 0, 0, 8, 53, 0, 61, 0, 1, 0, 0, 0, 26, 32, 4, 0, 60, 3, 25, 48, 0, 0, 0, 13, 11, 0, 0, 34, 44, 6, 19, 29, 0, 0, 0, 46, 33, 0, 2, 0, 17, 0, 0
|39, 0, 57, 0, 0, 0, 0, 40, 0, 37, 0, 64, 10, 3, 0, 11, 46, 0, 2, 0, 55, 9, 5, 0, 49, 0, 0, 23, 0, 43, 27, 0, 0, 33, 59, 0, 52, 17, 0, 19, 31, 0, 58, 0, 24, 0, 0, 54, 0, 26, 0, 0, 62, 0, 41, 0, 0, 36, 0, 21, 15, 0, 56, 8
|36, 41, 15, 0, 0, 0, 44, 13, 0, 0, 51, 0, 18, 52, 0, 0, 0, 0, 0, 30, 20, 0, 0, 59, 17, 35, 45, 40, 6, 58, 0, 33, 0, 47, 0, 31, 21, 50, 0, 0, 0, 3, 19, 42, 0, 0, 34, 60, 23, 0, 37, 0, 56, 0, 0, 46, 0, 0, 0, 0, 0, 26, 32, 28
|58, 2, 55, 0, 0, 48, 23, 14, 42, 24, 46, 44, 35, 62, 8, 45, 0, 3, 0, 60, 0, 33, 41, 0, 57, 0, 0, 0, 0, 0, 4, 19, 0, 36, 0, 0, 0, 5, 0, 0, 52, 16, 0, 0, 0, 50, 0, 59, 11, 0, 0, 15, 13, 0, 0, 0, 0, 12, 0, 0, 6, 0, 0, 25
|0, 0, 64, 20, 0, 27, 47, 4, 0, 0, 0, 40, 0, 48, 0, 60, 0, 61, 0, 0, 0, 0, 0, 0, 0, 5, 2, 0, 0, 25, 0, 0, 0, 55, 53, 6, 0, 13, 54, 12, 51, 0, 43, 41, 15, 0, 1, 0, 35, 0, 0, 45, 0, 0, 0, 42, 14, 0, 30, 39, 19, 0, 0, 0
|0, 25, 50, 3, 62, 43, 52, 0, 23, 0, 0, 0, 0, 0, 26, 56, 0, 0, 10, 58, 0, 0, 0, 0, 48, 0, 0, 0, 31, 0, 32, 0, 0, 22, 20, 11, 0, 8, 0, 51, 0, 0, 0, 44, 46, 0, 0, 0, 30, 0, 39, 16, 0, 0, 0, 0, 0, 0, 45, 0, 0, 13, 0, 42
|0, 0, 58, 52, 0, 31, 15, 0, 22, 0, 0, 27, 6, 24, 39, 0, 41, 53, 0, 0, 0, 0, 21, 0, 40, 57, 0, 0, 38, 34, 30, 0, 17, 23, 0, 9, 26, 62, 0, 0, 0, 0, 0, 0, 20, 47, 56, 51, 18, 2, 0, 0, 0, 0, 46, 0, 0, 37, 0, 5, 25, 0, 0, 54
|21, 0, 0, 0, 0, 47, 0, 0, 57, 0, 52, 0, 0, 0, 25, 9, 0, 0, 0, 36, 8, 43, 64, 63, 54, 19, 4, 0, 0, 49, 33, 20, 0, 0, 0, 0, 38, 55, 50, 0, 34, 0, 0, 0, 28, 0, 0, 13, 48, 0, 0, 0, 45, 0, 0, 0, 0, 18, 29, 41, 24, 62, 0, 10
|0, 0, 0, 0, 11, 0, 0, 45, 26, 61, 53, 0, 2, 0, 0, 32, 0, 10, 12, 0, 0, 38, 19, 57, 44, 27, 0, 3, 0, 21, 8, 31, 0, 0, 5, 0, 43, 0, 25, 0, 0, 46, 23, 58, 49, 0, 0, 0, 0, 0, 0, 30, 0, 0, 34, 0, 28, 0, 0, 0, 0, 0, 0, 0
|23, 0, 44, 0, 34, 24, 26, 59, 0, 38, 4, 0, 0, 0, 0, 40, 39, 56, 48, 0, 25, 0, 31, 29, 16, 0, 0, 9, 0, 64, 0, 35, 8, 0, 0, 0, 53, 0, 0, 0, 0, 55, 0, 50, 18, 62, 52, 3, 6, 0, 0, 54, 61, 41, 5, 0, 42, 0, 0, 0, 12, 14, 49, 0
|18, 0, 10, 0, 13, 29, 6, 0, 0, 0, 64, 0, 0, 41, 0, 7, 0, 0, 52, 50, 9, 20, 58, 35, 28, 39, 62, 48, 42, 55, 15, 0, 0, 0, 57, 0, 0, 0, 34, 1, 0, 54, 0, 14, 30, 0, 4, 27, 16, 56, 0, 23, 0, 38, 36, 0, 33, 0, 2, 0, 40, 0, 22, 43
|0, 0, 53, 0, 32, 0, 0, 0, 0, 0, 0, 0, 14, 0, 0, 18, 40, 0, 30, 0, 0, 0, 0, 37, 41, 0, 0, 0, 52, 36, 26, 51, 0, 0, 0, 0, 12, 20, 49, 0, 0, 0, 25, 0, 0, 63, 44, 0, 0, 33, 0, 39, 0, 0, 0, 0, 21, 47, 9, 0, 23, 0, 0, 0
|41, 5, 8, 22, 63, 61, 42, 0, 12, 0, 0, 0, 0, 0, 0, 0, 17, 0, 23, 32, 28, 16, 0, 2, 0, 50, 0, 0, 0, 14, 18, 0, 52, 58, 4, 54, 0, 19, 33, 0, 59, 7, 64, 0, 0, 53, 0, 0, 0, 51, 0, 49, 0, 0, 21, 25, 0, 6, 0, 57, 26, 0, 27, 38
|30, 40, 0, 62, 0, 25, 0, 0, 0, 13, 0, 0, 1, 0, 10, 35, 26, 6, 33, 34, 14, 27, 54, 55, 59, 0, 22, 0, 0, 53, 58, 0, 16, 0, 42, 0, 0, 0, 0, 0, 19, 0, 0, 5, 0, 39, 0, 15, 63, 0, 57, 9, 11, 24, 0, 12, 56, 0, 44, 0, 0, 48, 0, 20
|0, 9, 0, 64, 19, 0, 0, 30, 28, 0, 0, 58, 0, 33, 3, 14, 56, 0, 0, 29, 0, 0, 0, 23, 27, 0, 21, 34, 0, 0, 37, 0, 5, 49, 63, 16, 0, 0, 0, 0, 0, 18, 40, 26, 0, 0, 50, 0, 10, 0, 0, 55, 57, 20, 39, 0, 31, 48, 61, 0, 0, 54, 0, 0
|34, 42, 0, 0, 18, 26, 0, 0, 0, 0, 9, 38, 0, 35, 0, 0, 0, 39, 0, 0, 0, 0, 0, 0, 0, 0, 0, 2, 33, 50, 54, 6, 25, 0, 37, 0, 47, 0, 29, 0, 0, 21, 0, 30, 0, 0, 0, 0, 0, 27, 0, 5, 23, 52, 28, 40, 17, 0, 0, 7, 0, 64, 0, 19
|35, 0, 0, 5, 0, 0, 54, 0, 0, 57, 0, 0, 0, 0, 13, 47, 8, 0, 0, 62, 27, 0, 6, 0, 0, 0, 0, 4, 26, 0, 25, 0, 53, 0, 43, 48, 17, 46, 0, 0, 55, 0, 3, 0, 19, 0, 37, 29, 61, 0, 0, 0, 0, 32, 0, 59, 0, 0, 40, 24, 2, 60, 0, 0
|57, 0, 0, 58, 60, 0, 31, 48, 34, 40, 32, 15, 0, 23, 0, 5, 0, 21, 37, 0, 17, 52, 0, 18, 0, 0, 11, 28, 0, 0, 22, 0, 0, 27, 8, 0, 0, 38, 0, 3, 12, 13, 0, 63, 6, 24, 0, 0, 0, 46, 14, 44, 54, 0, 2, 19, 59, 0, 39, 30, 1, 0, 16, 0
|0, 3, 0, 43, 8, 39, 0, 56, 63, 55, 0, 0, 0, 27, 18, 31, 44, 0, 58, 0, 30, 0, 0, 0, 32, 0, 0, 0, 48, 0, 0, 0, 0, 0, 0, 0, 42, 28, 24, 0, 0, 22, 5, 54, 0, 4, 2, 0, 0, 0, 0, 47, 37, 35, 26, 0, 0, 0, 10, 29, 0, 0, 0, 33
|0, 63, 51, 0, 21, 0, 40, 0, 0, 7, 0, 0, 0, 0, 0, 0, 0, 0, 35, 54, 0, 28, 0, 0, 0, 47, 0, 59, 5, 19, 0, 52, 18, 0, 13, 0, 14, 0, 41, 0, 0, 0, 0, 0, 0, 42, 9, 57, 0, 45, 25, 33, 38, 3, 24, 0, 0, 46, 0, 0, 53, 56, 55, 0
|0, 4, 38, 0, 0, 2, 0, 0, 0, 0, 21, 37, 0, 46, 50, 0, 16, 20, 0, 53, 0, 5, 0, 0, 0, 36, 0, 31, 0, 0, 0, 40, 32, 0, 54, 0, 35, 9, 7, 0, 49, 0, 0, 48, 0, 25, 0, 0, 29, 0, 0, 64, 0, 60, 0, 17, 0, 28, 8, 0, 58, 63, 0, 0
|0, 0, 0, 0, 37, 0, 50, 0, 24, 25, 0, 0, 39, 0, 4, 42, 60, 48, 0, 0, 0, 36, 0, 0, 0, 63, 0, 57, 30, 0, 0, 8, 58, 0, 62, 0, 0, 33, 0, 56, 0, 0, 0, 0, 64, 0, 15, 43, 0, 0, 0, 0, 1, 0, 0, 0, 27, 0, 0, 23, 3, 5, 0, 0
|64, 0, 0, 0, 51, 0, 0, 0, 0, 42, 28, 0, 33, 18, 63, 36, 0, 11, 0, 0, 0, 55, 0, 0, 0, 0, 44, 46, 4, 30, 0, 34, 22, 0, 7, 60, 0, 0, 40, 47, 23, 38, 0, 9, 0, 31, 54, 6, 0, 0, 15, 12, 17, 53, 0, 0, 0, 0, 5, 0, 50, 0, 24, 62
|11, 33, 63, 12, 0, 0, 10, 0, 48, 0, 0, 0, 0, 0, 55, 0, 0, 43, 0, 13, 0, 0, 34, 5, 37, 17, 16, 0, 8, 27, 2, 7, 4, 9, 29, 0, 44, 15, 0, 41, 0, 26, 0, 0, 32, 0, 36, 0, 0, 0, 0, 61, 0, 0, 47, 0, 40, 25, 0, 54, 46, 0, 64, 0
|43, 0, 34, 29, 0, 0, 36, 0, 37, 0, 44, 20, 7, 0, 0, 2, 18, 45, 54, 22, 15, 58, 0, 21, 0, 9, 50, 24, 1, 3, 0, 38, 10, 16, 0, 0, 31, 0, 52, 63, 41, 0, 4, 19, 17, 0, 35, 0, 0, 32, 64, 14, 0, 39, 56, 11, 0, 61, 0, 0, 0, 33, 0, 0
|9, 61, 7, 23, 31, 0, 56, 0, 4, 6, 27, 53, 46, 5, 0, 22, 0, 49, 0, 17, 51, 10, 0, 0, 29, 59, 54, 15, 0, 35, 0, 0, 39, 0, 0, 33, 8, 57, 11, 0, 64, 52, 0, 0, 0, 0, 18, 30, 0, 34, 24, 0, 0, 0, 0, 0, 36, 0, 0, 0, 38, 45, 2, 63
|4, 0, 0, 0, 0, 0, 30, 46, 0, 0, 0, 43, 57, 40, 45, 54, 53, 0, 0, 0, 36, 39, 0, 0, 22, 31, 14, 41, 0, 52, 12, 0, 55, 50, 25, 0, 0, 0, 0, 0, 15, 0, 0, 0, 61, 33, 0, 0, 0, 0, 0, 62, 63, 27, 0, 0, 0, 0, 0, 34, 0, 7, 13, 17
|53, 54, 0, 40, 39, 0, 0, 60, 0, 0, 31, 10, 0, 0, 0, 52, 33, 30, 63, 57, 0, 0, 0, 0, 0, 55, 51, 26, 0, 32, 28, 0, 35, 0, 0, 17, 36, 3, 0, 59, 0, 0, 2, 0, 0, 46, 0, 0, 0, 8, 18, 21, 0, 0, 0, 22, 48, 0, 0, 0, 0, 0, 44, 14
|0, 0, 0, 15, 17, 18, 28, 35, 0, 0, 0, 0, 0, 0, 34, 1, 0, 41, 19, 40, 4, 44, 0, 0, 0, 45, 53, 0, 0, 23, 0, 0, 2, 0, 27, 0, 0, 0, 0, 0, 22, 0, 56, 0, 63, 20, 0, 0, 0, 16, 0, 38, 25, 36, 55, 50, 9, 31, 0, 51, 0, 0, 0, 58
|0, 55, 0, 38, 50, 0, 0, 47, 61, 0, 41, 0, 25, 17, 24, 0, 7, 0, 0, 28, 35, 31, 46, 16, 0, 0, 43, 18, 36, 40, 0, 13, 0, 51, 0, 21, 0, 0, 0, 53, 0, 0, 0, 0, 0, 0, 60, 0, 0, 48, 0, 0, 5, 45, 33, 0, 0, 0, 26, 4, 42, 0, 0, 3
|0, 20, 0, 0, 0, 15, 29, 0, 0, 0, 33, 0, 0, 0, 0, 64, 0, 1, 51, 8, 63, 30, 14, 25, 0, 26, 52, 39, 0, 0, 17, 0, 0, 0, 0, 0, 27, 0, 46, 16, 40, 11, 0, 32, 0, 60, 3, 49, 5, 0, 0, 13, 0, 0, 50, 0, 0, 0, 0, 58, 45, 21, 31, 0
|0, 52, 0, 0, 0, 50, 0, 33, 0, 0, 36, 55, 0, 0, 0, 4, 32, 9, 44, 0, 34, 0, 28, 0, 60, 51, 0, 0, 0, 0, 0, 0, 26, 0, 0, 0, 49, 0, 56, 0, 25, 12, 24, 0, 0, 0, 0, 0, 27, 6, 0, 35, 47, 0, 0, 0, 0, 0, 0, 0, 0, 59, 0, 0
|42, 64, 0, 0, 0, 0, 18, 0, 45, 12, 0, 0, 11, 1, 6, 41, 0, 33, 27, 0, 60, 0, 0, 0, 14, 0, 0, 0, 28, 57, 48, 46, 61, 0, 0, 13, 0, 0, 0, 55, 53, 0, 47, 0, 0, 0, 0, 58, 0, 54, 0, 0, 0, 0, 63, 29, 0, 24, 25, 0, 39, 0, 26, 51
|27, 0, 41, 0, 4, 44, 16, 25, 0, 18, 3, 0, 0, 0, 2, 43, 55, 0, 0, 0, 0, 0, 0, 61, 0, 37, 0, 0, 0, 0, 45, 0, 42, 0, 0, 0, 0, 0, 9, 0, 0, 19, 17, 0, 39, 54, 0, 0, 57, 20, 0, 0, 51, 0, 0, 34, 0, 0, 0, 10, 35, 46, 0, 0
|0, 0, 24, 0, 48, 60, 57, 54, 53, 0, 0, 25, 0, 20, 38, 28, 0, 0, 0, 0, 41, 0, 0, 10, 64, 0, 23, 16, 0, 15, 0, 0, 0, 2, 18, 0, 51, 11, 0, 5, 0, 0, 45, 0, 0, 44, 0, 1, 7, 39, 43, 0, 0, 0, 0, 0, 49, 0, 33, 32, 34, 55, 0, 0
|51, 0, 45, 56, 46, 40, 39, 0, 0, 0, 5, 50, 58, 10, 61, 23, 36, 29, 0, 35, 43, 37, 0, 0, 0, 0, 0, 0, 12, 0, 42, 0, 59, 0, 0, 0, 0, 6, 48, 8, 0, 0, 15, 0, 0, 0, 0, 28, 44, 62, 60, 24, 41, 2, 17, 0, 54, 3, 0, 19, 0, 0, 0, 52
|37, 0, 0, 13, 0, 0, 19, 0, 0, 0, 60, 0, 42, 0, 0, 39, 0, 12, 53, 0, 23, 0, 0, 0, 33, 6, 0, 0, 35, 29, 0, 0, 45, 25, 50, 36, 64, 0, 0, 0, 18, 0, 10, 2, 41, 52, 0, 0, 21, 55, 0, 59, 9, 56, 0, 26, 0, 17, 0, 0, 0, 28, 61, 0
|0, 0, 0, 0, 0, 38, 5, 0, 0, 0, 47, 57, 0, 0, 17, 0, 0, 0, 42, 0, 0, 0, 0, 0, 43, 0, 0, 0, 56, 0, 0, 0, 0, 0, 21, 0, 60, 0, 0, 0, 37, 0, 0, 51, 33, 0, 0, 4, 14, 31, 49, 25, 53, 0, 45, 61, 8, 63, 41, 0, 64, 36, 6, 0
|0, 58, 46, 0, 0, 0, 43, 12, 13, 56, 18, 24, 0, 39, 0, 51, 45, 0, 20, 33, 0, 25, 0, 8, 0, 0, 0, 0, 0, 2, 31, 41, 0, 10, 23, 0, 15, 42, 0, 6, 44, 32, 48, 49, 1, 14, 28, 34, 0, 50, 0, 3, 0, 21, 7, 54, 0, 0, 0, 0, 37, 0, 29, 0
|0, 23, 30, 0, 49, 13, 45, 0, 21, 0, 0, 0, 37, 0, 0, 8, 35, 28, 3, 0, 26, 12, 0, 51, 0, 22, 0, 0, 0, 0, 0, 0, 0, 0, 48, 62, 25, 44, 0, 29, 0, 2, 0, 0, 54, 0, 0, 19, 0, 18, 0, 40, 33, 0, 16, 63, 0, 0, 0, 36, 10, 32, 0, 0
|6, 10, 0, 53, 16, 35, 0, 0, 0, 0, 0, 0, 40, 0, 23, 0, 29, 0, 5, 0, 21, 32, 0, 0, 0, 0, 0, 0, 15, 0, 0, 0, 0, 56, 0, 37, 0, 0, 0, 27, 8, 0, 59, 18, 0, 17, 61, 26, 0, 0, 12, 0, 46, 30, 0, 0, 0, 0, 0, 0, 48, 57, 50, 0
|7, 51, 48, 0, 0, 0, 37, 52, 14, 15, 35, 36, 50, 25, 0, 0, 10, 0, 0, 9, 0, 24, 0, 43, 0, 8, 19, 0, 0, 0, 0, 0, 34, 0, 0, 61, 63, 0, 64, 31, 0, 20, 60, 47, 3, 0, 21, 62, 49, 0, 11, 6, 0, 58, 0, 39, 41, 0, 28, 0, 4, 0, 46, 26
|3, 8, 56, 50, 0, 59, 0, 0, 0, 44, 0, 5, 0, 0, 42, 58, 64, 0, 46, 63, 0, 0, 0, 47, 0, 0, 0, 0, 55, 16, 23, 0, 9, 17, 0, 0, 0, 0, 32, 0, 43, 27, 0, 29, 0, 0, 0, 10, 0, 0, 20, 28, 0, 0, 25, 0, 52, 21, 0, 0, 33, 0, 12, 61
|40, 21, 2, 0, 0, 0, 34, 31, 0, 0, 61, 28, 0, 0, 52, 49, 6, 0, 11, 0, 62, 0, 0, 0, 0, 10, 26, 0, 0, 63, 3, 0, 1, 7, 51, 0, 0, 0, 0, 4, 46, 0, 0, 35, 0, 0, 23, 0, 36, 0, 0, 32, 15, 0, 0, 0, 0, 0, 0, 59, 0, 27, 0, 13
|26, 38, 25, 0, 0, 0, 61, 42, 0, 0, 63, 41, 0, 0, 48, 0, 59, 0, 18, 27, 0, 0, 13, 30, 0, 28, 0, 0, 0, 0, 0, 5, 0, 0, 19, 46, 3, 35, 0, 11, 0, 0, 16, 55, 52, 36, 0, 0, 0, 0, 0, 8, 43, 57, 0, 0, 0, 51, 49, 0, 17, 0, 0, 0
|28, 0, 27, 0, 44, 0, 0, 0, 0, 16, 10, 0, 0, 0, 64, 57, 0, 37, 0, 23, 39, 0, 49, 0, 0, 4, 0, 0, 0, 0, 11, 12, 0, 41, 0, 0, 58, 0, 18, 0, 0, 45, 6, 13, 9, 0, 0, 0, 0, 60, 0, 0, 0, 0, 0, 51, 0, 15, 62, 0, 0, 2, 0, 0
|0, 56, 13, 0, 0, 58, 38, 6, 36, 21, 0, 35, 24, 60, 7, 59, 34, 0, 0, 37, 18, 8, 27, 0, 0, 54, 15, 64, 0, 0, 0, 3, 51, 0, 0, 20, 9, 0, 0, 26, 30, 5, 0, 22, 48, 0, 46, 11, 0, 0, 0, 0, 49, 0, 0, 0, 44, 0, 50, 0, 0, 0, 25, 0
|0, 11, 1, 0, 0, 0, 0, 17, 0, 0, 54, 0, 8, 0, 32, 0, 0, 0, 14, 0, 40, 0, 0, 62, 0, 0, 0, 35, 0, 13, 56, 18, 60, 38, 0, 0, 0, 0, 63, 34, 20, 0, 0, 0, 45, 0, 57, 0, 33, 37, 0, 0, 42, 59, 15, 36, 0, 29, 51, 16, 7, 4, 5, 0
|50, 26, 0, 0, 0, 0, 0, 43, 3, 0, 0, 63, 38, 0, 51, 0, 12, 0, 39, 0, 0, 23, 2, 46, 9, 0, 36, 60, 0, 0, 61, 17, 0, 0, 0, 0, 10, 0, 0, 0, 0, 56, 0, 31, 0, 0, 58, 0, 45, 64, 55, 27, 0, 0, 0, 0, 18, 0, 0, 0, 0, 0, 0, 49
|52, 16, 0, 0, 0, 9, 0, 0, 41, 0, 0, 11, 55, 0, 0, 0, 0, 35, 0, 0, 0, 45, 3, 0, 62, 0, 63, 0, 0, 0, 0, 0, 0, 37, 36, 0, 0, 32, 0, 0, 0, 0, 0, 1, 21, 0, 0, 25, 0, 0, 0, 0, 12, 46, 0, 4, 34, 27, 0, 0, 0, 0, 20, 0
|55, 0, 0, 0, 0, 0, 0, 0, 0, 2, 0, 0, 0, 0, 0, 0, 24, 0, 36, 0, 0, 0, 0, 0, 26, 0, 0, 0, 29, 4, 16, 43, 0, 45, 0, 25, 56, 31, 22, 0, 54, 0, 62, 23, 8, 34, 0, 0, 0, 19, 7, 41, 50, 0, 0, 38, 0, 0, 0, 0, 52, 11, 0, 0
|25, 15, 5, 41, 22, 23, 0, 10, 0, 0, 40, 0, 16, 0, 0, 0, 13, 52, 17, 0, 61, 0, 56, 6, 12, 0, 0, 0, 0, 0, 57, 0, 0, 0, 1, 42, 0, 0, 21, 35, 0, 0, 27, 0, 26, 0, 0, 0, 0, 0, 29, 0, 0, 31, 53, 0, 0, 54, 64, 0, 0, 0, 62, 0
|0, 0, 0, 45, 7, 0, 53, 8, 64, 5, 0, 0, 47, 22, 1, 0, 54, 19, 0, 0, 50, 0, 32, 0, 34, 44, 33, 0, 0, 0, 46, 0, 41, 0, 0, 15, 0, 18, 23, 0, 0, 0, 35, 0, 12, 37, 29, 52, 56, 11, 0, 43, 0, 25, 6, 0, 24, 38, 0, 9, 0, 0, 0, 39
|0, 0, 36, 0, 0, 34, 0, 62, 10, 0, 0, 52, 0, 0, 46, 0, 0, 63, 0, 0, 59, 0, 16, 20, 31, 0, 0, 58, 0, 8, 38, 1, 0, 0, 0, 53, 0, 0, 0, 0, 6, 17, 0, 0, 0, 3, 24, 0, 22, 13, 9, 0, 18, 0, 57, 23, 0, 30, 0, 55, 0, 0, 19, 12
|63, 46, 0, 0, 0, 19, 0, 0, 50, 52, 13, 14, 30, 0, 35, 0, 0, 17, 8, 0, 16, 42, 36, 60, 0, 32, 0, 47, 37, 0, 0, 21, 0, 0, 9, 38, 34, 0, 0, 49, 1, 29, 0, 0, 0, 0, 51, 45, 0, 57, 41, 0, 6, 18, 62, 0, 61, 0, 7, 0, 0, 0, 0, 23
|1, 0, 0, 33, 0, 0, 58, 0, 0, 63, 56, 0, 0, 32, 0, 0, 0, 0, 40, 5, 0, 46, 0, 54, 25, 0, 57, 0, 45, 0, 0, 0, 0, 0, 0, 55, 2, 36, 0, 20, 3, 0, 0, 0, 42, 0, 7, 0, 0, 24, 0, 0, 0, 0, 0, 0, 37, 0, 21, 0, 0, 34, 35, 64
|0, 0, 0, 0, 2, 7, 0, 38, 5, 29, 0, 18, 0, 0, 0, 16, 0, 31, 0, 39, 0, 19, 0, 27, 56, 0, 0, 0, 62, 0, 34, 49, 0, 0, 61, 0, 0, 0, 0, 46, 13, 10, 54, 0, 4, 0, 63, 0, 0, 0, 51, 0, 35, 11, 1, 0, 0, 50, 0, 0, 0, 0, 17, 0
|10, 37, 26, 55, 23, 0, 21, 44, 0, 53, 8, 0, 0, 51, 0, 6, 57, 38, 0, 41, 0, 64, 0, 0, 0, 11, 0, 12, 0, 0, 0, 0, 0, 0, 17, 0, 54, 27, 16, 52, 24, 58, 0, 0, 43, 0, 0, 0, 0, 0, 0, 0, 39, 19, 20, 0, 0, 0, 63, 42, 29, 0, 60, 46
|13, 0, 0, 0, 0, 12, 0, 0, 17, 0, 57, 0, 31, 45, 33, 25, 2, 0, 50, 14, 24, 0, 0, 0, 19, 0, 0, 0, 59, 0, 0, 0, 0, 0, 56, 0, 0, 37, 42, 0, 0, 15, 46, 27, 0, 0, 55, 0, 0, 0, 0, 0, 0, 0, 0, 30, 0, 0, 0, 48, 20, 0, 0, 4
|45, 59, 61, 30, 52, 0, 0, 64, 49, 39, 1, 0, 0, 34, 21, 46, 0, 62, 13, 0, 0, 0, 0, 22, 3, 24, 10, 0, 40, 5, 0, 0, 23, 35, 0, 51, 0, 25, 0, 0, 32, 0, 11, 53, 0, 26, 0, 17, 0, 0, 0, 37, 27, 29, 0, 0, 55, 0, 18, 31, 0, 38, 0, 56
|15, 6, 42, 39, 29, 56, 0, 0, 0, 0, 0, 7, 27, 26, 20, 0, 0, 32, 55, 0, 45, 0, 0, 0, 0, 43, 0, 0, 13, 0, 0, 0, 0, 64, 0, 0, 0, 47, 53, 0, 0, 0, 0, 62, 0, 0, 16, 37, 60, 17, 28, 46, 3, 0, 0, 0, 0, 49, 0, 0, 0, 19, 58, 57
|20, 0, 16, 8, 24, 14, 0, 0, 54, 60, 55, 0, 0, 36, 37, 0, 11, 59, 0, 0, 0, 0, 35, 3, 0, 0, 0, 0, 0, 61, 0, 0, 0, 0, 0, 0, 0, 41, 0, 0, 28, 0, 0, 52, 56, 0, 0, 0, 0, 0, 13, 34, 2, 4, 12, 0, 30, 0, 15, 26, 0, 10, 0, 0|];