order = 8;
grid = [|0, 52, 0, 0, 16, 50, 15, 24, 39, 45, 41, 57, 0, 0, 6, 32, 11, 60, 34, 0, 0, 7, 0, 0, 0, 0, 22, 0, 0, 46, 56, 0, 9, 0, 25, 0, 0, 48, 58, 5, 0, 0, 36, 0, 0, 8, 0, 0, 0, 0, 0, 10, 3, 18, 0, 47, 26, 0, 0, 0, 0, 0, 1, 0
|0, 0, 0, 5, 0, 23, 32, 64, 2, 0, 0, 0, 49, 0, 0, 0, 0, 63, 0, 0, 58, 46, 0, 43, 0, 0, 62, 0, 0, 7, 36, 10, 13, 0, 0, 37, 8, 0, 44, 15, 45, 6, 53, 16, 0, 0, 0, 29, 0, 54, 60, 41, 0, 0, 0, 19, 0, 0, 28, 20, 11, 0, 3, 34
|26, 2, 6, 1, 43, 0, 0, 0, 0, 0, 0, 0, 30, 52, 0, 0, 0, 3, 13, 25, 0, 0, 47, 55, 0, 0, 14, 0, 61, 0, 35, 0, 64, 42, 16, 10, 49, 62, 54, 0, 0, 19, 0, 0, 31, 34, 0, 15, 33, 20, 58, 0, 0, 36, 23, 59, 0, 0, 60, 7, 44, 53, 0, 48
|0, 0, 55, 0, 13, 0, 0, 0, 0, 3, 0, 0, 54, 14, 23, 42, 40, 15, 26, 10, 28, 0, 18, 0, 51, 8, 0, 0, 0, 32, 0, 38, 0, 0, 0, 0, 7, 1, 6, 0, 12, 0, 0, 52, 37, 0, 0, 0, 0, 64, 0, 0, 0, 0, 0, 53, 57, 50, 49, 0, 21, 0, 0, 33
|12, 53, 54, 31, 0, 18, 51, 0, 48, 0, 62, 25, 1, 0, 0, 0, 0, 56, 0, 17, 49, 0, 9, 4, 6, 0, 0, 3, 55, 52, 0, 0, 0, 0, 43, 26, 0, 36, 0, 0, 0, 0, 0, 23, 57, 0, 0, 2, 0, 15, 40, 0, 35, 0, 0, 7, 8, 0, 0, 24, 58, 46, 16, 0
|0, 39, 0, 0, 34, 0, 0, 0, 0, 51, 0, 36, 35, 0, 10, 0, 8, 22, 0, 14, 0, 0, 0, 0, 25, 43, 0, 15, 0, 0, 0, 0, 0, 0, 21, 59, 30, 0, 52, 0, 17, 0, 0, 32, 0, 0, 61, 0, 0, 0, 0, 0, 57, 9, 62, 50, 23, 55, 45, 0, 64, 19, 31, 38
|0, 8, 42, 11, 27, 58, 0, 62, 0, 7, 0, 26, 0, 37, 0, 20, 0, 35, 0, 0, 44, 23, 0, 0, 45, 63, 50, 48, 64, 0, 9, 19, 57, 33, 53, 61, 34, 0, 0, 0, 0, 0, 59, 60, 1, 0, 0, 40, 24, 30, 0, 55, 0, 0, 0, 0, 36, 54, 0, 0, 0, 13, 0, 0
|41, 0, 35, 63, 61, 0, 14, 0, 0, 11, 40, 0, 44, 0, 24, 0, 2, 29, 57, 0, 0, 0, 36, 0, 0, 54, 23, 0, 58, 0, 13, 1, 0, 0, 4, 56, 0, 0, 55, 45, 0, 7, 0, 0, 0, 27, 48, 49, 0, 0, 0, 0, 16, 0, 42, 31, 0, 0, 0, 0, 0, 51, 0, 22
|0, 38, 8, 0, 0, 31, 0, 63, 0, 0, 0, 5, 0, 0, 0, 30, 41, 33, 0, 0, 2, 58, 0, 0, 0, 0, 0, 26, 0, 29, 0, 51, 11, 0, 0, 1, 64, 0, 0, 0, 22, 0, 61, 0, 47, 0, 36, 0, 0, 45, 37, 0, 28, 0, 0, 0, 60, 0, 0, 46, 39, 17, 50, 0
|27, 13, 0, 48, 0, 0, 21, 0, 40, 32, 0, 35, 0, 0, 0, 0, 0, 0, 54, 0, 0, 0, 50, 0, 42, 55, 52, 0, 1, 11, 0, 0, 43, 0, 0, 28, 47, 7, 0, 51, 44, 15, 0, 0, 0, 25, 0, 0, 17, 0, 29, 0, 53, 39, 60, 0, 58, 63, 61, 0, 22, 0, 23, 0
|0, 0, 0, 0, 0, 0, 50, 10, 0, 0, 0, 0, 34, 44, 60, 37, 0, 62, 64, 42, 19, 0, 40, 0, 0, 0, 49, 39, 33, 0, 31, 0, 35, 48, 0, 53, 0, 0, 20, 8, 0, 0, 0, 0, 59, 0, 26, 0, 43, 0, 0, 0, 11, 22, 21, 25, 0, 0, 0, 0, 0, 52, 4, 47
|42, 0, 28, 0, 0, 30, 43, 46, 63, 62, 0, 52, 10, 19, 0, 21, 0, 0, 0, 23, 0, 44, 0, 0, 0, 6, 17, 0, 47, 0, 0, 0, 34, 32, 18, 0, 57, 0, 0, 26, 0, 49, 9, 41, 27, 11, 29, 55, 50, 0, 33, 0, 0, 0, 56, 24, 51, 0, 2, 0, 5, 0, 0, 37
|0, 61, 0, 16, 54, 0, 52, 0, 26, 0, 0, 38, 0, 0, 25, 0, 0, 0, 0, 46, 0, 0, 0, 0, 57, 32, 37, 40, 60, 64, 0, 0, 0, 63, 0, 44, 17, 22, 41, 0, 0, 0, 24, 0, 28, 0, 0, 10, 23, 42, 0, 0, 1, 58, 0, 0, 0, 0, 0, 0, 0, 8, 45, 21
|0, 6, 0, 64, 22, 0, 11, 55, 56, 17, 0, 7, 53, 59, 0, 28, 4, 45, 0, 0, 3, 31, 29, 0, 0, 0, 21, 0, 0, 0, 0, 46, 33, 58, 0, 13, 0, 37, 40, 0, 0, 43, 0, 50, 60, 57, 0, 0, 54, 41, 51, 26, 27, 0, 47, 38, 14, 0, 0, 1, 62, 42, 32, 49
|0, 3, 37, 17, 26, 0, 0, 0, 0, 0, 31, 55, 0, 0, 46, 29, 47, 24, 0, 48, 6, 0, 51, 0, 0, 0, 2, 0, 10, 54, 63, 0, 15, 59, 0, 27, 25, 0, 42, 0, 0, 34, 0, 0, 0, 0, 0, 0, 64, 52, 0, 61, 18, 44, 8, 0, 16, 41, 53, 13, 40, 28, 0, 35
|0, 0, 0, 0, 41, 0, 57, 0, 50, 43, 45, 0, 47, 0, 16, 9, 37, 8, 0, 32, 14, 0, 0, 0, 0, 19, 61, 0, 0, 58, 3, 53, 0, 0, 0, 0, 0, 2, 0, 39, 0, 64, 17, 0, 7, 0, 0, 42, 0, 48, 35, 13, 5, 30, 0, 0, 0, 0, 0, 10, 6, 0, 24, 0
|46, 56, 58, 4, 59, 34, 0, 0, 21, 0, 11, 30, 61, 18, 52, 0, 0, 0, 47, 0, 64, 0, 0, 0, 0, 12, 0, 63, 0, 43, 29, 23, 26, 22, 19, 7, 36, 0, 0, 0, 51, 40, 0, 0, 48, 45, 5, 0, 0, 49, 39, 0, 0, 31, 0, 16, 62, 35, 0, 0, 15, 0, 0, 0
|31, 27, 16, 45, 0, 35, 19, 0, 20, 0, 54, 3, 60, 0, 0, 14, 0, 51, 0, 0, 40, 9, 59, 50, 1, 11, 0, 41, 0, 0, 2, 0, 0, 56, 42, 12, 48, 17, 63, 0, 0, 28, 0, 6, 62, 0, 55, 0, 0, 7, 0, 44, 30, 0, 29, 0, 0, 0, 13, 0, 0, 61, 36, 39
|0, 0, 52, 62, 0, 47, 0, 0, 0, 38, 0, 0, 0, 9, 39, 0, 28, 23, 53, 19, 0, 0, 0, 0, 0, 0, 58, 14, 51, 56, 22, 32, 0, 0, 6, 0, 0, 13, 3, 0, 0, 0, 31, 7, 0, 2, 0, 0, 0, 10, 26, 1, 0, 54, 33, 43, 34, 8, 5, 12, 50, 45, 42, 30
|0, 30, 0, 0, 0, 0, 17, 2, 0, 26, 63, 56, 0, 47, 5, 0, 54, 58, 0, 0, 33, 0, 0, 27, 0, 0, 38, 0, 3, 0, 39, 7, 0, 0, 0, 57, 0, 45, 4, 32, 0, 0, 64, 0, 0, 0, 10, 0, 0, 0, 0, 0, 46, 0, 0, 0, 29, 22, 0, 0, 0, 0, 0, 20
|15, 51, 50, 0, 42, 7, 0, 0, 8, 0, 35, 0, 57, 4, 58, 0, 30, 0, 0, 0, 10, 37, 55, 0, 0, 0, 13, 6, 0, 0, 24, 0, 0, 0, 40, 18, 0, 43, 0, 62, 52, 12, 0, 33, 0, 0, 23, 0, 0, 0, 36, 0, 63, 0, 19, 0, 0, 3, 0, 59, 0, 0, 0, 0
|54, 24, 0, 33, 32, 0, 18, 60, 0, 0, 0, 0, 0, 2, 7, 6, 0, 25, 0, 56, 0, 4, 0, 1, 19, 36, 9, 16, 0, 49, 0, 45, 23, 30, 0, 0, 0, 0, 21, 0, 0, 0, 0, 46, 0, 38, 35, 0, 58, 51, 0, 22, 62, 50, 41, 8, 10, 28, 43, 52, 26, 0, 37, 0
|13, 0, 39, 0, 0, 12, 10, 43, 0, 42, 28, 33, 15, 53, 0, 0, 44, 6, 0, 60, 5, 49, 24, 0, 27, 0, 0, 0, 34, 0, 55, 0, 0, 11, 51, 20, 46, 41, 35, 0, 0, 14, 29, 0, 0, 56, 0, 0, 61, 0, 0, 0, 23, 32, 52, 0, 0, 0, 16, 48, 0, 63, 0, 7
|0, 0, 23, 0, 20, 0, 0, 14, 10, 0, 55, 0, 0, 0, 0, 13, 0, 0, 0, 2, 0, 0, 38, 0, 35, 64, 0, 52, 4, 0, 50, 0, 0, 0, 33, 0, 0, 0, 0, 0, 61, 0, 0, 17, 39, 32, 0, 37, 0, 0, 45, 0, 42, 53, 3, 0, 49, 47, 0, 0, 0, 27, 19, 24
|64, 41, 0, 14, 44, 11, 9, 0, 62, 0, 23, 45, 19, 54, 0, 0, 0, 49, 27, 26, 0, 0, 30, 0, 0, 0, 59, 58, 22, 51, 48, 0, 0, 0, 10, 0, 16, 0, 8, 35, 0, 0, 7, 0, 0, 24, 15, 0, 12, 0, 25, 0, 0, 6, 20, 21, 0, 4, 63, 0, 1, 33, 0, 5
|48, 49, 0, 18, 0, 0, 8, 20, 30, 0, 0, 12, 21, 41, 0, 0, 0, 59, 62, 35, 0, 0, 0, 0, 0, 0, 54, 64, 56, 0, 10, 0, 0, 0, 0, 0, 43, 52, 0, 0, 0, 60, 0, 1, 13, 0, 0, 47, 0, 0, 0, 58, 50, 19, 4, 0, 0, 0, 7, 2, 0, 16, 0, 55
|57, 0, 0, 46, 0, 38, 30, 0, 0, 0, 0, 0, 0, 0, 4, 7, 60, 0, 0, 0, 0, 0, 0, 0, 29, 0, 0, 0, 2, 0, 0, 0, 61, 0, 26, 24, 58, 53, 0, 0, 0, 0, 0, 5, 3, 0, 62, 0, 0, 0, 32, 42, 0, 49, 11, 0, 52, 44, 12, 51, 0, 39, 0, 43
|0, 33, 10, 0, 19, 60, 0, 29, 0, 15, 51, 42, 36, 0, 0, 43, 0, 2, 0, 61, 7, 0, 0, 24, 0, 0, 31, 0, 57, 47, 0, 0, 3, 9, 41, 0, 0, 0, 25, 0, 58, 0, 0, 0, 32, 49, 34, 46, 27, 44, 56, 59, 0, 0, 0, 0, 0, 0, 11, 0, 53, 0, 6, 17
|0, 22, 0, 0, 35, 0, 0, 21, 0, 24, 0, 0, 6, 17, 0, 61, 19, 0, 0, 0, 0, 38, 0, 0, 52, 0, 0, 43, 0, 41, 4, 0, 62, 0, 20, 64, 0, 0, 0, 59, 0, 0, 30, 0, 0, 0, 28, 0, 0, 63, 0, 53, 45, 34, 0, 0, 42, 0, 0, 0, 0, 3, 27, 54
|0, 62, 0, 0, 6, 1, 0, 0, 0, 0, 0, 37, 0, 0, 18, 58, 0, 0, 0, 51, 15, 0, 0, 0, 38, 24, 44, 0, 0, 45, 0, 63, 0, 7, 0, 0, 0, 49, 0, 33, 39, 11, 25, 0, 41, 26, 9, 54, 0, 0, 55, 0, 61, 57, 0, 52, 0, 0, 64, 36, 30, 0, 22, 28
|37, 26, 32, 0, 0, 0, 0, 0, 49, 40, 34, 11, 22, 0, 59, 33, 0, 0, 0, 0, 0, 50, 0, 58, 15, 0, 20, 19, 0, 6, 0, 25, 0, 0, 0, 2, 27, 21, 0, 13, 63, 0, 12, 0, 0, 0, 0, 0, 3, 23, 0, 0, 0, 35, 0, 0, 41, 0, 62, 56, 60, 0, 38, 0
|52, 0, 0, 24, 15, 56, 0, 13, 0, 0, 0, 46, 63, 31, 3, 60, 0, 0, 0, 0, 0, 0, 43, 57, 23, 0, 32, 0, 40, 27, 30, 36, 0, 0, 0, 4, 0, 54, 22, 0, 29, 21, 42, 0, 0, 48, 0, 0, 0, 0, 47, 0, 33, 62, 0, 0, 0, 0, 8, 0, 45, 10, 34, 0
|35, 0, 0, 0, 11, 54, 0, 1, 0, 0, 0, 49, 0, 0, 0, 62, 7, 0, 0, 47, 23, 64, 0, 0, 63, 0, 45, 25, 38, 61, 0, 29, 37, 0, 12, 50, 33, 0, 43, 0, 3, 0, 0, 0, 30, 0, 14, 41, 0, 0, 0, 0, 9, 27, 2, 18, 56, 39, 22, 6, 0, 58, 28, 0
|0, 15, 0, 0, 0, 6, 25, 0, 0, 0, 0, 47, 0, 0, 19, 35, 31, 0, 0, 37, 0, 57, 0, 28, 48, 0, 46, 51, 0, 0, 18, 27, 0, 0, 0, 0, 0, 0, 17, 0, 2, 0, 0, 34, 0, 16, 60, 0, 0, 0, 53, 0, 0, 0, 0, 0, 0, 0, 20, 61, 41, 0, 59, 0
|0, 0, 30, 0, 60, 53, 36, 0, 28, 48, 0, 0, 42, 0, 51, 59, 0, 0, 0, 21, 0, 22, 25, 3, 11, 47, 24, 2, 0, 0, 0, 0, 0, 0, 55, 0, 4, 0, 0, 63, 0, 56, 0, 0, 0, 35, 0, 1, 0, 50, 44, 33, 0, 41, 46, 0, 9, 15, 0, 17, 38, 54, 0, 0
|32, 0, 0, 0, 9, 21, 0, 0, 0, 0, 0, 0, 0, 26, 0, 0, 0, 0, 6, 55, 0, 0, 0, 0, 8, 0, 0, 10, 0, 4, 62, 57, 56, 0, 0, 30, 0, 0, 0, 0, 25, 0, 63, 45, 0, 0, 12, 20, 0, 31, 22, 16, 0, 14, 48, 0, 0, 0, 24, 19, 42, 37, 0, 1
|0, 37, 62, 0, 0, 0, 0, 0, 24, 0, 60, 32, 0, 0, 17, 56, 34, 0, 0, 0, 0, 0, 0, 14, 3, 0, 0, 0, 0, 19, 1, 0, 0, 2, 0, 36, 45, 20, 61, 0, 23, 0, 0, 0, 0, 22, 46, 0, 0, 0, 0, 0, 38, 59, 0, 0, 0, 53, 0, 0, 0, 57, 0, 8
|0, 34, 31, 20, 0, 2, 0, 0, 41, 22, 8, 0, 43, 46, 38, 18, 0, 0, 59, 54, 9, 1, 44, 0, 0, 37, 0, 32, 0, 14, 33, 13, 0, 26, 58, 19, 42, 0, 15, 25, 24, 53, 0, 47, 0, 0, 27, 36, 0, 0, 0, 0, 0, 0, 0, 0, 45, 64, 0, 0, 0, 0, 0, 29
|55, 0, 0, 52, 64, 0, 16, 17, 0, 0, 0, 1, 27, 0, 0, 2, 0, 5, 0, 38, 51, 41, 45, 11, 58, 0, 0, 0, 20, 34, 44, 26, 0, 0, 49, 23, 62, 29, 0, 60, 0, 39, 15, 61, 10, 40, 54, 0, 13, 0, 0, 37, 6, 0, 30, 63, 46, 7, 36, 0, 35, 21, 48, 31
|0, 29, 0, 38, 0, 48, 27, 23, 31, 25, 0, 15, 0, 0, 0, 0, 0, 0, 30, 0, 63, 53, 62, 0, 0, 35, 41, 0, 0, 59, 42, 64, 0, 0, 7, 0, 0, 40, 10, 54, 0, 0, 43, 44, 6, 55, 0, 57, 0, 0, 0, 47, 21, 0, 0, 0, 0, 12, 51, 11, 33, 0, 13, 0
|51, 0, 0, 0, 0, 24, 0, 0, 0, 0, 0, 18, 0, 25, 11, 26, 36, 0, 61, 0, 35, 0, 63, 22, 0, 0, 43, 29, 53, 62, 0, 34, 0, 0, 14, 0, 60, 0, 9, 41, 6, 0, 40, 21, 33, 50, 44, 27, 0, 0, 59, 0, 48, 0, 0, 13, 38, 0, 42, 0, 0, 47, 0, 0
|0, 0, 18, 0, 62, 0, 0, 59, 53, 0, 2, 0, 9, 0, 0, 0, 46, 0, 5, 0, 37, 48, 7, 64, 0, 60, 0, 1, 0, 15, 0, 14, 0, 21, 0, 0, 22, 0, 23, 0, 0, 38, 35, 0, 61, 20, 47, 32, 0, 27, 0, 0, 52, 12, 24, 0, 39, 0, 0, 0, 0, 0, 26, 0
|0, 12, 60, 47, 0, 0, 0, 15, 0, 0, 0, 0, 0, 0, 56, 3, 0, 26, 0, 43, 18, 6, 0, 25, 0, 0, 0, 42, 63, 0, 51, 41, 5, 8, 0, 0, 0, 0, 50, 0, 0, 0, 2, 29, 14, 0, 0, 52, 0, 0, 0, 0, 0, 38, 0, 20, 13, 0, 0, 35, 0, 0, 0, 0
|7, 28, 21, 0, 0, 41, 0, 30, 23, 33, 38, 0, 0, 0, 0, 47, 20, 9, 14, 0, 0, 54, 0, 0, 55, 61, 27, 0, 0, 0, 26, 0, 0, 0, 0, 15, 13, 63, 0, 36, 62, 0, 0, 0, 0, 64, 43, 45, 0, 1, 0, 11, 29, 56, 0, 0, 0, 0, 52, 57, 59, 32, 18, 0
|0, 31, 46, 0, 50, 0, 35, 0, 0, 0, 0, 22, 14, 0, 44, 0, 33, 0, 0, 16, 27, 21, 0, 0, 0, 0, 25, 47, 13, 0, 0, 48, 12, 43, 56, 0, 0, 0, 49, 55, 0, 0, 0, 0, 0, 42, 51, 0, 26, 40, 54, 28, 34, 0, 32, 60, 0, 62, 30, 0, 0, 5, 0, 45
|56, 0, 0, 53, 0, 26, 42, 36, 55, 46, 0, 64, 24, 30, 0, 63, 13, 0, 31, 62, 0, 52, 8, 38, 0, 0, 0, 57, 0, 0, 40, 0, 7, 6, 27, 16, 11, 33, 1, 0, 0, 0, 0, 0, 54, 0, 0, 39, 47, 61, 9, 0, 0, 0, 51, 23, 20, 0, 50, 14, 0, 0, 58, 60
|0, 32, 20, 22, 0, 43, 0, 0, 60, 0, 0, 41, 0, 1, 42, 51, 0, 47, 40, 45, 0, 56, 49, 39, 0, 31, 36, 37, 0, 0, 0, 0, 0, 57, 0, 62, 0, 0, 18, 0, 59, 0, 0, 15, 23, 0, 16, 0, 6, 33, 0, 0, 7, 8, 64, 5, 63, 0, 0, 53, 24, 0, 9, 0
|11, 0, 0, 0, 0, 13, 0, 0, 0, 54, 0, 0, 17, 6, 20, 0, 51, 50, 0, 0, 42, 0, 0, 0, 7, 58, 16, 23, 0, 0, 0, 28, 0, 0, 0, 0, 0, 61, 0, 0, 0, 26, 56, 36, 0, 0, 0, 0, 18, 57, 0, 62, 0, 0, 45, 0, 0, 0, 0, 0, 0, 0, 0, 19
|0, 0, 48, 36, 0, 0, 0, 0, 52, 21, 29, 0, 38, 0, 43, 40, 61, 0, 0, 0, 0, 16, 15, 0, 49, 18, 63, 0, 0, 25, 0, 30, 0, 62, 0, 45, 0, 0, 28, 0, 0, 27, 10, 31, 0, 0, 6, 0, 51, 0, 0, 5, 59, 26, 0, 33, 3, 0, 55, 0, 0, 0, 35, 12
|0, 0, 0, 0, 29, 0, 22, 16, 0, 0, 1, 0, 64, 58, 45, 0, 0, 0, 0, 0, 0, 59, 28, 0, 0, 0, 48, 0, 0, 0, 0, 0, 25, 0, 57, 33, 37, 11, 7, 10, 38, 0, 0, 12, 0, 0, 0, 0, 0, 39, 0, 63, 4, 0, 0, 61, 0, 26, 0, 0, 0, 0, 14, 0
|24, 64, 12, 0, 1, 0, 0, 26, 61, 6, 0, 0, 13, 56, 0, 0, 0, 37, 0, 0, 45, 0, 0, 0, 0, 10, 53, 0, 0, 33, 0, 17, 22, 0, 0, 0, 2, 15, 39, 18, 49, 0, 32, 0, 19, 0, 0, 0, 20, 3, 0, 48, 0, 29, 0, 0, 0, 60, 0, 0, 54, 4, 0, 0
|0, 54, 4, 59, 0, 0, 0, 35, 18, 0, 10, 0, 26, 62, 37, 22, 0, 0, 8, 0, 0, 39, 0, 36, 56, 0, 0, 7, 42, 20, 0, 0, 0, 17, 1, 55, 0, 3, 38, 52, 40, 0, 0, 30, 0, 0, 0, 14, 53, 32, 0, 12, 0, 0, 0, 0, 11, 43, 0, 31, 0, 0, 61, 15
|8, 50, 0, 0, 0, 62, 5, 0, 0, 0, 25, 59, 0, 0, 0, 24, 9, 12, 51, 0, 0, 0, 0, 35, 0, 0, 40, 60, 43, 0, 0, 22, 0, 0, 46, 34, 0, 30, 26, 20, 7, 0, 39, 0, 0, 54, 0, 28, 45, 37, 19, 56, 0, 0, 10, 6, 21, 0, 0, 0, 36, 1, 52, 0
|20, 17, 9, 0, 0, 0, 0, 31, 4, 36, 0, 0, 11, 0, 0, 34, 0, 19, 0, 22, 0, 0, 21, 44, 26, 0, 0, 61, 52, 23, 0, 59, 54, 13, 64, 14, 0, 0, 12, 0, 56, 1, 18, 55, 0, 15, 0, 33, 60, 35, 28, 0, 0, 0, 27, 0, 30, 0, 25, 0, 0, 40, 53, 0
|0, 11, 34, 0, 0, 25, 53, 0, 54, 5, 0, 14, 0, 12, 55, 0, 64, 0, 0, 6, 38, 0, 26, 0, 4, 0, 1, 27, 0, 3, 0, 0, 63, 44, 60, 21, 9, 24, 0, 43, 0, 0, 0, 42, 0, 0, 0, 48, 49, 0, 15, 0, 40, 7, 13, 62, 17, 20, 59, 0, 0, 0, 0, 0
|0, 0, 0, 42, 52, 0, 0, 0, 51, 0, 17, 53, 0, 33, 35, 57, 0, 4, 0, 0, 11, 0, 0, 0, 44, 0, 0, 0, 0, 24, 46, 0, 0, 49, 0, 40, 0, 0, 47, 31, 0, 63, 22, 26, 20, 36, 3, 0, 0, 0, 0, 8, 0, 55, 0, 0, 64, 29, 39, 37, 2, 0, 0, 9
|0, 36, 11, 0, 21, 0, 0, 0, 38, 0, 0, 61, 0, 24, 12, 10, 0, 0, 41, 7, 22, 63, 6, 5, 31, 52, 3, 13, 0, 50, 0, 20, 46, 37, 0, 60, 0, 0, 0, 4, 0, 0, 0, 0, 0, 0, 0, 0, 0, 19, 1, 0, 2, 42, 15, 17, 0, 0, 14, 25, 0, 0, 0, 0
|0, 0, 15, 34, 0, 0, 0, 0, 29, 31, 0, 13, 4, 36, 0, 44, 0, 28, 38, 0, 56, 62, 0, 33, 22, 23, 18, 0, 0, 10, 0, 0, 0, 0, 0, 0, 26, 0, 30, 0, 0, 0, 0, 14, 43, 37, 17, 0, 0, 59, 0, 0, 0, 51, 0, 0, 48, 11, 58, 0, 0, 49, 0, 53
|10, 35, 0, 0, 0, 45, 55, 0, 0, 41, 0, 16, 0, 57, 0, 46, 0, 0, 0, 50, 0, 0, 0, 0, 0, 48, 6, 38, 9, 63, 0, 0, 53, 0, 17, 0, 0, 0, 11, 21, 0, 22, 0, 0, 0, 19, 0, 30, 0, 0, 18, 29, 32, 0, 0, 0, 2, 34, 37, 15, 28, 0, 0, 0
|38, 18, 33, 0, 31, 0, 0, 50, 0, 53, 0, 0, 0, 0, 26, 0, 0, 0, 0, 0, 0, 0, 0, 0, 16, 0, 0, 36, 49, 0, 0, 0, 55, 40, 44, 0, 0, 0, 0, 0, 15, 0, 13, 0, 0, 0, 0, 0, 5, 0, 0, 0, 20, 0, 22, 4, 59, 6, 0, 0, 0, 29, 57, 51
|17, 42, 63, 8, 0, 0, 0, 0, 7, 0, 0, 0, 0, 23, 0, 0, 0, 0, 0, 20, 29, 32, 10, 15, 0, 0, 0, 62, 14, 0, 25, 0, 0, 5, 0, 43, 61, 0, 64, 0, 0, 2, 1, 53, 0, 51, 0, 6, 0, 0, 0, 0, 0, 0, 0, 26, 0, 46, 35, 0, 4, 0, 0, 0
|53, 43, 1, 9, 0, 0, 0, 0, 0, 0, 0, 51, 0, 0, 0, 5, 23, 14, 0, 0, 0, 61, 34, 0, 0, 44, 0, 11, 29, 17, 0, 21, 36, 39, 54, 41, 20, 50, 0, 49, 0, 48, 55, 58, 0, 0, 0, 26, 0, 38, 0, 0, 0, 0, 63, 56, 0, 0, 27, 42, 0, 64, 8, 0
|4, 20, 13, 0, 30, 0, 0, 0, 45, 0, 27, 0, 0, 34, 0, 48, 0, 0, 55, 9, 36, 51, 0, 49, 61, 0, 42, 0, 0, 1, 0, 0, 2, 12, 0, 0, 0, 10, 32, 0, 47, 0, 0, 0, 0, 0, 33, 24, 0, 53, 57, 0, 0, 0, 28, 3, 5, 56, 19, 22, 16, 0, 44, 0
|0, 0, 22, 19, 0, 27, 62, 0, 0, 0, 58, 40, 18, 0, 9, 17, 0, 0, 37, 24, 16, 26, 0, 13, 5, 0, 0, 30, 0, 0, 0, 4, 0, 0, 63, 29, 31, 0, 33, 7, 0, 0, 57, 0, 36, 0, 0, 0, 48, 0, 0, 0, 0, 0, 39, 44, 1, 0, 0, 0, 0, 0, 0, 52|];