order = 8;
grid = [|32, 0, 0, 0, 0, 0, 0, 44, 60, 53, 34, 0, 1, 3, 18, 61, 57, 48, 19, 0, 0, 0, 29, 0, 54, 0, 22, 0, 0, 4, 0, 26, 0, 52, 0, 42, 41, 0, 0, 35, 47, 17, 0, 9, 13, 31, 25, 7, 0, 0, 0, 28, 23, 43, 51, 36, 0, 38, 10, 0, 0, 0, 0, 5
|56, 0, 0, 34, 24, 40, 15, 0, 0, 47, 0, 0, 21, 9, 0, 0, 26, 0, 31, 11, 0, 46, 0, 2, 0, 5, 42, 37, 0, 0, 39, 0, 0, 49, 48, 0, 32, 30, 51, 1, 18, 64, 0, 33, 12, 35, 44, 52, 0, 17, 19, 13, 54, 3, 0, 61, 7, 0, 29, 43, 0, 8, 0, 14
|14, 0, 42, 0, 4, 0, 52, 54, 0, 0, 0, 0, 0, 0, 0, 0, 0, 16, 0, 35, 21, 0, 63, 0, 32, 10, 55, 45, 0, 31, 0, 2, 0, 0, 36, 0, 23, 27, 60, 0, 0, 3, 0, 39, 0, 28, 0, 0, 0, 0, 48, 0, 0, 37, 56, 0, 0, 46, 47, 51, 1, 0, 18, 15
|43, 0, 0, 0, 0, 0, 59, 19, 6, 35, 0, 0, 16, 0, 0, 0, 0, 0, 0, 0, 0, 0, 0, 0, 51, 0, 25, 0, 18, 0, 58, 0, 0, 45, 55, 0, 50, 0, 0, 12, 0, 0, 0, 0, 21, 62, 0, 0, 0, 49, 0, 0, 0, 9, 5, 0, 0, 64, 34, 0, 0, 0, 57, 0
|0, 0, 2, 11, 0, 35, 58, 0, 0, 0, 46, 32, 24, 0, 0, 42, 0, 47, 0, 0, 56, 28, 41, 0, 0, 0, 0, 17, 3, 7, 0, 34, 25, 22, 31, 10, 37, 54, 0, 64, 19, 0, 45, 48, 0, 0, 4, 20, 0, 14, 0, 0, 0, 21, 0, 38, 0, 9, 30, 0, 6, 52, 49, 13
|48, 26, 0, 0, 0, 3, 0, 0, 0, 0, 10, 62, 0, 29, 0, 0, 0, 58, 0, 0, 7, 20, 54, 0, 30, 9, 0, 40, 0, 0, 0, 0, 43, 0, 0, 0, 0, 38, 0, 0, 60, 0, 0, 0, 0, 11, 14, 51, 63, 0, 47, 25, 0, 59, 22, 64, 56, 0, 45, 0, 0, 41, 0, 0
|25, 29, 51, 47, 0, 0, 0, 0, 64, 48, 0, 23, 0, 0, 14, 0, 0, 39, 44, 45, 5, 60, 37, 0, 0, 0, 0, 38, 0, 21, 0, 12, 0, 16, 6, 0, 56, 0, 0, 9, 54, 0, 0, 0, 0, 0, 0, 34, 20, 0, 0, 0, 0, 15, 27, 58, 0, 0, 61, 31, 2, 17, 24, 0
|64, 0, 0, 49, 50, 17, 57, 0, 59, 0, 56, 0, 0, 0, 0, 0, 9, 0, 51, 13, 12, 0, 62, 0, 0, 0, 14, 0, 0, 33, 0, 0, 0, 11, 0, 2, 20, 21, 0, 44, 0, 0, 0, 0, 0, 58, 46, 42, 0, 0, 40, 16, 0, 0, 41, 32, 60, 35, 54, 0, 0, 0, 0, 26
|0, 7, 0, 31, 34, 28, 32, 35, 0, 0, 9, 0, 0, 0, 0, 0, 59, 0, 11, 12, 16, 23, 40, 42, 63, 0, 0, 22, 53, 60, 27, 58, 0, 0, 0, 0, 0, 0, 0, 41, 44, 49, 0, 57, 0, 25, 2, 19, 0, 0, 5, 0, 45, 0, 0, 26, 39, 24, 33, 0, 38, 0, 0, 0
|4, 48, 25, 0, 0, 0, 44, 61, 20, 0, 57, 0, 60, 0, 35, 0, 0, 0, 6, 0, 3, 0, 28, 19, 10, 59, 0, 0, 0, 0, 41, 0, 13, 0, 52, 0, 40, 33, 0, 0, 0, 0, 17, 0, 0, 0, 0, 0, 23, 0, 58, 2, 0, 0, 0, 0, 0, 37, 18, 46, 49, 54, 11, 0
|19, 0, 0, 50, 0, 9, 64, 0, 11, 55, 38, 0, 0, 31, 48, 0, 0, 0, 63, 0, 54, 44, 30, 0, 0, 0, 28, 0, 21, 0, 0, 14, 0, 56, 10, 0, 0, 0, 12, 0, 0, 0, 0, 34, 0, 0, 0, 61, 0, 0, 0, 0, 20, 0, 24, 0, 0, 0, 0, 0, 0, 57, 0, 0
|41, 23, 18, 43, 0, 0, 0, 21, 62, 63, 58, 0, 25, 16, 0, 19, 51, 0, 13, 53, 0, 57, 27, 14, 37, 0, 0, 26, 39, 52, 5, 0, 44, 0, 0, 0, 2, 4, 0, 34, 0, 38, 0, 0, 0, 24, 33, 0, 0, 28, 0, 50, 0, 0, 9, 12, 0, 0, 0, 0, 45, 0, 64, 48
|33, 0, 16, 10, 55, 27, 0, 0, 0, 0, 5, 0, 30, 43, 0, 23, 0, 0, 9, 0, 22, 0, 46, 62, 0, 56, 0, 0, 13, 0, 64, 11, 19, 14, 0, 36, 0, 15, 0, 0, 0, 0, 60, 28, 0, 7, 18, 0, 0, 0, 0, 17, 29, 0, 8, 0, 0, 0, 52, 0, 0, 4, 0, 58
|53, 0, 47, 57, 0, 56, 37, 0, 0, 34, 0, 51, 2, 0, 12, 6, 61, 0, 24, 10, 58, 18, 0, 48, 31, 17, 0, 0, 23, 0, 0, 0, 28, 46, 0, 26, 63, 0, 0, 0, 0, 21, 64, 8, 0, 41, 55, 0, 0, 0, 0, 54, 36, 0, 0, 35, 0, 0, 60, 0, 0, 43, 44, 0
|40, 46, 0, 22, 0, 6, 0, 0, 49, 0, 0, 27, 0, 37, 0, 0, 0, 0, 21, 0, 29, 33, 34, 0, 9, 25, 0, 0, 20, 0, 3, 30, 0, 61, 62, 31, 39, 53, 0, 0, 26, 0, 0, 56, 0, 50, 15, 35, 0, 0, 16, 42, 19, 63, 0, 0, 5, 0, 36, 23, 28, 0, 0, 0
|0, 0, 0, 62, 51, 0, 0, 63, 29, 36, 0, 41, 0, 33, 0, 0, 32, 0, 0, 0, 0, 0, 31, 43, 0, 38, 0, 8, 0, 0, 0, 0, 0, 0, 0, 0, 30, 0, 0, 24, 0, 0, 0, 0, 16, 46, 23, 58, 56, 0, 21, 0, 53, 40, 60, 18, 22, 12, 19, 3, 34, 0, 0, 42
|0, 0, 0, 53, 56, 0, 2, 46, 0, 13, 0, 0, 39, 0, 54, 12, 35, 0, 28, 0, 26, 48, 0, 60, 0, 0, 0, 0, 0, 0, 0, 4, 40, 0, 0, 52, 0, 0, 0, 42, 0, 0, 0, 0, 0, 0, 37, 0, 24, 0, 57, 43, 0, 0, 0, 0, 45, 25, 38, 0, 0, 3, 1, 0
|28, 44, 57, 0, 63, 0, 0, 0, 14, 27, 0, 47, 0, 0, 0, 29, 34, 0, 62, 6, 0, 0, 0, 0, 0, 0, 0, 0, 40, 0, 0, 32, 30, 0, 0, 59, 21, 0, 0, 0, 0, 42, 0, 2, 48, 4, 53, 0, 39, 9, 0, 0, 0, 49, 0, 0, 35, 7, 56, 0, 0, 0, 0, 0
|0, 0, 0, 0, 48, 4, 34, 60, 0, 0, 1, 0, 61, 36, 0, 0, 0, 37, 0, 0, 0, 21, 32, 0, 47, 0, 43, 0, 0, 44, 30, 42, 0, 0, 0, 25, 18, 0, 27, 45, 0, 0, 51, 63, 0, 0, 0, 41, 0, 0, 0, 20, 0, 53, 0, 54, 0, 28, 0, 57, 8, 24, 15, 23
|0, 0, 29, 39, 0, 45, 27, 0, 0, 23, 0, 0, 0, 55, 0, 24, 46, 0, 50, 0, 64, 5, 17, 0, 48, 1, 12, 0, 57, 0, 22, 56, 0, 0, 38, 37, 0, 35, 44, 0, 30, 0, 40, 0, 0, 6, 0, 43, 0, 18, 3, 0, 13, 0, 0, 51, 0, 0, 0, 0, 4, 53, 0, 0
|0, 0, 14, 16, 23, 5, 0, 9, 0, 0, 0, 4, 0, 0, 0, 0, 0, 57, 0, 0, 0, 47, 53, 41, 17, 37, 0, 11, 19, 27, 13, 0, 34, 12, 28, 39, 0, 0, 36, 0, 0, 0, 0, 0, 0, 0, 7, 0, 0, 42, 0, 0, 30, 56, 0, 15, 44, 49, 51, 62, 0, 0, 21, 0
|1, 15, 40, 0, 0, 50, 31, 36, 43, 3, 0, 0, 0, 60, 0, 0, 27, 49, 0, 39, 45, 0, 24, 10, 28, 0, 58, 5, 9, 59, 0, 38, 16, 0, 53, 6, 0, 48, 2, 20, 23, 8, 0, 22, 44, 57, 0, 0, 47, 41, 0, 0, 33, 0, 0, 37, 54, 13, 55, 14, 0, 64, 17, 0
|0, 12, 0, 0, 0, 38, 7, 37, 21, 0, 63, 0, 0, 0, 58, 20, 0, 0, 0, 43, 1, 0, 8, 0, 0, 41, 0, 2, 46, 24, 16, 39, 0, 0, 23, 62, 0, 0, 57, 0, 9, 27, 0, 0, 0, 0, 61, 0, 32, 0, 35, 45, 40, 0, 0, 0, 0, 0, 0, 5, 0, 0, 47, 60
|0, 42, 0, 8, 0, 0, 54, 41, 0, 0, 16, 0, 44, 6, 34, 53, 0, 61, 0, 0, 20, 36, 2, 9, 62, 15, 21, 0, 49, 0, 60, 0, 0, 0, 11, 0, 0, 51, 0, 0, 0, 0, 47, 45, 0, 3, 0, 0, 0, 29, 64, 0, 0, 0, 38, 0, 43, 0, 48, 0, 0, 0, 27, 30
|29, 52, 0, 0, 53, 0, 61, 43, 58, 0, 0, 38, 0, 13, 0, 18, 4, 14, 0, 0, 0, 62, 16, 50, 0, 36, 15, 25, 0, 41, 0, 48, 0, 0, 0, 47, 35, 26, 0, 33, 0, 44, 9, 49, 7, 12, 0, 8, 27, 5, 0, 0, 0, 0, 0, 1, 64, 0, 0, 55, 17, 2, 19, 0
|0, 0, 0, 0, 3, 12, 36, 0, 26, 0, 47, 29, 0, 0, 33, 0, 30, 31, 45, 0, 61, 0, 0, 57, 0, 4, 23, 0, 0, 32, 0, 0, 15, 62, 0, 0, 44, 0, 64, 49, 59, 51, 38, 0, 11, 0, 40, 24, 0, 0, 46, 60, 6, 0, 0, 43, 25, 0, 0, 58, 37, 20, 0, 0
|0, 50, 0, 0, 0, 10, 11, 0, 0, 0, 0, 0, 12, 41, 59, 0, 0, 53, 47, 0, 17, 0, 0, 15, 0, 0, 39, 0, 0, 0, 55, 7, 0, 54, 20, 21, 0, 0, 4, 29, 45, 52, 0, 0, 0, 0, 22, 0, 0, 31, 24, 0, 0, 19, 34, 62, 61, 43, 35, 32, 56, 0, 0, 0
|0, 0, 49, 35, 28, 25, 47, 0, 42, 11, 45, 61, 0, 32, 0, 0, 0, 0, 5, 2, 0, 63, 33, 0, 0, 43, 26, 0, 0, 0, 0, 0, 37, 0, 0, 0, 38, 6, 10, 39, 36, 46, 57, 0, 0, 0, 41, 0, 0, 0, 0, 44, 64, 12, 16, 0, 0, 30, 0, 0, 0, 0, 14, 0
|0, 0, 31, 27, 0, 0, 0, 42, 0, 0, 0, 52, 0, 30, 49, 0, 0, 38, 0, 0, 32, 0, 20, 0, 0, 0, 53, 44, 0, 0, 17, 62, 55, 0, 12, 28, 60, 0, 14, 0, 0, 0, 26, 0, 50, 63, 16, 0, 8, 0, 36, 0, 0, 0, 0, 59, 48, 0, 0, 0, 9, 45, 5, 0
|0, 40, 0, 0, 45, 41, 0, 64, 0, 0, 0, 0, 0, 0, 25, 0, 49, 0, 52, 0, 0, 0, 12, 7, 60, 0, 11, 47, 0, 0, 19, 10, 31, 0, 0, 56, 0, 36, 46, 53, 0, 0, 43, 27, 0, 0, 0, 0, 0, 0, 0, 0, 9, 0, 0, 0, 0, 0, 22, 54, 0, 0, 0, 0
|0, 8, 62, 26, 15, 60, 30, 0, 56, 57, 0, 0, 0, 44, 0, 0, 41, 43, 39, 0, 28, 42, 51, 0, 0, 52, 0, 16, 2, 63, 0, 31, 45, 0, 0, 23, 58, 0, 5, 17, 64, 0, 32, 0, 53, 0, 13, 6, 35, 11, 0, 0, 0, 0, 25, 29, 0, 10, 12, 0, 33, 38, 3, 0
|0, 0, 0, 32, 22, 54, 0, 14, 0, 0, 43, 0, 6, 0, 64, 39, 0, 0, 34, 36, 0, 10, 13, 29, 27, 12, 0, 0, 0, 58, 56, 0, 0, 48, 0, 16, 11, 52, 0, 25, 0, 0, 0, 37, 31, 42, 20, 0, 0, 50, 4, 18, 0, 17, 0, 28, 0, 63, 0, 53, 0, 0, 0, 47
|31, 47, 24, 20, 14, 0, 21, 6, 0, 32, 64, 0, 62, 0, 0, 0, 0, 0, 35, 8, 0, 0, 26, 34, 56, 16, 0, 0, 0, 38, 33, 0, 50, 0, 49, 0, 55, 17, 0, 36, 48, 0, 0, 0, 57, 5, 0, 63, 0, 61, 0, 0, 0, 0, 0, 40, 0, 44, 0, 0, 18, 39, 23, 9
|59, 0, 9, 0, 0, 0, 60, 30, 0, 0, 0, 36, 26, 5, 57, 0, 14, 0, 49, 0, 48, 1, 0, 58, 45, 0, 0, 27, 0, 17, 0, 0, 41, 0, 0, 11, 0, 0, 40, 13, 24, 0, 53, 0, 55, 20, 47, 12, 0, 0, 43, 37, 0, 0, 29, 0, 0, 33, 62, 4, 15, 10, 0, 0
|3, 0, 0, 0, 0, 52, 0, 0, 7, 25, 0, 19, 38, 0, 9, 0, 62, 0, 37, 0, 0, 59, 0, 4, 0, 11, 47, 0, 1, 64, 0, 61, 0, 27, 0, 20, 0, 0, 35, 31, 0, 0, 0, 0, 54, 0, 0, 44, 53, 0, 18, 0, 49, 0, 0, 5, 0, 0, 0, 0, 0, 60, 0, 0
|0, 0, 0, 18, 29, 0, 0, 0, 0, 0, 0, 0, 0, 0, 0, 15, 0, 0, 0, 0, 0, 0, 0, 16, 3, 0, 0, 30, 55, 0, 0, 0, 0, 44, 46, 0, 0, 0, 0, 56, 0, 37, 0, 35, 0, 0, 0, 62, 54, 0, 50, 26, 24, 20, 17, 0, 0, 5, 25, 0, 0, 0, 0, 38
|0, 0, 13, 0, 44, 0, 0, 0, 2, 0, 21, 58, 0, 0, 45, 16, 7, 0, 0, 38, 57, 0, 0, 31, 40, 48, 0, 41, 0, 35, 23, 0, 0, 37, 54, 0, 52, 0, 62, 30, 15, 25, 34, 14, 0, 22, 0, 0, 0, 10, 0, 11, 60, 1, 4, 9, 47, 0, 3, 8, 0, 36, 0, 20
|0, 0, 0, 0, 62, 11, 0, 0, 30, 0, 0, 0, 0, 0, 0, 54, 0, 9, 0, 3, 0, 0, 15, 46, 42, 21, 18, 0, 0, 0, 29, 53, 59, 57, 0, 19, 48, 0, 25, 6, 52, 0, 31, 0, 0, 0, 64, 0, 0, 45, 0, 0, 0, 0, 0, 0, 0, 0, 0, 2, 12, 0, 35, 22
|0, 33, 0, 4, 0, 0, 55, 0, 48, 46, 0, 17, 0, 63, 0, 0, 24, 0, 25, 0, 41, 0, 61, 18, 22, 0, 0, 20, 0, 0, 8, 0, 2, 0, 0, 0, 26, 0, 0, 0, 0, 36, 0, 13, 0, 27, 0, 0, 57, 0, 42, 0, 62, 47, 0, 14, 53, 19, 0, 50, 0, 0, 0, 0
|0, 0, 0, 25, 0, 0, 0, 0, 0, 10, 59, 13, 51, 61, 0, 37, 0, 0, 0, 0, 44, 45, 42, 56, 0, 0, 7, 62, 0, 0, 2, 46, 0, 5, 9, 0, 0, 16, 0, 32, 0, 0, 0, 0, 6, 8, 17, 0, 34, 64, 0, 52, 27, 0, 0, 0, 24, 0, 31, 0, 0, 28, 58, 43
|39, 0, 43, 0, 0, 0, 49, 3, 0, 0, 31, 2, 63, 38, 19, 55, 45, 0, 0, 25, 62, 11, 0, 0, 46, 20, 9, 0, 16, 37, 0, 0, 26, 0, 0, 0, 7, 0, 0, 0, 33, 0, 12, 0, 0, 47, 0, 56, 52, 34, 0, 58, 22, 0, 0, 44, 0, 54, 0, 0, 50, 23, 10, 17
|0, 4, 0, 12, 0, 36, 0, 0, 0, 54, 0, 8, 0, 22, 0, 0, 3, 32, 0, 61, 0, 0, 56, 30, 44, 0, 0, 0, 7, 6, 38, 0, 62, 0, 0, 0, 57, 40, 0, 0, 58, 34, 59, 0, 25, 0, 1, 10, 0, 20, 41, 0, 0, 0, 0, 24, 0, 0, 0, 60, 19, 0, 0, 16
|8, 1, 33, 45, 0, 0, 46, 0, 12, 6, 0, 56, 57, 0, 10, 0, 0, 0, 0, 0, 0, 17, 0, 0, 21, 0, 0, 36, 48, 39, 0, 59, 24, 0, 0, 0, 0, 0, 0, 0, 0, 20, 0, 11, 0, 32, 54, 16, 0, 0, 63, 27, 4, 31, 42, 55, 0, 0, 0, 0, 0, 35, 0, 64
|6, 16, 56, 0, 0, 0, 0, 20, 0, 15, 0, 64, 41, 58, 61, 17, 0, 0, 48, 26, 24, 40, 10, 0, 0, 0, 27, 0, 0, 47, 51, 0, 0, 23, 0, 49, 25, 13, 0, 0, 14, 4, 35, 0, 3, 0, 43, 29, 0, 0, 9, 38, 5, 62, 0, 57, 0, 32, 0, 0, 46, 0, 0, 0
|47, 32, 0, 54, 57, 2, 0, 0, 0, 0, 30, 0, 4, 25, 53, 0, 6, 34, 7, 18, 14, 0, 35, 44, 0, 0, 24, 1, 0, 0, 0, 0, 0, 10, 0, 60, 0, 11, 0, 19, 38, 0, 0, 46, 17, 0, 8, 26, 0, 40, 23, 56, 0, 28, 50, 0, 36, 31, 0, 0, 0, 48, 62, 0
|0, 0, 0, 0, 26, 0, 63, 5, 44, 0, 0, 60, 0, 0, 40, 59, 0, 0, 0, 0, 31, 0, 58, 28, 35, 0, 0, 0, 0, 56, 0, 25, 36, 32, 34, 4, 0, 20, 0, 0, 50, 48, 19, 0, 22, 64, 0, 0, 61, 16, 49, 33, 3, 6, 37, 11, 29, 39, 9, 0, 55, 47, 38, 45
|7, 58, 35, 60, 0, 14, 0, 0, 24, 0, 42, 21, 29, 0, 50, 3, 13, 20, 64, 54, 0, 0, 0, 0, 0, 63, 0, 0, 0, 0, 40, 17, 22, 6, 56, 0, 0, 0, 53, 46, 0, 9, 5, 0, 15, 0, 31, 0, 0, 2, 0, 0, 0, 0, 0, 47, 0, 61, 43, 0, 0, 33, 0, 0
|0, 0, 0, 19, 0, 0, 50, 40, 9, 26, 48, 0, 0, 34, 0, 0, 5, 0, 33, 47, 49, 0, 0, 0, 0, 0, 60, 15, 61, 0, 42, 0, 64, 0, 0, 63, 0, 0, 0, 0, 7, 0, 0, 55, 0, 0, 0, 2, 18, 0, 32, 0, 0, 0, 35, 17, 20, 0, 21, 56, 51, 0, 0, 0
|0, 0, 0, 36, 0, 29, 0, 0, 0, 14, 0, 3, 0, 0, 47, 57, 0, 56, 0, 32, 34, 0, 64, 23, 16, 0, 13, 0, 35, 25, 20, 0, 49, 0, 0, 0, 45, 0, 0, 0, 41, 18, 0, 0, 42, 30, 0, 0, 0, 60, 0, 0, 15, 0, 0, 21, 59, 8, 26, 0, 54, 51, 46, 0
|0, 21, 50, 0, 0, 19, 0, 0, 34, 7, 62, 10, 0, 8, 52, 0, 20, 0, 16, 33, 0, 2, 0, 0, 0, 0, 0, 0, 0, 0, 57, 0, 0, 0, 60, 35, 0, 0, 0, 0, 17, 12, 39, 0, 46, 13, 49, 55, 0, 44, 0, 32, 0, 36, 61, 48, 0, 0, 0, 15, 0, 0, 0, 37
|0, 0, 0, 3, 18, 39, 40, 55, 28, 21, 50, 30, 0, 64, 60, 49, 31, 0, 0, 0, 0, 0, 0, 5, 0, 61, 37, 46, 32, 0, 0, 0, 4, 42, 33, 0, 47, 19, 0, 0, 0, 0, 0, 59, 0, 44, 36, 0, 0, 0, 0, 0, 0, 0, 0, 63, 0, 0, 2, 35, 0, 0, 0, 0
|0, 0, 7, 9, 60, 0, 0, 0, 17, 0, 0, 42, 0, 0, 0, 25, 0, 0, 0, 24, 37, 35, 38, 12, 4, 0, 0, 0, 0, 0, 0, 47, 0, 0, 21, 0, 0, 50, 16, 0, 0, 0, 0, 29, 23, 0, 0, 15, 40, 54, 62, 0, 0, 0, 0, 46, 18, 0, 64, 0, 53, 0, 32, 0
|35, 2, 0, 0, 46, 0, 0, 47, 53, 0, 39, 0, 55, 0, 0, 0, 0, 62, 36, 0, 0, 0, 0, 0, 29, 58, 0, 60, 0, 0, 31, 64, 0, 0, 0, 54, 22, 0, 61, 0, 51, 0, 25, 0, 45, 0, 26, 27, 0, 0, 0, 24, 10, 0, 59, 0, 0, 41, 11, 0, 0, 34, 0, 0
|0, 54, 28, 15, 38, 0, 0, 33, 41, 0, 0, 24, 23, 0, 29, 56, 0, 18, 57, 0, 0, 14, 0, 0, 0, 0, 19, 0, 27, 0, 0, 0, 0, 0, 30, 0, 46, 0, 17, 26, 31, 0, 4, 0, 0, 0, 0, 5, 49, 13, 0, 51, 8, 35, 0, 16, 55, 0, 0, 25, 7, 0, 0, 61
|52, 30, 0, 0, 0, 34, 53, 0, 0, 31, 15, 35, 0, 59, 37, 0, 22, 46, 60, 0, 0, 0, 0, 0, 43, 0, 0, 49, 17, 0, 0, 44, 0, 0, 3, 51, 62, 0, 0, 8, 11, 0, 0, 0, 0, 16, 0, 40, 12, 0, 6, 47, 18, 29, 0, 0, 0, 0, 24, 0, 23, 9, 45, 57
|57, 0, 8, 37, 0, 0, 16, 0, 0, 38, 12, 0, 0, 0, 0, 51, 44, 0, 3, 0, 30, 55, 45, 0, 0, 28, 40, 18, 0, 0, 9, 0, 0, 15, 0, 13, 0, 24, 31, 0, 35, 22, 1, 19, 61, 0, 58, 47, 0, 0, 20, 0, 0, 27, 33, 2, 0, 0, 0, 0, 0, 63, 42, 0
|0, 14, 48, 0, 61, 21, 25, 0, 23, 49, 0, 40, 42, 54, 0, 0, 43, 0, 53, 34, 36, 22, 0, 0, 18, 0, 6, 0, 0, 0, 0, 0, 0, 0, 0, 8, 0, 0, 0, 62, 57, 0, 0, 10, 35, 0, 0, 0, 4, 12, 0, 0, 0, 0, 0, 0, 51, 0, 0, 47, 0, 58, 0, 2
|54, 36, 0, 0, 0, 63, 23, 62, 0, 0, 3, 20, 10, 12, 4, 0, 64, 0, 27, 59, 9, 0, 0, 0, 0, 0, 0, 14, 0, 30, 47, 22, 51, 0, 0, 48, 17, 0, 43, 0, 0, 0, 37, 0, 38, 26, 50, 1, 0, 0, 60, 35, 7, 13, 0, 33, 0, 40, 5, 0, 0, 0, 0, 18
|0, 0, 4, 0, 59, 18, 0, 26, 0, 41, 0, 0, 37, 21, 0, 47, 0, 35, 2, 0, 8, 0, 48, 0, 38, 0, 0, 0, 58, 12, 0, 3, 42, 0, 0, 30, 36, 0, 0, 0, 0, 6, 0, 0, 27, 52, 19, 0, 5, 62, 28, 55, 0, 0, 23, 0, 15, 0, 0, 0, 29, 13, 0, 50
|60, 37, 0, 0, 17, 0, 0, 8, 33, 58, 0, 5, 0, 0, 0, 0, 0, 0, 0, 0, 0, 19, 6, 0, 0, 0, 0, 21, 34, 51, 43, 27, 0, 0, 16, 0, 0, 0, 0, 0, 63, 0, 0, 0, 62, 0, 59, 0, 44, 3, 29, 0, 47, 18, 0, 42, 32, 23, 20, 0, 0, 22, 0, 54
|0, 0, 3, 28, 0, 0, 0, 0, 16, 0, 17, 34, 15, 0, 30, 64, 29, 0, 0, 51, 46, 0, 23, 0, 39, 42, 57, 0, 63, 61, 0, 60, 35, 0, 13, 0, 1, 44, 0, 0, 0, 47, 54, 18, 0, 0, 5, 0, 0, 6, 38, 41, 0, 22, 49, 52, 0, 45, 0, 48, 0, 0, 25, 0
|5, 49, 0, 0, 0, 43, 0, 0, 0, 24, 0, 31, 14, 0, 13, 60, 0, 52, 32, 0, 0, 30, 0, 20, 0, 62, 48, 23, 0, 45, 0, 15, 0, 19, 0, 0, 0, 22, 9, 27, 0, 0, 0, 0, 36, 0, 0, 0, 26, 63, 2, 0, 0, 0, 0, 50, 4, 17, 57, 38, 0, 55, 33, 35
|0, 0, 0, 40, 33, 47, 42, 0, 61, 52, 35, 0, 0, 26, 7, 44, 10, 0, 41, 0, 0, 0, 0, 17, 5, 49, 0, 0, 37, 53, 11, 0, 0, 0, 0, 0, 0, 59, 0, 60, 25, 0, 0, 0, 8, 0, 21, 13, 0, 19, 27, 36, 58, 0, 57, 45, 3, 62, 0, 0, 43, 0, 0, 46
|13, 35, 0, 58, 9, 31, 19, 38, 25, 0, 0, 45, 59, 57, 0, 0, 12, 0, 4, 62, 0, 37, 44, 0, 0, 0, 0, 0, 0, 40, 10, 0, 33, 0, 0, 0, 64, 0, 0, 0, 22, 0, 0, 0, 0, 0, 0, 0, 30, 0, 0, 34, 48, 0, 0, 0, 28, 16, 0, 0, 0, 0, 0, 0|];