order = 8;
grid = [|0, 0, 29, 0, 0, 17, 30, 59, 43, 21, 0, 31, 0, 52, 0, 10, 0, 40, 0, 63, 0, 62, 36, 0, 0, 0, 0, 0, 0, 54, 0, 3, 0, 0, 14, 24, 0, 7, 0, 18, 0, 27, 0, 9, 25, 4, 38, 44, 39, 0, 46, 20, 11, 58, 0, 0, 0, 0, 47, 56, 0, 22, 0, 60
|64, 0, 0, 57, 14, 9, 0, 0, 32, 0, 15, 26, 24, 0, 23, 4, 33, 20, 55, 47, 0, 60, 27, 0, 0, 18, 0, 45, 0, 31, 43, 0, 0, 0, 58, 0, 0, 5, 10, 8, 30, 0, 0, 0, 39, 0, 50, 46, 3, 44, 0, 0, 0, 54, 40, 28, 0, 0, 61, 0, 19, 0, 59, 0
|5, 56, 0, 16, 0, 0, 4, 6, 55, 0, 0, 30, 0, 0, 0, 0, 0, 18, 10, 0, 0, 12, 0, 9, 0, 14, 0, 0, 1, 13, 0, 0, 34, 45, 15, 59, 0, 0, 0, 0, 48, 0, 41, 0, 20, 0, 54, 19, 0, 0, 0, 50, 0, 64, 0, 35, 17, 0, 32, 0, 0, 0, 0, 51
|0, 0, 0, 0, 49, 0, 35, 0, 0, 53, 48, 0, 0, 0, 54, 0, 64, 0, 0, 0, 14, 7, 23, 0, 41, 9, 25, 0, 56, 40, 0, 0, 0, 0, 13, 1, 0, 0, 22, 17, 0, 0, 42, 0, 5, 10, 55, 18, 0, 15, 12, 0, 0, 32, 0, 0, 2, 0, 39, 6, 0, 58, 0, 0
|0, 22, 0, 58, 0, 27, 0, 0, 0, 0, 19, 0, 0, 41, 59, 50, 0, 45, 54, 2, 0, 0, 0, 49, 0, 26, 42, 0, 0, 53, 0, 38, 40, 31, 0, 3, 48, 23, 0, 0, 0, 0, 32, 24, 28, 33, 16, 0, 0, 21, 0, 43, 18, 0, 30, 0, 0, 0, 0, 0, 0, 25, 0, 35
|53, 40, 15, 45, 38, 0, 0, 0, 0, 64, 0, 0, 0, 60, 11, 20, 39, 43, 17, 0, 30, 0, 16, 0, 32, 6, 0, 44, 0, 0, 21, 10, 57, 0, 47, 0, 35, 0, 0, 0, 34, 22, 0, 0, 8, 26, 0, 0, 14, 13, 5, 49, 0, 0, 0, 0, 0, 0, 62, 7, 0, 18, 12, 0
|0, 39, 33, 44, 36, 0, 51, 18, 3, 0, 0, 47, 0, 35, 0, 7, 0, 42, 50, 0, 0, 21, 0, 0, 61, 0, 62, 0, 0, 59, 57, 0, 0, 0, 0, 0, 0, 0, 0, 0, 1, 13, 40, 12, 0, 43, 0, 29, 9, 41, 27, 8, 10, 0, 0, 48, 0, 0, 0, 15, 0, 30, 24, 0
|0, 0, 24, 8, 0, 0, 0, 11, 12, 0, 0, 0, 0, 0, 42, 0, 0, 29, 0, 0, 57, 32, 38, 0, 46, 0, 39, 19, 0, 55, 48, 20, 64, 0, 25, 0, 41, 52, 0, 9, 0, 0, 47, 15, 0, 56, 58, 0, 0, 0, 16, 0, 6, 17, 34, 4, 26, 45, 3, 0, 0, 0, 23, 0
|0, 4, 0, 11, 0, 37, 50, 46, 51, 0, 0, 0, 9, 0, 28, 0, 0, 0, 62, 0, 59, 0, 58, 30, 0, 27, 0, 0, 0, 0, 32, 44, 56, 0, 0, 40, 0, 0, 0, 21, 0, 29, 20, 0, 0, 0, 0, 7, 48, 53, 14, 64, 0, 49, 35, 0, 23, 25, 55, 0, 0, 16, 42, 0
|0, 0, 0, 0, 56, 0, 0, 0, 0, 15, 0, 0, 0, 19, 0, 0, 25, 0, 52, 0, 20, 0, 41, 16, 35, 12, 22, 0, 57, 6, 17, 0, 0, 23, 10, 0, 0, 28, 0, 44, 55, 37, 0, 18, 50, 0, 62, 0, 0, 38, 51, 0, 9, 63, 0, 58, 0, 53, 0, 0, 59, 64, 30, 0
|0, 0, 0, 0, 3, 32, 27, 60, 0, 0, 42, 0, 0, 14, 17, 18, 0, 0, 0, 0, 0, 0, 10, 51, 0, 15, 54, 0, 0, 0, 24, 21, 31, 30, 35, 20, 52, 0, 0, 0, 9, 46, 0, 0, 64, 1, 0, 34, 0, 45, 0, 33, 0, 43, 0, 13, 41, 0, 0, 19, 28, 4, 26, 0
|33, 0, 0, 0, 58, 0, 0, 0, 0, 0, 3, 0, 0, 0, 0, 0, 0, 0, 2, 23, 0, 0, 0, 0, 0, 40, 20, 0, 0, 0, 0, 19, 41, 0, 0, 0, 1, 6, 13, 0, 0, 0, 5, 0, 26, 14, 59, 57, 0, 52, 0, 0, 0, 22, 21, 0, 0, 9, 0, 46, 0, 54, 47, 0
|0, 0, 51, 0, 62, 22, 0, 0, 56, 0, 0, 0, 0, 0, 0, 0, 0, 19, 34, 0, 0, 50, 0, 32, 0, 45, 41, 0, 36, 14, 0, 55, 46, 0, 0, 42, 2, 9, 0, 12, 49, 23, 0, 38, 31, 13, 0, 58, 29, 47, 0, 27, 16, 60, 17, 0, 52, 0, 0, 0, 37, 20, 3, 18
|52, 18, 36, 23, 35, 19, 10, 0, 20, 57, 0, 27, 55, 47, 43, 58, 0, 4, 29, 0, 0, 0, 60, 0, 0, 42, 26, 0, 63, 0, 0, 46, 0, 62, 0, 34, 38, 24, 0, 45, 54, 32, 0, 17, 56, 53, 0, 0, 61, 0, 0, 0, 0, 41, 0, 5, 15, 0, 0, 13, 0, 0, 0, 0
|0, 43, 0, 0, 0, 7, 0, 0, 34, 0, 41, 0, 0, 0, 21, 0, 0, 14, 0, 0, 42, 6, 0, 57, 9, 31, 50, 0, 61, 56, 47, 0, 0, 0, 0, 64, 33, 4, 59, 37, 45, 16, 19, 0, 0, 0, 0, 0, 0, 62, 18, 0, 3, 0, 0, 20, 48, 0, 0, 2, 0, 60, 1, 36
|45, 41, 0, 42, 0, 44, 0, 0, 52, 0, 1, 38, 59, 0, 0, 0, 0, 0, 22, 27, 63, 0, 37, 13, 16, 43, 0, 8, 62, 23, 0, 53, 0, 36, 55, 54, 0, 0, 29, 19, 40, 0, 25, 30, 51, 2, 0, 11, 0, 0, 31, 26, 56, 12, 0, 0, 14, 21, 33, 0, 7, 0, 35, 17
|9, 32, 0, 0, 53, 0, 0, 4, 46, 0, 0, 0, 10, 44, 0, 0, 57, 0, 0, 36, 0, 0, 20, 21, 0, 56, 0, 0, 0, 0, 12, 0, 0, 0, 27, 61, 19, 0, 0, 0, 0, 0, 18, 0, 34, 0, 49, 6, 0, 59, 0, 55, 0, 0, 0, 3, 0, 16, 7, 0, 0, 24, 14, 0
|0, 11, 0, 48, 23, 42, 0, 0, 54, 0, 58, 0, 0, 0, 0, 24, 37, 47, 9, 0, 0, 0, 14, 0, 57, 0, 0, 0, 0, 0, 0, 0, 17, 0, 0, 45, 0, 62, 35, 0, 46, 0, 0, 0, 41, 36, 0, 3, 0, 0, 0, 4, 0, 52, 0, 0, 0, 0, 44, 1, 30, 27, 0, 0
|49, 0, 0, 52, 0, 55, 58, 41, 0, 0, 0, 0, 0, 1, 0, 51, 16, 0, 0, 0, 0, 56, 29, 23, 0, 0, 0, 48, 0, 0, 0, 30, 54, 0, 24, 53, 0, 57, 0, 0, 0, 43, 0, 47, 0, 27, 7, 0, 63, 0, 44, 0, 0, 0, 38, 0, 32, 0, 0, 0, 46, 2, 0, 22
|0, 7, 43, 12, 29, 56, 0, 0, 36, 18, 0, 0, 0, 34, 40, 0, 0, 48, 3, 0, 0, 0, 25, 0, 42, 0, 0, 0, 53, 0, 0, 0, 50, 21, 0, 30, 4, 0, 9, 51, 0, 0, 55, 0, 0, 0, 31, 0, 0, 0, 17, 0, 49, 0, 64, 46, 39, 0, 0, 47, 33, 0, 0, 0
|0, 5, 10, 0, 0, 33, 38, 0, 64, 0, 29, 55, 20, 30, 0, 0, 0, 0, 6, 0, 22, 0, 0, 1, 0, 0, 0, 7, 4, 0, 0, 0, 0, 59, 0, 0, 0, 0, 26, 0, 17, 53, 0, 8, 13, 48, 0, 0, 0, 57, 0, 0, 0, 23, 11, 31, 0, 0, 12, 3, 43, 0, 0, 45
|0, 2, 39, 14, 0, 0, 0, 0, 0, 17, 0, 0, 8, 0, 0, 3, 0, 55, 0, 30, 24, 40, 59, 50, 0, 41, 1, 63, 0, 0, 20, 51, 0, 0, 0, 36, 44, 33, 6, 0, 11, 56, 35, 57, 0, 0, 52, 54, 0, 28, 47, 37, 25, 9, 32, 27, 60, 62, 38, 26, 29, 19, 0, 0
|54, 50, 34, 0, 57, 25, 37, 0, 19, 52, 0, 0, 15, 28, 0, 0, 0, 35, 49, 0, 0, 0, 0, 53, 0, 0, 60, 0, 0, 0, 0, 24, 48, 0, 0, 56, 0, 0, 0, 32, 20, 0, 0, 29, 9, 0, 0, 0, 7, 2, 1, 0, 0, 8, 0, 39, 6, 0, 40, 0, 0, 0, 10, 0
|36, 27, 0, 59, 0, 0, 3, 0, 26, 31, 0, 43, 41, 0, 22, 62, 51, 39, 0, 5, 0, 52, 0, 0, 0, 0, 0, 6, 38, 0, 0, 45, 7, 47, 1, 0, 15, 16, 0, 55, 19, 0, 0, 4, 0, 0, 64, 0, 40, 0, 0, 0, 0, 0, 42, 53, 56, 0, 0, 11, 0, 9, 25, 49
|0, 0, 27, 0, 44, 2, 32, 62, 0, 0, 0, 0, 49, 0, 57, 5, 0, 10, 35, 38, 0, 47, 42, 0, 0, 0, 0, 53, 43, 51, 0, 12, 0, 0, 0, 0, 50, 0, 41, 0, 37, 0, 0, 0, 0, 0, 22, 36, 0, 8, 28, 21, 63, 0, 0, 15, 0, 23, 20, 0, 61, 46, 0, 3
|43, 10, 0, 0, 46, 0, 0, 0, 0, 14, 45, 21, 0, 24, 39, 0, 0, 9, 0, 0, 27, 0, 13, 0, 36, 32, 28, 49, 6, 63, 0, 34, 15, 8, 37, 0, 25, 0, 0, 11, 0, 52, 58, 0, 0, 31, 61, 0, 0, 19, 0, 0, 0, 0, 55, 0, 0, 0, 1, 41, 0, 0, 48, 29
|29, 42, 0, 34, 25, 0, 11, 20, 0, 33, 0, 15, 0, 0, 32, 26, 0, 0, 5, 62, 36, 0, 0, 0, 19, 0, 0, 18, 22, 46, 64, 48, 3, 0, 0, 0, 0, 0, 0, 47, 0, 35, 10, 55, 49, 39, 0, 0, 0, 58, 61, 0, 0, 0, 0, 0, 0, 0, 0, 0, 0, 0, 63, 0
|0, 0, 16, 19, 48, 0, 36, 35, 37, 0, 0, 46, 31, 7, 0, 61, 22, 0, 30, 0, 0, 0, 52, 25, 39, 47, 55, 0, 0, 44, 0, 0, 12, 53, 0, 49, 0, 32, 0, 59, 0, 60, 0, 28, 14, 0, 43, 0, 54, 3, 0, 0, 26, 0, 0, 11, 0, 0, 0, 0, 27, 0, 9, 38
|0, 0, 0, 0, 0, 51, 15, 21, 27, 59, 12, 0, 0, 0, 6, 0, 0, 0, 0, 0, 0, 64, 0, 0, 8, 38, 57, 0, 33, 35, 0, 0, 42, 0, 29, 7, 0, 0, 61, 0, 41, 0, 0, 0, 3, 0, 0, 0, 0, 14, 9, 10, 0, 0, 0, 25, 58, 0, 0, 32, 0, 49, 0, 28
|0, 45, 3, 53, 0, 0, 7, 0, 11, 0, 13, 9, 0, 62, 63, 36, 31, 51, 0, 0, 2, 0, 0, 6, 56, 21, 0, 27, 0, 0, 23, 0, 0, 0, 0, 0, 54, 10, 46, 58, 0, 0, 0, 0, 0, 0, 0, 0, 0, 0, 0, 57, 0, 42, 49, 17, 0, 24, 30, 52, 0, 0, 0, 64
|17, 0, 0, 31, 0, 13, 33, 0, 0, 0, 54, 3, 0, 10, 58, 35, 0, 0, 0, 0, 41, 0, 0, 0, 0, 0, 11, 37, 0, 0, 15, 50, 0, 18, 6, 57, 21, 0, 0, 23, 0, 4, 0, 46, 27, 0, 0, 0, 1, 0, 38, 56, 0, 0, 0, 40, 0, 0, 59, 0, 0, 0, 55, 2
|41, 0, 49, 37, 0, 50, 59, 14, 47, 0, 28, 8, 19, 0, 0, 0, 0, 0, 0, 16, 0, 57, 45, 15, 20, 0, 10, 0, 0, 0, 54, 9, 0, 24, 31, 44, 27, 0, 0, 0, 18, 0, 33, 0, 0, 0, 21, 0, 0, 0, 43, 0, 12, 53, 0, 32, 0, 0, 0, 0, 0, 0, 0, 13
|0, 49, 62, 3, 16, 0, 40, 0, 0, 0, 34, 0, 0, 26, 0, 0, 14, 37, 56, 0, 7, 0, 0, 27, 0, 0, 0, 15, 54, 21, 55, 39, 0, 0, 0, 0, 23, 58, 0, 0, 8, 11, 0, 64, 44, 0, 0, 9, 10, 0, 41, 0, 46, 31, 0, 0, 0, 0, 0, 48, 22, 47, 43, 0
|25, 0, 17, 0, 32, 41, 14, 0, 42, 0, 0, 0, 43, 0, 0, 0, 6, 0, 23, 0, 0, 58, 47, 26, 0, 44, 0, 0, 19, 0, 13, 0, 0, 38, 48, 0, 34, 39, 0, 0, 27, 51, 56, 3, 36, 0, 0, 37, 16, 22, 0, 9, 20, 5, 0, 63, 53, 61, 0, 0, 0, 0, 49, 0
|38, 44, 0, 0, 13, 0, 28, 39, 31, 23, 0, 24, 0, 58, 0, 6, 0, 1, 33, 0, 60, 0, 0, 0, 43, 64, 0, 0, 32, 0, 0, 22, 61, 0, 0, 37, 0, 0, 0, 14, 7, 50, 0, 0, 0, 59, 18, 16, 30, 25, 0, 19, 4, 35, 8, 36, 0, 0, 42, 0, 0, 0, 27, 0
|7, 0, 58, 43, 0, 0, 0, 2, 0, 0, 53, 36, 44, 18, 60, 49, 17, 28, 0, 0, 10, 0, 0, 63, 0, 0, 8, 57, 29, 61, 3, 42, 0, 40, 0, 15, 0, 0, 0, 0, 0, 0, 52, 0, 0, 38, 46, 13, 11, 0, 0, 0, 0, 47, 12, 34, 0, 51, 0, 0, 35, 0, 31, 39
|0, 0, 35, 0, 10, 0, 34, 24, 0, 30, 0, 0, 37, 0, 0, 0, 0, 57, 0, 0, 32, 42, 0, 0, 50, 62, 18, 0, 0, 12, 0, 0, 36, 52, 0, 16, 63, 46, 1, 0, 0, 0, 49, 40, 0, 0, 26, 0, 0, 0, 6, 0, 14, 61, 0, 56, 19, 0, 0, 8, 9, 59, 0, 0
|27, 0, 0, 56, 0, 0, 0, 0, 0, 0, 17, 0, 39, 16, 20, 21, 30, 2, 0, 61, 62, 51, 15, 38, 4, 0, 0, 0, 24, 58, 59, 33, 0, 0, 53, 0, 0, 29, 0, 22, 35, 0, 0, 0, 0, 0, 0, 0, 43, 49, 0, 44, 0, 3, 0, 37, 0, 28, 0, 18, 0, 6, 36, 23
|0, 0, 0, 30, 42, 0, 0, 23, 13, 0, 0, 52, 0, 33, 9, 0, 0, 49, 43, 0, 18, 0, 0, 0, 27, 37, 0, 0, 0, 41, 0, 31, 0, 54, 0, 0, 0, 0, 0, 3, 22, 0, 1, 0, 0, 34, 20, 0, 21, 0, 7, 38, 0, 0, 0, 0, 45, 0, 17, 0, 0, 0, 32, 0
|0, 0, 18, 0, 4, 61, 0, 52, 0, 19, 0, 0, 47, 15, 64, 63, 9, 13, 40, 12, 25, 16, 0, 11, 45, 10, 0, 0, 0, 0, 34, 0, 0, 35, 21, 0, 0, 8, 0, 49, 0, 0, 0, 31, 60, 62, 6, 0, 0, 23, 54, 28, 0, 39, 0, 0, 3, 0, 41, 0, 2, 0, 44, 0
|8, 0, 44, 0, 24, 64, 0, 36, 0, 12, 43, 0, 13, 57, 0, 0, 0, 0, 21, 9, 58, 0, 18, 45, 53, 49, 0, 0, 5, 39, 27, 6, 0, 56, 0, 23, 40, 2, 11, 41, 16, 15, 0, 32, 0, 0, 29, 25, 50, 31, 0, 17, 34, 0, 0, 10, 33, 35, 0, 62, 3, 0, 0, 19
|2, 0, 0, 41, 0, 43, 56, 0, 0, 49, 59, 54, 0, 3, 0, 52, 29, 33, 4, 0, 64, 0, 0, 62, 60, 0, 46, 0, 13, 36, 40, 63, 0, 51, 0, 26, 0, 45, 53, 15, 0, 48, 38, 10, 61, 50, 27, 0, 8, 0, 11, 42, 23, 44, 0, 0, 0, 0, 37, 14, 20, 0, 0, 32
|35, 38, 50, 7, 0, 15, 0, 32, 0, 0, 36, 0, 0, 0, 0, 47, 10, 0, 0, 40, 61, 5, 0, 0, 0, 34, 0, 17, 0, 43, 16, 0, 60, 25, 46, 0, 0, 0, 0, 54, 24, 41, 9, 39, 0, 0, 37, 0, 13, 6, 48, 0, 28, 55, 33, 0, 0, 0, 0, 4, 0, 0, 0, 52
|4, 0, 0, 18, 60, 0, 29, 0, 8, 32, 0, 0, 14, 63, 0, 0, 2, 24, 0, 11, 19, 15, 0, 0, 64, 0, 0, 51, 23, 57, 61, 0, 6, 48, 0, 38, 0, 0, 0, 0, 13, 0, 0, 52, 0, 22, 44, 0, 20, 37, 0, 53, 36, 0, 0, 54, 43, 0, 5, 0, 0, 34, 28, 0
|57, 31, 26, 0, 0, 23, 62, 33, 0, 0, 18, 56, 0, 0, 44, 0, 0, 54, 0, 48, 0, 0, 49, 52, 7, 0, 0, 10, 0, 32, 25, 0, 29, 17, 0, 0, 0, 34, 0, 0, 0, 5, 21, 0, 0, 46, 36, 0, 38, 43, 0, 40, 51, 14, 4, 1, 0, 0, 0, 0, 0, 13, 39, 0
|39, 0, 0, 27, 0, 0, 0, 0, 0, 0, 7, 2, 0, 25, 0, 28, 0, 22, 53, 31, 43, 30, 6, 0, 0, 0, 29, 35, 15, 0, 0, 0, 10, 1, 0, 52, 0, 0, 0, 36, 59, 26, 0, 34, 0, 54, 45, 8, 19, 9, 24, 0, 21, 46, 47, 0, 38, 0, 50, 0, 60, 0, 41, 44
|13, 0, 0, 40, 11, 46, 0, 0, 21, 39, 0, 0, 29, 0, 0, 0, 32, 0, 60, 51, 50, 0, 56, 0, 38, 19, 0, 42, 0, 0, 0, 8, 0, 7, 59, 43, 24, 0, 0, 0, 0, 33, 64, 0, 18, 55, 0, 14, 0, 0, 0, 0, 27, 15, 16, 49, 36, 47, 58, 0, 25, 1, 0, 0
|47, 59, 0, 54, 0, 49, 45, 53, 0, 46, 38, 0, 64, 0, 24, 0, 63, 27, 0, 0, 16, 37, 0, 36, 14, 52, 0, 31, 48, 0, 0, 41, 0, 58, 0, 39, 55, 0, 0, 0, 0, 0, 0, 0, 43, 19, 0, 35, 62, 32, 0, 5, 57, 0, 25, 2, 0, 8, 15, 23, 18, 12, 0, 0
|3, 58, 56, 24, 0, 0, 17, 27, 38, 0, 47, 33, 0, 0, 0, 0, 0, 0, 0, 22, 0, 0, 0, 7, 1, 0, 0, 41, 0, 60, 0, 0, 18, 44, 20, 0, 0, 0, 50, 13, 0, 0, 31, 37, 0, 63, 42, 0, 0, 0, 0, 0, 0, 11, 0, 0, 0, 0, 0, 0, 52, 0, 62, 9
|0, 0, 32, 21, 5, 48, 2, 29, 30, 0, 46, 0, 1, 42, 37, 0, 62, 0, 38, 0, 17, 31, 0, 0, 0, 0, 0, 0, 9, 0, 6, 0, 0, 49, 52, 12, 0, 0, 57, 0, 0, 8, 22, 25, 0, 0, 11, 0, 28, 0, 0, 23, 0, 26, 56, 0, 0, 0, 0, 55, 0, 0, 0, 34
|44, 12, 37, 0, 22, 62, 63, 0, 0, 8, 21, 39, 0, 0, 34, 17, 24, 0, 0, 0, 52, 0, 0, 35, 0, 0, 38, 26, 0, 0, 56, 0, 0, 0, 7, 31, 53, 47, 60, 2, 36, 19, 50, 1, 0, 64, 14, 0, 49, 0, 0, 41, 0, 25, 6, 45, 42, 46, 0, 0, 13, 0, 40, 0
|0, 53, 41, 0, 59, 47, 0, 0, 0, 3, 0, 0, 35, 6, 0, 43, 4, 63, 37, 0, 0, 44, 48, 64, 0, 0, 0, 0, 0, 42, 0, 62, 11, 0, 56, 0, 29, 0, 19, 0, 0, 0, 16, 45, 17, 58, 60, 27, 0, 0, 0, 32, 0, 50, 46, 22, 0, 38, 2, 21, 8, 0, 18, 0
|10, 57, 45, 46, 28, 14, 9, 8, 24, 0, 25, 22, 0, 48, 0, 59, 0, 0, 0, 0, 0, 0, 54, 3, 0, 36, 63, 0, 0, 0, 33, 7, 37, 64, 0, 0, 0, 0, 0, 0, 29, 62, 23, 51, 0, 0, 5, 61, 12, 0, 19, 0, 58, 38, 60, 30, 0, 0, 0, 27, 32, 0, 15, 0
|18, 0, 60, 6, 52, 0, 25, 0, 0, 0, 0, 51, 0, 0, 0, 0, 0, 0, 16, 0, 0, 39, 0, 34, 0, 2, 0, 11, 46, 0, 0, 64, 58, 0, 45, 0, 0, 38, 30, 0, 26, 0, 0, 0, 0, 24, 32, 0, 0, 0, 62, 0, 0, 21, 43, 0, 0, 0, 0, 0, 0, 0, 0, 0
|34, 26, 0, 13, 0, 39, 55, 0, 14, 0, 0, 0, 0, 0, 36, 0, 0, 0, 19, 60, 0, 59, 12, 47, 0, 0, 31, 50, 35, 0, 58, 32, 0, 0, 8, 0, 0, 0, 21, 0, 0, 0, 46, 0, 0, 0, 28, 56, 37, 33, 0, 24, 0, 0, 0, 0, 0, 0, 0, 0, 64, 0, 4, 53
|0, 0, 0, 64, 50, 0, 43, 0, 0, 0, 0, 0, 54, 0, 18, 0, 21, 0, 0, 0, 0, 14, 2, 20, 0, 0, 0, 0, 0, 0, 0, 13, 35, 9, 0, 0, 62, 0, 0, 63, 38, 44, 0, 0, 0, 0, 48, 0, 0, 17, 0, 59, 53, 0, 3, 0, 57, 0, 28, 0, 0, 33, 60, 0
|0, 0, 11, 0, 0, 0, 0, 31, 0, 7, 0, 0, 26, 0, 0, 0, 0, 62, 0, 42, 0, 0, 0, 0, 52, 1, 0, 0, 10, 0, 0, 57, 0, 29, 0, 9, 8, 0, 23, 0, 0, 0, 0, 6, 0, 16, 56, 22, 18, 0, 53, 0, 0, 51, 0, 0, 27, 49, 0, 0, 0, 3, 0, 33
|14, 52, 0, 10, 0, 0, 42, 0, 18, 0, 0, 0, 0, 21, 2, 25, 34, 0, 0, 0, 0, 0, 40, 0, 0, 39, 0, 32, 51, 48, 0, 0, 0, 19, 30, 0, 0, 0, 54, 35, 0, 0, 29, 50, 0, 5, 63, 0, 0, 36, 20, 13, 37, 0, 57, 43, 0, 0, 60, 12, 0, 31, 0, 0
|23, 0, 0, 35, 0, 53, 57, 38, 17, 0, 0, 19, 0, 0, 1, 56, 0, 52, 26, 6, 39, 49, 0, 0, 0, 63, 0, 0, 25, 0, 37, 0, 13, 33, 3, 0, 31, 0, 0, 60, 43, 42, 0, 0, 45, 9, 0, 0, 0, 11, 0, 0, 47, 0, 0, 16, 0, 0, 10, 44, 0, 50, 8, 0
|48, 46, 0, 0, 43, 6, 54, 0, 0, 0, 52, 41, 30, 0, 33, 0, 13, 0, 0, 14, 3, 45, 0, 59, 11, 0, 27, 56, 0, 0, 28, 49, 0, 0, 0, 0, 0, 53, 37, 25, 0, 0, 0, 0, 19, 0, 0, 55, 42, 0, 0, 0, 39, 40, 63, 0, 0, 0, 0, 0, 0, 0, 0, 21
|21, 51, 7, 36, 0, 29, 39, 45, 0, 0, 0, 5, 3, 13, 46, 23, 19, 0, 48, 1, 0, 54, 0, 0, 0, 53, 2, 12, 8, 0, 0, 0, 24, 0, 0, 0, 16, 0, 0, 0, 28, 0, 0, 49, 0, 60, 0, 17, 0, 0, 33, 0, 44, 0, 0, 55, 11, 0, 0, 40, 26, 0, 0, 0
|63, 60, 8, 32, 0, 28, 0, 0, 0, 43, 27, 0, 0, 0, 0, 31, 0, 0, 25, 0, 0, 0, 55, 37, 47, 35, 64, 0, 42, 38, 45, 0, 39, 0, 0, 0, 0, 41, 0, 20, 0, 0, 0, 21, 52, 18, 34, 2, 0, 24, 0, 0, 19, 0, 59, 7, 0, 0, 0, 0, 0, 57, 56, 0
|0, 0, 0, 20, 15, 58, 49, 0, 0, 0, 0, 4, 0, 55, 14, 0, 0, 0, 36, 0, 0, 0, 0, 5, 30, 46, 0, 16, 31, 29, 0, 0, 0, 0, 26, 0, 0, 64, 0, 0, 0, 7, 0, 0, 0, 11, 1, 23, 0, 27, 0, 52, 0, 28, 9, 38, 0, 0, 45, 0, 17, 43, 0, 25
|0, 0, 0, 17, 41, 5, 0, 56, 0, 0, 0, 59, 0, 0, 53, 8, 44, 0, 0, 29, 51, 0, 57, 0, 0, 55, 0, 0, 20, 33, 0, 0, 1, 15, 12, 2, 0, 40, 38, 52, 0, 0, 4, 26, 0, 25, 0, 0, 58, 61, 0, 54, 32, 0, 0, 0, 0, 0, 0, 9, 0, 28, 34, 42|];