order = 8;
grid = [|49, 0, 19, 0, 64, 26, 6, 38, 0, 0, 0, 0, 0, 44, 12, 0, 0, 3, 0, 16, 0, 0, 59, 0, 0, 35, 0, 48, 0, 0, 0, 0, 0, 51, 0, 24, 37, 57, 0, 0, 0, 17, 58, 0, 36, 23, 53, 0, 0, 25, 11, 30, 15, 8, 0, 39, 40, 0, 0, 50, 0, 31, 1, 62
|0, 0, 33, 0, 0, 0, 0, 39, 0, 0, 0, 0, 11, 41, 0, 0, 50, 0, 0, 9, 53, 0, 0, 0, 0, 30, 0, 5, 0, 0, 0, 46, 64, 0, 0, 62, 0, 13, 6, 0, 29, 25, 51, 0, 40, 0, 0, 0, 0, 0, 45, 0, 59, 0, 21, 1, 0, 0, 56, 0, 17, 20, 19, 38
|0, 47, 56, 0, 0, 0, 0, 0, 0, 31, 0, 48, 64, 17, 0, 0, 0, 0, 27, 25, 54, 6, 14, 28, 0, 0, 0, 0, 0, 23, 22, 0, 50, 0, 0, 0, 20, 0, 0, 0, 32, 55, 0, 33, 0, 0, 0, 34, 36, 40, 12, 0, 41, 0, 16, 0, 3, 0, 0, 59, 0, 0, 21, 57
|0, 4, 0, 0, 63, 0, 0, 34, 0, 26, 40, 16, 0, 0, 22, 25, 0, 0, 0, 0, 0, 0, 0, 0, 19, 29, 0, 55, 0, 0, 0, 0, 27, 0, 5, 47, 10, 59, 58, 0, 0, 37, 0, 38, 43, 21, 39, 35, 0, 54, 0, 57, 0, 0, 28, 46, 48, 0, 36, 0, 0, 0, 0, 0
|0, 0, 32, 0, 0, 25, 11, 57, 0, 1, 0, 0, 37, 35, 0, 19, 39, 0, 0, 0, 0, 0, 0, 51, 64, 0, 28, 0, 0, 0, 0, 6, 0, 0, 0, 12, 49, 36, 0, 0, 0, 13, 3, 0, 31, 8, 0, 14, 0, 0, 27, 0, 0, 0, 0, 60, 0, 63, 18, 0, 0, 0, 0, 53
|13, 0, 5, 0, 10, 1, 0, 48, 15, 3, 46, 0, 52, 2, 0, 0, 34, 64, 63, 47, 22, 0, 56, 0, 0, 0, 26, 0, 17, 36, 0, 0, 0, 14, 0, 0, 25, 0, 29, 9, 18, 41, 0, 57, 11, 27, 19, 0, 0, 35, 50, 32, 51, 53, 0, 0, 0, 6, 60, 12, 24, 0, 30, 43
|20, 21, 0, 60, 23, 50, 0, 41, 30, 51, 0, 0, 0, 0, 18, 58, 0, 29, 4, 0, 0, 48, 55, 37, 53, 0, 2, 11, 0, 0, 0, 54, 0, 22, 0, 38, 52, 46, 0, 0, 42, 1, 61, 0, 0, 0, 0, 9, 0, 0, 0, 31, 0, 13, 3, 43, 0, 0, 0, 0, 0, 28, 32, 0
|0, 0, 9, 0, 0, 12, 0, 2, 0, 0, 0, 57, 13, 0, 0, 28, 36, 26, 0, 45, 35, 17, 24, 0, 3, 15, 0, 56, 25, 0, 49, 0, 0, 39, 11, 0, 0, 0, 0, 43, 48, 6, 62, 0, 0, 0, 16, 20, 44, 0, 55, 58, 0, 0, 19, 0, 0, 0, 5, 0, 0, 37, 10, 51
|25, 0, 0, 0, 55, 2, 0, 0, 0, 4, 8, 61, 24, 45, 33, 3, 0, 16, 28, 51, 0, 53, 29, 0, 9, 0, 6, 0, 23, 0, 31, 0, 10, 27, 44, 56, 0, 35, 22, 63, 20, 60, 59, 7, 37, 11, 36, 40, 0, 0, 41, 1, 26, 42, 0, 54, 0, 48, 34, 46, 0, 64, 0, 13
|12, 0, 0, 0, 0, 0, 0, 59, 0, 0, 22, 0, 38, 0, 49, 11, 0, 14, 0, 0, 0, 4, 0, 0, 0, 0, 0, 0, 40, 43, 0, 10, 6, 28, 0, 41, 0, 51, 47, 29, 0, 0, 54, 0, 13, 34, 0, 0, 35, 0, 19, 37, 7, 0, 5, 0, 0, 0, 24, 0, 20, 0, 0, 23
|60, 64, 0, 0, 62, 27, 22, 0, 0, 6, 0, 53, 0, 0, 0, 0, 32, 0, 61, 46, 0, 37, 0, 47, 25, 0, 0, 0, 0, 42, 8, 0, 13, 2, 0, 34, 0, 0, 16, 0, 0, 0, 0, 0, 0, 29, 51, 56, 63, 10, 0, 0, 23, 44, 49, 30, 0, 17, 40, 21, 41, 33, 0, 0
|10, 54, 0, 57, 0, 41, 0, 0, 56, 47, 42, 21, 0, 30, 0, 60, 19, 63, 52, 0, 13, 44, 22, 45, 38, 27, 5, 0, 39, 59, 0, 0, 0, 0, 0, 43, 9, 0, 8, 36, 23, 26, 0, 0, 62, 3, 0, 0, 0, 0, 0, 0, 40, 14, 0, 34, 11, 0, 0, 0, 2, 0, 61, 0
|26, 0, 52, 20, 7, 63, 32, 18, 46, 0, 0, 0, 19, 0, 16, 64, 24, 0, 36, 40, 0, 0, 17, 15, 51, 0, 0, 0, 48, 0, 60, 0, 0, 45, 62, 39, 53, 0, 31, 42, 49, 27, 0, 28, 0, 35, 0, 0, 13, 0, 0, 2, 57, 11, 43, 0, 0, 56, 55, 9, 0, 0, 0, 0
|0, 0, 0, 43, 11, 0, 0, 0, 0, 0, 0, 0, 0, 0, 31, 0, 57, 0, 64, 0, 0, 7, 0, 34, 33, 47, 56, 32, 0, 0, 0, 0, 0, 24, 0, 0, 30, 60, 0, 40, 0, 0, 18, 0, 46, 5, 0, 2, 27, 0, 36, 21, 0, 0, 61, 51, 0, 0, 0, 0, 0, 0, 63, 8
|0, 23, 31, 0, 16, 0, 0, 46, 2, 29, 0, 44, 15, 63, 0, 0, 0, 0, 0, 39, 0, 0, 0, 0, 0, 0, 45, 22, 0, 64, 18, 0, 4, 1, 0, 0, 0, 37, 0, 0, 53, 58, 0, 0, 19, 0, 6, 0, 48, 0, 9, 0, 0, 0, 0, 3, 26, 0, 25, 7, 57, 0, 0, 0
|0, 14, 37, 0, 17, 0, 34, 4, 0, 18, 0, 20, 0, 13, 0, 23, 55, 30, 0, 0, 50, 0, 0, 6, 41, 24, 62, 0, 0, 0, 61, 0, 49, 48, 7, 64, 46, 0, 0, 0, 9, 0, 0, 0, 0, 0, 0, 0, 0, 0, 8, 0, 33, 45, 60, 0, 10, 15, 0, 27, 35, 0, 0, 0
|0, 0, 18, 0, 61, 0, 0, 6, 0, 53, 51, 64, 0, 14, 27, 0, 48, 47, 0, 0, 24, 0, 0, 0, 26, 0, 0, 0, 0, 1, 4, 0, 0, 49, 9, 40, 0, 20, 0, 8, 56, 0, 0, 0, 0, 0, 0, 16, 0, 0, 59, 45, 0, 5, 0, 0, 0, 35, 43, 3, 0, 38, 0, 33
|3, 45, 60, 2, 40, 37, 0, 62, 0, 36, 35, 0, 0, 0, 0, 0, 0, 17, 0, 0, 0, 5, 54, 0, 0, 32, 20, 8, 0, 30, 7, 0, 16, 0, 34, 0, 0, 0, 14, 46, 0, 0, 0, 0, 61, 58, 18, 0, 47, 0, 56, 53, 12, 28, 0, 0, 0, 0, 0, 48, 0, 63, 42, 59
|0, 52, 0, 0, 0, 0, 0, 0, 26, 0, 61, 0, 55, 3, 59, 15, 40, 0, 51, 0, 12, 20, 31, 0, 0, 0, 0, 0, 16, 50, 0, 0, 5, 36, 43, 0, 11, 41, 0, 0, 0, 0, 0, 0, 44, 39, 57, 24, 0, 0, 0, 0, 0, 0, 29, 0, 0, 30, 45, 0, 0, 0, 0, 0
|41, 0, 0, 0, 0, 33, 48, 0, 0, 0, 0, 0, 63, 0, 0, 0, 14, 9, 0, 0, 30, 0, 0, 13, 52, 0, 0, 0, 0, 35, 64, 0, 45, 18, 0, 37, 17, 0, 0, 0, 3, 62, 36, 34, 2, 0, 29, 60, 40, 0, 1, 15, 49, 0, 0, 0, 0, 47, 20, 61, 0, 0, 0, 0
|0, 36, 0, 0, 0, 0, 30, 0, 0, 48, 62, 0, 39, 47, 52, 4, 0, 50, 0, 37, 8, 56, 0, 0, 22, 0, 0, 0, 0, 38, 0, 24, 0, 12, 0, 3, 0, 27, 0, 0, 0, 0, 0, 0, 1, 0, 0, 0, 6, 21, 0, 43, 16, 0, 58, 0, 46, 0, 0, 0, 10, 44, 57, 0
|47, 59, 0, 12, 19, 0, 1, 0, 54, 0, 23, 0, 0, 57, 44, 0, 53, 34, 42, 0, 0, 45, 33, 0, 0, 0, 0, 0, 0, 51, 37, 56, 60, 0, 0, 6, 38, 0, 0, 35, 26, 64, 46, 31, 8, 40, 0, 0, 25, 0, 18, 0, 9, 41, 0, 32, 0, 5, 0, 0, 4, 0, 0, 36
|0, 11, 0, 0, 0, 0, 31, 0, 0, 58, 0, 40, 41, 24, 0, 0, 26, 0, 25, 32, 18, 0, 49, 0, 36, 0, 0, 0, 0, 3, 0, 13, 0, 0, 39, 53, 47, 0, 15, 0, 0, 0, 0, 0, 12, 45, 22, 23, 0, 4, 0, 0, 48, 0, 0, 61, 0, 64, 0, 16, 0, 0, 0, 0
|50, 0, 26, 55, 4, 28, 20, 0, 7, 0, 12, 9, 0, 6, 29, 0, 0, 0, 0, 0, 0, 15, 0, 63, 23, 0, 60, 40, 21, 19, 34, 18, 0, 0, 30, 0, 0, 0, 56, 0, 54, 0, 0, 47, 51, 42, 0, 0, 38, 0, 0, 0, 0, 33, 0, 14, 52, 0, 0, 58, 37, 0, 0, 0
|5, 31, 44, 37, 0, 0, 0, 0, 39, 54, 0, 35, 4, 0, 48, 0, 61, 0, 9, 0, 23, 0, 57, 58, 0, 0, 29, 0, 0, 0, 36, 0, 0, 43, 0, 46, 59, 8, 0, 62, 0, 0, 0, 49, 63, 0, 0, 28, 22, 0, 2, 34, 30, 6, 41, 0, 53, 14, 0, 0, 45, 0, 0, 0
|54, 38, 59, 32, 20, 0, 35, 28, 33, 23, 0, 0, 0, 7, 0, 0, 0, 0, 34, 0, 29, 60, 42, 39, 0, 53, 0, 0, 49, 48, 10, 52, 36, 50, 3, 0, 2, 0, 0, 14, 0, 45, 0, 40, 0, 30, 25, 58, 51, 37, 5, 56, 27, 46, 24, 0, 0, 55, 61, 0, 26, 0, 0, 0
|0, 0, 46, 29, 0, 0, 42, 21, 58, 24, 6, 0, 5, 0, 37, 31, 0, 52, 30, 0, 45, 0, 0, 0, 0, 4, 7, 0, 0, 0, 2, 0, 0, 32, 0, 23, 0, 28, 27, 53, 41, 0, 0, 14, 0, 0, 0, 57, 0, 0, 43, 0, 1, 0, 0, 25, 0, 0, 0, 10, 0, 50, 0, 17
|63, 30, 0, 25, 33, 0, 61, 14, 20, 0, 34, 27, 26, 0, 13, 0, 0, 0, 0, 18, 48, 50, 15, 0, 57, 19, 0, 0, 58, 0, 45, 0, 0, 0, 0, 0, 55, 39, 54, 0, 2, 42, 0, 3, 53, 62, 10, 22, 0, 60, 0, 0, 0, 0, 38, 0, 0, 9, 21, 4, 0, 1, 0, 37
|0, 0, 0, 52, 0, 0, 0, 0, 3, 44, 43, 0, 36, 0, 0, 40, 0, 6, 0, 53, 0, 51, 0, 0, 30, 14, 0, 0, 31, 17, 39, 22, 0, 5, 21, 61, 48, 0, 20, 15, 0, 47, 50, 0, 0, 0, 9, 32, 0, 63, 62, 0, 19, 18, 0, 35, 57, 59, 0, 0, 16, 41, 0, 2
|19, 0, 53, 0, 0, 55, 41, 15, 28, 17, 25, 0, 0, 61, 0, 0, 0, 62, 24, 0, 10, 0, 32, 14, 47, 0, 0, 44, 0, 12, 0, 5, 0, 0, 0, 0, 42, 0, 0, 18, 0, 23, 27, 0, 54, 0, 34, 0, 0, 0, 3, 0, 0, 57, 0, 0, 58, 0, 0, 0, 0, 0, 0, 0
|40, 0, 39, 4, 0, 58, 0, 43, 0, 0, 53, 60, 29, 15, 0, 10, 0, 55, 0, 19, 47, 0, 0, 33, 20, 0, 25, 0, 24, 28, 0, 63, 0, 37, 0, 31, 45, 52, 0, 11, 44, 0, 5, 0, 0, 38, 0, 51, 21, 32, 0, 0, 0, 0, 0, 26, 23, 18, 0, 49, 34, 48, 0, 0
|0, 34, 51, 23, 57, 0, 3, 0, 62, 64, 52, 50, 0, 0, 0, 0, 0, 2, 1, 0, 0, 38, 0, 31, 54, 0, 0, 61, 41, 55, 0, 0, 0, 60, 0, 22, 0, 6, 0, 19, 0, 29, 0, 46, 0, 17, 0, 0, 0, 49, 53, 0, 4, 0, 0, 12, 0, 44, 0, 5, 15, 24, 39, 25
|9, 22, 55, 39, 51, 0, 0, 0, 0, 11, 0, 15, 47, 0, 0, 0, 0, 0, 37, 0, 0, 0, 45, 10, 0, 0, 0, 17, 62, 0, 63, 44, 0, 4, 0, 0, 5, 40, 0, 0, 34, 2, 7, 26, 0, 0, 0, 0, 0, 43, 25, 0, 0, 61, 0, 33, 42, 36, 0, 24, 53, 0, 0, 0
|43, 27, 0, 28, 6, 42, 0, 63, 0, 0, 0, 52, 0, 0, 0, 0, 0, 59, 15, 11, 0, 0, 0, 0, 13, 56, 55, 33, 53, 0, 51, 31, 0, 0, 8, 0, 35, 48, 7, 0, 58, 0, 37, 0, 45, 0, 62, 0, 0, 2, 0, 0, 39, 0, 54, 9, 0, 3, 57, 0, 0, 29, 50, 49
|36, 0, 0, 0, 0, 0, 0, 25, 0, 63, 64, 0, 56, 31, 39, 0, 0, 49, 55, 0, 0, 34, 2, 30, 0, 9, 24, 7, 0, 20, 32, 0, 0, 23, 0, 0, 61, 0, 0, 0, 11, 0, 57, 50, 41, 60, 0, 0, 0, 13, 0, 8, 46, 0, 22, 40, 0, 27, 17, 0, 0, 51, 18, 0
|0, 24, 2, 3, 48, 11, 0, 44, 0, 45, 50, 42, 60, 54, 0, 0, 9, 56, 47, 7, 63, 61, 0, 0, 0, 0, 38, 0, 8, 46, 0, 0, 0, 59, 17, 0, 36, 0, 57, 41, 0, 0, 10, 51, 0, 0, 55, 0, 16, 27, 49, 0, 0, 0, 0, 64, 34, 0, 0, 25, 13, 0, 0, 0
|34, 0, 0, 7, 29, 49, 0, 61, 27, 0, 48, 22, 8, 40, 0, 17, 46, 0, 0, 23, 6, 0, 0, 16, 28, 5, 47, 0, 0, 60, 57, 64, 0, 26, 0, 0, 0, 43, 0, 38, 0, 0, 63, 0, 0, 0, 0, 0, 37, 0, 51, 55, 11, 0, 56, 0, 59, 0, 35, 0, 0, 10, 52, 32
|52, 0, 40, 45, 0, 0, 0, 33, 49, 0, 0, 0, 59, 0, 34, 61, 5, 8, 35, 14, 60, 0, 0, 41, 27, 22, 54, 0, 0, 0, 11, 0, 0, 55, 28, 15, 0, 0, 2, 56, 6, 43, 0, 0, 9, 16, 0, 0, 58, 0, 0, 0, 32, 0, 0, 0, 0, 0, 62, 39, 46, 21, 0, 0
|0, 0, 1, 46, 0, 8, 26, 0, 0, 43, 18, 4, 51, 20, 23, 0, 0, 19, 57, 28, 0, 0, 0, 0, 42, 34, 61, 16, 36, 10, 40, 0, 12, 25, 58, 0, 22, 0, 0, 0, 0, 0, 0, 44, 35, 24, 0, 0, 41, 0, 63, 17, 31, 0, 0, 15, 0, 37, 0, 56, 5, 0, 14, 48
|0, 53, 0, 41, 0, 0, 17, 64, 13, 0, 2, 62, 0, 9, 58, 44, 0, 36, 29, 48, 51, 42, 43, 18, 0, 0, 0, 49, 0, 0, 35, 39, 0, 63, 0, 27, 0, 0, 0, 0, 5, 8, 32, 61, 59, 0, 40, 46, 0, 20, 28, 26, 0, 34, 0, 21, 0, 0, 19, 11, 55, 0, 22, 0
|0, 0, 17, 5, 58, 0, 0, 36, 0, 40, 0, 55, 1, 0, 0, 50, 35, 0, 46, 24, 32, 0, 0, 0, 0, 3, 44, 31, 0, 0, 0, 16, 29, 61, 0, 0, 0, 47, 0, 0, 39, 33, 0, 0, 0, 0, 0, 0, 0, 15, 21, 0, 0, 30, 12, 0, 9, 19, 0, 0, 0, 14, 51, 0
|0, 0, 12, 0, 0, 19, 24, 10, 0, 20, 0, 13, 16, 37, 6, 0, 59, 45, 0, 27, 34, 18, 0, 55, 29, 49, 9, 52, 0, 0, 54, 23, 39, 0, 0, 60, 0, 33, 32, 3, 0, 0, 56, 48, 17, 61, 0, 0, 0, 0, 0, 0, 0, 0, 4, 11, 0, 0, 44, 0, 63, 2, 0, 40
|59, 0, 23, 18, 0, 0, 29, 3, 0, 14, 0, 0, 0, 64, 57, 49, 13, 0, 0, 0, 17, 16, 0, 26, 0, 36, 0, 34, 0, 0, 12, 60, 51, 38, 27, 0, 43, 0, 52, 24, 0, 0, 0, 9, 7, 2, 37, 11, 62, 5, 10, 42, 47, 0, 0, 56, 0, 4, 58, 0, 0, 6, 0, 0
|0, 44, 0, 53, 0, 0, 0, 30, 18, 0, 56, 0, 0, 0, 0, 0, 0, 0, 21, 60, 1, 0, 8, 0, 0, 0, 64, 47, 0, 13, 0, 41, 48, 15, 0, 0, 6, 5, 37, 4, 57, 0, 22, 0, 38, 0, 35, 0, 54, 0, 16, 0, 29, 32, 20, 59, 0, 46, 12, 0, 39, 34, 24, 3
|0, 0, 15, 49, 60, 4, 0, 0, 0, 0, 0, 0, 34, 59, 0, 0, 0, 0, 0, 0, 0, 52, 0, 0, 24, 46, 50, 57, 28, 39, 0, 0, 0, 0, 35, 2, 0, 0, 0, 10, 0, 31, 0, 0, 14, 0, 58, 0, 1, 61, 0, 0, 0, 25, 0, 0, 0, 0, 54, 0, 18, 0, 0, 0
|6, 0, 0, 0, 0, 0, 0, 16, 0, 0, 4, 11, 33, 0, 17, 0, 0, 0, 40, 38, 14, 64, 0, 0, 0, 0, 0, 63, 26, 61, 15, 0, 0, 42, 46, 30, 0, 34, 0, 0, 0, 0, 0, 27, 0, 0, 0, 0, 0, 58, 0, 0, 60, 0, 0, 0, 56, 45, 13, 0, 28, 47, 59, 10
|61, 25, 63, 0, 37, 0, 8, 50, 24, 0, 39, 5, 0, 27, 19, 36, 56, 0, 20, 0, 2, 58, 11, 0, 0, 55, 22, 0, 0, 21, 0, 0, 0, 31, 0, 0, 0, 0, 0, 17, 40, 10, 60, 0, 47, 12, 54, 0, 46, 44, 34, 0, 0, 51, 0, 52, 41, 0, 0, 0, 43, 0, 15, 0
|0, 0, 34, 1, 46, 54, 0, 0, 12, 60, 21, 8, 0, 0, 0, 0, 0, 0, 22, 3, 0, 0, 6, 9, 0, 10, 0, 0, 0, 62, 25, 0, 0, 0, 0, 0, 14, 19, 36, 13, 0, 0, 0, 0, 42, 52, 0, 4, 33, 64, 24, 0, 0, 0, 0, 41, 50, 49, 16, 17, 0, 61, 0, 29
|51, 19, 0, 48, 0, 64, 63, 37, 0, 38, 49, 3, 54, 0, 0, 30, 0, 13, 59, 0, 0, 12, 39, 56, 0, 28, 0, 20, 22, 9, 41, 27, 0, 0, 36, 55, 16, 53, 44, 50, 60, 0, 17, 1, 0, 14, 0, 7, 0, 24, 0, 0, 25, 0, 0, 58, 0, 0, 6, 0, 0, 5, 0, 46
|62, 0, 25, 33, 32, 0, 2, 55, 11, 0, 0, 0, 0, 0, 0, 27, 37, 0, 6, 50, 46, 3, 28, 0, 0, 60, 35, 0, 61, 56, 0, 12, 0, 47, 22, 1, 0, 42, 0, 0, 0, 0, 0, 39, 23, 49, 0, 13, 0, 0, 0, 0, 43, 0, 0, 0, 24, 0, 0, 38, 0, 57, 29, 0
|0, 0, 0, 11, 56, 40, 18, 0, 0, 0, 60, 1, 0, 0, 26, 0, 41, 0, 0, 2, 0, 23, 0, 0, 0, 64, 0, 0, 0, 24, 30, 38, 0, 54, 0, 0, 0, 0, 0, 27, 37, 0, 6, 58, 28, 0, 0, 0, 53, 0, 0, 0, 0, 0, 44, 48, 25, 32, 59, 51, 36, 52, 17, 61
|14, 0, 0, 0, 3, 60, 0, 58, 40, 2, 41, 0, 0, 46, 25, 0, 0, 43, 0, 20, 9, 57, 0, 64, 17, 0, 0, 23, 0, 0, 53, 0, 0, 10, 0, 0, 18, 0, 30, 0, 0, 0, 21, 0, 0, 31, 26, 50, 0, 56, 35, 0, 5, 0, 33, 16, 62, 7, 0, 0, 27, 19, 0, 0
|39, 0, 0, 0, 30, 0, 44, 0, 45, 56, 16, 0, 0, 0, 53, 0, 0, 38, 0, 0, 0, 0, 52, 40, 0, 0, 42, 25, 19, 49, 0, 29, 0, 8, 0, 0, 0, 14, 59, 0, 51, 0, 0, 0, 4, 0, 0, 0, 0, 18, 0, 0, 0, 3, 17, 47, 35, 50, 37, 2, 21, 0, 60, 0
|46, 7, 38, 0, 15, 35, 0, 22, 37, 42, 55, 32, 0, 0, 8, 0, 58, 0, 10, 0, 31, 29, 0, 25, 50, 59, 11, 4, 54, 0, 48, 57, 0, 64, 0, 0, 0, 0, 62, 0, 0, 53, 44, 0, 34, 0, 45, 18, 61, 19, 0, 41, 0, 0, 1, 6, 0, 0, 3, 0, 49, 26, 0, 0
|29, 0, 0, 54, 1, 0, 50, 0, 6, 0, 0, 33, 62, 0, 35, 0, 60, 18, 0, 0, 0, 19, 0, 0, 0, 0, 36, 0, 3, 37, 0, 0, 0, 0, 0, 0, 0, 58, 0, 0, 0, 0, 0, 25, 27, 57, 0, 38, 0, 0, 32, 46, 13, 0, 40, 0, 0, 12, 0, 14, 0, 23, 0, 39
|27, 26, 0, 0, 0, 23, 16, 0, 64, 34, 0, 0, 58, 0, 63, 0, 30, 32, 45, 62, 44, 33, 0, 0, 0, 40, 15, 51, 43, 0, 1, 7, 11, 57, 0, 0, 4, 0, 25, 0, 0, 56, 41, 19, 29, 59, 0, 0, 0, 0, 0, 0, 37, 49, 0, 0, 54, 0, 0, 18, 0, 0, 55, 0
|0, 0, 0, 64, 34, 14, 0, 40, 0, 19, 17, 47, 27, 0, 0, 0, 0, 37, 0, 0, 59, 43, 0, 0, 0, 2, 0, 3, 0, 0, 9, 0, 22, 0, 0, 0, 0, 0, 0, 28, 0, 0, 0, 35, 0, 50, 0, 0, 32, 45, 0, 0, 0, 24, 6, 5, 63, 0, 0, 0, 62, 0, 0, 0
|0, 48, 21, 44, 0, 31, 28, 0, 0, 8, 7, 0, 12, 43, 55, 39, 0, 0, 58, 29, 0, 14, 0, 0, 0, 63, 0, 64, 34, 32, 0, 4, 0, 46, 42, 10, 60, 0, 0, 49, 0, 61, 0, 62, 0, 0, 0, 0, 57, 0, 30, 50, 0, 0, 0, 0, 0, 0, 0, 0, 0, 0, 40, 54
|0, 46, 0, 24, 42, 45, 51, 52, 0, 21, 36, 0, 0, 11, 0, 54, 0, 60, 38, 0, 40, 39, 0, 0, 0, 0, 0, 0, 50, 0, 0, 25, 0, 0, 57, 20, 32, 0, 9, 0, 0, 34, 26, 0, 0, 56, 0, 5, 31, 1, 0, 10, 61, 0, 47, 63, 17, 0, 0, 53, 22, 0, 37, 18
|0, 55, 30, 0, 0, 7, 58, 0, 0, 28, 5, 0, 0, 29, 56, 0, 16, 0, 41, 17, 0, 0, 0, 0, 0, 62, 57, 0, 33, 52, 43, 0, 0, 11, 1, 0, 26, 0, 45, 0, 47, 19, 0, 4, 0, 0, 0, 0, 0, 22, 44, 0, 0, 0, 15, 0, 32, 8, 10, 64, 48, 0, 0, 9
|0, 10, 0, 0, 27, 62, 43, 1, 0, 52, 32, 2, 0, 25, 0, 0, 0, 15, 0, 54, 0, 11, 0, 0, 45, 41, 59, 0, 0, 0, 0, 17, 0, 0, 0, 0, 0, 63, 0, 30, 0, 49, 40, 0, 48, 9, 14, 0, 0, 36, 58, 0, 0, 0, 64, 13, 7, 26, 0, 0, 47, 0, 0, 0
|37, 12, 0, 0, 54, 0, 0, 32, 0, 13, 0, 6, 0, 1, 0, 0, 45, 0, 49, 0, 27, 46, 0, 0, 0, 0, 30, 0, 5, 44, 0, 58, 8, 0, 0, 0, 0, 0, 0, 0, 36, 0, 0, 0, 0, 25, 0, 0, 0, 0, 0, 14, 42, 0, 0, 0, 51, 61, 0, 43, 0, 35, 0, 50
|0, 63, 0, 0, 59, 0, 5, 19, 4, 0, 0, 34, 0, 60, 0, 0, 22, 0, 0, 0, 0, 0, 53, 42, 0, 39, 12, 0, 0, 0, 0, 47, 0, 6, 41, 0, 0, 2, 0, 61, 0, 0, 45, 0, 16, 18, 7, 37, 0, 29, 0, 23, 0, 0, 25, 0, 21, 0, 38, 0, 11, 0, 0, 0
|16, 49, 0, 0, 2, 0, 57, 56, 10, 0, 0, 38, 0, 0, 0, 35, 0, 25, 18, 4, 0, 0, 0, 0, 31, 13, 8, 42, 15, 40, 21, 36, 47, 0, 50, 19, 39, 7, 5, 12, 0, 28, 43, 0, 0, 0, 46, 53, 0, 48, 20, 0, 0, 60, 59, 27, 0, 0, 14, 0, 0, 55, 0, 0|];