order = 8;
grid = [|0, 0, 20, 0, 12, 15, 0, 0, 0, 41, 0, 4, 32, 19, 11, 14, 59, 9, 0, 0, 51, 54, 0, 3, 0, 61, 0, 0, 2, 0, 39, 42, 0, 5, 0, 22, 16, 34, 46, 26, 0, 50, 58, 18, 0, 8, 0, 44, 0, 30, 0, 0, 0, 29, 0, 17, 1, 0, 0, 0, 60, 0, 0, 0
|0, 28, 58, 2, 0, 18, 11, 29, 50, 0, 0, 56, 20, 0, 62, 0, 53, 0, 0, 0, 0, 36, 0, 48, 8, 0, 0, 10, 23, 55, 0, 64, 59, 13, 0, 0, 57, 4, 63, 0, 9, 0, 0, 17, 0, 0, 27, 14, 31, 0, 0, 24, 5, 1, 44, 21, 0, 54, 45, 19, 46, 43, 41, 35
|16, 48, 9, 8, 0, 0, 0, 7, 44, 1, 0, 0, 34, 0, 0, 49, 56, 23, 0, 43, 0, 0, 0, 64, 0, 0, 0, 0, 60, 5, 54, 26, 33, 42, 21, 0, 10, 0, 40, 17, 51, 0, 0, 0, 19, 0, 35, 0, 0, 0, 62, 20, 27, 0, 0, 63, 24, 18, 0, 50, 0, 0, 25, 0
|54, 1, 0, 57, 46, 0, 26, 44, 48, 58, 15, 64, 0, 24, 0, 0, 0, 0, 27, 21, 28, 30, 42, 0, 0, 17, 0, 0, 50, 47, 53, 63, 9, 0, 0, 0, 51, 37, 0, 52, 0, 10, 0, 43, 12, 0, 0, 45, 7, 2, 0, 0, 0, 8, 3, 40, 34, 0, 62, 11, 0, 0, 31, 0
|24, 40, 53, 0, 21, 60, 56, 50, 7, 0, 0, 18, 8, 26, 0, 0, 0, 63, 0, 2, 62, 58, 34, 11, 0, 0, 35, 51, 36, 0, 30, 0, 23, 14, 47, 48, 0, 32, 0, 0, 25, 38, 49, 59, 0, 0, 0, 46, 0, 0, 15, 22, 0, 0, 37, 10, 0, 61, 57, 0, 0, 20, 42, 6
|0, 38, 35, 34, 0, 0, 43, 0, 33, 25, 0, 0, 0, 0, 0, 0, 13, 0, 49, 0, 0, 0, 0, 61, 0, 0, 0, 62, 28, 0, 0, 0, 0, 15, 54, 0, 0, 64, 0, 0, 56, 0, 0, 36, 48, 47, 0, 53, 41, 59, 0, 0, 0, 26, 0, 32, 0, 51, 5, 0, 0, 3, 0, 0
|0, 0, 33, 0, 63, 4, 0, 0, 0, 27, 0, 0, 5, 46, 47, 0, 0, 0, 1, 60, 0, 37, 45, 0, 25, 0, 0, 58, 57, 52, 14, 7, 53, 8, 35, 44, 6, 0, 0, 0, 0, 11, 0, 24, 0, 0, 23, 16, 56, 64, 49, 0, 0, 0, 43, 0, 9, 0, 59, 15, 26, 2, 0, 0
|47, 0, 0, 41, 59, 42, 13, 23, 0, 0, 0, 21, 61, 0, 53, 52, 33, 0, 0, 0, 0, 4, 0, 46, 3, 0, 44, 0, 0, 0, 0, 19, 0, 0, 27, 0, 39, 43, 50, 0, 0, 15, 0, 29, 64, 37, 2, 57, 36, 9, 0, 34, 0, 48, 12, 0, 0, 7, 14, 0, 8, 63, 0, 0
|0, 26, 0, 0, 42, 1, 0, 28, 24, 20, 50, 0, 40, 59, 32, 25, 0, 0, 0, 53, 15, 0, 0, 0, 39, 62, 0, 47, 8, 19, 35, 29, 63, 0, 37, 0, 0, 0, 0, 46, 0, 13, 52, 31, 23, 61, 30, 10, 55, 0, 56, 44, 0, 0, 0, 0, 33, 57, 58, 41, 0, 22, 43, 0
|0, 24, 13, 47, 0, 0, 0, 15, 1, 30, 42, 34, 46, 0, 17, 0, 6, 41, 0, 0, 48, 59, 0, 52, 0, 49, 4, 53, 0, 61, 0, 32, 0, 60, 2, 3, 0, 56, 5, 0, 33, 0, 43, 0, 20, 0, 19, 38, 0, 0, 35, 0, 62, 0, 51, 0, 18, 11, 0, 25, 37, 0, 0, 0
|0, 0, 0, 44, 0, 48, 6, 2, 0, 3, 0, 0, 0, 0, 55, 0, 11, 35, 45, 58, 0, 33, 0, 0, 43, 0, 16, 0, 5, 0, 0, 0, 0, 23, 41, 0, 0, 52, 7, 21, 0, 18, 24, 47, 0, 54, 0, 0, 42, 17, 32, 1, 0, 0, 0, 0, 0, 64, 31, 0, 0, 0, 0, 34
|40, 30, 0, 0, 38, 43, 0, 18, 37, 0, 0, 0, 0, 11, 0, 29, 0, 0, 3, 0, 19, 8, 0, 0, 22, 0, 0, 0, 17, 0, 27, 14, 0, 0, 0, 28, 47, 0, 15, 36, 4, 0, 9, 53, 35, 0, 0, 42, 0, 0, 46, 16, 0, 41, 13, 0, 44, 26, 0, 45, 0, 0, 0, 49
|0, 0, 31, 0, 22, 41, 0, 0, 64, 0, 63, 0, 39, 0, 43, 26, 0, 28, 0, 61, 0, 0, 46, 0, 0, 0, 50, 0, 0, 0, 0, 20, 0, 59, 0, 0, 0, 0, 0, 0, 0, 0, 0, 16, 55, 0, 0, 0, 0, 25, 53, 21, 33, 7, 54, 47, 0, 9, 0, 48, 52, 0, 38, 0
|0, 55, 0, 33, 0, 9, 0, 56, 5, 18, 35, 0, 0, 0, 16, 0, 47, 62, 0, 63, 39, 14, 32, 34, 54, 48, 41, 42, 0, 0, 0, 40, 0, 0, 24, 29, 0, 57, 0, 0, 26, 22, 36, 8, 0, 0, 0, 0, 52, 0, 31, 23, 0, 0, 59, 0, 0, 0, 0, 53, 20, 0, 0, 0
|52, 0, 0, 0, 0, 37, 0, 19, 47, 53, 13, 0, 0, 0, 0, 0, 60, 27, 38, 0, 0, 0, 20, 55, 34, 11, 0, 36, 0, 23, 0, 0, 25, 0, 0, 40, 26, 33, 61, 22, 5, 41, 45, 1, 32, 56, 17, 0, 64, 58, 29, 0, 0, 0, 18, 0, 0, 62, 0, 0, 59, 0, 14, 0
|61, 34, 0, 10, 14, 0, 0, 0, 54, 0, 0, 8, 0, 0, 0, 48, 0, 51, 0, 1, 0, 22, 0, 0, 52, 0, 33, 45, 0, 7, 0, 18, 16, 55, 42, 11, 31, 38, 53, 30, 0, 0, 0, 0, 0, 57, 28, 3, 0, 49, 0, 5, 19, 0, 26, 6, 0, 29, 47, 36, 35, 0, 13, 0
|39, 0, 61, 28, 0, 2, 0, 53, 0, 49, 0, 0, 0, 6, 0, 32, 27, 0, 17, 0, 37, 38, 0, 9, 0, 24, 57, 8, 19, 41, 0, 34, 0, 22, 0, 42, 0, 54, 0, 62, 0, 5, 0, 3, 29, 0, 18, 56, 14, 40, 1, 0, 0, 0, 0, 55, 46, 0, 0, 13, 0, 0, 0, 0
|5, 64, 41, 0, 0, 0, 32, 49, 0, 0, 4, 13, 59, 0, 14, 0, 0, 42, 40, 29, 0, 0, 63, 0, 61, 38, 0, 31, 0, 18, 0, 0, 0, 0, 55, 37, 52, 60, 33, 23, 0, 0, 15, 22, 0, 19, 0, 0, 10, 0, 0, 54, 28, 9, 0, 36, 12, 0, 21, 0, 56, 0, 27, 0
|0, 51, 0, 0, 19, 0, 0, 0, 62, 0, 0, 53, 3, 0, 0, 54, 64, 55, 11, 0, 21, 13, 18, 39, 0, 52, 6, 0, 56, 35, 32, 0, 0, 0, 14, 0, 58, 5, 0, 0, 49, 57, 0, 63, 0, 4, 0, 60, 0, 29, 0, 7, 17, 0, 30, 0, 0, 15, 0, 43, 0, 0, 0, 0
|0, 0, 0, 37, 0, 57, 0, 13, 0, 0, 0, 42, 0, 29, 22, 0, 14, 59, 0, 49, 4, 12, 61, 19, 47, 0, 40, 0, 0, 0, 0, 0, 50, 17, 0, 63, 43, 0, 18, 0, 32, 0, 26, 33, 52, 0, 0, 41, 38, 24, 5, 0, 53, 0, 0, 0, 48, 0, 0, 35, 45, 54, 0, 0
|62, 0, 0, 17, 44, 63, 3, 42, 0, 28, 33, 0, 24, 43, 1, 0, 0, 31, 51, 0, 0, 6, 0, 35, 15, 14, 0, 13, 29, 0, 0, 21, 19, 10, 0, 34, 61, 0, 0, 47, 0, 12, 2, 54, 45, 0, 0, 0, 11, 23, 0, 0, 56, 18, 0, 49, 57, 0, 0, 7, 25, 5, 0, 8
|43, 60, 18, 0, 0, 0, 8, 0, 0, 39, 0, 10, 0, 34, 0, 0, 7, 15, 0, 0, 0, 44, 0, 0, 0, 26, 0, 0, 54, 0, 0, 0, 0, 0, 0, 0, 0, 0, 28, 38, 0, 0, 42, 0, 0, 35, 0, 25, 37, 57, 0, 6, 46, 0, 0, 12, 0, 0, 0, 0, 53, 1, 0, 0
|1, 58, 47, 0, 0, 14, 4, 0, 19, 0, 21, 40, 0, 7, 12, 0, 48, 34, 23, 0, 0, 0, 0, 0, 64, 5, 25, 27, 0, 53, 46, 0, 51, 35, 0, 56, 0, 0, 0, 0, 13, 30, 0, 0, 37, 0, 0, 62, 43, 31, 0, 0, 60, 20, 42, 0, 0, 0, 28, 29, 55, 11, 33, 16
|0, 0, 15, 56, 0, 24, 0, 33, 27, 0, 55, 0, 0, 0, 0, 0, 0, 0, 0, 54, 43, 0, 0, 0, 0, 0, 0, 0, 58, 0, 0, 0, 7, 30, 0, 0, 0, 53, 0, 0, 48, 0, 0, 0, 61, 50, 0, 6, 0, 62, 26, 13, 45, 0, 4, 0, 20, 63, 51, 0, 49, 32, 18, 38
|0, 0, 49, 29, 7, 0, 42, 0, 0, 0, 0, 22, 0, 51, 18, 0, 61, 19, 0, 0, 46, 0, 43, 41, 30, 56, 0, 15, 0, 0, 50, 0, 0, 0, 0, 0, 8, 0, 0, 2, 1, 32, 10, 0, 0, 28, 20, 54, 60, 35, 0, 62, 0, 0, 0, 59, 36, 48, 0, 5, 31, 52, 45, 26
|0, 0, 0, 58, 0, 47, 31, 0, 0, 42, 19, 46, 0, 0, 6, 0, 0, 0, 60, 44, 0, 0, 25, 28, 13, 45, 0, 0, 40, 0, 0, 54, 0, 0, 0, 10, 0, 0, 52, 0, 27, 0, 0, 49, 0, 21, 15, 59, 23, 16, 0, 0, 50, 0, 0, 0, 38, 43, 8, 9, 61, 0, 57, 0
|0, 0, 0, 59, 41, 3, 0, 8, 0, 0, 0, 29, 0, 20, 0, 0, 0, 45, 63, 0, 11, 42, 2, 0, 58, 36, 18, 0, 0, 0, 5, 53, 6, 0, 0, 0, 0, 15, 9, 50, 0, 23, 0, 0, 25, 13, 57, 0, 49, 0, 27, 40, 0, 37, 61, 7, 54, 17, 22, 0, 32, 60, 44, 0
|0, 0, 5, 0, 0, 0, 0, 0, 0, 57, 41, 0, 49, 0, 21, 0, 15, 8, 0, 0, 0, 0, 0, 0, 0, 31, 0, 0, 0, 0, 0, 55, 4, 0, 0, 60, 0, 0, 0, 59, 0, 43, 40, 48, 0, 0, 24, 0, 0, 54, 0, 3, 0, 45, 6, 0, 53, 2, 0, 0, 30, 33, 1, 20
|0, 17, 37, 0, 11, 23, 0, 22, 55, 13, 31, 0, 0, 0, 0, 27, 0, 54, 0, 52, 0, 0, 39, 33, 21, 0, 0, 34, 0, 57, 9, 0, 42, 0, 19, 0, 0, 0, 0, 41, 0, 0, 0, 0, 44, 0, 38, 0, 25, 0, 0, 0, 26, 0, 0, 29, 0, 56, 0, 49, 0, 0, 0, 0
|0, 52, 40, 16, 0, 0, 19, 0, 43, 9, 8, 61, 0, 48, 0, 0, 0, 50, 26, 35, 57, 55, 0, 0, 17, 33, 7, 59, 39, 0, 4, 0, 0, 0, 0, 0, 63, 0, 24, 18, 11, 58, 56, 0, 60, 0, 0, 2, 5, 53, 36, 0, 41, 0, 31, 38, 0, 28, 10, 0, 3, 0, 6, 29
|26, 0, 0, 15, 0, 0, 0, 0, 3, 0, 0, 2, 0, 0, 0, 0, 36, 0, 29, 14, 30, 0, 0, 59, 20, 0, 0, 60, 0, 0, 16, 0, 0, 0, 61, 53, 49, 0, 31, 13, 0, 0, 0, 34, 41, 55, 52, 0, 0, 56, 0, 39, 10, 17, 22, 28, 42, 58, 46, 0, 0, 0, 0, 21
|30, 0, 0, 20, 0, 61, 0, 34, 39, 10, 24, 60, 58, 28, 0, 63, 51, 21, 56, 22, 0, 0, 62, 0, 0, 0, 0, 0, 0, 3, 0, 0, 0, 45, 29, 1, 0, 0, 47, 0, 17, 0, 0, 0, 0, 36, 0, 0, 0, 18, 9, 4, 0, 52, 0, 46, 0, 16, 0, 0, 27, 37, 0, 14
|0, 0, 0, 62, 0, 6, 0, 51, 0, 59, 0, 9, 0, 39, 36, 0, 35, 22, 50, 0, 0, 0, 0, 0, 2, 0, 5, 0, 0, 0, 0, 4, 46, 40, 0, 20, 29, 47, 55, 0, 0, 0, 0, 10, 30, 0, 54, 17, 0, 11, 0, 0, 0, 0, 0, 0, 31, 0, 52, 3, 0, 0, 32, 0
|2, 46, 19, 31, 50, 10, 0, 0, 45, 15, 0, 7, 54, 0, 37, 20, 0, 5, 12, 39, 0, 27, 28, 43, 56, 18, 61, 49, 22, 0, 0, 0, 0, 0, 0, 0, 21, 0, 0, 34, 44, 64, 25, 0, 0, 16, 0, 63, 0, 26, 0, 0, 0, 0, 0, 1, 0, 41, 0, 0, 0, 0, 17, 24
|0, 20, 4, 0, 0, 0, 52, 0, 0, 32, 0, 0, 0, 33, 61, 0, 0, 0, 9, 11, 2, 0, 0, 31, 29, 0, 0, 0, 41, 0, 44, 0, 14, 39, 0, 0, 0, 0, 0, 10, 0, 0, 0, 0, 59, 0, 0, 55, 50, 0, 0, 0, 0, 42, 0, 0, 0, 49, 7, 0, 21, 45, 0, 5
|45, 14, 8, 0, 0, 0, 55, 5, 0, 0, 0, 0, 0, 0, 0, 0, 10, 33, 59, 62, 34, 0, 0, 4, 0, 0, 0, 40, 24, 0, 57, 37, 38, 6, 0, 0, 0, 0, 16, 7, 0, 0, 0, 0, 15, 0, 0, 0, 18, 60, 0, 46, 0, 49, 56, 0, 64, 0, 0, 12, 0, 0, 58, 0
|0, 0, 42, 53, 0, 7, 49, 47, 46, 19, 64, 35, 0, 0, 0, 0, 0, 29, 21, 0, 0, 3, 54, 0, 9, 0, 0, 28, 16, 0, 0, 15, 0, 0, 12, 59, 33, 0, 11, 25, 37, 20, 48, 0, 50, 0, 0, 0, 2, 0, 63, 0, 57, 0, 8, 58, 30, 23, 26, 0, 0, 0, 0, 0
|0, 18, 12, 0, 23, 54, 0, 9, 0, 24, 0, 0, 0, 0, 0, 22, 63, 0, 0, 0, 25, 0, 0, 42, 38, 7, 32, 0, 53, 0, 0, 0, 0, 3, 0, 0, 0, 0, 62, 0, 0, 0, 41, 0, 0, 0, 45, 0, 0, 0, 0, 0, 0, 5, 19, 0, 0, 40, 0, 0, 44, 46, 15, 0
|0, 0, 0, 24, 60, 0, 57, 0, 0, 63, 0, 3, 48, 47, 52, 0, 46, 1, 0, 13, 0, 16, 19, 8, 45, 0, 0, 21, 51, 0, 11, 0, 37, 2, 64, 0, 0, 44, 0, 15, 34, 0, 0, 40, 0, 49, 22, 26, 0, 0, 59, 0, 0, 23, 7, 0, 0, 0, 53, 0, 0, 0, 0, 18
|0, 0, 0, 21, 0, 30, 0, 1, 16, 62, 0, 38, 0, 0, 60, 0, 40, 57, 44, 0, 20, 56, 0, 15, 55, 8, 0, 0, 0, 39, 31, 33, 28, 54, 0, 0, 19, 49, 0, 5, 0, 2, 23, 58, 0, 52, 0, 18, 29, 0, 12, 47, 3, 0, 53, 0, 50, 6, 11, 0, 0, 0, 9, 0
|0, 0, 0, 0, 49, 0, 46, 0, 0, 43, 0, 0, 0, 25, 19, 0, 8, 3, 2, 0, 0, 31, 0, 0, 0, 53, 0, 11, 0, 0, 23, 0, 62, 27, 0, 33, 4, 0, 0, 0, 15, 63, 38, 26, 0, 44, 56, 0, 45, 0, 0, 18, 16, 58, 0, 0, 0, 42, 12, 28, 10, 0, 51, 57
|59, 0, 0, 43, 27, 58, 39, 38, 0, 47, 0, 54, 0, 0, 26, 12, 0, 0, 46, 0, 0, 0, 40, 51, 19, 32, 0, 57, 15, 0, 8, 0, 21, 63, 0, 50, 53, 0, 0, 55, 29, 25, 5, 0, 0, 22, 0, 52, 0, 0, 0, 0, 7, 34, 0, 0, 56, 35, 3, 0, 0, 31, 23, 41
|7, 0, 62, 0, 34, 28, 0, 17, 57, 0, 0, 24, 0, 0, 15, 40, 38, 36, 43, 0, 5, 0, 14, 0, 0, 64, 56, 0, 0, 30, 0, 0, 0, 46, 0, 23, 59, 39, 2, 51, 0, 61, 0, 0, 0, 0, 33, 0, 0, 50, 0, 53, 0, 0, 0, 52, 58, 37, 49, 0, 1, 18, 0, 0
|56, 50, 0, 54, 31, 0, 0, 10, 0, 46, 0, 44, 45, 0, 2, 62, 0, 0, 53, 26, 0, 11, 0, 0, 5, 41, 0, 22, 0, 59, 1, 60, 47, 0, 0, 0, 0, 0, 0, 9, 0, 0, 0, 0, 39, 30, 0, 40, 0, 0, 55, 57, 32, 0, 0, 4, 43, 25, 13, 33, 17, 38, 29, 0
|48, 2, 57, 0, 0, 0, 40, 37, 41, 34, 32, 1, 0, 0, 0, 33, 0, 0, 42, 17, 0, 50, 64, 0, 27, 0, 0, 7, 0, 25, 0, 0, 15, 0, 58, 35, 0, 8, 30, 16, 31, 3, 0, 45, 0, 46, 0, 28, 0, 0, 0, 56, 0, 43, 29, 19, 5, 0, 20, 52, 39, 6, 0, 0
|44, 33, 21, 0, 0, 0, 0, 11, 0, 0, 48, 0, 30, 0, 39, 6, 57, 0, 28, 34, 0, 0, 0, 0, 46, 29, 0, 0, 45, 0, 0, 49, 0, 64, 0, 52, 0, 0, 38, 0, 58, 60, 0, 32, 0, 17, 0, 0, 26, 0, 0, 15, 54, 0, 23, 0, 0, 0, 0, 0, 0, 0, 0, 62
|0, 0, 0, 0, 47, 0, 0, 36, 0, 0, 0, 55, 37, 18, 50, 17, 0, 58, 0, 41, 0, 0, 0, 21, 0, 0, 0, 63, 43, 0, 0, 31, 56, 0, 0, 5, 0, 0, 48, 29, 57, 0, 0, 0, 51, 0, 10, 0, 0, 0, 3, 38, 49, 0, 39, 25, 0, 44, 16, 60, 0, 0, 0, 0
|0, 0, 0, 14, 0, 53, 0, 52, 36, 0, 3, 23, 0, 27, 0, 60, 0, 0, 39, 6, 49, 29, 30, 63, 28, 0, 26, 54, 0, 0, 0, 61, 13, 1, 57, 17, 41, 0, 44, 19, 0, 47, 35, 55, 43, 20, 50, 37, 0, 5, 42, 64, 0, 0, 9, 0, 21, 34, 0, 0, 40, 7, 0, 46
|0, 59, 45, 0, 0, 0, 2, 40, 0, 23, 0, 12, 60, 0, 48, 41, 44, 0, 10, 0, 47, 21, 0, 0, 0, 54, 24, 0, 0, 32, 3, 27, 35, 7, 17, 26, 0, 50, 56, 0, 0, 0, 0, 0, 49, 62, 0, 13, 0, 61, 16, 0, 0, 0, 46, 0, 51, 0, 43, 0, 0, 19, 34, 0
|34, 22, 0, 6, 1, 0, 0, 0, 0, 50, 0, 47, 0, 0, 54, 10, 42, 60, 33, 8, 0, 0, 0, 0, 57, 0, 0, 0, 0, 0, 58, 28, 0, 0, 4, 38, 0, 0, 59, 53, 14, 0, 39, 27, 56, 18, 26, 0, 3, 48, 0, 19, 0, 0, 0, 0, 45, 12, 36, 62, 0, 49, 0, 0
|50, 0, 24, 0, 0, 31, 0, 12, 0, 0, 0, 0, 26, 1, 28, 0, 16, 11, 0, 9, 0, 15, 27, 0, 0, 51, 8, 39, 0, 0, 10, 0, 60, 0, 5, 0, 42, 14, 0, 0, 0, 0, 0, 0, 0, 38, 0, 47, 62, 34, 40, 0, 0, 64, 0, 35, 32, 0, 17, 0, 13, 57, 53, 0
|58, 53, 0, 61, 48, 16, 20, 21, 56, 0, 51, 0, 0, 0, 35, 0, 0, 0, 0, 59, 0, 7, 41, 0, 0, 0, 0, 29, 4, 0, 0, 2, 0, 47, 36, 39, 0, 24, 10, 0, 50, 55, 0, 0, 0, 0, 0, 43, 1, 22, 0, 0, 44, 0, 0, 18, 0, 0, 0, 0, 11, 0, 0, 28
|0, 0, 44, 42, 39, 0, 10, 30, 0, 0, 0, 5, 36, 0, 0, 46, 0, 25, 0, 24, 55, 43, 0, 53, 48, 22, 49, 33, 7, 64, 0, 0, 0, 0, 45, 13, 28, 29, 41, 0, 0, 31, 0, 0, 0, 0, 60, 0, 0, 27, 54, 17, 21, 0, 11, 26, 3, 0, 0, 58, 0, 59, 0, 2
|0, 0, 54, 9, 0, 11, 0, 0, 0, 29, 0, 16, 0, 0, 0, 0, 0, 0, 0, 38, 0, 0, 51, 18, 0, 42, 47, 23, 13, 0, 41, 0, 0, 0, 0, 0, 44, 3, 1, 0, 0, 33, 0, 0, 2, 0, 58, 0, 0, 7, 0, 8, 52, 12, 45, 56, 10, 0, 0, 39, 6, 0, 5, 0
|35, 0, 0, 3, 64, 33, 15, 0, 0, 0, 38, 30, 0, 58, 0, 2, 39, 0, 57, 19, 0, 0, 0, 36, 12, 0, 14, 0, 0, 50, 0, 0, 34, 16, 62, 8, 0, 31, 0, 11, 0, 0, 22, 28, 9, 0, 59, 5, 0, 0, 43, 55, 0, 53, 10, 0, 0, 1, 0, 26, 0, 56, 40, 25
|51, 8, 0, 0, 13, 56, 0, 57, 49, 14, 44, 43, 27, 55, 0, 0, 50, 2, 0, 0, 12, 0, 3, 0, 16, 0, 53, 0, 38, 1, 0, 35, 20, 58, 0, 0, 0, 0, 0, 0, 40, 0, 0, 0, 54, 0, 36, 32, 0, 0, 0, 0, 0, 31, 5, 0, 63, 47, 29, 21, 0, 41, 0, 42
|32, 0, 0, 22, 0, 40, 0, 48, 14, 38, 57, 20, 52, 0, 0, 0, 55, 43, 8, 33, 17, 0, 16, 0, 31, 28, 0, 0, 0, 12, 0, 0, 0, 0, 0, 0, 3, 1, 23, 42, 0, 54, 0, 0, 24, 0, 62, 0, 0, 15, 0, 51, 35, 0, 0, 53, 0, 19, 0, 27, 36, 61, 7, 0
|0, 0, 0, 38, 53, 0, 27, 0, 9, 55, 25, 0, 13, 0, 4, 47, 26, 0, 7, 36, 0, 0, 0, 0, 0, 30, 0, 14, 0, 0, 0, 0, 2, 0, 0, 62, 56, 0, 60, 0, 42, 0, 19, 50, 18, 15, 48, 23, 0, 33, 37, 0, 22, 0, 0, 0, 29, 5, 0, 16, 58, 0, 0, 31
|23, 15, 0, 0, 56, 0, 0, 14, 60, 37, 1, 32, 42, 0, 30, 24, 21, 61, 0, 0, 59, 25, 0, 6, 0, 0, 63, 0, 26, 29, 0, 16, 0, 0, 0, 0, 34, 19, 22, 57, 41, 49, 0, 35, 8, 0, 53, 0, 39, 46, 0, 11, 0, 36, 55, 50, 0, 0, 0, 0, 9, 0, 0, 0
|33, 0, 0, 45, 0, 0, 0, 0, 31, 11, 10, 0, 0, 0, 0, 59, 22, 49, 15, 0, 0, 0, 0, 0, 51, 0, 39, 0, 9, 0, 56, 36, 5, 44, 0, 61, 0, 7, 12, 0, 47, 17, 0, 14, 0, 2, 55, 1, 0, 52, 0, 0, 0, 54, 0, 0, 0, 21, 38, 0, 23, 0, 0, 0
|0, 21, 0, 0, 3, 0, 58, 60, 40, 0, 0, 0, 29, 0, 0, 61, 0, 0, 0, 42, 0, 0, 50, 54, 0, 0, 0, 0, 27, 0, 64, 59, 0, 0, 16, 18, 0, 0, 43, 31, 0, 0, 30, 0, 6, 33, 32, 0, 0, 0, 45, 2, 23, 62, 34, 0, 0, 52, 55, 57, 41, 0, 47, 0
|31, 0, 0, 0, 30, 0, 44, 0, 0, 33, 0, 0, 2, 54, 23, 0, 29, 52, 18, 0, 0, 0, 11, 27, 60, 0, 13, 24, 32, 49, 0, 3, 0, 0, 0, 15, 40, 0, 0, 0, 64, 16, 37, 0, 0, 26, 12, 0, 0, 19, 0, 41, 0, 59, 47, 0, 6, 0, 0, 63, 34, 53, 0, 0
|57, 0, 2, 1, 29, 0, 0, 26, 0, 22, 0, 41, 0, 0, 0, 3, 19, 0, 62, 56, 38, 0, 0, 13, 53, 0, 48, 50, 61, 0, 33, 43, 8, 9, 30, 54, 0, 63, 35, 0, 0, 0, 0, 5, 0, 45, 34, 11, 21, 0, 6, 31, 0, 28, 40, 0, 0, 32, 37, 0, 0, 14, 0, 0
|0, 0, 0, 49, 9, 12, 0, 0, 51, 26, 0, 0, 0, 50, 0, 0, 2, 0, 0, 0, 0, 0, 0, 30, 0, 0, 0, 0, 35, 15, 52, 0, 0, 29, 59, 45, 32, 0, 0, 0, 0, 0, 61, 25, 0, 0, 0, 0, 57, 0, 0, 0, 1, 60, 0, 16, 11, 8, 0, 18, 28, 13, 46, 39|];