order = 8;
grid = [|33, 0, 22, 58, 0, 42, 15, 3, 0, 23, 0, 57, 0, 0, 9, 0, 17, 0, 1, 0, 0, 0, 35, 52, 0, 0, 0, 0, 0, 2, 8, 0, 31, 49, 0, 0, 11, 55, 0, 0, 61, 0, 0, 28, 50, 54, 29, 40, 0, 0, 13, 0, 0, 62, 0, 0, 39, 60, 46, 0, 0, 30, 14, 0
|23, 24, 18, 60, 19, 38, 0, 51, 0, 0, 0, 0, 0, 0, 15, 16, 55, 14, 0, 13, 0, 0, 0, 0, 0, 0, 59, 63, 0, 4, 0, 0, 8, 64, 0, 58, 36, 62, 0, 0, 43, 17, 0, 0, 9, 0, 39, 0, 20, 0, 0, 0, 10, 21, 1, 49, 54, 31, 6, 0, 0, 29, 3, 0
|46, 0, 50, 0, 36, 0, 39, 31, 43, 6, 0, 17, 0, 0, 54, 0, 0, 0, 5, 0, 64, 25, 58, 16, 0, 18, 0, 0, 0, 0, 0, 42, 0, 0, 0, 0, 0, 0, 7, 0, 0, 0, 15, 0, 47, 8, 2, 0, 0, 0, 0, 0, 11, 0, 0, 0, 0, 49, 0, 51, 19, 0, 32, 0
|0, 0, 0, 20, 32, 0, 0, 43, 41, 0, 0, 0, 0, 0, 59, 0, 6, 0, 36, 39, 12, 44, 45, 53, 0, 0, 0, 0, 7, 0, 27, 0, 26, 33, 0, 0, 0, 0, 0, 0, 31, 1, 10, 64, 58, 0, 0, 0, 0, 0, 0, 0, 0, 0, 42, 18, 5, 0, 0, 0, 24, 55, 15, 62
|13, 21, 29, 0, 0, 0, 0, 0, 2, 0, 0, 42, 35, 55, 0, 0, 43, 46, 3, 23, 10, 63, 40, 27, 0, 15, 0, 34, 0, 0, 0, 0, 18, 0, 0, 0, 51, 50, 0, 0, 62, 48, 0, 0, 0, 26, 0, 0, 0, 9, 0, 0, 0, 7, 0, 0, 58, 0, 0, 0, 0, 4, 0, 0
|0, 0, 0, 55, 0, 0, 0, 8, 34, 0, 18, 1, 14, 3, 33, 0, 0, 0, 51, 38, 0, 0, 0, 0, 0, 64, 0, 37, 0, 0, 44, 61, 53, 29, 0, 0, 43, 16, 0, 12, 0, 63, 0, 0, 0, 0, 0, 52, 4, 0, 32, 0, 6, 2, 0, 0, 28, 0, 0, 0, 0, 42, 20, 0
|0, 0, 0, 0, 1, 62, 26, 49, 0, 0, 21, 45, 11, 0, 5, 36, 48, 0, 59, 15, 0, 0, 9, 0, 6, 0, 0, 14, 47, 0, 0, 41, 0, 52, 60, 0, 0, 34, 0, 2, 0, 0, 0, 0, 13, 0, 12, 0, 35, 64, 0, 0, 28, 0, 0, 0, 0, 43, 0, 0, 63, 0, 56, 0
|54, 0, 12, 0, 0, 0, 0, 0, 0, 60, 13, 0, 0, 0, 53, 63, 34, 2, 0, 11, 0, 8, 32, 0, 23, 0, 50, 40, 36, 9, 0, 43, 0, 0, 0, 47, 0, 15, 0, 5, 0, 3, 0, 24, 0, 0, 0, 0, 61, 26, 38, 0, 58, 17, 55, 48, 1, 22, 0, 45, 0, 16, 7, 18
|60, 0, 0, 0, 42, 8, 0, 61, 6, 29, 0, 63, 3, 0, 47, 9, 0, 48, 0, 34, 0, 15, 25, 55, 35, 0, 0, 10, 0, 0, 19, 0, 0, 0, 27, 38, 0, 0, 26, 52, 64, 7, 43, 18, 46, 53, 13, 62, 0, 11, 16, 32, 57, 14, 0, 0, 0, 4, 0, 0, 0, 24, 2, 0
|0, 46, 4, 0, 0, 0, 0, 28, 0, 31, 27, 7, 0, 0, 21, 45, 19, 11, 26, 0, 0, 0, 42, 10, 0, 61, 0, 0, 63, 0, 58, 0, 59, 0, 34, 51, 14, 0, 23, 47, 0, 25, 2, 6, 0, 3, 56, 0, 0, 0, 35, 50, 54, 24, 0, 9, 0, 53, 0, 49, 37, 0, 0, 22
|34, 0, 57, 0, 0, 10, 0, 26, 16, 0, 23, 11, 0, 0, 0, 0, 64, 40, 0, 45, 43, 59, 0, 0, 0, 60, 49, 0, 48, 54, 31, 0, 0, 13, 53, 46, 55, 0, 6, 0, 15, 0, 0, 42, 0, 0, 0, 0, 0, 0, 3, 0, 0, 0, 0, 28, 0, 0, 44, 41, 0, 62, 0, 9
|32, 0, 0, 0, 0, 45, 6, 0, 0, 0, 2, 0, 58, 0, 43, 0, 0, 27, 0, 50, 5, 0, 0, 4, 0, 0, 53, 1, 41, 0, 62, 23, 7, 24, 0, 0, 0, 28, 0, 0, 0, 0, 51, 57, 63, 47, 0, 0, 0, 42, 59, 0, 18, 10, 0, 0, 34, 0, 0, 55, 11, 0, 48, 0
|0, 16, 36, 0, 55, 0, 0, 27, 0, 0, 46, 5, 0, 0, 0, 42, 0, 57, 0, 31, 2, 0, 0, 58, 52, 30, 0, 20, 11, 0, 24, 0, 54, 4, 0, 25, 62, 39, 22, 60, 0, 10, 8, 0, 0, 59, 0, 0, 6, 0, 0, 0, 51, 43, 29, 34, 12, 28, 0, 63, 64, 0, 1, 3
|0, 0, 40, 0, 0, 25, 63, 12, 0, 0, 26, 60, 0, 0, 22, 50, 0, 0, 0, 0, 0, 0, 37, 9, 56, 59, 0, 39, 0, 0, 42, 64, 0, 0, 45, 41, 31, 43, 0, 0, 34, 20, 23, 0, 0, 28, 0, 35, 0, 1, 21, 0, 48, 49, 0, 38, 7, 18, 5, 0, 27, 0, 0, 19
|9, 0, 0, 29, 7, 0, 59, 0, 0, 10, 0, 36, 49, 37, 0, 0, 0, 18, 0, 28, 0, 60, 33, 51, 0, 8, 0, 32, 0, 0, 0, 0, 21, 0, 1, 42, 48, 12, 58, 11, 54, 0, 4, 27, 40, 0, 0, 31, 64, 41, 46, 45, 0, 52, 0, 39, 0, 25, 57, 20, 0, 61, 43, 23
|3, 0, 49, 47, 0, 56, 38, 0, 55, 0, 1, 28, 13, 57, 44, 61, 0, 0, 53, 24, 0, 54, 8, 30, 0, 0, 43, 0, 0, 0, 0, 0, 0, 0, 5, 0, 32, 0, 35, 37, 11, 0, 50, 45, 0, 0, 0, 26, 12, 23, 0, 0, 31, 33, 0, 0, 0, 10, 42, 46, 0, 60, 59, 0
|0, 0, 3, 0, 34, 39, 0, 60, 0, 15, 14, 53, 32, 9, 0, 21, 61, 64, 52, 43, 17, 7, 27, 42, 48, 0, 0, 0, 0, 0, 10, 0, 41, 20, 2, 23, 38, 58, 16, 0, 0, 0, 18, 0, 0, 0, 44, 0, 13, 29, 57, 40, 19, 0, 54, 37, 33, 0, 0, 0, 30, 0, 4, 0
|0, 32, 0, 51, 0, 0, 0, 57, 44, 0, 0, 26, 63, 0, 50, 37, 35, 28, 0, 0, 0, 0, 5, 0, 0, 0, 0, 0, 60, 0, 36, 19, 4, 0, 0, 0, 0, 0, 0, 17, 0, 0, 13, 48, 11, 62, 54, 25, 0, 0, 30, 52, 0, 59, 46, 21, 0, 0, 0, 3, 0, 0, 58, 12
|0, 0, 0, 0, 30, 0, 0, 48, 29, 19, 60, 31, 25, 0, 0, 0, 11, 0, 56, 0, 24, 16, 0, 0, 3, 39, 0, 0, 58, 0, 0, 53, 5, 62, 55, 0, 0, 61, 42, 0, 0, 52, 41, 0, 37, 21, 0, 4, 0, 0, 27, 20, 0, 0, 0, 7, 6, 38, 0, 59, 0, 51, 0, 47
|17, 37, 52, 54, 28, 0, 27, 0, 12, 0, 0, 13, 0, 0, 20, 7, 2, 53, 38, 30, 0, 57, 36, 0, 24, 0, 0, 25, 0, 15, 63, 0, 40, 59, 18, 0, 19, 51, 0, 0, 0, 16, 0, 3, 56, 0, 0, 0, 0, 0, 0, 0, 0, 0, 0, 0, 0, 61, 31, 0, 23, 0, 0, 0
|64, 0, 7, 11, 0, 0, 0, 0, 0, 4, 0, 0, 16, 0, 0, 0, 0, 55, 0, 0, 18, 0, 0, 39, 1, 0, 61, 57, 52, 28, 13, 59, 29, 53, 35, 21, 0, 0, 50, 6, 58, 0, 5, 0, 0, 0, 0, 0, 0, 12, 51, 0, 14, 48, 10, 15, 0, 0, 43, 0, 41, 63, 0, 8
|0, 0, 0, 21, 0, 36, 18, 0, 40, 27, 0, 0, 0, 6, 8, 0, 0, 51, 0, 0, 0, 29, 0, 48, 0, 0, 46, 0, 5, 17, 0, 0, 0, 0, 0, 0, 0, 13, 25, 0, 53, 43, 0, 26, 57, 0, 47, 0, 23, 0, 39, 0, 0, 0, 0, 0, 0, 0, 15, 0, 0, 9, 0, 0
|0, 0, 0, 0, 14, 44, 62, 0, 0, 0, 0, 47, 24, 0, 30, 51, 45, 26, 0, 37, 3, 31, 0, 0, 32, 29, 0, 35, 21, 49, 16, 0, 57, 0, 43, 0, 1, 46, 0, 48, 0, 39, 19, 7, 10, 0, 28, 0, 0, 55, 11, 0, 0, 0, 18, 0, 0, 0, 0, 0, 34, 0, 0, 0
|10, 0, 8, 0, 40, 0, 0, 0, 61, 57, 62, 18, 0, 0, 11, 43, 33, 21, 4, 0, 0, 14, 0, 13, 38, 51, 0, 41, 31, 12, 26, 7, 39, 0, 37, 0, 44, 0, 0, 0, 29, 45, 0, 0, 42, 64, 0, 0, 5, 0, 56, 0, 63, 0, 0, 17, 2, 0, 48, 50, 0, 0, 0, 0
|0, 33, 0, 0, 60, 0, 10, 23, 0, 48, 0, 0, 43, 0, 29, 55, 57, 0, 0, 0, 0, 52, 0, 0, 62, 41, 0, 0, 9, 26, 0, 34, 0, 19, 61, 0, 22, 2, 0, 0, 0, 27, 0, 0, 0, 6, 0, 59, 0, 20, 0, 0, 0, 38, 51, 0, 0, 56, 12, 39, 13, 0, 0, 0
|29, 43, 0, 44, 63, 16, 0, 0, 26, 54, 10, 24, 0, 0, 58, 62, 0, 7, 0, 51, 55, 28, 0, 23, 47, 0, 45, 0, 1, 50, 60, 0, 32, 0, 0, 37, 0, 56, 21, 0, 0, 4, 42, 40, 0, 0, 38, 48, 14, 2, 0, 0, 17, 41, 0, 0, 61, 34, 0, 33, 57, 3, 0, 15
|0, 0, 0, 14, 0, 6, 52, 0, 19, 20, 0, 3, 0, 44, 32, 11, 13, 9, 0, 17, 41, 0, 0, 25, 0, 0, 0, 0, 0, 0, 0, 58, 50, 15, 26, 62, 0, 5, 0, 0, 0, 37, 0, 0, 35, 61, 0, 12, 7, 0, 0, 42, 59, 0, 0, 0, 0, 0, 53, 0, 55, 36, 0, 0
|19, 47, 0, 0, 0, 20, 4, 9, 0, 50, 0, 0, 6, 16, 27, 46, 0, 60, 54, 0, 0, 22, 44, 0, 0, 0, 36, 17, 0, 0, 0, 0, 0, 0, 59, 31, 18, 0, 0, 0, 0, 41, 0, 0, 53, 11, 0, 0, 30, 34, 0, 0, 13, 55, 48, 0, 0, 2, 0, 23, 32, 0, 0, 0
|28, 58, 54, 27, 0, 0, 0, 0, 0, 18, 9, 0, 36, 2, 0, 14, 0, 19, 0, 0, 0, 0, 0, 0, 11, 46, 0, 0, 32, 21, 0, 48, 51, 0, 0, 30, 6, 41, 0, 0, 44, 26, 0, 0, 33, 24, 0, 0, 47, 57, 0, 49, 37, 60, 0, 16, 0, 1, 0, 0, 62, 0, 35, 0
|36, 0, 39, 50, 0, 0, 55, 38, 0, 0, 57, 0, 0, 0, 41, 0, 49, 0, 24, 2, 56, 0, 16, 34, 0, 19, 52, 0, 0, 44, 0, 0, 47, 0, 3, 48, 33, 45, 0, 0, 17, 0, 64, 0, 0, 0, 0, 0, 0, 0, 18, 0, 32, 53, 27, 0, 46, 29, 0, 21, 25, 37, 0, 20
|0, 0, 32, 0, 46, 0, 0, 41, 52, 34, 12, 0, 0, 0, 64, 17, 0, 47, 48, 0, 33, 38, 0, 0, 39, 20, 0, 0, 0, 0, 2, 3, 0, 55, 16, 0, 0, 0, 0, 28, 0, 0, 0, 0, 45, 0, 0, 0, 21, 62, 0, 0, 40, 1, 0, 0, 14, 59, 22, 0, 26, 49, 30, 60
|24, 48, 0, 15, 51, 31, 3, 53, 0, 0, 0, 38, 0, 0, 0, 0, 0, 50, 62, 4, 37, 0, 0, 0, 33, 0, 10, 59, 0, 25, 57, 22, 0, 14, 13, 8, 40, 35, 0, 46, 2, 0, 16, 52, 43, 0, 0, 0, 0, 19, 0, 0, 0, 12, 6, 0, 47, 0, 0, 0, 54, 0, 18, 0
|0, 30, 0, 5, 0, 0, 53, 0, 63, 0, 0, 64, 0, 0, 19, 26, 0, 0, 33, 48, 0, 55, 0, 0, 7, 0, 0, 51, 23, 0, 0, 46, 0, 0, 36, 22, 12, 0, 2, 13, 24, 0, 62, 0, 0, 50, 9, 0, 0, 28, 61, 0, 0, 27, 16, 0, 0, 0, 0, 0, 1, 0, 0, 4
|0, 10, 26, 0, 0, 0, 24, 58, 0, 39, 5, 46, 0, 11, 0, 40, 16, 0, 0, 42, 59, 0, 0, 28, 19, 48, 35, 0, 0, 13, 0, 0, 14, 34, 0, 27, 0, 0, 0, 64, 20, 47, 6, 0, 0, 33, 0, 0, 37, 49, 0, 0, 23, 45, 50, 1, 0, 0, 62, 0, 0, 0, 21, 0
|2, 25, 33, 0, 0, 0, 64, 0, 0, 0, 3, 30, 0, 14, 23, 0, 9, 62, 0, 60, 0, 37, 0, 38, 0, 0, 0, 61, 0, 10, 52, 0, 42, 28, 0, 0, 0, 1, 0, 0, 0, 0, 0, 0, 48, 57, 63, 51, 22, 0, 0, 0, 0, 0, 0, 55, 27, 0, 0, 0, 31, 0, 0, 54
|0, 0, 23, 0, 0, 0, 0, 44, 0, 0, 4, 0, 0, 27, 0, 58, 25, 0, 0, 0, 1, 0, 0, 3, 54, 57, 12, 36, 59, 0, 5, 0, 17, 48, 7, 0, 29, 31, 49, 0, 35, 0, 37, 0, 0, 40, 0, 0, 0, 38, 14, 0, 46, 51, 0, 0, 0, 47, 0, 9, 10, 13, 24, 50
|0, 60, 27, 0, 0, 0, 0, 4, 33, 0, 36, 0, 0, 0, 51, 44, 0, 5, 14, 6, 0, 0, 0, 54, 63, 0, 0, 0, 0, 0, 56, 50, 15, 40, 21, 0, 59, 0, 0, 41, 52, 0, 0, 25, 26, 0, 23, 0, 34, 48, 0, 0, 42, 0, 0, 32, 64, 17, 7, 0, 28, 53, 49, 45
|0, 42, 0, 0, 0, 50, 0, 13, 0, 0, 28, 6, 37, 0, 0, 25, 0, 0, 0, 57, 40, 0, 0, 0, 0, 0, 0, 0, 64, 0, 0, 0, 0, 61, 0, 0, 0, 30, 0, 0, 4, 0, 60, 10, 19, 18, 0, 2, 0, 52, 0, 17, 0, 26, 0, 0, 0, 35, 34, 0, 0, 33, 0, 0
|38, 40, 14, 0, 22, 0, 56, 7, 0, 0, 47, 41, 0, 21, 24, 0, 31, 0, 0, 0, 0, 51, 49, 0, 4, 42, 28, 62, 17, 0, 0, 26, 0, 0, 6, 0, 0, 25, 10, 55, 0, 0, 46, 0, 0, 0, 16, 0, 9, 0, 29, 0, 43, 0, 0, 0, 0, 0, 0, 0, 3, 57, 0, 0
|0, 0, 0, 59, 0, 12, 28, 0, 0, 35, 42, 52, 0, 50, 1, 0, 39, 0, 0, 26, 0, 32, 0, 17, 0, 53, 0, 60, 0, 0, 0, 44, 37, 0, 54, 16, 20, 11, 38, 33, 21, 30, 0, 0, 0, 0, 0, 0, 19, 40, 0, 0, 25, 47, 57, 0, 36, 48, 0, 5, 0, 0, 61, 0
|44, 0, 0, 32, 0, 0, 40, 63, 50, 9, 0, 0, 0, 23, 13, 0, 58, 3, 0, 0, 60, 0, 53, 0, 5, 25, 0, 0, 0, 0, 17, 0, 61, 46, 0, 6, 0, 19, 36, 0, 30, 0, 1, 37, 49, 0, 33, 0, 0, 0, 22, 2, 0, 56, 0, 0, 0, 62, 28, 16, 0, 10, 0, 43
|22, 0, 30, 38, 0, 5, 8, 2, 27, 0, 32, 12, 45, 17, 0, 47, 46, 0, 25, 0, 16, 0, 0, 0, 0, 0, 11, 0, 51, 0, 0, 33, 1, 26, 0, 3, 23, 0, 37, 10, 42, 0, 0, 54, 41, 4, 0, 50, 39, 31, 19, 0, 44, 18, 21, 0, 60, 58, 49, 24, 40, 0, 9, 6
|0, 0, 0, 25, 0, 23, 0, 0, 42, 26, 16, 0, 0, 0, 0, 31, 59, 0, 0, 0, 0, 62, 0, 0, 44, 0, 0, 0, 19, 37, 4, 6, 35, 0, 0, 0, 0, 21, 63, 50, 40, 53, 14, 60, 0, 0, 27, 0, 48, 0, 0, 9, 0, 32, 41, 10, 0, 8, 0, 17, 5, 0, 29, 0
|39, 57, 60, 0, 61, 59, 0, 0, 10, 0, 0, 8, 0, 35, 0, 6, 0, 0, 42, 0, 0, 4, 0, 26, 0, 22, 30, 12, 0, 0, 32, 0, 0, 0, 0, 0, 0, 0, 0, 27, 0, 46, 9, 0, 23, 5, 0, 15, 0, 0, 0, 28, 49, 58, 37, 0, 63, 0, 0, 31, 51, 0, 25, 64
|14, 9, 19, 42, 4, 0, 11, 52, 0, 0, 0, 0, 33, 28, 0, 0, 0, 0, 0, 0, 0, 50, 0, 0, 0, 0, 0, 46, 0, 0, 38, 27, 56, 43, 48, 0, 0, 54, 0, 0, 0, 58, 22, 0, 17, 55, 59, 39, 0, 5, 6, 1, 62, 0, 0, 0, 53, 0, 0, 30, 0, 21, 37, 0
|15, 55, 0, 16, 37, 51, 0, 50, 0, 22, 43, 0, 0, 49, 63, 54, 7, 17, 10, 21, 19, 5, 6, 0, 0, 0, 0, 0, 0, 56, 0, 9, 60, 58, 42, 0, 4, 8, 33, 30, 57, 0, 34, 0, 29, 44, 3, 47, 11, 27, 20, 0, 0, 40, 61, 45, 18, 32, 0, 0, 35, 48, 0, 39
|12, 49, 10, 0, 0, 1, 0, 54, 0, 0, 0, 39, 0, 0, 46, 0, 37, 0, 2, 0, 0, 56, 0, 0, 57, 0, 0, 0, 3, 0, 0, 0, 0, 0, 0, 11, 9, 53, 5, 0, 0, 38, 0, 0, 62, 31, 48, 61, 0, 25, 0, 0, 7, 0, 4, 0, 0, 50, 0, 0, 0, 0, 41, 55
|0, 0, 0, 0, 48, 0, 0, 0, 0, 61, 51, 2, 0, 0, 37, 57, 0, 39, 0, 0, 0, 9, 31, 41, 50, 1, 0, 0, 0, 60, 43, 0, 38, 18, 28, 55, 17, 0, 40, 49, 32, 19, 0, 0, 0, 25, 0, 56, 59, 0, 23, 0, 0, 34, 53, 42, 0, 3, 0, 0, 15, 0, 33, 36
|59, 39, 0, 12, 54, 0, 21, 40, 0, 7, 0, 0, 2, 0, 52, 5, 20, 0, 60, 62, 13, 23, 64, 0, 30, 0, 47, 0, 0, 63, 0, 0, 3, 38, 0, 0, 0, 0, 0, 0, 0, 33, 29, 0, 34, 56, 0, 58, 43, 0, 17, 46, 0, 4, 0, 26, 19, 0, 16, 14, 0, 25, 0, 1
|0, 26, 0, 19, 25, 49, 0, 0, 0, 0, 0, 0, 1, 0, 28, 41, 10, 6, 47, 35, 30, 0, 14, 21, 55, 0, 0, 9, 0, 0, 3, 51, 0, 7, 0, 0, 0, 20, 0, 62, 48, 0, 11, 44, 0, 46, 53, 0, 33, 16, 42, 0, 12, 5, 0, 50, 32, 0, 0, 0, 52, 0, 0, 0
|41, 23, 58, 10, 0, 63, 0, 0, 46, 0, 45, 0, 64, 56, 42, 0, 0, 0, 16, 0, 0, 0, 12, 0, 34, 0, 0, 5, 22, 0, 0, 40, 0, 1, 0, 17, 24, 4, 53, 14, 55, 50, 0, 62, 0, 7, 0, 32, 0, 0, 0, 59, 0, 0, 44, 0, 51, 0, 37, 0, 0, 8, 0, 0
|51, 36, 0, 13, 0, 0, 31, 47, 4, 33, 0, 16, 0, 25, 0, 34, 0, 0, 0, 22, 48, 0, 55, 0, 60, 0, 27, 0, 0, 0, 54, 0, 2, 21, 46, 59, 0, 37, 61, 0, 63, 0, 38, 43, 0, 0, 18, 45, 29, 32, 0, 0, 9, 0, 7, 64, 44, 12, 24, 0, 17, 50, 0, 0
|0, 0, 0, 61, 16, 0, 29, 37, 0, 11, 38, 19, 17, 0, 0, 15, 0, 45, 32, 46, 0, 1, 41, 50, 12, 0, 0, 0, 14, 33, 0, 10, 48, 51, 0, 0, 0, 0, 47, 0, 5, 9, 0, 30, 8, 2, 0, 0, 55, 0, 0, 57, 0, 20, 52, 0, 62, 63, 0, 42, 0, 59, 0, 0
|0, 2, 0, 22, 50, 0, 0, 34, 0, 0, 0, 55, 0, 62, 0, 8, 0, 31, 57, 59, 7, 0, 4, 0, 0, 0, 19, 0, 18, 0, 11, 0, 33, 0, 0, 29, 15, 0, 0, 44, 10, 0, 26, 0, 1, 0, 0, 0, 0, 0, 48, 21, 0, 23, 0, 53, 0, 0, 0, 0, 0, 0, 27, 0
|0, 8, 0, 0, 0, 33, 0, 0, 23, 0, 0, 50, 9, 63, 0, 60, 28, 0, 18, 0, 0, 0, 0, 0, 0, 0, 0, 0, 42, 0, 59, 0, 0, 30, 49, 64, 5, 0, 31, 16, 14, 0, 54, 0, 12, 0, 0, 19, 38, 0, 1, 27, 24, 39, 0, 0, 0, 21, 0, 0, 7, 0, 0, 0
|0, 0, 55, 18, 0, 28, 14, 1, 30, 32, 0, 43, 40, 61, 0, 0, 54, 0, 0, 44, 0, 0, 34, 0, 0, 0, 0, 0, 50, 52, 46, 2, 0, 0, 63, 12, 0, 26, 45, 0, 13, 57, 0, 0, 0, 42, 60, 3, 0, 0, 0, 0, 15, 0, 62, 19, 31, 0, 0, 0, 0, 22, 0, 0
|0, 56, 0, 63, 21, 24, 0, 0, 57, 40, 61, 0, 44, 5, 0, 27, 0, 0, 0, 33, 0, 2, 62, 0, 0, 38, 60, 0, 16, 31, 0, 0, 55, 0, 0, 14, 0, 6, 0, 0, 0, 0, 53, 0, 0, 17, 43, 10, 0, 0, 0, 12, 0, 0, 47, 0, 0, 23, 3, 0, 0, 7, 39, 0
|49, 38, 0, 0, 43, 9, 0, 0, 28, 0, 0, 0, 62, 0, 2, 0, 0, 0, 0, 16, 47, 48, 57, 0, 61, 14, 0, 0, 0, 0, 40, 0, 25, 11, 31, 7, 0, 0, 18, 0, 0, 24, 58, 0, 0, 32, 0, 36, 0, 0, 64, 0, 35, 50, 0, 0, 0, 5, 17, 1, 60, 0, 0, 41
|0, 62, 0, 40, 0, 0, 0, 10, 0, 25, 11, 20, 42, 0, 7, 13, 56, 38, 0, 64, 0, 0, 0, 0, 0, 36, 0, 23, 0, 0, 34, 32, 0, 0, 44, 43, 0, 3, 0, 51, 41, 0, 27, 8, 0, 63, 15, 18, 0, 21, 0, 48, 0, 0, 0, 0, 0, 57, 0, 47, 0, 46, 31, 26
|26, 0, 0, 0, 0, 15, 0, 0, 0, 46, 55, 48, 19, 0, 0, 0, 0, 58, 22, 0, 21, 24, 29, 0, 41, 12, 0, 18, 8, 64, 47, 56, 0, 0, 0, 0, 30, 0, 0, 0, 0, 0, 52, 0, 0, 34, 0, 28, 40, 0, 10, 31, 0, 57, 0, 44, 11, 0, 0, 2, 0, 0, 38, 63
|0, 28, 0, 0, 0, 7, 30, 64, 45, 0, 6, 0, 0, 0, 60, 59, 0, 36, 0, 0, 54, 18, 17, 61, 0, 50, 20, 11, 43, 0, 0, 0, 0, 22, 58, 0, 0, 0, 0, 0, 19, 42, 56, 23, 4, 51, 21, 38, 0, 0, 0, 0, 0, 0, 33, 0, 13, 16, 32, 44, 48, 0, 0, 0
|0, 0, 17, 53, 27, 32, 22, 0, 64, 56, 0, 10, 0, 0, 4, 18, 51, 23, 0, 0, 52, 0, 3, 20, 21, 63, 1, 24, 0, 0, 0, 0, 0, 5, 0, 15, 8, 0, 0, 0, 60, 62, 0, 0, 0, 30, 0, 0, 42, 0, 0, 54, 45, 0, 25, 6, 40, 55, 0, 0, 12, 14, 0, 28
|55, 0, 44, 2, 33, 0, 51, 6, 0, 0, 50, 0, 0, 0, 49, 52, 14, 0, 11, 0, 45, 42, 60, 0, 28, 0, 0, 0, 0, 62, 0, 57, 0, 0, 0, 0, 41, 0, 13, 63, 47, 12, 0, 0, 20, 0, 0, 0, 18, 0, 24, 7, 0, 0, 0, 61, 25, 30, 0, 0, 21, 19, 22, 0
|0, 0, 0, 35, 47, 60, 20, 11, 0, 0, 33, 0, 0, 0, 0, 0, 0, 12, 37, 8, 0, 43, 0, 0, 59, 2, 0, 0, 0, 19, 15, 0, 28, 23, 0, 61, 21, 48, 46, 0, 25, 14, 39, 0, 55, 45, 1, 0, 32, 0, 0, 5, 0, 9, 58, 0, 24, 54, 51, 0, 0, 27, 42, 0|];