order = 8;
grid = [|64, 0, 0, 0, 12, 41, 0, 49, 0, 0, 0, 0, 13, 47, 0, 0, 53, 0, 0, 10, 23, 4, 27, 0, 55, 0, 38, 0, 28, 63, 22, 36, 0, 0, 0, 0, 0, 45, 0, 62, 0, 0, 15, 18, 52, 0, 0, 46, 54, 0, 0, 0, 0, 14, 17, 42, 0, 50, 0, 16, 0, 0, 0, 0
|47, 17, 28, 0, 45, 56, 2, 30, 0, 53, 4, 0, 0, 24, 15, 1, 0, 46, 0, 0, 61, 0, 0, 0, 18, 0, 51, 41, 23, 0, 0, 32, 0, 64, 36, 5, 55, 13, 26, 0, 42, 0, 0, 19, 0, 3, 6, 57, 48, 0, 22, 0, 0, 0, 0, 0, 8, 0, 54, 0, 0, 0, 0, 35
|24, 0, 0, 36, 14, 0, 39, 0, 8, 0, 0, 0, 57, 33, 59, 0, 0, 45, 15, 51, 0, 37, 22, 0, 20, 48, 0, 0, 0, 21, 30, 0, 0, 0, 0, 18, 25, 40, 50, 6, 54, 2, 0, 58, 0, 0, 23, 0, 0, 7, 12, 0, 0, 0, 0, 53, 0, 60, 0, 0, 47, 0, 41, 61
|55, 6, 31, 42, 15, 38, 0, 53, 0, 63, 36, 16, 9, 0, 0, 54, 32, 0, 0, 0, 0, 0, 0, 0, 0, 0, 43, 62, 14, 0, 33, 0, 0, 27, 0, 22, 0, 44, 0, 8, 0, 0, 0, 0, 1, 7, 0, 21, 3, 0, 0, 0, 51, 0, 0, 0, 24, 0, 0, 17, 28, 0, 0, 59
|29, 0, 0, 62, 63, 57, 32, 0, 0, 0, 43, 0, 42, 18, 0, 26, 0, 0, 16, 17, 19, 0, 0, 36, 13, 0, 8, 10, 0, 53, 0, 0, 2, 7, 39, 0, 35, 31, 0, 0, 0, 0, 0, 0, 0, 0, 45, 20, 24, 15, 55, 40, 0, 9, 0, 0, 23, 44, 56, 0, 27, 22, 0, 14
|48, 0, 1, 46, 0, 0, 8, 10, 29, 0, 7, 0, 38, 0, 45, 40, 0, 60, 33, 9, 57, 44, 54, 0, 0, 0, 5, 50, 24, 0, 42, 0, 4, 49, 0, 43, 0, 47, 23, 14, 0, 0, 0, 0, 37, 0, 17, 0, 35, 0, 63, 61, 13, 18, 0, 32, 0, 26, 62, 64, 0, 25, 0, 19
|0, 0, 20, 40, 0, 0, 0, 21, 56, 30, 46, 23, 64, 34, 11, 48, 0, 58, 0, 14, 6, 7, 63, 13, 0, 19, 47, 12, 0, 0, 0, 39, 9, 0, 0, 0, 38, 28, 54, 61, 0, 41, 0, 0, 50, 0, 0, 55, 0, 59, 27, 0, 0, 0, 0, 45, 0, 0, 0, 0, 1, 15, 0, 53
|0, 0, 0, 61, 0, 0, 0, 5, 0, 31, 0, 51, 0, 0, 0, 14, 0, 0, 35, 18, 59, 64, 8, 0, 4, 0, 0, 1, 3, 0, 26, 7, 53, 0, 52, 17, 0, 0, 24, 30, 32, 10, 0, 0, 56, 33, 0, 38, 0, 0, 19, 0, 34, 0, 0, 41, 0, 29, 45, 0, 0, 0, 0, 0
|27, 0, 0, 59, 0, 2, 0, 0, 0, 48, 13, 14, 16, 1, 19, 36, 52, 0, 47, 39, 40, 0, 58, 0, 26, 0, 56, 9, 20, 0, 0, 0, 0, 0, 0, 12, 0, 0, 6, 0, 0, 60, 21, 0, 0, 46, 0, 0, 0, 0, 0, 55, 0, 33, 34, 0, 35, 22, 38, 24, 15, 45, 31, 0
|0, 20, 47, 0, 24, 1, 62, 0, 0, 33, 0, 0, 51, 0, 26, 31, 2, 0, 13, 60, 37, 5, 14, 64, 0, 3, 0, 0, 0, 0, 0, 0, 32, 0, 53, 0, 29, 58, 0, 0, 12, 0, 19, 0, 0, 28, 0, 6, 15, 43, 0, 27, 30, 0, 0, 0, 0, 0, 0, 0, 0, 50, 25, 39
|0, 13, 0, 0, 0, 58, 0, 0, 0, 25, 0, 0, 24, 10, 55, 0, 27, 0, 0, 0, 48, 33, 41, 0, 14, 31, 53, 0, 0, 0, 0, 50, 0, 21, 8, 42, 0, 60, 3, 38, 0, 0, 56, 61, 0, 57, 0, 54, 9, 0, 0, 46, 0, 0, 52, 59, 28, 0, 0, 0, 0, 26, 47, 0
|56, 30, 0, 0, 36, 50, 40, 18, 0, 42, 8, 0, 0, 44, 64, 0, 0, 0, 0, 3, 10, 59, 55, 0, 0, 0, 19, 46, 0, 0, 0, 21, 0, 0, 0, 0, 0, 0, 45, 0, 0, 52, 48, 15, 0, 14, 62, 0, 0, 0, 11, 24, 0, 58, 0, 0, 53, 51, 0, 27, 0, 0, 54, 12
|0, 0, 3, 44, 9, 7, 0, 34, 0, 0, 53, 52, 27, 0, 58, 0, 0, 0, 6, 0, 18, 28, 0, 62, 42, 0, 61, 0, 11, 55, 57, 0, 0, 0, 0, 1, 0, 0, 40, 0, 41, 0, 33, 4, 59, 50, 10, 0, 0, 8, 64, 0, 0, 0, 26, 19, 0, 0, 49, 0, 0, 23, 0, 0
|28, 14, 0, 23, 0, 0, 0, 35, 0, 0, 0, 0, 18, 0, 46, 0, 45, 17, 0, 43, 24, 0, 53, 0, 48, 0, 0, 0, 38, 0, 51, 0, 47, 0, 0, 63, 0, 0, 15, 0, 27, 0, 5, 0, 2, 37, 34, 0, 0, 0, 0, 0, 41, 21, 0, 0, 0, 0, 19, 0, 0, 0, 0, 9
|0, 48, 5, 0, 42, 0, 0, 46, 39, 28, 0, 61, 62, 0, 0, 47, 0, 0, 0, 8, 0, 15, 0, 0, 36, 6, 59, 0, 0, 0, 0, 12, 34, 0, 0, 0, 0, 0, 52, 0, 0, 0, 0, 0, 0, 55, 0, 18, 0, 0, 57, 0, 0, 13, 22, 0, 0, 43, 33, 0, 0, 14, 0, 0
|51, 21, 0, 0, 0, 0, 38, 0, 0, 0, 32, 45, 56, 54, 41, 0, 0, 0, 20, 26, 9, 31, 0, 4, 0, 27, 0, 28, 5, 0, 15, 0, 0, 59, 35, 0, 30, 50, 25, 0, 0, 0, 13, 0, 0, 0, 0, 58, 37, 47, 0, 48, 18, 12, 0, 0, 36, 0, 61, 0, 34, 17, 11, 42
|40, 36, 0, 18, 6, 29, 17, 14, 45, 51, 0, 0, 43, 55, 39, 22, 34, 38, 58, 0, 0, 25, 0, 50, 0, 0, 0, 19, 0, 0, 63, 31, 0, 1, 0, 13, 0, 0, 7, 12, 0, 0, 35, 0, 54, 8, 0, 0, 0, 26, 16, 59, 3, 0, 28, 10, 0, 0, 27, 15, 0, 57, 0, 48
|26, 28, 0, 2, 0, 0, 56, 57, 11, 7, 16, 1, 0, 0, 0, 42, 0, 9, 27, 15, 8, 41, 6, 0, 21, 55, 3, 0, 59, 22, 0, 0, 62, 31, 0, 4, 0, 37, 0, 0, 0, 0, 51, 63, 0, 47, 52, 19, 32, 48, 5, 14, 0, 45, 0, 0, 0, 0, 50, 12, 0, 24, 0, 36
|0, 0, 0, 38, 0, 11, 33, 0, 0, 0, 0, 9, 0, 17, 49, 0, 3, 0, 0, 30, 28, 32, 42, 0, 0, 64, 0, 0, 0, 0, 0, 51, 0, 36, 0, 16, 34, 0, 58, 0, 6, 13, 55, 0, 39, 26, 0, 0, 18, 23, 0, 52, 12, 0, 0, 1, 59, 0, 0, 0, 0, 0, 0, 0
|0, 7, 24, 5, 0, 19, 0, 61, 47, 2, 0, 0, 54, 36, 23, 0, 0, 0, 0, 0, 0, 39, 0, 0, 0, 56, 28, 0, 0, 0, 60, 18, 25, 52, 0, 0, 0, 59, 0, 26, 14, 0, 0, 0, 20, 0, 27, 0, 0, 0, 13, 0, 31, 0, 21, 30, 29, 0, 0, 0, 35, 51, 0, 3
|50, 34, 39, 47, 0, 0, 52, 0, 0, 0, 0, 38, 8, 0, 0, 0, 18, 57, 59, 2, 0, 0, 0, 49, 32, 0, 0, 0, 36, 0, 0, 0, 0, 0, 0, 44, 0, 0, 28, 0, 61, 0, 0, 12, 30, 42, 0, 0, 20, 24, 15, 9, 29, 7, 60, 35, 31, 0, 0, 14, 37, 0, 0, 0
|0, 41, 0, 3, 0, 16, 12, 0, 0, 0, 19, 0, 0, 0, 29, 56, 13, 54, 37, 1, 0, 0, 44, 53, 34, 11, 7, 43, 0, 14, 8, 33, 0, 0, 0, 21, 0, 30, 17, 35, 0, 0, 24, 0, 0, 32, 46, 0, 63, 0, 0, 47, 0, 51, 39, 49, 45, 0, 0, 0, 0, 52, 18, 55
|60, 0, 51, 0, 55, 0, 1, 0, 0, 35, 0, 0, 32, 63, 0, 0, 19, 26, 0, 0, 62, 0, 47, 43, 9, 0, 12, 0, 0, 13, 25, 58, 0, 56, 0, 0, 3, 29, 0, 42, 28, 16, 0, 0, 0, 5, 18, 0, 61, 0, 37, 0, 27, 2, 0, 0, 0, 11, 17, 0, 0, 6, 23, 0
|0, 46, 35, 0, 13, 32, 0, 0, 41, 59, 40, 0, 58, 0, 0, 0, 0, 0, 7, 0, 29, 36, 52, 0, 16, 0, 0, 0, 50, 37, 39, 0, 27, 0, 6, 0, 0, 0, 49, 0, 45, 3, 0, 1, 9, 64, 0, 2, 34, 0, 56, 17, 0, 44, 11, 55, 33, 0, 63, 38, 0, 47, 0, 54
|18, 0, 41, 0, 0, 17, 0, 29, 24, 0, 0, 26, 0, 16, 56, 43, 0, 0, 22, 0, 0, 0, 0, 0, 0, 0, 0, 47, 13, 59, 23, 4, 51, 0, 0, 0, 5, 0, 38, 0, 52, 0, 0, 0, 0, 30, 0, 0, 1, 9, 20, 0, 14, 19, 0, 0, 0, 7, 11, 0, 0, 0, 33, 0
|0, 0, 36, 35, 52, 0, 0, 56, 32, 0, 0, 42, 60, 0, 0, 0, 0, 44, 0, 0, 53, 61, 0, 46, 43, 0, 10, 0, 0, 12, 7, 0, 0, 0, 20, 0, 64, 0, 16, 63, 0, 0, 3, 0, 0, 19, 0, 0, 21, 17, 0, 0, 24, 0, 0, 48, 1, 25, 0, 41, 8, 58, 59, 0
|0, 64, 0, 0, 0, 0, 0, 13, 0, 17, 44, 10, 6, 0, 0, 0, 0, 0, 21, 0, 0, 3, 7, 23, 28, 0, 0, 51, 0, 0, 53, 0, 0, 0, 29, 50, 0, 46, 0, 55, 58, 0, 20, 0, 18, 0, 1, 14, 0, 0, 0, 42, 0, 0, 0, 0, 0, 9, 0, 0, 0, 0, 32, 31
|0, 44, 22, 9, 50, 12, 59, 0, 0, 58, 0, 36, 0, 0, 51, 5, 43, 41, 0, 0, 0, 27, 0, 0, 49, 0, 52, 64, 0, 39, 16, 34, 0, 11, 14, 23, 56, 0, 0, 19, 0, 21, 32, 0, 31, 24, 0, 8, 47, 0, 0, 0, 0, 0, 40, 18, 0, 53, 35, 10, 0, 38, 6, 63
|0, 0, 0, 0, 26, 0, 0, 0, 0, 15, 14, 27, 45, 46, 52, 33, 0, 13, 38, 0, 42, 0, 18, 9, 19, 1, 40, 0, 0, 48, 0, 0, 0, 0, 0, 0, 61, 0, 31, 4, 0, 0, 44, 17, 5, 2, 0, 0, 6, 0, 0, 25, 35, 0, 0, 0, 0, 0, 29, 22, 51, 54, 60, 0
|0, 0, 0, 28, 0, 14, 20, 0, 0, 29, 0, 7, 0, 59, 0, 0, 16, 24, 45, 0, 0, 19, 39, 0, 11, 0, 0, 37, 0, 0, 0, 25, 0, 42, 57, 41, 48, 49, 2, 17, 0, 0, 38, 13, 15, 35, 0, 60, 36, 0, 0, 4, 22, 55, 0, 3, 0, 47, 0, 18, 64, 0, 26, 0
|19, 53, 6, 7, 33, 39, 0, 31, 30, 0, 35, 18, 55, 23, 22, 8, 0, 1, 49, 0, 60, 51, 0, 0, 0, 0, 0, 0, 63, 0, 0, 38, 0, 0, 0, 0, 62, 0, 21, 44, 0, 27, 36, 0, 16, 10, 0, 0, 64, 61, 0, 34, 11, 26, 32, 0, 46, 24, 12, 0, 0, 0, 2, 0
|0, 0, 0, 0, 0, 0, 0, 58, 0, 0, 0, 21, 19, 20, 0, 12, 31, 10, 0, 59, 0, 63, 0, 0, 0, 0, 9, 0, 41, 36, 6, 0, 0, 25, 22, 32, 0, 0, 13, 47, 51, 0, 64, 56, 0, 45, 0, 7, 16, 33, 49, 0, 0, 0, 0, 0, 15, 0, 14, 4, 0, 0, 0, 0
|0, 49, 29, 19, 0, 8, 28, 0, 0, 0, 27, 0, 53, 0, 0, 0, 0, 2, 64, 44, 0, 0, 0, 31, 0, 4, 0, 55, 9, 0, 34, 0, 61, 26, 0, 0, 50, 35, 0, 33, 0, 18, 42, 0, 0, 0, 0, 12, 0, 0, 0, 0, 0, 0, 0, 25, 0, 58, 0, 60, 48, 1, 0, 0
|52, 61, 0, 0, 2, 0, 0, 0, 34, 0, 0, 48, 0, 6, 42, 58, 25, 36, 51, 0, 0, 0, 59, 0, 0, 40, 0, 45, 57, 0, 0, 0, 0, 13, 11, 47, 15, 0, 0, 54, 0, 17, 50, 16, 32, 0, 0, 0, 0, 0, 0, 5, 4, 0, 41, 0, 0, 37, 0, 0, 21, 0, 12, 18
|0, 10, 17, 0, 7, 0, 0, 0, 0, 38, 0, 0, 0, 0, 0, 51, 57, 52, 0, 5, 0, 0, 60, 58, 0, 0, 36, 33, 56, 50, 43, 59, 28, 40, 0, 0, 0, 0, 18, 0, 0, 0, 62, 0, 8, 0, 0, 13, 0, 16, 0, 23, 0, 0, 0, 0, 55, 0, 0, 0, 0, 44, 0, 25
|20, 58, 0, 24, 0, 44, 0, 0, 21, 0, 55, 0, 0, 0, 0, 3, 1, 18, 0, 32, 41, 6, 19, 0, 0, 0, 35, 22, 0, 0, 14, 64, 0, 0, 5, 0, 31, 0, 37, 0, 39, 49, 43, 0, 53, 0, 48, 30, 40, 0, 0, 15, 0, 0, 0, 46, 0, 0, 0, 59, 61, 13, 52, 8
|0, 39, 0, 0, 0, 0, 11, 1, 64, 9, 45, 35, 59, 40, 0, 29, 17, 50, 0, 0, 0, 22, 43, 7, 10, 0, 62, 0, 0, 47, 0, 53, 0, 0, 30, 0, 0, 0, 0, 0, 33, 0, 0, 41, 58, 0, 0, 27, 0, 2, 18, 36, 37, 61, 12, 0, 0, 0, 32, 3, 0, 0, 0, 0
|42, 0, 0, 0, 46, 0, 0, 40, 12, 0, 0, 47, 15, 62, 0, 0, 28, 0, 0, 0, 0, 24, 33, 0, 0, 20, 0, 0, 0, 7, 31, 0, 0, 53, 0, 39, 0, 32, 0, 58, 19, 6, 0, 37, 0, 21, 64, 0, 0, 27, 51, 22, 10, 48, 0, 0, 38, 0, 0, 30, 0, 0, 34, 0
|0, 25, 0, 57, 0, 0, 27, 0, 0, 0, 0, 13, 0, 61, 0, 0, 47, 49, 0, 23, 0, 0, 20, 21, 37, 16, 63, 0, 0, 8, 19, 0, 3, 62, 0, 0, 0, 12, 0, 2, 0, 59, 0, 0, 4, 15, 51, 26, 0, 32, 1, 58, 0, 31, 50, 0, 0, 41, 0, 29, 0, 0, 39, 28
|35, 0, 48, 0, 0, 0, 3, 0, 0, 0, 63, 0, 37, 5, 43, 0, 26, 29, 0, 0, 0, 0, 0, 61, 41, 13, 0, 0, 51, 0, 27, 1, 57, 14, 34, 25, 0, 17, 46, 0, 0, 36, 52, 0, 24, 23, 2, 28, 0, 0, 0, 0, 0, 53, 0, 0, 47, 49, 16, 0, 0, 42, 0, 15
|23, 0, 0, 16, 0, 0, 0, 7, 0, 27, 15, 0, 2, 25, 6, 0, 64, 0, 0, 0, 0, 53, 0, 17, 0, 0, 0, 0, 19, 0, 0, 0, 12, 0, 0, 60, 13, 36, 20, 57, 0, 0, 37, 30, 11, 0, 0, 56, 0, 51, 10, 32, 0, 0, 0, 29, 0, 40, 0, 0, 0, 0, 50, 0
|62, 0, 0, 0, 0, 63, 0, 3, 0, 0, 0, 0, 52, 29, 38, 35, 59, 56, 14, 0, 0, 0, 51, 5, 0, 0, 64, 60, 0, 43, 46, 0, 0, 0, 17, 0, 0, 0, 4, 0, 18, 7, 0, 0, 0, 0, 0, 0, 57, 0, 0, 31, 0, 0, 49, 20, 0, 0, 42, 26, 0, 30, 0, 0
|41, 1, 56, 0, 0, 0, 0, 0, 42, 12, 23, 8, 50, 0, 0, 34, 0, 0, 28, 16, 55, 0, 0, 0, 39, 0, 0, 0, 33, 0, 0, 17, 0, 0, 19, 3, 0, 9, 11, 0, 21, 53, 0, 0, 60, 0, 0, 15, 14, 45, 2, 37, 63, 0, 44, 58, 0, 0, 13, 61, 22, 0, 0, 64
|53, 0, 40, 0, 0, 60, 0, 25, 0, 0, 0, 3, 7, 0, 57, 10, 61, 0, 23, 50, 0, 18, 45, 2, 56, 0, 0, 0, 55, 0, 0, 0, 0, 63, 0, 58, 0, 0, 0, 16, 48, 38, 27, 20, 12, 0, 0, 49, 41, 64, 59, 0, 0, 0, 24, 0, 0, 0, 0, 0, 52, 0, 0, 0
|0, 38, 43, 17, 0, 0, 0, 0, 14, 0, 9, 0, 21, 0, 0, 0, 0, 40, 30, 22, 0, 52, 34, 0, 0, 0, 20, 0, 53, 0, 0, 0, 26, 0, 0, 59, 0, 39, 0, 0, 47, 42, 6, 64, 0, 4, 0, 0, 55, 13, 0, 54, 19, 3, 0, 0, 0, 28, 0, 0, 0, 37, 16, 56
|58, 35, 27, 0, 10, 0, 29, 48, 59, 0, 5, 0, 0, 56, 17, 55, 54, 6, 0, 49, 13, 8, 31, 0, 47, 0, 0, 4, 0, 0, 2, 0, 0, 37, 15, 33, 51, 0, 62, 41, 3, 0, 46, 9, 0, 52, 26, 0, 0, 12, 0, 0, 16, 40, 0, 0, 0, 57, 23, 0, 0, 20, 0, 0
|0, 0, 0, 64, 0, 0, 0, 0, 58, 0, 0, 54, 40, 53, 0, 49, 12, 15, 0, 0, 0, 0, 38, 19, 35, 34, 0, 14, 0, 9, 0, 37, 0, 24, 0, 0, 52, 25, 22, 0, 0, 1, 23, 0, 45, 0, 16, 5, 39, 60, 0, 0, 0, 30, 0, 0, 44, 59, 0, 0, 0, 0, 10, 0
|0, 0, 0, 20, 0, 49, 54, 0, 19, 0, 61, 32, 47, 51, 0, 0, 33, 0, 36, 0, 0, 0, 0, 0, 1, 0, 0, 0, 40, 28, 41, 29, 30, 8, 0, 0, 44, 56, 0, 31, 0, 0, 0, 2, 17, 39, 0, 50, 23, 0, 42, 0, 0, 0, 0, 0, 0, 38, 0, 0, 14, 0, 0, 27
|33, 19, 16, 0, 0, 0, 0, 15, 40, 0, 60, 17, 48, 39, 0, 38, 0, 34, 4, 61, 1, 0, 23, 25, 0, 0, 0, 3, 0, 18, 50, 54, 0, 43, 0, 0, 53, 7, 64, 9, 11, 37, 0, 0, 42, 0, 0, 63, 0, 57, 28, 0, 0, 49, 0, 22, 0, 0, 30, 0, 56, 5, 14, 26
|0, 52, 14, 1, 0, 0, 7, 0, 28, 0, 42, 64, 5, 15, 0, 0, 58, 0, 32, 0, 38, 54, 40, 10, 0, 36, 26, 0, 0, 57, 13, 0, 46, 30, 33, 0, 0, 0, 56, 0, 0, 0, 60, 0, 0, 0, 0, 0, 43, 0, 0, 0, 0, 0, 0, 0, 16, 0, 59, 0, 0, 49, 27, 47
|0, 0, 0, 0, 23, 47, 34, 0, 0, 10, 0, 0, 0, 22, 8, 13, 0, 0, 0, 0, 0, 43, 3, 33, 53, 0, 42, 0, 27, 16, 21, 0, 0, 0, 25, 49, 26, 51, 0, 0, 46, 56, 0, 50, 61, 0, 57, 1, 0, 0, 0, 30, 64, 63, 0, 6, 18, 0, 9, 0, 54, 48, 4, 0
|0, 11, 60, 29, 17, 0, 45, 0, 57, 0, 0, 58, 36, 0, 0, 0, 24, 14, 48, 0, 0, 47, 0, 0, 8, 0, 22, 61, 0, 0, 40, 0, 19, 0, 0, 0, 0, 0, 41, 0, 64, 0, 49, 0, 0, 0, 0, 0, 44, 55, 3, 39, 2, 38, 0, 13, 0, 32, 52, 0, 0, 28, 63, 0
|57, 22, 62, 6, 25, 40, 0, 0, 26, 0, 54, 59, 0, 0, 53, 0, 0, 27, 0, 0, 50, 17, 0, 60, 38, 0, 0, 0, 39, 0, 52, 19, 0, 0, 42, 0, 32, 21, 1, 0, 10, 9, 0, 0, 0, 18, 8, 0, 0, 14, 31, 7, 45, 0, 15, 33, 0, 0, 20, 13, 12, 46, 0, 0
|0, 0, 0, 0, 0, 0, 0, 0, 0, 45, 21, 0, 33, 0, 2, 7, 0, 64, 18, 0, 0, 20, 36, 0, 0, 59, 0, 0, 35, 0, 0, 6, 0, 47, 44, 0, 28, 0, 48, 52, 0, 0, 0, 0, 3, 0, 54, 0, 0, 34, 0, 0, 17, 0, 58, 0, 37, 0, 0, 43, 0, 0, 42, 51
|0, 0, 0, 43, 61, 0, 58, 0, 51, 0, 0, 0, 0, 0, 62, 19, 0, 0, 0, 0, 0, 30, 0, 0, 0, 0, 0, 0, 4, 64, 0, 0, 0, 3, 0, 0, 60, 0, 35, 0, 0, 0, 29, 21, 33, 20, 39, 0, 27, 54, 47, 0, 0, 0, 9, 0, 22, 0, 6, 25, 0, 0, 1, 44
|49, 3, 0, 26, 0, 37, 0, 0, 0, 0, 0, 0, 0, 0, 34, 0, 9, 42, 0, 0, 7, 0, 13, 0, 63, 28, 0, 58, 0, 20, 0, 47, 0, 38, 62, 0, 22, 23, 0, 0, 0, 5, 4, 0, 14, 36, 0, 43, 0, 40, 21, 0, 0, 41, 1, 0, 57, 10, 8, 53, 50, 39, 19, 0
|0, 0, 0, 0, 0, 21, 15, 17, 0, 0, 31, 0, 0, 0, 7, 9, 22, 32, 40, 0, 0, 0, 0, 28, 0, 0, 50, 0, 0, 19, 0, 48, 0, 0, 60, 35, 54, 5, 0, 0, 4, 25, 0, 0, 0, 0, 49, 0, 46, 0, 61, 0, 44, 0, 0, 0, 64, 0, 0, 47, 0, 0, 0, 0
|0, 0, 0, 0, 20, 0, 63, 39, 0, 56, 38, 62, 0, 32, 27, 0, 0, 0, 0, 24, 58, 42, 0, 0, 0, 47, 0, 0, 64, 0, 35, 0, 21, 45, 13, 0, 0, 0, 0, 28, 0, 0, 0, 0, 26, 0, 7, 0, 31, 0, 17, 0, 0, 0, 0, 0, 0, 0, 43, 0, 41, 61, 0, 0
|0, 0, 25, 41, 0, 0, 0, 16, 0, 34, 0, 49, 4, 0, 54, 0, 0, 62, 50, 46, 21, 0, 0, 0, 27, 0, 0, 11, 43, 3, 0, 0, 0, 0, 59, 7, 0, 24, 10, 53, 60, 0, 0, 0, 0, 0, 13, 61, 30, 39, 48, 63, 56, 0, 45, 0, 0, 0, 0, 0, 0, 0, 15, 0
|54, 0, 0, 56, 38, 24, 0, 0, 0, 39, 59, 55, 23, 42, 0, 60, 0, 0, 52, 0, 0, 26, 64, 18, 0, 7, 0, 13, 0, 17, 0, 46, 1, 0, 51, 0, 0, 0, 12, 0, 53, 48, 11, 45, 0, 0, 0, 36, 10, 29, 62, 0, 15, 50, 0, 0, 4, 0, 34, 0, 9, 0, 0, 0
|0, 0, 4, 0, 0, 46, 9, 27, 0, 40, 47, 44, 0, 0, 0, 0, 0, 0, 0, 0, 33, 0, 0, 37, 2, 0, 32, 36, 0, 51, 5, 30, 0, 48, 0, 0, 0, 38, 42, 0, 15, 0, 39, 22, 0, 0, 28, 24, 26, 0, 8, 16, 55, 0, 0, 14, 49, 0, 60, 0, 0, 59, 0, 0
|0, 0, 50, 0, 0, 0, 23, 26, 13, 19, 0, 0, 0, 8, 0, 53, 41, 0, 0, 0, 34, 16, 0, 0, 0, 21, 0, 63, 0, 52, 12, 28, 6, 33, 0, 30, 0, 18, 36, 0, 29, 0, 59, 32, 55, 17, 0, 0, 0, 0, 0, 2, 0, 0, 0, 0, 0, 14, 25, 56, 0, 10, 0, 0
|61, 0, 0, 31, 0, 0, 0, 28, 22, 43, 48, 6, 30, 0, 36, 16, 14, 0, 54, 38, 44, 49, 15, 56, 40, 8, 0, 39, 45, 0, 0, 0, 17, 57, 0, 0, 4, 0, 29, 0, 0, 58, 0, 46, 62, 0, 42, 0, 0, 53, 0, 0, 59, 64, 13, 37, 7, 0, 1, 0, 23, 0, 0, 50
|13, 29, 18, 11, 40, 64, 0, 0, 0, 57, 0, 0, 63, 0, 10, 24, 0, 39, 60, 0, 17, 45, 1, 8, 33, 62, 31, 42, 26, 0, 38, 15, 56, 0, 37, 27, 0, 0, 0, 0, 0, 0, 54, 0, 35, 0, 50, 52, 0, 28, 0, 0, 0, 43, 47, 0, 51, 16, 0, 55, 0, 0, 44, 0|];