order = 8;
grid = [|0, 39, 59, 0, 25, 0, 0, 48, 0, 0, 31, 41, 13, 0, 0, 0, 0, 23, 0, 43, 0, 0, 0, 1, 0, 38, 0, 0, 51, 47, 46, 22, 0, 40, 0, 34, 2, 0, 0, 0, 0, 36, 15, 32, 0, 10, 0, 0, 0, 55, 35, 62, 0, 57, 4, 49, 64, 52, 0, 21, 0, 11, 44, 0
|0, 46, 0, 0, 0, 6, 30, 0, 39, 0, 0, 0, 0, 0, 34, 0, 0, 15, 0, 0, 7, 48, 0, 0, 32, 0, 10, 28, 36, 0, 0, 0, 47, 56, 0, 8, 0, 0, 0, 0, 60, 23, 40, 49, 0, 50, 0, 0, 13, 11, 12, 0, 58, 21, 41, 0, 0, 45, 0, 0, 0, 0, 0, 0
|0, 0, 33, 58, 0, 0, 34, 0, 0, 36, 0, 0, 0, 47, 0, 0, 0, 0, 27, 0, 0, 21, 0, 0, 0, 0, 25, 0, 53, 0, 0, 49, 0, 0, 54, 22, 0, 50, 15, 0, 48, 0, 9, 0, 18, 0, 38, 0, 0, 17, 0, 42, 0, 26, 0, 64, 0, 0, 14, 0, 0, 0, 0, 51
|0, 0, 63, 4, 32, 0, 0, 13, 23, 0, 61, 0, 21, 38, 59, 64, 44, 22, 49, 53, 34, 0, 60, 0, 0, 3, 0, 40, 7, 41, 0, 0, 39, 36, 0, 0, 0, 0, 0, 0, 1, 0, 0, 0, 0, 0, 0, 33, 8, 0, 27, 16, 0, 0, 0, 0, 56, 43, 54, 30, 0, 0, 0, 6
|0, 0, 56, 53, 23, 7, 40, 0, 0, 0, 45, 0, 0, 0, 62, 0, 12, 47, 0, 0, 24, 0, 0, 0, 44, 0, 37, 0, 43, 8, 0, 2, 0, 32, 41, 55, 49, 0, 0, 46, 0, 0, 0, 30, 21, 0, 0, 39, 0, 9, 60, 0, 0, 0, 0, 0, 10, 0, 48, 57, 0, 0, 0, 0
|0, 0, 0, 60, 0, 49, 24, 0, 0, 53, 46, 0, 0, 0, 18, 0, 0, 28, 0, 0, 8, 13, 5, 63, 1, 50, 0, 0, 55, 20, 56, 0, 38, 0, 0, 0, 0, 23, 21, 0, 7, 43, 0, 14, 44, 0, 0, 12, 10, 39, 30, 34, 22, 0, 0, 45, 0, 9, 0, 0, 32, 0, 0, 3
|0, 0, 0, 0, 0, 41, 51, 3, 0, 0, 14, 0, 8, 0, 0, 30, 0, 0, 33, 19, 0, 0, 26, 31, 0, 4, 16, 57, 45, 0, 17, 0, 0, 48, 35, 28, 0, 0, 42, 64, 5, 37, 0, 58, 62, 53, 0, 0, 24, 0, 0, 0, 1, 7, 0, 40, 13, 36, 50, 34, 0, 0, 46, 23
|0, 45, 0, 0, 0, 0, 0, 0, 25, 16, 50, 15, 52, 0, 0, 32, 0, 0, 0, 46, 0, 0, 38, 11, 0, 62, 0, 31, 48, 0, 0, 14, 13, 5, 33, 0, 0, 0, 0, 1, 0, 4, 8, 64, 0, 0, 35, 57, 53, 36, 0, 0, 0, 0, 2, 47, 49, 37, 0, 0, 0, 7, 0, 0
|42, 7, 18, 61, 10, 0, 50, 0, 0, 34, 15, 0, 0, 0, 30, 6, 16, 0, 0, 49, 62, 0, 29, 33, 55, 0, 46, 0, 0, 36, 45, 0, 58, 0, 51, 44, 0, 21, 35, 0, 0, 40, 24, 28, 0, 0, 56, 20, 64, 54, 19, 25, 0, 5, 0, 0, 0, 60, 0, 47, 37, 3, 13, 48
|0, 62, 0, 21, 0, 9, 0, 25, 0, 48, 0, 0, 0, 0, 0, 0, 54, 0, 57, 0, 45, 0, 0, 0, 0, 19, 0, 0, 64, 44, 6, 0, 42, 15, 32, 0, 59, 63, 0, 0, 43, 3, 18, 0, 51, 0, 34, 0, 52, 46, 0, 30, 24, 0, 0, 0, 0, 53, 38, 22, 2, 0, 35, 40
|0, 0, 2, 0, 0, 0, 0, 0, 0, 0, 0, 0, 45, 0, 0, 62, 52, 0, 28, 58, 17, 1, 0, 0, 0, 20, 13, 0, 0, 21, 48, 3, 0, 37, 0, 30, 0, 40, 39, 0, 0, 0, 0, 0, 0, 26, 0, 0, 0, 61, 0, 0, 0, 0, 0, 0, 0, 0, 0, 59, 56, 0, 0, 33
|0, 59, 41, 0, 0, 0, 45, 64, 0, 0, 0, 39, 42, 0, 19, 46, 3, 0, 0, 0, 20, 0, 0, 0, 0, 32, 30, 0, 62, 0, 0, 0, 0, 43, 0, 47, 0, 0, 0, 0, 0, 0, 0, 55, 0, 0, 0, 0, 38, 0, 14, 0, 11, 0, 21, 0, 29, 58, 0, 52, 0, 24, 6, 0
|55, 0, 32, 1, 22, 0, 0, 33, 17, 10, 58, 52, 0, 35, 31, 20, 0, 2, 0, 25, 11, 40, 0, 44, 39, 59, 63, 5, 26, 15, 0, 12, 0, 0, 0, 0, 29, 45, 13, 57, 0, 0, 0, 37, 0, 0, 14, 53, 0, 0, 42, 28, 0, 0, 7, 51, 0, 62, 27, 0, 21, 50, 41, 0
|53, 38, 0, 63, 54, 0, 0, 28, 1, 14, 36, 0, 3, 0, 0, 12, 55, 46, 60, 37, 0, 0, 10, 0, 0, 0, 0, 0, 0, 35, 47, 0, 33, 0, 0, 0, 25, 6, 20, 0, 0, 0, 61, 0, 48, 27, 0, 29, 56, 0, 57, 45, 0, 0, 0, 0, 44, 16, 31, 0, 0, 0, 11, 64
|57, 14, 0, 0, 30, 29, 39, 8, 0, 21, 0, 0, 22, 0, 0, 0, 36, 35, 0, 59, 0, 34, 0, 0, 33, 10, 0, 58, 2, 37, 38, 43, 18, 0, 0, 0, 0, 0, 0, 17, 50, 6, 0, 0, 49, 0, 15, 25, 0, 0, 0, 0, 0, 60, 0, 0, 0, 1, 19, 0, 51, 46, 5, 12
|60, 0, 0, 0, 0, 52, 46, 40, 0, 0, 26, 0, 0, 56, 0, 49, 0, 21, 15, 42, 0, 0, 18, 0, 0, 11, 50, 0, 0, 0, 14, 0, 0, 0, 0, 19, 24, 0, 41, 0, 0, 0, 32, 0, 0, 0, 33, 58, 62, 23, 36, 0, 0, 0, 0, 0, 0, 20, 45, 28, 0, 57, 54, 34
|43, 0, 0, 62, 0, 0, 0, 1, 20, 55, 33, 0, 0, 24, 0, 37, 7, 27, 63, 22, 0, 0, 0, 0, 0, 0, 8, 36, 0, 26, 0, 0, 56, 51, 0, 42, 0, 25, 64, 0, 61, 14, 3, 57, 5, 58, 59, 0, 49, 0, 0, 0, 0, 40, 0, 17, 0, 0, 10, 12, 0, 0, 45, 30
|0, 0, 39, 41, 46, 19, 29, 0, 60, 61, 0, 5, 59, 0, 0, 43, 0, 13, 48, 3, 26, 0, 30, 38, 9, 0, 6, 16, 17, 42, 0, 31, 34, 0, 0, 0, 0, 22, 57, 7, 0, 54, 4, 0, 0, 33, 0, 56, 0, 28, 0, 0, 0, 0, 0, 55, 25, 24, 23, 0, 0, 0, 0, 0
|20, 55, 5, 52, 0, 0, 33, 4, 0, 0, 0, 12, 0, 0, 25, 21, 0, 53, 59, 0, 0, 51, 0, 0, 19, 58, 39, 0, 3, 30, 0, 0, 15, 17, 0, 0, 0, 0, 24, 43, 0, 0, 41, 22, 27, 0, 11, 60, 0, 0, 0, 29, 0, 0, 0, 0, 0, 6, 0, 0, 18, 34, 1, 54
|54, 0, 42, 0, 0, 23, 0, 17, 0, 0, 0, 36, 0, 11, 53, 28, 0, 37, 12, 45, 0, 0, 0, 40, 0, 0, 55, 25, 0, 50, 41, 18, 61, 58, 0, 0, 0, 0, 33, 9, 0, 24, 0, 44, 8, 0, 48, 43, 0, 20, 47, 57, 59, 34, 0, 6, 0, 0, 62, 0, 26, 64, 0, 46
|0, 3, 0, 0, 61, 28, 0, 0, 0, 9, 0, 0, 23, 19, 0, 27, 34, 0, 55, 0, 0, 33, 0, 0, 0, 0, 52, 0, 10, 0, 0, 0, 26, 0, 4, 39, 0, 37, 0, 53, 0, 50, 0, 0, 6, 0, 0, 0, 54, 0, 48, 24, 0, 0, 0, 0, 21, 0, 60, 0, 20, 0, 49, 58
|0, 48, 0, 47, 0, 0, 0, 0, 0, 18, 0, 10, 0, 34, 6, 7, 17, 8, 54, 0, 29, 0, 43, 61, 49, 15, 0, 0, 60, 53, 0, 0, 0, 59, 50, 63, 0, 0, 55, 0, 0, 0, 25, 0, 0, 38, 0, 0, 0, 0, 0, 39, 0, 27, 0, 0, 57, 0, 3, 0, 0, 0, 0, 52
|18, 0, 58, 26, 0, 40, 9, 0, 0, 31, 54, 0, 0, 0, 1, 50, 0, 25, 0, 32, 44, 39, 2, 0, 56, 37, 21, 0, 0, 0, 34, 57, 30, 28, 3, 49, 0, 60, 0, 0, 19, 13, 55, 0, 47, 0, 0, 0, 0, 35, 0, 10, 42, 0, 0, 0, 53, 0, 41, 0, 7, 27, 0, 59
|0, 0, 10, 0, 0, 38, 57, 37, 63, 46, 0, 16, 44, 52, 45, 0, 0, 0, 0, 0, 0, 42, 36, 0, 0, 0, 59, 29, 4, 48, 27, 0, 0, 0, 31, 0, 54, 20, 0, 6, 18, 34, 0, 26, 0, 0, 0, 64, 0, 0, 41, 56, 0, 32, 0, 0, 0, 33, 0, 5, 50, 61, 0, 55
|0, 0, 0, 0, 0, 33, 44, 14, 0, 0, 0, 0, 0, 0, 0, 0, 26, 4, 23, 0, 35, 0, 52, 30, 28, 22, 49, 47, 13, 0, 55, 8, 0, 0, 0, 0, 41, 39, 0, 0, 0, 25, 21, 48, 0, 32, 42, 54, 6, 5, 0, 40, 64, 51, 0, 36, 16, 0, 1, 2, 0, 29, 56, 63
|46, 30, 0, 50, 2, 0, 0, 31, 4, 8, 32, 13, 25, 0, 0, 57, 0, 0, 0, 40, 0, 15, 20, 0, 52, 0, 14, 0, 6, 0, 0, 9, 0, 0, 64, 0, 22, 26, 0, 19, 55, 49, 0, 0, 23, 0, 0, 27, 48, 10, 21, 7, 0, 0, 0, 0, 0, 44, 28, 0, 0, 45, 0, 0
|0, 18, 37, 0, 36, 54, 0, 62, 55, 0, 0, 0, 0, 0, 0, 0, 14, 16, 0, 0, 25, 0, 42, 47, 0, 0, 3, 0, 0, 0, 7, 21, 0, 34, 0, 0, 6, 0, 10, 30, 51, 0, 0, 0, 15, 0, 8, 50, 0, 59, 0, 9, 0, 0, 0, 0, 17, 27, 53, 0, 24, 31, 0, 0
|22, 21, 57, 0, 0, 53, 0, 7, 49, 0, 0, 1, 27, 50, 28, 47, 56, 0, 10, 0, 0, 0, 0, 0, 4, 0, 36, 64, 0, 0, 0, 62, 0, 11, 63, 0, 0, 0, 0, 0, 52, 44, 0, 0, 16, 24, 26, 18, 0, 30, 15, 20, 0, 0, 0, 0, 8, 0, 0, 3, 0, 0, 0, 32
|8, 58, 48, 0, 47, 0, 32, 61, 42, 60, 16, 40, 30, 31, 0, 0, 57, 0, 6, 0, 28, 0, 7, 0, 0, 25, 0, 27, 12, 38, 0, 50, 0, 0, 44, 0, 33, 59, 17, 23, 62, 39, 0, 11, 1, 45, 10, 9, 0, 52, 0, 55, 0, 41, 0, 0, 0, 0, 0, 0, 0, 0, 0, 4
|4, 24, 40, 0, 45, 1, 0, 0, 0, 0, 43, 0, 0, 51, 0, 0, 59, 0, 0, 13, 32, 54, 0, 55, 0, 0, 29, 0, 11, 0, 60, 0, 0, 12, 0, 38, 61, 0, 0, 47, 37, 0, 0, 0, 63, 0, 53, 0, 28, 50, 0, 27, 25, 0, 0, 39, 22, 0, 0, 0, 49, 42, 10, 21
|0, 25, 3, 0, 0, 64, 0, 0, 35, 0, 0, 0, 0, 39, 0, 15, 8, 0, 11, 63, 19, 0, 44, 0, 43, 42, 48, 0, 0, 10, 30, 61, 0, 55, 56, 0, 0, 32, 0, 0, 0, 29, 59, 34, 0, 0, 28, 0, 1, 0, 0, 0, 0, 0, 0, 0, 41, 47, 6, 58, 9, 0, 7, 13
|0, 0, 0, 17, 0, 60, 19, 49, 0, 44, 0, 59, 10, 26, 0, 0, 0, 48, 22, 24, 0, 36, 0, 43, 40, 45, 0, 1, 0, 34, 39, 0, 28, 0, 0, 0, 53, 0, 14, 0, 0, 0, 0, 12, 0, 31, 0, 38, 35, 63, 56, 47, 4, 0, 54, 16, 0, 30, 52, 50, 57, 55, 23, 0
|48, 0, 44, 2, 0, 0, 0, 0, 0, 37, 0, 50, 0, 0, 57, 0, 31, 0, 0, 0, 43, 0, 0, 0, 0, 30, 9, 49, 56, 5, 0, 55, 0, 53, 13, 0, 0, 12, 36, 51, 29, 0, 0, 0, 24, 64, 25, 0, 0, 0, 17, 0, 0, 0, 0, 0, 0, 22, 0, 60, 0, 19, 58, 38
|0, 0, 0, 0, 27, 0, 38, 0, 12, 47, 44, 0, 36, 29, 61, 23, 0, 34, 30, 0, 53, 56, 40, 0, 59, 0, 0, 0, 0, 28, 0, 51, 0, 0, 8, 33, 17, 58, 48, 0, 54, 0, 0, 0, 0, 0, 0, 4, 41, 0, 37, 22, 0, 31, 24, 0, 0, 0, 26, 39, 0, 25, 0, 0
|0, 0, 28, 16, 40, 0, 0, 36, 8, 24, 0, 0, 0, 14, 2, 35, 32, 41, 37, 0, 47, 23, 59, 0, 3, 53, 22, 0, 58, 27, 44, 0, 0, 0, 20, 0, 63, 0, 0, 42, 17, 0, 34, 33, 0, 48, 0, 49, 0, 19, 0, 0, 54, 0, 15, 0, 5, 0, 0, 1, 0, 0, 52, 62
|3, 34, 0, 0, 33, 0, 0, 29, 62, 0, 13, 30, 31, 53, 49, 0, 24, 54, 38, 5, 36, 0, 45, 39, 6, 0, 0, 0, 52, 0, 25, 0, 44, 21, 19, 50, 0, 47, 16, 0, 15, 0, 0, 56, 0, 0, 0, 0, 23, 64, 51, 26, 0, 28, 0, 57, 0, 0, 0, 17, 0, 0, 0, 0
|0, 17, 45, 19, 31, 37, 23, 60, 52, 0, 20, 0, 51, 21, 0, 0, 63, 12, 0, 8, 48, 46, 1, 0, 38, 0, 61, 0, 0, 0, 0, 10, 62, 0, 0, 25, 0, 0, 0, 0, 35, 47, 5, 0, 11, 0, 55, 28, 42, 0, 16, 49, 36, 53, 30, 32, 4, 50, 29, 0, 3, 0, 24, 56
|7, 0, 8, 57, 41, 0, 0, 51, 0, 43, 10, 0, 17, 0, 39, 16, 64, 0, 0, 26, 0, 0, 22, 60, 20, 0, 0, 37, 35, 0, 21, 23, 24, 0, 2, 0, 0, 0, 0, 54, 13, 18, 36, 42, 0, 0, 12, 0, 5, 0, 0, 58, 0, 48, 0, 0, 0, 0, 0, 0, 0, 53, 0, 45
|0, 0, 0, 20, 0, 56, 0, 0, 48, 0, 0, 0, 34, 5, 0, 25, 0, 19, 7, 0, 0, 49, 17, 35, 0, 0, 41, 0, 31, 0, 0, 0, 0, 22, 28, 64, 0, 0, 4, 0, 53, 0, 38, 0, 0, 0, 0, 0, 59, 0, 29, 0, 0, 33, 52, 0, 37, 21, 13, 0, 46, 0, 0, 0
|13, 0, 0, 42, 18, 0, 0, 0, 0, 19, 59, 27, 4, 54, 3, 45, 0, 0, 25, 0, 55, 16, 14, 28, 0, 48, 43, 0, 34, 0, 29, 47, 5, 1, 26, 0, 0, 61, 38, 0, 0, 0, 0, 0, 0, 37, 40, 0, 0, 2, 63, 35, 0, 39, 0, 20, 0, 0, 0, 0, 30, 12, 33, 0
|52, 6, 26, 40, 53, 0, 64, 0, 7, 54, 0, 45, 18, 0, 0, 0, 0, 0, 51, 11, 63, 0, 0, 15, 47, 28, 23, 0, 0, 58, 31, 0, 32, 38, 0, 0, 0, 5, 44, 33, 24, 0, 42, 25, 0, 0, 62, 34, 0, 37, 0, 0, 21, 0, 0, 14, 0, 59, 0, 10, 12, 0, 9, 29
|61, 0, 0, 3, 0, 25, 41, 0, 0, 0, 0, 0, 46, 10, 21, 0, 38, 0, 0, 23, 14, 0, 55, 32, 0, 54, 53, 0, 22, 33, 49, 27, 0, 0, 30, 40, 0, 34, 9, 0, 0, 51, 13, 17, 0, 18, 0, 7, 0, 29, 4, 0, 0, 47, 0, 15, 0, 39, 57, 45, 63, 52, 0, 50
|0, 0, 1, 0, 15, 0, 0, 55, 24, 0, 23, 49, 39, 0, 5, 44, 37, 40, 20, 0, 0, 0, 54, 56, 36, 9, 0, 6, 30, 60, 8, 0, 50, 0, 0, 29, 7, 19, 0, 14, 0, 0, 0, 59, 0, 0, 63, 0, 0, 3, 0, 53, 18, 0, 57, 28, 51, 0, 0, 46, 34, 0, 0, 26
|36, 28, 23, 11, 42, 0, 0, 0, 34, 51, 0, 61, 0, 22, 0, 0, 33, 39, 21, 0, 64, 24, 0, 0, 62, 16, 32, 4, 0, 0, 19, 1, 20, 41, 10, 54, 55, 27, 63, 0, 0, 0, 0, 60, 0, 30, 0, 47, 44, 0, 0, 17, 45, 25, 50, 48, 58, 56, 18, 35, 0, 13, 37, 31
|0, 0, 50, 0, 0, 24, 2, 57, 0, 0, 0, 0, 0, 20, 0, 0, 28, 0, 4, 17, 13, 59, 25, 49, 64, 21, 45, 14, 37, 51, 3, 0, 1, 0, 22, 0, 0, 0, 0, 0, 9, 16, 23, 36, 0, 12, 39, 0, 63, 31, 33, 0, 35, 62, 55, 0, 27, 0, 5, 0, 54, 30, 61, 0
|0, 0, 0, 0, 13, 0, 7, 20, 2, 0, 8, 0, 33, 1, 0, 3, 18, 0, 34, 0, 0, 62, 31, 58, 0, 55, 0, 0, 0, 46, 0, 41, 0, 23, 0, 0, 21, 36, 0, 59, 0, 38, 0, 0, 19, 15, 6, 37, 0, 56, 0, 0, 51, 54, 0, 27, 11, 28, 16, 0, 22, 0, 48, 0
|59, 33, 27, 10, 58, 62, 37, 0, 32, 50, 0, 56, 11, 0, 0, 4, 0, 0, 0, 47, 0, 30, 6, 0, 0, 24, 0, 0, 0, 29, 0, 13, 51, 0, 0, 0, 0, 0, 61, 0, 0, 45, 54, 40, 14, 0, 0, 0, 0, 16, 0, 0, 46, 22, 38, 41, 23, 0, 0, 36, 8, 0, 0, 0
|39, 60, 0, 18, 21, 51, 0, 63, 16, 0, 25, 47, 9, 0, 0, 13, 0, 0, 0, 61, 0, 0, 41, 53, 5, 0, 0, 52, 40, 2, 0, 35, 0, 0, 24, 0, 0, 3, 0, 0, 27, 0, 0, 0, 0, 0, 0, 22, 34, 0, 11, 0, 23, 36, 20, 0, 1, 0, 7, 38, 0, 0, 14, 44
|23, 0, 0, 54, 37, 0, 0, 59, 44, 0, 0, 0, 24, 0, 40, 31, 0, 55, 47, 4, 0, 38, 61, 36, 0, 0, 0, 0, 0, 0, 0, 6, 0, 0, 34, 0, 46, 35, 0, 28, 39, 0, 48, 15, 17, 60, 0, 14, 0, 0, 7, 0, 19, 20, 49, 0, 45, 0, 0, 32, 5, 16, 53, 25
|32, 0, 0, 33, 0, 0, 0, 0, 3, 0, 39, 64, 6, 0, 20, 0, 46, 0, 0, 0, 59, 0, 27, 0, 45, 0, 18, 0, 50, 0, 0, 17, 53, 0, 0, 0, 57, 41, 0, 0, 16, 0, 0, 47, 4, 43, 0, 0, 0, 62, 54, 51, 0, 14, 0, 60, 42, 0, 0, 29, 44, 0, 0, 0
|58, 41, 38, 14, 0, 0, 43, 0, 36, 0, 34, 0, 63, 0, 17, 0, 0, 0, 0, 0, 31, 28, 11, 6, 48, 0, 40, 62, 29, 13, 0, 0, 22, 45, 0, 7, 0, 0, 0, 44, 0, 0, 0, 0, 0, 0, 5, 0, 0, 0, 55, 21, 50, 4, 35, 0, 0, 0, 24, 27, 0, 0, 0, 57
|25, 26, 30, 24, 57, 0, 48, 0, 14, 62, 0, 0, 49, 0, 60, 55, 0, 63, 0, 15, 18, 50, 53, 29, 0, 64, 47, 3, 33, 4, 37, 38, 0, 20, 5, 0, 0, 16, 32, 31, 0, 0, 0, 0, 34, 0, 0, 0, 0, 27, 39, 46, 0, 6, 56, 8, 9, 17, 35, 13, 0, 28, 0, 22
|0, 0, 34, 36, 0, 0, 22, 0, 18, 0, 27, 0, 0, 0, 0, 61, 35, 0, 19, 0, 0, 45, 0, 0, 41, 0, 5, 0, 0, 0, 28, 25, 8, 6, 49, 26, 0, 14, 0, 55, 23, 30, 0, 0, 42, 0, 0, 11, 17, 57, 0, 0, 15, 24, 0, 0, 0, 0, 0, 0, 0, 0, 20, 0
|16, 20, 0, 5, 0, 8, 15, 39, 0, 4, 0, 0, 0, 46, 0, 0, 49, 17, 64, 0, 0, 0, 13, 48, 0, 0, 0, 59, 0, 63, 36, 30, 12, 19, 61, 58, 42, 62, 52, 0, 57, 0, 0, 0, 28, 3, 0, 0, 0, 0, 23, 18, 41, 0, 53, 25, 0, 31, 56, 6, 14, 0, 26, 0
|0, 0, 0, 0, 0, 0, 0, 42, 0, 1, 0, 0, 35, 37, 0, 0, 40, 0, 0, 0, 3, 14, 0, 0, 53, 46, 11, 55, 23, 0, 0, 56, 17, 33, 0, 0, 13, 9, 59, 0, 6, 0, 0, 0, 31, 25, 32, 36, 0, 48, 0, 2, 28, 64, 0, 26, 54, 0, 49, 0, 38, 41, 0, 60
|49, 40, 6, 64, 0, 17, 4, 0, 0, 0, 28, 53, 16, 0, 15, 0, 41, 42, 0, 0, 12, 22, 0, 51, 7, 0, 44, 0, 0, 0, 0, 58, 25, 60, 48, 0, 0, 2, 0, 0, 26, 0, 0, 18, 37, 54, 0, 0, 47, 0, 31, 36, 0, 0, 0, 0, 50, 63, 46, 23, 1, 59, 0, 8
|63, 37, 0, 38, 9, 61, 0, 23, 21, 64, 1, 3, 0, 0, 0, 51, 53, 0, 0, 62, 60, 0, 0, 0, 29, 8, 0, 0, 0, 0, 0, 0, 0, 0, 0, 0, 0, 33, 28, 0, 0, 42, 0, 45, 0, 0, 0, 48, 0, 49, 22, 43, 47, 10, 0, 54, 52, 0, 30, 0, 41, 0, 0, 0
|1, 22, 31, 0, 64, 55, 0, 41, 15, 0, 0, 62, 54, 12, 52, 0, 0, 14, 56, 0, 4, 0, 39, 0, 11, 0, 2, 38, 0, 0, 18, 0, 0, 61, 0, 24, 0, 0, 43, 0, 47, 0, 28, 20, 35, 40, 36, 13, 57, 7, 3, 0, 0, 58, 63, 19, 46, 49, 0, 0, 0, 0, 0, 0
|0, 29, 0, 32, 0, 45, 36, 0, 53, 2, 0, 0, 56, 0, 10, 0, 0, 0, 42, 0, 0, 47, 0, 0, 61, 13, 58, 0, 0, 0, 22, 24, 0, 39, 0, 0, 14, 64, 30, 63, 25, 0, 33, 50, 0, 0, 0, 26, 60, 8, 0, 0, 0, 35, 0, 23, 59, 0, 0, 20, 0, 1, 16, 0
|0, 11, 60, 0, 0, 20, 0, 0, 38, 32, 6, 0, 0, 36, 0, 0, 15, 0, 0, 0, 21, 52, 0, 0, 0, 0, 0, 0, 0, 0, 0, 39, 0, 49, 17, 0, 0, 0, 0, 0, 0, 0, 37, 51, 0, 8, 43, 0, 0, 0, 0, 0, 0, 12, 16, 5, 19, 0, 63, 0, 53, 0, 27, 35
|12, 43, 15, 0, 24, 0, 16, 0, 59, 26, 35, 44, 0, 0, 8, 18, 61, 0, 0, 0, 49, 0, 63, 23, 50, 51, 0, 0, 21, 45, 9, 37, 11, 0, 52, 53, 27, 4, 0, 0, 0, 0, 0, 0, 22, 5, 1, 0, 0, 0, 0, 0, 62, 0, 0, 0, 60, 2, 0, 56, 28, 0, 0, 10
|33, 54, 49, 0, 0, 0, 0, 50, 0, 57, 40, 58, 60, 45, 0, 39, 0, 1, 0, 0, 0, 0, 0, 19, 26, 36, 31, 0, 0, 0, 0, 53, 23, 47, 0, 0, 62, 15, 0, 0, 0, 0, 16, 0, 7, 0, 0, 0, 0, 51, 20, 0, 30, 11, 0, 0, 32, 61, 44, 0, 0, 0, 0, 0
|40, 42, 53, 51, 0, 48, 0, 47, 50, 0, 0, 31, 37, 0, 0, 14, 9, 64, 41, 55, 16, 0, 0, 12, 0, 27, 0, 0, 0, 0, 52, 0, 0, 0, 58, 56, 35, 0, 1, 20, 0, 15, 0, 0, 38, 62, 18, 61, 21, 45, 28, 0, 0, 44, 0, 0, 34, 0, 33, 0, 13, 22, 0, 39
|10, 0, 0, 39, 56, 0, 0, 0, 46, 49, 0, 20, 41, 0, 0, 0, 0, 24, 26, 38, 58, 5, 0, 34, 0, 0, 35, 63, 1, 12, 62, 42, 0, 0, 0, 59, 0, 48, 0, 0, 64, 60, 27, 0, 0, 11, 30, 0, 0, 15, 32, 0, 17, 55, 36, 0, 0, 54, 37, 51, 0, 6, 0, 9|];