order = 8;
grid = [|54, 17, 29, 6, 28, 11, 0, 0, 0, 41, 0, 0, 0, 53, 5, 33, 37, 27, 45, 42, 0, 35, 50, 19, 30, 14, 46, 0, 0, 0, 0, 0, 0, 0, 0, 0, 0, 34, 0, 0, 0, 0, 49, 7, 0, 9, 25, 0, 12, 4, 32, 0, 52, 8, 58, 0, 38, 16, 55, 0, 0, 0, 43, 0
|46, 53, 0, 31, 0, 0, 0, 37, 27, 0, 30, 2, 29, 0, 0, 17, 0, 0, 34, 25, 11, 63, 0, 56, 15, 0, 0, 13, 0, 20, 0, 59, 24, 0, 44, 0, 0, 0, 0, 42, 0, 6, 39, 0, 0, 0, 0, 14, 0, 0, 21, 0, 28, 43, 0, 0, 0, 0, 0, 52, 0, 0, 10, 0
|38, 0, 35, 49, 0, 30, 9, 5, 55, 47, 0, 0, 0, 21, 16, 0, 23, 0, 15, 0, 0, 0, 39, 28, 0, 0, 0, 61, 10, 1, 52, 64, 0, 0, 32, 4, 0, 0, 3, 25, 0, 0, 0, 57, 13, 0, 0, 0, 0, 0, 0, 19, 0, 40, 54, 27, 0, 0, 58, 0, 0, 0, 51, 0
|39, 0, 0, 34, 1, 0, 63, 0, 25, 0, 0, 0, 0, 0, 0, 11, 46, 0, 2, 47, 0, 9, 5, 13, 49, 0, 42, 23, 0, 43, 0, 0, 0, 33, 59, 45, 0, 0, 35, 19, 0, 30, 0, 28, 0, 0, 0, 54, 20, 0, 48, 50, 62, 7, 41, 14, 0, 0, 4, 21, 0, 61, 56, 0
|0, 41, 0, 0, 0, 8, 0, 0, 0, 43, 0, 39, 0, 0, 57, 63, 14, 54, 4, 30, 20, 0, 12, 0, 17, 0, 45, 40, 6, 58, 55, 33, 48, 0, 49, 31, 21, 0, 0, 0, 0, 0, 0, 42, 53, 5, 0, 60, 23, 0, 37, 2, 56, 1, 64, 46, 29, 7, 0, 0, 9, 0, 0, 28
|58, 0, 0, 21, 26, 0, 0, 14, 42, 24, 46, 44, 35, 0, 8, 45, 38, 0, 0, 0, 31, 0, 0, 32, 0, 0, 0, 0, 0, 37, 4, 19, 28, 0, 64, 30, 40, 0, 39, 9, 52, 0, 61, 56, 0, 0, 0, 59, 11, 49, 0, 15, 0, 0, 51, 47, 20, 0, 0, 0, 6, 0, 0, 25
|24, 18, 0, 20, 0, 27, 47, 4, 0, 58, 0, 0, 0, 48, 0, 0, 21, 0, 29, 0, 57, 0, 0, 17, 38, 0, 2, 0, 3, 0, 0, 62, 63, 0, 53, 6, 0, 13, 54, 0, 51, 23, 43, 41, 15, 0, 0, 33, 35, 0, 31, 0, 36, 10, 0, 42, 14, 0, 0, 0, 0, 0, 0, 0
|59, 0, 0, 0, 62, 43, 52, 7, 0, 0, 19, 61, 0, 49, 26, 56, 1, 36, 0, 58, 0, 6, 0, 53, 0, 0, 24, 21, 31, 28, 32, 54, 14, 0, 20, 0, 0, 8, 37, 0, 2, 0, 0, 0, 0, 0, 0, 0, 30, 5, 0, 0, 55, 0, 0, 0, 60, 35, 45, 47, 18, 13, 0, 42
|0, 0, 0, 0, 0, 31, 15, 0, 0, 0, 50, 0, 6, 24, 39, 0, 41, 53, 60, 3, 0, 4, 0, 7, 40, 57, 12, 43, 38, 0, 30, 0, 17, 23, 0, 9, 0, 0, 13, 28, 61, 0, 0, 8, 0, 0, 56, 0, 18, 2, 0, 0, 64, 55, 0, 0, 0, 0, 0, 0, 0, 1, 45, 0
|0, 0, 60, 7, 27, 47, 0, 2, 0, 23, 0, 46, 5, 0, 25, 9, 22, 0, 61, 0, 8, 0, 64, 0, 0, 19, 0, 56, 11, 49, 33, 20, 15, 44, 40, 14, 38, 55, 0, 0, 34, 0, 32, 0, 28, 16, 0, 13, 48, 0, 0, 17, 0, 26, 3, 1, 58, 18, 29, 0, 0, 62, 0, 0
|33, 0, 17, 1, 0, 0, 20, 45, 26, 0, 0, 54, 0, 37, 60, 0, 62, 10, 0, 0, 47, 38, 0, 57, 0, 0, 0, 3, 0, 21, 8, 0, 6, 39, 5, 29, 43, 0, 0, 36, 9, 46, 23, 0, 0, 0, 0, 0, 0, 52, 42, 30, 0, 0, 34, 0, 0, 4, 59, 50, 55, 51, 63, 16
|0, 0, 44, 0, 34, 24, 0, 0, 0, 38, 0, 0, 0, 15, 0, 0, 0, 0, 0, 0, 25, 11, 31, 0, 16, 2, 32, 0, 47, 64, 0, 0, 0, 21, 0, 0, 53, 63, 0, 0, 0, 55, 0, 0, 0, 0, 52, 0, 0, 28, 58, 54, 0, 0, 0, 0, 0, 0, 17, 13, 12, 14, 0, 0
|18, 49, 0, 37, 0, 29, 0, 51, 0, 17, 0, 45, 63, 0, 0, 0, 5, 46, 0, 0, 0, 20, 0, 35, 0, 0, 0, 48, 0, 55, 0, 0, 0, 0, 0, 32, 0, 59, 34, 1, 0, 0, 0, 0, 30, 21, 0, 27, 0, 56, 19, 23, 60, 38, 0, 53, 33, 8, 2, 0, 0, 3, 22, 43
|0, 0, 53, 54, 32, 0, 0, 0, 29, 0, 0, 0, 14, 16, 0, 0, 0, 0, 30, 59, 42, 0, 15, 37, 0, 0, 0, 0, 0, 0, 26, 0, 0, 0, 0, 0, 12, 20, 49, 45, 60, 24, 0, 17, 38, 63, 44, 22, 43, 33, 27, 39, 0, 0, 4, 0, 21, 0, 9, 64, 0, 35, 0, 0
|41, 5, 0, 22, 0, 61, 42, 9, 12, 0, 0, 34, 56, 0, 31, 55, 17, 24, 23, 32, 0, 0, 0, 2, 1, 0, 13, 0, 46, 0, 0, 45, 0, 58, 0, 54, 48, 0, 0, 37, 0, 7, 64, 0, 0, 53, 0, 35, 0, 51, 47, 49, 0, 0, 21, 25, 0, 6, 60, 57, 26, 0, 0, 0
|30, 0, 0, 62, 0, 25, 0, 50, 8, 0, 0, 0, 1, 28, 0, 0, 0, 0, 33, 34, 0, 0, 0, 0, 59, 0, 0, 37, 0, 53, 0, 0, 16, 0, 0, 0, 0, 51, 0, 64, 0, 43, 0, 5, 0, 0, 0, 15, 63, 0, 0, 0, 11, 24, 32, 12, 56, 0, 44, 46, 31, 0, 0, 20
|62, 0, 59, 64, 0, 6, 17, 0, 28, 45, 0, 58, 0, 33, 3, 0, 56, 25, 0, 29, 22, 13, 43, 0, 0, 0, 0, 34, 44, 41, 37, 0, 0, 49, 63, 0, 1, 0, 51, 0, 0, 18, 0, 26, 47, 0, 50, 8, 0, 0, 0, 55, 0, 20, 0, 0, 31, 48, 0, 0, 32, 54, 42, 0
|34, 42, 20, 0, 0, 0, 46, 1, 0, 0, 0, 0, 36, 0, 59, 53, 61, 39, 41, 15, 0, 49, 0, 12, 13, 0, 0, 2, 0, 50, 54, 6, 25, 0, 0, 44, 47, 0, 29, 0, 0, 21, 0, 0, 0, 58, 62, 0, 8, 27, 56, 0, 23, 0, 28, 40, 17, 0, 0, 7, 0, 0, 57, 19
|35, 7, 23, 5, 45, 0, 54, 28, 0, 0, 11, 1, 0, 0, 0, 0, 8, 0, 0, 62, 0, 0, 0, 0, 0, 49, 38, 0, 26, 9, 0, 0, 53, 31, 0, 48, 17, 0, 36, 0, 0, 0, 0, 20, 19, 0, 37, 0, 0, 12, 0, 58, 0, 0, 42, 59, 0, 22, 0, 0, 0, 0, 52, 0
|0, 29, 33, 0, 0, 0, 0, 48, 34, 40, 0, 0, 41, 0, 49, 0, 0, 21, 0, 4, 0, 0, 0, 0, 51, 62, 11, 0, 0, 0, 22, 0, 0, 27, 8, 26, 61, 0, 0, 0, 12, 13, 36, 63, 0, 24, 0, 56, 0, 46, 14, 44, 54, 0, 0, 19, 59, 0, 0, 30, 1, 25, 16, 0
|0, 0, 0, 43, 8, 39, 25, 56, 63, 0, 17, 0, 61, 27, 18, 0, 0, 0, 0, 0, 30, 59, 1, 0, 0, 0, 0, 45, 48, 60, 0, 0, 57, 0, 0, 34, 0, 28, 0, 15, 0, 0, 5, 54, 0, 4, 2, 46, 0, 0, 36, 47, 37, 35, 0, 0, 12, 0, 0, 29, 0, 9, 14, 0
|0, 63, 0, 0, 21, 36, 0, 15, 30, 0, 16, 8, 43, 0, 0, 0, 31, 0, 35, 54, 32, 0, 0, 11, 58, 47, 17, 59, 0, 0, 0, 52, 0, 0, 13, 50, 0, 0, 41, 10, 0, 1, 34, 0, 0, 0, 0, 57, 0, 45, 25, 0, 38, 3, 0, 0, 0, 0, 0, 49, 53, 0, 0, 0
|0, 0, 0, 0, 55, 0, 0, 41, 6, 0, 0, 0, 0, 46, 0, 0, 0, 20, 57, 0, 3, 5, 0, 0, 0, 36, 0, 0, 0, 56, 0, 0, 0, 30, 54, 52, 35, 0, 7, 39, 0, 0, 51, 0, 0, 0, 59, 23, 0, 15, 22, 0, 34, 0, 43, 17, 13, 0, 8, 62, 58, 0, 0, 47
|14, 0, 22, 47, 0, 53, 50, 0, 0, 0, 0, 29, 39, 54, 0, 42, 60, 0, 7, 0, 46, 36, 0, 9, 10, 0, 35, 0, 0, 0, 20, 0, 0, 0, 0, 0, 0, 0, 59, 56, 17, 28, 0, 0, 64, 61, 15, 0, 0, 0, 16, 0, 1, 0, 49, 0, 0, 26, 0, 23, 3, 5, 0, 0
|0, 57, 14, 32, 51, 0, 8, 0, 0, 0, 0, 0, 33, 0, 0, 0, 0, 11, 59, 0, 0, 0, 29, 0, 0, 48, 0, 46, 4, 0, 19, 34, 22, 0, 7, 60, 45, 0, 40, 0, 0, 0, 21, 0, 25, 31, 54, 0, 0, 0, 0, 0, 17, 0, 10, 0, 0, 39, 5, 0, 50, 52, 0, 62
|0, 33, 63, 0, 0, 0, 10, 22, 48, 14, 0, 60, 49, 0, 55, 21, 20, 0, 0, 0, 38, 3, 0, 0, 37, 0, 0, 6, 0, 0, 0, 7, 0, 0, 29, 56, 44, 15, 1, 41, 0, 26, 0, 0, 0, 57, 36, 39, 0, 0, 0, 61, 31, 0, 47, 0, 40, 0, 19, 54, 46, 0, 64, 0
|43, 27, 34, 29, 0, 42, 0, 26, 37, 0, 0, 20, 0, 0, 30, 0, 0, 45, 0, 0, 15, 0, 0, 0, 0, 0, 50, 24, 0, 0, 0, 38, 0, 0, 0, 23, 31, 48, 52, 0, 0, 0, 0, 0, 0, 0, 0, 12, 59, 0, 64, 14, 40, 39, 0, 0, 0, 61, 57, 0, 0, 33, 0, 60
|9, 0, 7, 23, 0, 41, 0, 0, 0, 6, 27, 53, 0, 0, 62, 22, 42, 49, 32, 0, 0, 0, 0, 48, 0, 0, 54, 0, 0, 35, 0, 0, 39, 0, 0, 33, 0, 0, 0, 14, 64, 0, 0, 3, 0, 1, 0, 0, 28, 34, 0, 0, 0, 44, 13, 0, 0, 55, 43, 12, 38, 0, 2, 0
|0, 0, 21, 2, 0, 0, 0, 0, 58, 35, 0, 0, 57, 0, 0, 54, 0, 23, 6, 0, 36, 39, 8, 0, 0, 0, 14, 41, 60, 52, 0, 0, 55, 0, 0, 0, 19, 64, 0, 0, 15, 51, 0, 0, 0, 33, 0, 0, 9, 29, 3, 62, 63, 27, 37, 20, 0, 0, 16, 34, 11, 0, 0, 17
|0, 54, 62, 0, 0, 0, 0, 60, 9, 0, 0, 10, 0, 0, 0, 52, 0, 0, 0, 57, 12, 50, 25, 0, 0, 55, 0, 0, 61, 0, 28, 0, 35, 42, 0, 0, 36, 0, 0, 59, 0, 0, 2, 16, 37, 46, 0, 0, 0, 8, 0, 0, 0, 0, 0, 0, 48, 0, 56, 15, 27, 29, 44, 14
|0, 24, 6, 0, 17, 0, 28, 35, 39, 8, 29, 12, 3, 0, 0, 1, 0, 41, 19, 0, 4, 0, 60, 0, 0, 0, 53, 33, 0, 0, 49, 57, 0, 32, 0, 43, 37, 0, 5, 54, 22, 62, 0, 10, 0, 20, 13, 0, 0, 16, 26, 38, 25, 36, 55, 0, 0, 0, 0, 0, 21, 0, 0, 0
|19, 0, 0, 38, 50, 52, 0, 47, 0, 32, 0, 59, 0, 0, 0, 15, 7, 0, 0, 0, 35, 0, 46, 0, 39, 56, 43, 18, 0, 40, 0, 13, 0, 51, 34, 21, 0, 0, 12, 53, 14, 0, 0, 0, 0, 29, 0, 44, 2, 48, 0, 57, 0, 45, 33, 6, 22, 10, 0, 4, 42, 20, 23, 0
|0, 20, 0, 59, 6, 15, 0, 0, 0, 0, 33, 0, 34, 0, 0, 64, 0, 0, 51, 0, 0, 30, 0, 0, 47, 0, 0, 0, 0, 24, 0, 0, 0, 0, 0, 0, 0, 4, 46, 16, 40, 11, 0, 32, 62, 0, 3, 0, 5, 36, 38, 0, 0, 23, 0, 0, 0, 0, 0, 0, 45, 21, 31, 0
|0, 0, 0, 10, 0, 0, 0, 33, 0, 0, 36, 0, 21, 19, 0, 4, 0, 9, 0, 64, 0, 57, 0, 45, 60, 51, 0, 0, 54, 0, 0, 30, 26, 63, 39, 22, 0, 0, 56, 0, 25, 12, 0, 61, 0, 43, 38, 42, 27, 0, 1, 0, 0, 0, 18, 8, 16, 62, 0, 0, 0, 59, 0, 2
|42, 0, 43, 36, 0, 0, 0, 21, 45, 12, 0, 0, 11, 1, 0, 0, 0, 33, 27, 0, 0, 2, 0, 0, 14, 0, 8, 0, 0, 0, 0, 46, 0, 52, 31, 0, 20, 10, 19, 55, 53, 0, 0, 34, 0, 0, 0, 0, 0, 0, 40, 4, 16, 15, 0, 29, 0, 24, 0, 56, 0, 0, 26, 0
|27, 0, 0, 26, 0, 0, 16, 0, 15, 18, 3, 49, 0, 0, 0, 43, 0, 5, 31, 0, 13, 56, 59, 0, 53, 0, 0, 1, 0, 62, 0, 0, 0, 28, 0, 0, 32, 24, 9, 23, 29, 19, 0, 6, 39, 0, 8, 50, 0, 0, 33, 0, 0, 64, 0, 34, 7, 0, 12, 0, 0, 46, 38, 0
|8, 0, 24, 61, 48, 0, 0, 54, 0, 30, 22, 25, 0, 0, 38, 28, 3, 0, 21, 0, 0, 0, 0, 0, 0, 13, 23, 0, 50, 15, 40, 27, 37, 2, 0, 35, 0, 11, 0, 0, 56, 63, 0, 0, 0, 44, 14, 0, 0, 39, 0, 42, 0, 0, 0, 52, 0, 9, 0, 0, 0, 55, 4, 0
|51, 0, 45, 56, 0, 40, 0, 0, 16, 26, 0, 50, 58, 0, 61, 0, 0, 29, 0, 0, 0, 0, 0, 38, 0, 0, 0, 49, 0, 0, 0, 4, 59, 34, 33, 0, 57, 0, 48, 0, 0, 9, 0, 21, 0, 13, 0, 0, 0, 0, 0, 24, 41, 0, 0, 0, 54, 0, 0, 19, 30, 0, 1, 52
|37, 34, 0, 0, 0, 0, 19, 0, 0, 31, 0, 51, 42, 8, 0, 39, 0, 0, 53, 48, 23, 40, 0, 0, 33, 0, 3, 0, 0, 29, 0, 0, 45, 25, 50, 36, 64, 0, 0, 0, 0, 57, 10, 0, 0, 52, 0, 0, 0, 55, 0, 59, 9, 56, 0, 0, 43, 0, 22, 0, 0, 0, 0, 5
|0, 0, 32, 0, 30, 38, 0, 0, 52, 0, 0, 57, 0, 0, 0, 24, 0, 16, 42, 46, 0, 18, 0, 0, 0, 0, 0, 0, 56, 10, 0, 0, 0, 62, 0, 3, 60, 0, 15, 0, 0, 0, 0, 51, 33, 22, 0, 4, 14, 0, 49, 0, 0, 28, 0, 61, 0, 63, 41, 0, 64, 0, 0, 0
|0, 58, 0, 63, 36, 0, 0, 0, 13, 56, 0, 0, 60, 39, 0, 0, 0, 40, 20, 33, 52, 0, 0, 0, 0, 0, 30, 0, 57, 2, 31, 41, 47, 10, 23, 59, 15, 42, 0, 6, 44, 0, 0, 0, 0, 0, 0, 0, 0, 50, 0, 3, 0, 0, 0, 54, 19, 11, 0, 0, 37, 16, 0, 0
|0, 23, 30, 0, 0, 13, 0, 24, 0, 0, 38, 6, 0, 9, 0, 0, 35, 28, 0, 0, 26, 0, 61, 51, 0, 0, 0, 27, 58, 0, 0, 0, 50, 14, 0, 62, 25, 0, 57, 0, 0, 0, 41, 15, 0, 0, 0, 19, 53, 18, 0, 40, 0, 0, 16, 0, 0, 0, 0, 0, 10, 0, 7, 0
|0, 10, 39, 53, 0, 35, 0, 20, 43, 62, 34, 0, 0, 55, 23, 0, 29, 14, 0, 2, 0, 0, 0, 36, 0, 0, 49, 0, 15, 51, 0, 0, 54, 0, 60, 37, 13, 0, 28, 27, 0, 0, 59, 18, 11, 17, 61, 26, 19, 0, 12, 0, 0, 0, 38, 41, 63, 0, 31, 0, 48, 0, 50, 22
|0, 51, 48, 0, 54, 57, 0, 0, 14, 15, 35, 36, 50, 25, 53, 0, 10, 55, 0, 0, 1, 0, 42, 0, 45, 0, 0, 38, 0, 17, 13, 0, 0, 5, 0, 0, 0, 22, 64, 0, 33, 0, 0, 47, 0, 0, 21, 0, 49, 0, 0, 6, 59, 58, 0, 0, 0, 0, 0, 0, 0, 0, 0, 26
|3, 8, 56, 0, 0, 59, 62, 11, 0, 0, 45, 0, 0, 31, 42, 0, 64, 15, 46, 63, 19, 0, 0, 0, 36, 1, 0, 14, 55, 16, 23, 0, 0, 17, 30, 0, 0, 40, 0, 0, 43, 27, 57, 0, 51, 38, 22, 10, 37, 35, 0, 28, 0, 13, 25, 0, 0, 0, 0, 18, 0, 6, 0, 0
|40, 21, 2, 9, 47, 0, 34, 31, 0, 20, 61, 28, 0, 29, 52, 49, 6, 60, 0, 0, 62, 0, 0, 0, 50, 10, 26, 53, 18, 0, 0, 37, 0, 0, 0, 12, 0, 0, 0, 4, 46, 0, 30, 35, 0, 0, 0, 0, 0, 14, 0, 0, 15, 48, 0, 64, 25, 0, 42, 59, 0, 0, 0, 0
|26, 38, 0, 0, 15, 0, 61, 42, 33, 22, 0, 0, 32, 2, 0, 0, 0, 58, 0, 0, 44, 7, 0, 30, 21, 0, 0, 0, 9, 0, 0, 0, 0, 53, 19, 0, 0, 35, 45, 11, 50, 0, 0, 0, 0, 36, 40, 31, 0, 0, 0, 0, 43, 57, 29, 56, 64, 0, 49, 60, 0, 0, 0, 1
|0, 0, 0, 0, 0, 0, 0, 29, 46, 16, 0, 26, 17, 0, 64, 0, 0, 0, 0, 0, 39, 0, 0, 0, 0, 0, 40, 0, 20, 0, 0, 12, 0, 0, 0, 8, 58, 21, 0, 43, 63, 45, 6, 0, 9, 0, 0, 0, 55, 60, 34, 52, 0, 42, 0, 51, 0, 0, 0, 0, 0, 0, 0, 24
|29, 0, 0, 4, 0, 58, 0, 0, 0, 21, 42, 0, 0, 0, 0, 0, 34, 0, 0, 0, 0, 8, 0, 31, 2, 54, 15, 0, 0, 45, 0, 0, 0, 19, 55, 20, 0, 0, 0, 0, 30, 5, 0, 0, 48, 28, 46, 11, 0, 0, 0, 10, 49, 14, 0, 16, 0, 23, 50, 0, 61, 0, 0, 0
|47, 0, 0, 27, 0, 0, 0, 0, 0, 50, 54, 23, 8, 0, 32, 0, 25, 22, 14, 0, 40, 0, 0, 0, 0, 52, 0, 35, 0, 13, 56, 18, 60, 0, 3, 0, 24, 39, 0, 34, 20, 64, 9, 43, 0, 0, 0, 0, 0, 0, 44, 0, 0, 59, 0, 0, 2, 0, 0, 16, 0, 0, 5, 0
|50, 0, 54, 0, 0, 21, 0, 0, 3, 33, 0, 63, 0, 0, 51, 62, 12, 0, 39, 11, 0, 0, 0, 0, 9, 20, 0, 0, 0, 0, 0, 17, 44, 8, 52, 5, 10, 0, 0, 13, 47, 0, 0, 0, 16, 0, 0, 41, 45, 0, 0, 0, 0, 34, 0, 28, 18, 57, 14, 1, 22, 0, 0, 49
|0, 0, 0, 48, 57, 9, 59, 19, 0, 0, 0, 0, 0, 0, 0, 0, 0, 35, 0, 49, 5, 45, 3, 0, 0, 40, 0, 0, 0, 22, 24, 0, 0, 0, 0, 0, 6, 0, 14, 2, 42, 0, 0, 0, 0, 0, 0, 25, 0, 47, 30, 26, 0, 0, 8, 4, 34, 27, 0, 0, 60, 0, 0, 0
|0, 28, 12, 51, 0, 37, 35, 0, 18, 2, 0, 0, 53, 0, 15, 0, 24, 42, 0, 0, 33, 48, 0, 64, 26, 0, 5, 32, 0, 4, 0, 43, 27, 45, 0, 0, 0, 31, 0, 0, 54, 14, 0, 23, 8, 0, 49, 40, 1, 19, 7, 41, 50, 61, 60, 0, 0, 0, 0, 63, 52, 0, 3, 0
|25, 15, 0, 0, 22, 23, 0, 0, 0, 9, 40, 0, 16, 14, 19, 34, 13, 52, 17, 55, 61, 60, 0, 0, 12, 30, 37, 0, 51, 0, 57, 11, 49, 0, 0, 42, 0, 43, 0, 35, 0, 0, 0, 0, 0, 32, 0, 0, 58, 63, 29, 20, 24, 31, 0, 3, 0, 54, 0, 0, 0, 8, 0, 0
|0, 0, 3, 45, 0, 63, 0, 0, 0, 0, 20, 0, 0, 0, 0, 0, 0, 0, 28, 0, 0, 0, 32, 4, 0, 0, 0, 0, 0, 42, 0, 14, 0, 0, 0, 0, 0, 0, 23, 48, 10, 61, 35, 60, 0, 0, 0, 52, 56, 0, 2, 43, 0, 25, 6, 0, 24, 0, 13, 0, 36, 0, 40, 0
|44, 32, 0, 0, 64, 0, 0, 0, 0, 0, 0, 0, 45, 0, 46, 0, 0, 63, 0, 0, 59, 0, 0, 20, 0, 0, 39, 0, 27, 0, 38, 1, 40, 0, 0, 0, 28, 0, 61, 33, 0, 17, 0, 4, 0, 0, 0, 2, 22, 13, 9, 51, 18, 0, 0, 0, 26, 30, 35, 55, 0, 42, 0, 12
|63, 46, 0, 0, 53, 0, 0, 0, 50, 52, 13, 0, 0, 0, 35, 10, 28, 17, 8, 12, 16, 0, 0, 60, 55, 0, 0, 47, 37, 44, 64, 21, 0, 0, 0, 0, 0, 26, 43, 0, 0, 29, 20, 0, 59, 0, 0, 0, 0, 0, 0, 56, 0, 0, 62, 0, 0, 0, 0, 0, 0, 0, 39, 23
|0, 0, 47, 33, 43, 0, 0, 0, 11, 63, 0, 48, 0, 32, 0, 0, 0, 0, 0, 5, 53, 0, 0, 0, 0, 15, 0, 0, 0, 0, 0, 26, 0, 0, 28, 55, 0, 36, 0, 0, 0, 50, 18, 12, 42, 49, 7, 38, 0, 0, 59, 0, 0, 16, 0, 9, 37, 14, 0, 6, 8, 0, 35, 0
|0, 0, 40, 57, 0, 7, 22, 38, 0, 0, 0, 18, 0, 47, 43, 16, 0, 0, 26, 39, 0, 19, 0, 27, 0, 58, 20, 0, 62, 0, 34, 0, 21, 0, 61, 24, 0, 14, 0, 46, 0, 0, 54, 0, 0, 6, 63, 36, 0, 42, 0, 53, 0, 11, 1, 0, 0, 50, 3, 0, 0, 12, 17, 0
|0, 37, 26, 0, 0, 0, 21, 44, 59, 53, 0, 0, 0, 0, 40, 6, 57, 0, 49, 0, 56, 64, 0, 0, 0, 0, 0, 12, 7, 0, 35, 2, 0, 15, 0, 1, 0, 0, 0, 52, 0, 0, 0, 25, 0, 30, 31, 0, 32, 0, 50, 36, 0, 19, 0, 45, 0, 13, 0, 0, 0, 0, 0, 0
|0, 36, 9, 0, 0, 0, 0, 0, 0, 0, 57, 3, 0, 45, 33, 0, 0, 47, 0, 0, 24, 0, 18, 44, 0, 0, 0, 8, 0, 38, 6, 22, 0, 60, 0, 0, 5, 0, 0, 0, 39, 0, 0, 0, 34, 0, 55, 61, 0, 58, 0, 7, 0, 54, 40, 30, 0, 0, 52, 48, 20, 0, 0, 4
|0, 59, 0, 0, 0, 0, 41, 64, 49, 0, 0, 42, 0, 34, 21, 46, 63, 0, 0, 0, 0, 0, 0, 0, 3, 24, 0, 0, 0, 5, 0, 28, 0, 35, 0, 0, 4, 25, 0, 50, 0, 0, 11, 53, 57, 26, 0, 17, 47, 43, 8, 37, 0, 0, 0, 0, 55, 2, 18, 0, 0, 38, 0, 0
|0, 0, 42, 0, 0, 56, 0, 0, 0, 4, 0, 0, 27, 0, 0, 0, 0, 32, 0, 1, 0, 61, 10, 0, 0, 0, 0, 0, 0, 54, 0, 9, 33, 64, 0, 0, 22, 47, 0, 40, 5, 0, 0, 0, 35, 0, 16, 37, 0, 0, 0, 0, 0, 0, 0, 0, 51, 49, 0, 0, 0, 0, 58, 0
|0, 0, 16, 8, 0, 0, 48, 18, 54, 0, 0, 0, 62, 0, 37, 0, 11, 59, 0, 43, 58, 0, 0, 3, 0, 42, 1, 17, 0, 61, 0, 0, 0, 6, 45, 39, 0, 41, 0, 57, 0, 40, 22, 0, 0, 0, 0, 21, 0, 38, 13, 0, 2, 0, 0, 0, 30, 32, 15, 26, 5, 10, 0, 27|];