order = 8;
grid = [|0, 54, 4, 14, 28, 63, 0, 0, 19, 0, 15, 17, 0, 21, 0, 0, 53, 0, 51, 2, 0, 31, 0, 18, 60, 32, 37, 0, 0, 0, 0, 0, 0, 22, 45, 20, 1, 0, 11, 34, 33, 58, 0, 61, 0, 0, 16, 0, 52, 48, 10, 41, 62, 0, 38, 36, 0, 0, 23, 29, 13, 0, 12, 0
|0, 8, 0, 18, 31, 0, 53, 36, 37, 42, 0, 38, 0, 27, 0, 61, 10, 0, 0, 0, 30, 58, 0, 0, 0, 39, 0, 0, 0, 0, 13, 0, 48, 5, 0, 60, 55, 0, 0, 0, 0, 11, 0, 57, 35, 6, 54, 0, 1, 40, 0, 23, 2, 21, 63, 0, 0, 20, 0, 19, 47, 0, 64, 22
|17, 0, 0, 26, 0, 48, 0, 0, 52, 33, 0, 51, 0, 0, 10, 0, 54, 0, 32, 50, 6, 0, 29, 0, 0, 22, 0, 0, 2, 0, 36, 16, 0, 0, 0, 37, 0, 24, 64, 0, 0, 19, 0, 9, 62, 1, 40, 53, 61, 18, 59, 57, 0, 56, 0, 0, 0, 44, 34, 0, 7, 0, 45, 0
|47, 0, 0, 0, 10, 7, 29, 0, 0, 36, 11, 0, 0, 49, 0, 53, 23, 45, 0, 14, 19, 56, 0, 64, 40, 62, 63, 0, 42, 24, 34, 1, 0, 44, 0, 0, 17, 0, 58, 0, 0, 43, 0, 48, 0, 38, 0, 0, 0, 51, 39, 0, 12, 28, 13, 20, 0, 0, 0, 33, 54, 0, 4, 0
|62, 0, 57, 51, 30, 0, 27, 25, 0, 0, 1, 8, 0, 0, 39, 2, 12, 55, 0, 7, 0, 26, 20, 37, 50, 0, 6, 52, 0, 0, 0, 0, 56, 42, 3, 0, 0, 61, 0, 40, 0, 49, 0, 59, 22, 0, 13, 10, 5, 4, 0, 0, 0, 54, 0, 14, 0, 0, 63, 0, 21, 18, 38, 0
|0, 15, 56, 60, 52, 41, 0, 0, 7, 23, 6, 0, 54, 0, 0, 59, 11, 46, 0, 36, 57, 0, 0, 1, 28, 29, 0, 0, 33, 10, 0, 0, 19, 32, 13, 0, 4, 0, 39, 0, 0, 17, 8, 0, 0, 0, 47, 0, 22, 49, 37, 0, 0, 0, 26, 0, 0, 0, 0, 0, 40, 24, 0, 0
|37, 0, 0, 0, 20, 45, 0, 0, 60, 0, 0, 5, 0, 40, 0, 28, 61, 0, 0, 0, 27, 0, 0, 44, 0, 57, 0, 0, 53, 0, 0, 0, 30, 6, 31, 47, 0, 0, 23, 0, 0, 42, 0, 32, 64, 0, 39, 4, 55, 25, 0, 0, 0, 19, 0, 0, 41, 0, 0, 0, 26, 0, 36, 1
|1, 32, 0, 0, 0, 0, 22, 13, 0, 0, 14, 0, 0, 58, 62, 35, 60, 0, 0, 4, 59, 0, 0, 39, 7, 26, 0, 0, 5, 21, 0, 44, 54, 28, 0, 0, 29, 9, 0, 10, 0, 12, 0, 23, 18, 0, 55, 0, 0, 3, 0, 0, 0, 11, 0, 15, 61, 0, 0, 56, 0, 0, 27, 0
|0, 18, 0, 21, 45, 0, 54, 0, 0, 0, 0, 13, 0, 2, 0, 24, 8, 0, 0, 0, 0, 42, 0, 4, 53, 0, 0, 0, 62, 0, 41, 11, 37, 63, 25, 44, 0, 23, 0, 61, 0, 28, 0, 39, 52, 58, 5, 1, 0, 0, 6, 0, 55, 60, 0, 56, 0, 64, 0, 0, 3, 51, 0, 59
|38, 7, 12, 35, 1, 0, 32, 0, 57, 0, 0, 19, 0, 36, 0, 0, 0, 26, 61, 0, 15, 2, 0, 10, 21, 0, 0, 18, 0, 44, 0, 45, 0, 0, 40, 0, 20, 6, 29, 4, 53, 3, 0, 0, 13, 54, 30, 47, 0, 0, 0, 0, 58, 0, 23, 0, 28, 11, 0, 0, 0, 25, 0, 9
|0, 0, 0, 0, 47, 0, 41, 6, 0, 0, 0, 12, 52, 54, 51, 0, 0, 28, 57, 0, 0, 0, 21, 0, 0, 34, 48, 39, 61, 14, 15, 5, 0, 0, 42, 27, 3, 36, 9, 46, 19, 0, 62, 35, 2, 0, 0, 50, 0, 0, 8, 7, 17, 0, 32, 0, 0, 0, 0, 60, 0, 0, 23, 0
|28, 63, 0, 0, 0, 0, 0, 0, 0, 3, 0, 6, 0, 0, 0, 0, 34, 0, 0, 0, 0, 0, 53, 59, 57, 0, 35, 60, 0, 0, 0, 13, 0, 18, 0, 0, 0, 0, 21, 30, 0, 4, 0, 0, 0, 51, 14, 37, 49, 0, 0, 0, 0, 39, 0, 61, 52, 0, 16, 0, 0, 38, 56, 40
|48, 0, 0, 52, 36, 0, 0, 33, 50, 39, 0, 0, 0, 0, 42, 0, 0, 56, 0, 0, 1, 63, 47, 23, 19, 54, 9, 0, 24, 55, 0, 31, 41, 38, 34, 0, 57, 0, 0, 15, 0, 0, 27, 46, 0, 59, 6, 0, 16, 0, 0, 62, 0, 51, 0, 3, 0, 0, 26, 0, 0, 0, 29, 0
|24, 40, 50, 0, 39, 0, 0, 0, 0, 0, 38, 23, 48, 0, 0, 20, 0, 52, 0, 3, 0, 6, 0, 35, 0, 0, 46, 0, 17, 7, 33, 0, 0, 47, 2, 0, 62, 0, 0, 0, 29, 0, 0, 25, 0, 0, 34, 0, 0, 53, 21, 31, 37, 0, 0, 64, 0, 0, 54, 0, 0, 0, 0, 57
|0, 0, 10, 2, 51, 0, 0, 0, 53, 60, 0, 29, 1, 11, 56, 0, 18, 0, 25, 0, 5, 9, 0, 0, 0, 50, 0, 0, 0, 16, 0, 0, 0, 0, 0, 33, 39, 17, 0, 52, 42, 31, 0, 21, 0, 22, 0, 0, 0, 0, 0, 0, 44, 41, 0, 0, 48, 19, 15, 0, 0, 0, 63, 35
|0, 0, 34, 0, 0, 0, 9, 0, 5, 0, 27, 0, 0, 15, 45, 21, 0, 0, 0, 0, 0, 0, 0, 29, 32, 0, 0, 0, 0, 38, 6, 58, 0, 35, 59, 64, 19, 55, 48, 0, 0, 23, 24, 16, 40, 0, 11, 0, 43, 10, 0, 42, 0, 22, 2, 0, 0, 37, 47, 13, 12, 14, 0, 0
|0, 0, 58, 1, 0, 0, 0, 61, 0, 0, 0, 0, 24, 9, 0, 0, 47, 4, 23, 11, 48, 0, 0, 0, 0, 46, 26, 0, 0, 0, 0, 25, 14, 33, 57, 0, 0, 0, 37, 54, 0, 0, 19, 15, 0, 0, 44, 0, 0, 7, 45, 64, 0, 0, 0, 55, 60, 0, 51, 0, 0, 17, 0, 0
|0, 0, 0, 25, 0, 0, 50, 46, 51, 45, 37, 48, 0, 57, 0, 0, 43, 0, 0, 1, 0, 5, 0, 0, 15, 40, 4, 0, 31, 0, 0, 0, 0, 29, 0, 9, 0, 42, 59, 8, 14, 62, 64, 7, 17, 3, 0, 0, 0, 0, 0, 0, 0, 63, 0, 39, 27, 0, 2, 38, 0, 0, 30, 55
|0, 0, 6, 39, 54, 2, 0, 37, 16, 0, 0, 0, 0, 7, 31, 0, 0, 0, 46, 0, 8, 0, 0, 28, 0, 0, 0, 29, 32, 0, 10, 0, 0, 0, 11, 0, 0, 0, 0, 55, 43, 9, 0, 0, 0, 42, 57, 12, 53, 56, 58, 38, 26, 0, 0, 0, 49, 33, 0, 0, 15, 19, 20, 0
|0, 64, 30, 27, 0, 0, 0, 0, 6, 0, 5, 0, 0, 0, 0, 0, 31, 0, 0, 26, 0, 0, 0, 9, 0, 42, 0, 0, 38, 48, 0, 62, 12, 0, 0, 0, 0, 16, 0, 0, 0, 50, 47, 0, 0, 60, 45, 0, 51, 14, 34, 0, 33, 13, 0, 18, 22, 0, 0, 0, 0, 53, 0, 0
|49, 29, 0, 0, 11, 55, 4, 42, 47, 0, 0, 0, 0, 0, 41, 0, 0, 63, 0, 0, 0, 17, 22, 0, 0, 0, 58, 28, 60, 0, 30, 53, 6, 0, 0, 0, 0, 43, 0, 0, 0, 48, 33, 34, 0, 13, 0, 54, 0, 62, 5, 0, 15, 2, 35, 44, 40, 0, 0, 45, 0, 0, 31, 0
|0, 0, 0, 24, 0, 0, 0, 59, 0, 22, 42, 55, 0, 64, 0, 0, 56, 0, 58, 0, 0, 29, 0, 0, 0, 0, 0, 57, 0, 0, 0, 54, 0, 0, 15, 0, 47, 34, 0, 0, 39, 0, 16, 31, 0, 0, 0, 0, 25, 0, 0, 30, 46, 12, 0, 0, 50, 0, 0, 0, 0, 44, 0, 26
|14, 0, 0, 7, 0, 0, 21, 48, 28, 38, 49, 10, 0, 30, 0, 0, 0, 15, 6, 0, 0, 0, 19, 0, 0, 47, 27, 43, 0, 0, 0, 0, 63, 13, 0, 50, 0, 44, 53, 26, 51, 0, 61, 58, 11, 0, 1, 2, 0, 8, 0, 20, 0, 23, 0, 9, 25, 35, 59, 0, 0, 0, 42, 0
|19, 38, 0, 41, 23, 33, 20, 63, 11, 54, 0, 0, 0, 13, 61, 0, 35, 12, 27, 25, 0, 10, 44, 0, 0, 0, 0, 55, 9, 59, 51, 50, 0, 0, 58, 0, 0, 30, 17, 64, 0, 0, 36, 26, 28, 0, 29, 56, 0, 32, 16, 40, 3, 0, 48, 4, 34, 0, 57, 0, 46, 43, 0, 0
|21, 36, 11, 0, 0, 0, 10, 3, 0, 0, 0, 0, 0, 0, 0, 0, 0, 51, 0, 23, 0, 62, 0, 0, 0, 15, 39, 54, 22, 13, 0, 61, 0, 19, 37, 56, 0, 41, 16, 5, 0, 0, 42, 0, 0, 0, 28, 46, 0, 60, 48, 0, 30, 35, 0, 50, 24, 0, 38, 27, 33, 0, 0, 45
|0, 0, 0, 0, 32, 0, 55, 0, 0, 0, 0, 58, 0, 0, 0, 0, 19, 0, 35, 39, 0, 0, 28, 0, 0, 0, 21, 0, 3, 0, 62, 0, 0, 0, 0, 0, 0, 0, 49, 0, 38, 0, 0, 0, 43, 52, 12, 0, 2, 0, 0, 0, 57, 46, 0, 0, 44, 18, 0, 0, 31, 0, 0, 0
|0, 48, 0, 49, 0, 53, 0, 0, 0, 30, 24, 35, 0, 0, 0, 0, 55, 59, 5, 10, 17, 0, 50, 0, 20, 0, 12, 64, 0, 0, 0, 27, 0, 0, 0, 51, 0, 58, 54, 38, 0, 0, 0, 8, 21, 23, 0, 16, 34, 0, 0, 0, 42, 0, 28, 63, 19, 4, 0, 0, 62, 36, 11, 43
|0, 0, 25, 13, 0, 38, 0, 0, 0, 5, 0, 0, 57, 17, 0, 64, 58, 22, 0, 29, 0, 0, 0, 0, 6, 18, 0, 56, 0, 0, 40, 10, 60, 24, 0, 15, 0, 35, 0, 50, 59, 34, 26, 0, 0, 0, 0, 0, 23, 0, 53, 0, 0, 9, 0, 0, 47, 0, 0, 1, 2, 54, 51, 8
|0, 0, 63, 0, 22, 0, 45, 64, 56, 41, 0, 0, 0, 0, 18, 0, 9, 21, 0, 0, 0, 0, 42, 0, 48, 51, 0, 11, 46, 0, 0, 0, 0, 0, 0, 0, 0, 0, 0, 0, 0, 0, 55, 0, 5, 61, 19, 15, 0, 0, 0, 10, 0, 52, 16, 0, 35, 0, 0, 39, 0, 26, 0, 50
|51, 59, 0, 0, 0, 5, 28, 0, 0, 0, 46, 0, 14, 16, 21, 0, 20, 41, 36, 0, 54, 13, 31, 57, 0, 17, 0, 7, 35, 53, 4, 24, 42, 43, 39, 11, 18, 0, 0, 63, 10, 0, 22, 2, 50, 25, 0, 0, 38, 0, 12, 0, 0, 0, 0, 0, 0, 3, 0, 23, 56, 52, 6, 0
|41, 0, 0, 0, 62, 0, 0, 20, 49, 0, 51, 0, 0, 50, 6, 45, 0, 24, 0, 0, 46, 8, 2, 0, 36, 0, 0, 0, 52, 19, 57, 0, 0, 0, 30, 0, 31, 0, 0, 0, 64, 39, 18, 29, 0, 17, 9, 0, 56, 0, 11, 0, 0, 0, 7, 27, 0, 0, 0, 16, 0, 0, 0, 0
|27, 0, 24, 0, 46, 61, 0, 0, 0, 0, 0, 0, 0, 0, 19, 39, 0, 40, 0, 16, 49, 0, 0, 0, 0, 31, 43, 0, 0, 0, 32, 60, 0, 9, 0, 0, 33, 12, 0, 48, 36, 35, 0, 0, 14, 0, 0, 0, 0, 0, 0, 0, 54, 62, 0, 0, 64, 0, 28, 20, 57, 63, 17, 0
|39, 52, 0, 0, 0, 62, 0, 38, 0, 47, 29, 0, 0, 55, 15, 0, 14, 61, 43, 0, 0, 0, 36, 0, 18, 5, 51, 16, 10, 31, 53, 0, 0, 0, 60, 42, 0, 0, 0, 44, 20, 59, 0, 0, 57, 0, 58, 0, 50, 45, 30, 0, 0, 48, 0, 0, 0, 0, 41, 21, 4, 33, 0, 0
|0, 47, 0, 0, 0, 56, 0, 0, 62, 0, 0, 0, 0, 0, 27, 0, 28, 8, 34, 0, 0, 1, 0, 22, 0, 0, 64, 0, 57, 4, 39, 0, 49, 48, 0, 0, 52, 0, 0, 0, 0, 40, 46, 6, 0, 45, 7, 0, 0, 0, 17, 37, 0, 0, 0, 16, 0, 0, 36, 0, 0, 0, 0, 0
|0, 46, 48, 0, 0, 0, 23, 27, 0, 37, 59, 53, 0, 35, 54, 0, 0, 44, 0, 20, 32, 19, 62, 0, 43, 61, 0, 0, 0, 58, 25, 14, 64, 0, 0, 63, 10, 39, 0, 31, 0, 0, 12, 51, 47, 26, 0, 0, 0, 0, 0, 0, 29, 4, 3, 40, 0, 30, 0, 52, 34, 11, 0, 0
|64, 5, 0, 0, 0, 24, 0, 0, 0, 17, 39, 0, 20, 31, 0, 0, 0, 0, 0, 58, 0, 51, 23, 25, 0, 0, 0, 0, 0, 0, 0, 26, 9, 30, 55, 0, 0, 0, 0, 0, 0, 41, 0, 42, 48, 10, 0, 11, 44, 63, 18, 0, 0, 38, 36, 57, 45, 0, 0, 37, 0, 61, 54, 0
|0, 4, 45, 32, 0, 0, 0, 0, 0, 11, 58, 63, 0, 14, 60, 0, 0, 48, 37, 9, 0, 50, 33, 0, 0, 24, 0, 35, 29, 36, 0, 6, 47, 46, 18, 5, 0, 28, 0, 0, 3, 0, 0, 0, 55, 15, 25, 0, 41, 22, 0, 0, 0, 0, 0, 43, 0, 27, 49, 64, 51, 31, 13, 23
|54, 42, 8, 57, 0, 0, 59, 0, 0, 0, 23, 0, 0, 0, 25, 12, 7, 0, 0, 0, 38, 0, 0, 2, 0, 55, 0, 0, 0, 0, 28, 0, 27, 0, 0, 26, 0, 14, 22, 0, 0, 36, 44, 0, 30, 35, 0, 32, 11, 0, 0, 0, 39, 0, 0, 0, 0, 62, 0, 3, 0, 15, 10, 20
|11, 20, 0, 0, 0, 0, 0, 0, 0, 44, 36, 22, 50, 0, 5, 0, 42, 10, 26, 45, 0, 0, 0, 0, 34, 0, 0, 48, 0, 52, 38, 0, 0, 58, 51, 0, 0, 29, 25, 0, 4, 0, 0, 28, 31, 24, 0, 19, 9, 21, 0, 54, 0, 6, 0, 0, 63, 47, 56, 59, 17, 39, 0, 16
|0, 1, 0, 0, 35, 40, 49, 28, 0, 7, 26, 33, 45, 46, 0, 0, 0, 30, 0, 41, 0, 52, 64, 0, 0, 37, 0, 44, 15, 0, 42, 0, 0, 56, 6, 0, 0, 20, 0, 57, 62, 5, 0, 0, 0, 0, 0, 61, 27, 2, 0, 34, 0, 0, 25, 51, 0, 0, 0, 53, 0, 0, 19, 24
|61, 3, 0, 0, 0, 0, 0, 23, 0, 12, 22, 0, 37, 0, 0, 58, 0, 0, 0, 42, 0, 0, 0, 11, 0, 36, 0, 46, 0, 0, 0, 17, 18, 60, 63, 0, 0, 64, 19, 0, 0, 51, 28, 0, 0, 0, 49, 21, 0, 0, 0, 53, 0, 7, 55, 38, 0, 31, 0, 0, 59, 50, 25, 10
|56, 0, 41, 9, 0, 21, 0, 57, 48, 1, 0, 0, 0, 0, 0, 25, 0, 0, 62, 28, 0, 20, 17, 43, 0, 0, 0, 0, 0, 0, 0, 18, 0, 0, 12, 14, 0, 31, 51, 0, 2, 10, 0, 0, 0, 40, 0, 0, 0, 0, 63, 0, 59, 0, 0, 0, 26, 15, 3, 0, 6, 0, 0, 0
|0, 0, 0, 0, 0, 50, 1, 0, 29, 0, 60, 54, 43, 45, 9, 62, 0, 0, 0, 0, 10, 32, 40, 30, 39, 0, 0, 0, 47, 51, 61, 33, 38, 0, 0, 0, 0, 0, 0, 0, 0, 0, 0, 0, 0, 18, 0, 42, 0, 35, 56, 0, 16, 0, 0, 0, 57, 0, 14, 0, 0, 20, 0, 0
|33, 10, 0, 40, 63, 0, 5, 0, 0, 0, 0, 4, 0, 0, 0, 0, 0, 0, 12, 54, 7, 47, 0, 36, 0, 0, 15, 0, 34, 0, 60, 0, 58, 0, 0, 17, 0, 0, 57, 37, 22, 56, 25, 50, 61, 0, 0, 3, 46, 19, 31, 0, 41, 0, 18, 0, 51, 16, 0, 0, 0, 0, 24, 29
|32, 0, 51, 0, 24, 0, 0, 0, 55, 40, 0, 0, 0, 0, 0, 50, 25, 0, 0, 46, 39, 0, 41, 0, 0, 0, 3, 0, 0, 0, 0, 0, 61, 4, 0, 0, 26, 0, 15, 0, 0, 7, 0, 45, 29, 9, 48, 6, 64, 36, 0, 0, 0, 0, 30, 22, 0, 0, 0, 18, 28, 49, 0, 0
|16, 0, 0, 0, 0, 18, 7, 0, 8, 0, 0, 0, 38, 59, 0, 36, 51, 14, 0, 0, 58, 0, 56, 0, 0, 0, 0, 0, 48, 0, 5, 28, 39, 49, 0, 6, 53, 10, 0, 0, 0, 27, 37, 30, 26, 0, 4, 0, 0, 50, 15, 0, 0, 3, 0, 0, 23, 45, 22, 17, 63, 55, 60, 54
|25, 30, 36, 62, 19, 0, 11, 0, 23, 18, 0, 49, 0, 34, 0, 0, 50, 57, 8, 44, 29, 16, 0, 0, 10, 0, 0, 6, 0, 63, 0, 0, 0, 0, 48, 24, 0, 1, 2, 0, 15, 46, 0, 0, 59, 0, 0, 60, 0, 0, 51, 39, 0, 0, 0, 28, 38, 61, 58, 9, 0, 0, 35, 12
|0, 27, 0, 46, 38, 0, 0, 0, 0, 0, 0, 56, 19, 20, 63, 0, 0, 18, 0, 0, 52, 22, 0, 0, 0, 0, 0, 0, 0, 0, 0, 64, 28, 50, 0, 30, 36, 40, 41, 29, 0, 0, 43, 0, 0, 0, 0, 62, 10, 0, 0, 2, 0, 34, 0, 0, 11, 13, 4, 0, 0, 7, 37, 0
|0, 0, 43, 0, 0, 32, 15, 0, 0, 0, 0, 60, 17, 63, 30, 0, 0, 1, 39, 0, 0, 0, 0, 0, 0, 45, 0, 49, 11, 0, 55, 0, 2, 36, 0, 25, 28, 0, 0, 0, 56, 57, 0, 18, 0, 48, 61, 40, 7, 46, 0, 0, 0, 0, 0, 33, 0, 42, 0, 0, 35, 0, 8, 0
|0, 41, 0, 0, 0, 37, 0, 0, 2, 50, 9, 42, 28, 29, 40, 46, 0, 7, 4, 49, 0, 0, 59, 8, 61, 0, 10, 58, 0, 0, 0, 35, 33, 64, 16, 48, 0, 0, 0, 17, 0, 30, 11, 0, 15, 0, 0, 0, 3, 43, 0, 25, 0, 5, 0, 6, 0, 0, 0, 34, 0, 47, 0, 19
|0, 0, 29, 31, 21, 10, 2, 0, 0, 35, 45, 41, 58, 62, 0, 11, 6, 0, 0, 0, 0, 14, 0, 56, 0, 7, 0, 0, 19, 60, 0, 48, 13, 0, 53, 55, 0, 0, 0, 0, 0, 0, 0, 0, 0, 0, 64, 0, 39, 0, 0, 0, 0, 59, 40, 17, 33, 0, 0, 0, 0, 23, 0, 0
|35, 0, 0, 0, 60, 0, 33, 0, 0, 16, 0, 18, 0, 0, 1, 51, 0, 0, 17, 15, 64, 0, 0, 3, 0, 25, 2, 0, 54, 0, 37, 57, 0, 52, 0, 0, 0, 0, 0, 58, 0, 0, 39, 47, 0, 0, 0, 8, 14, 0, 0, 0, 0, 0, 56, 10, 4, 38, 0, 61, 20, 46, 0, 0
|52, 14, 0, 42, 56, 0, 16, 0, 25, 0, 48, 0, 0, 0, 3, 38, 46, 0, 0, 0, 0, 61, 54, 0, 0, 8, 0, 0, 20, 12, 0, 63, 26, 0, 10, 23, 5, 18, 6, 0, 0, 29, 0, 0, 0, 0, 31, 0, 15, 44, 36, 0, 35, 0, 53, 0, 0, 0, 45, 0, 11, 0, 0, 0
|7, 0, 0, 0, 49, 1, 63, 0, 36, 43, 53, 0, 0, 8, 64, 0, 0, 37, 2, 0, 0, 0, 58, 0, 52, 16, 33, 42, 59, 0, 0, 0, 0, 0, 19, 0, 0, 0, 32, 11, 0, 26, 0, 41, 0, 62, 50, 55, 31, 0, 0, 13, 48, 0, 0, 0, 39, 0, 0, 0, 60, 0, 0, 0
|50, 58, 61, 0, 0, 54, 0, 26, 0, 10, 0, 0, 4, 33, 23, 0, 30, 0, 0, 52, 62, 11, 0, 0, 31, 28, 13, 36, 6, 5, 0, 15, 59, 39, 0, 0, 0, 56, 0, 0, 0, 0, 0, 0, 0, 0, 46, 0, 18, 47, 57, 0, 38, 0, 51, 0, 1, 21, 0, 7, 29, 0, 3, 63
|0, 0, 0, 8, 0, 39, 25, 11, 0, 19, 0, 0, 0, 12, 0, 0, 41, 0, 0, 0, 50, 0, 18, 0, 0, 44, 0, 21, 0, 0, 46, 0, 62, 0, 0, 57, 14, 15, 0, 0, 5, 2, 0, 0, 0, 63, 10, 13, 0, 0, 0, 9, 0, 58, 0, 37, 0, 40, 17, 0, 30, 6, 59, 0
|0, 0, 0, 0, 18, 15, 0, 58, 0, 13, 0, 0, 0, 42, 0, 6, 21, 11, 50, 62, 16, 0, 0, 0, 12, 0, 44, 24, 36, 54, 0, 41, 45, 0, 0, 34, 61, 0, 35, 0, 0, 8, 10, 53, 1, 0, 59, 57, 0, 0, 2, 0, 22, 29, 0, 5, 46, 49, 39, 40, 43, 27, 55, 32
|0, 0, 0, 0, 0, 52, 0, 0, 3, 21, 0, 9, 0, 44, 12, 0, 0, 0, 56, 0, 0, 33, 0, 0, 64, 1, 0, 31, 45, 35, 0, 39, 10, 16, 0, 40, 15, 63, 0, 0, 46, 37, 0, 4, 0, 28, 0, 0, 0, 6, 0, 47, 7, 57, 34, 48, 54, 0, 25, 42, 0, 0, 53, 0
|63, 2, 54, 0, 48, 43, 62, 0, 0, 0, 0, 0, 0, 0, 0, 17, 0, 20, 0, 8, 41, 0, 12, 0, 0, 0, 5, 33, 37, 46, 18, 29, 1, 27, 0, 0, 25, 0, 7, 0, 49, 16, 0, 19, 0, 0, 42, 26, 0, 9, 0, 52, 0, 0, 0, 13, 59, 0, 0, 57, 0, 0, 61, 56
|0, 0, 0, 64, 61, 0, 0, 0, 0, 8, 0, 45, 39, 0, 0, 0, 0, 17, 60, 0, 51, 0, 0, 58, 2, 6, 53, 4, 50, 0, 16, 0, 55, 0, 0, 0, 13, 62, 28, 0, 0, 0, 14, 0, 0, 0, 15, 29, 40, 37, 0, 0, 0, 0, 49, 30, 0, 34, 18, 0, 0, 41, 7, 44
|29, 6, 0, 0, 41, 57, 36, 16, 0, 64, 0, 2, 10, 0, 0, 49, 0, 32, 40, 0, 44, 25, 0, 0, 0, 60, 0, 13, 30, 28, 0, 0, 20, 23, 0, 12, 9, 0, 43, 19, 47, 0, 0, 0, 0, 39, 0, 18, 54, 11, 0, 56, 21, 15, 31, 0, 0, 0, 33, 4, 0, 0, 0, 0
|0, 0, 44, 45, 4, 42, 40, 0, 38, 0, 43, 0, 0, 0, 35, 5, 0, 0, 10, 53, 23, 0, 0, 0, 55, 0, 0, 0, 0, 0, 14, 22, 21, 57, 0, 0, 0, 0, 50, 0, 0, 13, 52, 54, 0, 0, 0, 0, 60, 0, 0, 46, 28, 0, 19, 25, 0, 36, 0, 12, 9, 37, 0, 58
|0, 25, 0, 10, 0, 19, 0, 0, 46, 55, 0, 20, 41, 56, 0, 0, 37, 0, 52, 0, 0, 57, 0, 0, 27, 48, 0, 0, 0, 0, 0, 21, 0, 0, 24, 0, 0, 0, 0, 0, 0, 0, 0, 60, 0, 12, 0, 22, 0, 0, 0, 0, 0, 61, 58, 53, 0, 0, 0, 28, 0, 0, 2, 0
|53, 24, 0, 0, 0, 3, 13, 0, 58, 0, 16, 37, 59, 22, 32, 23, 0, 0, 54, 0, 0, 7, 35, 0, 25, 0, 0, 0, 51, 17, 0, 47, 29, 0, 0, 2, 0, 5, 18, 6, 48, 0, 21, 62, 0, 0, 63, 0, 0, 55, 41, 0, 20, 10, 8, 0, 0, 14, 11, 0, 52, 0, 1, 15|];