order = 8;
grid = [|33, 0, 0, 58, 0, 42, 0, 3, 32, 0, 0, 0, 0, 0, 0, 0, 0, 0, 0, 7, 0, 0, 0, 0, 0, 0, 25, 0, 0, 0, 0, 24, 31, 0, 20, 10, 0, 0, 48, 0, 61, 0, 36, 0, 0, 54, 29, 40, 0, 44, 13, 43, 0, 0, 0, 0, 39, 60, 0, 0, 38, 30, 0, 0
|0, 0, 18, 60, 19, 38, 0, 0, 0, 44, 0, 61, 50, 46, 15, 0, 55, 14, 30, 13, 22, 0, 0, 56, 0, 52, 59, 0, 0, 0, 12, 11, 8, 0, 0, 0, 0, 62, 27, 0, 43, 0, 0, 0, 0, 37, 39, 0, 20, 0, 0, 41, 10, 0, 1, 49, 54, 0, 0, 0, 2, 29, 3, 0
|0, 0, 50, 0, 0, 0, 39, 31, 43, 6, 0, 0, 26, 0, 0, 12, 0, 33, 0, 0, 0, 0, 0, 0, 0, 18, 48, 0, 62, 57, 1, 42, 9, 63, 0, 24, 0, 0, 7, 0, 0, 0, 0, 0, 0, 8, 0, 20, 3, 45, 0, 22, 11, 29, 0, 0, 0, 0, 23, 51, 0, 35, 32, 44
|0, 0, 63, 0, 0, 0, 0, 43, 41, 28, 0, 49, 0, 0, 0, 0, 6, 37, 0, 39, 0, 44, 45, 53, 17, 0, 13, 0, 0, 0, 0, 0, 26, 0, 56, 0, 0, 0, 0, 0, 31, 0, 10, 0, 58, 23, 0, 46, 0, 51, 25, 47, 0, 0, 42, 0, 5, 0, 21, 11, 24, 0, 0, 62
|0, 0, 29, 37, 45, 0, 44, 0, 2, 24, 56, 0, 0, 55, 0, 0, 0, 0, 0, 23, 0, 63, 0, 0, 0, 0, 0, 0, 0, 30, 28, 54, 0, 41, 0, 1, 0, 0, 0, 25, 0, 0, 0, 11, 60, 26, 6, 0, 57, 9, 0, 0, 5, 7, 0, 0, 58, 36, 0, 0, 0, 0, 64, 0
|0, 0, 0, 0, 56, 0, 0, 8, 34, 62, 18, 1, 0, 0, 33, 0, 0, 0, 0, 0, 0, 49, 0, 0, 0, 0, 21, 37, 0, 22, 0, 61, 0, 0, 0, 19, 43, 0, 0, 12, 0, 0, 0, 41, 0, 0, 7, 52, 4, 30, 32, 36, 6, 2, 0, 0, 0, 26, 0, 40, 59, 42, 20, 13
|27, 61, 0, 7, 0, 62, 0, 0, 58, 37, 21, 0, 11, 39, 0, 36, 48, 29, 59, 0, 57, 20, 9, 0, 6, 32, 33, 0, 47, 46, 0, 41, 0, 52, 60, 0, 3, 0, 4, 2, 0, 22, 0, 38, 0, 19, 0, 42, 35, 64, 0, 0, 28, 0, 0, 0, 10, 0, 50, 0, 63, 0, 56, 0
|54, 64, 12, 0, 0, 41, 0, 0, 0, 60, 0, 0, 27, 20, 0, 63, 34, 0, 19, 0, 0, 8, 0, 0, 0, 0, 0, 0, 0, 0, 29, 0, 0, 6, 0, 0, 0, 0, 28, 0, 59, 3, 44, 24, 14, 49, 4, 0, 61, 0, 0, 0, 0, 0, 55, 48, 0, 22, 0, 45, 0, 0, 7, 0
|60, 0, 0, 31, 42, 8, 0, 0, 6, 29, 0, 63, 3, 0, 0, 9, 1, 0, 0, 0, 23, 15, 0, 0, 35, 44, 37, 10, 0, 36, 19, 12, 0, 50, 27, 38, 49, 33, 26, 52, 64, 7, 0, 0, 46, 0, 0, 0, 58, 0, 0, 0, 0, 14, 5, 0, 0, 0, 45, 0, 0, 24, 0, 0
|62, 0, 4, 0, 0, 48, 0, 28, 0, 0, 0, 0, 0, 64, 0, 45, 0, 11, 0, 52, 0, 12, 42, 10, 0, 61, 0, 0, 0, 0, 0, 0, 0, 0, 34, 51, 14, 17, 23, 0, 0, 0, 0, 0, 0, 3, 0, 0, 0, 36, 35, 50, 0, 24, 0, 9, 0, 0, 0, 49, 37, 32, 40, 0
|34, 0, 0, 0, 0, 10, 58, 0, 0, 12, 23, 0, 51, 32, 39, 0, 0, 40, 0, 0, 0, 59, 38, 22, 0, 0, 0, 0, 0, 0, 31, 0, 20, 13, 0, 46, 55, 0, 0, 18, 0, 0, 0, 0, 21, 1, 0, 0, 0, 4, 0, 61, 0, 0, 0, 0, 17, 14, 44, 41, 0, 0, 0, 9
|0, 0, 20, 64, 13, 0, 6, 39, 0, 14, 2, 0, 58, 0, 43, 0, 0, 0, 49, 0, 5, 0, 21, 0, 0, 0, 0, 0, 41, 0, 62, 23, 0, 24, 29, 56, 0, 0, 15, 61, 0, 0, 0, 57, 63, 47, 52, 22, 0, 42, 0, 37, 0, 0, 0, 0, 34, 33, 0, 55, 0, 31, 48, 0
|0, 0, 0, 23, 0, 53, 0, 27, 0, 0, 46, 0, 0, 33, 0, 0, 0, 57, 0, 31, 2, 35, 0, 58, 0, 30, 40, 20, 0, 0, 0, 0, 0, 4, 19, 25, 0, 0, 22, 60, 9, 10, 0, 0, 0, 0, 41, 14, 0, 0, 47, 0, 51, 0, 0, 0, 12, 28, 0, 63, 0, 15, 1, 3
|0, 52, 40, 0, 0, 25, 63, 0, 0, 0, 0, 0, 0, 0, 0, 50, 0, 16, 0, 0, 0, 61, 37, 0, 56, 59, 14, 0, 46, 51, 42, 64, 10, 57, 45, 41, 0, 0, 8, 0, 0, 0, 23, 0, 0, 28, 17, 35, 53, 0, 0, 0, 0, 49, 2, 0, 7, 18, 0, 58, 0, 0, 0, 19
|9, 17, 2, 0, 0, 30, 59, 14, 62, 0, 53, 36, 49, 0, 0, 0, 47, 0, 44, 0, 0, 60, 0, 0, 0, 8, 0, 32, 0, 5, 50, 0, 21, 0, 0, 0, 48, 12, 58, 0, 0, 0, 4, 27, 0, 38, 0, 31, 0, 0, 0, 45, 22, 52, 0, 0, 35, 0, 57, 20, 6, 0, 0, 0
|3, 51, 0, 47, 0, 56, 38, 15, 55, 52, 1, 28, 13, 57, 44, 0, 0, 0, 0, 0, 14, 0, 0, 0, 0, 0, 0, 0, 4, 0, 7, 25, 0, 0, 5, 40, 32, 9, 0, 37, 11, 29, 50, 45, 39, 48, 0, 0, 12, 0, 0, 19, 0, 33, 17, 63, 0, 0, 0, 0, 0, 60, 59, 0
|56, 59, 3, 46, 34, 39, 49, 60, 22, 0, 0, 0, 0, 0, 0, 0, 0, 64, 52, 0, 0, 7, 27, 42, 0, 0, 8, 50, 6, 47, 10, 0, 41, 0, 0, 23, 0, 58, 0, 26, 0, 31, 0, 0, 51, 12, 0, 63, 0, 0, 57, 40, 0, 28, 54, 37, 33, 0, 0, 36, 0, 45, 4, 5
|0, 32, 6, 51, 24, 22, 61, 0, 44, 0, 39, 26, 0, 0, 0, 37, 35, 28, 41, 47, 15, 0, 0, 49, 64, 33, 34, 0, 0, 27, 0, 19, 4, 8, 9, 45, 10, 14, 56, 17, 0, 2, 13, 48, 11, 62, 0, 0, 31, 0, 0, 52, 53, 59, 0, 21, 0, 0, 55, 0, 20, 0, 0, 12
|0, 63, 13, 0, 30, 43, 0, 0, 0, 19, 60, 0, 25, 0, 35, 23, 0, 8, 56, 0, 24, 0, 10, 0, 3, 39, 0, 0, 58, 0, 0, 0, 0, 0, 0, 0, 28, 61, 0, 0, 0, 0, 0, 0, 0, 0, 40, 4, 0, 0, 27, 20, 64, 0, 0, 0, 0, 0, 1, 0, 46, 0, 0, 0
|0, 37, 0, 0, 0, 58, 0, 0, 0, 5, 48, 0, 0, 0, 20, 0, 2, 53, 0, 30, 0, 0, 0, 0, 24, 43, 44, 25, 0, 15, 63, 4, 0, 0, 0, 33, 0, 0, 0, 0, 0, 16, 49, 3, 0, 14, 0, 0, 0, 47, 0, 34, 1, 0, 0, 35, 0, 61, 31, 60, 23, 0, 0, 0
|64, 0, 0, 0, 9, 0, 0, 0, 0, 0, 0, 56, 16, 0, 0, 0, 60, 0, 0, 25, 18, 0, 22, 0, 0, 0, 61, 57, 52, 0, 0, 59, 29, 0, 0, 21, 47, 27, 0, 6, 0, 0, 5, 0, 24, 36, 0, 30, 0, 12, 0, 38, 0, 0, 0, 0, 37, 44, 0, 0, 0, 0, 0, 8
|20, 0, 38, 0, 41, 36, 0, 55, 40, 27, 64, 58, 0, 6, 0, 2, 0, 51, 34, 1, 0, 29, 0, 0, 45, 56, 0, 0, 0, 17, 30, 37, 52, 31, 0, 63, 0, 13, 25, 0, 0, 0, 61, 26, 57, 0, 47, 0, 0, 24, 39, 16, 4, 0, 0, 62, 49, 0, 15, 0, 42, 9, 0, 14
|0, 50, 0, 4, 0, 0, 62, 5, 59, 41, 52, 0, 0, 42, 0, 0, 0, 26, 0, 0, 3, 31, 63, 6, 32, 29, 23, 35, 21, 0, 0, 0, 57, 54, 43, 0, 0, 46, 12, 48, 0, 0, 19, 7, 0, 15, 28, 9, 0, 0, 11, 0, 0, 61, 0, 8, 0, 0, 0, 0, 0, 64, 0, 0
|0, 0, 0, 1, 40, 19, 0, 0, 61, 0, 0, 18, 0, 0, 0, 0, 33, 0, 4, 9, 32, 0, 23, 0, 0, 0, 22, 41, 0, 0, 26, 7, 0, 0, 0, 0, 0, 24, 30, 34, 0, 45, 0, 0, 0, 64, 55, 27, 0, 58, 56, 0, 0, 0, 3, 0, 2, 0, 48, 0, 0, 54, 28, 53
|42, 33, 0, 0, 60, 0, 10, 0, 0, 0, 0, 40, 0, 0, 29, 0, 57, 0, 35, 53, 46, 0, 1, 14, 62, 0, 0, 0, 9, 26, 0, 0, 0, 19, 0, 4, 0, 0, 11, 54, 3, 0, 28, 0, 36, 0, 30, 59, 24, 0, 0, 64, 50, 0, 51, 25, 0, 56, 12, 39, 13, 0, 8, 31
|0, 0, 35, 44, 0, 16, 12, 0, 26, 54, 0, 24, 59, 30, 0, 62, 0, 7, 0, 0, 0, 28, 39, 23, 47, 13, 0, 49, 0, 0, 60, 5, 0, 36, 25, 37, 0, 56, 21, 0, 0, 0, 42, 40, 18, 0, 38, 0, 14, 2, 0, 0, 17, 41, 0, 52, 61, 34, 64, 33, 0, 3, 19, 0
|30, 1, 0, 0, 0, 0, 52, 0, 0, 0, 0, 3, 0, 44, 32, 0, 13, 0, 40, 17, 0, 10, 18, 25, 29, 0, 0, 43, 0, 8, 0, 58, 50, 15, 0, 62, 0, 5, 34, 57, 49, 0, 0, 0, 0, 0, 51, 0, 7, 0, 0, 0, 0, 46, 0, 0, 0, 0, 0, 28, 0, 0, 16, 24
|0, 47, 0, 62, 0, 20, 4, 9, 21, 0, 63, 0, 6, 0, 27, 0, 0, 60, 0, 0, 61, 22, 0, 0, 0, 24, 36, 0, 0, 40, 0, 28, 0, 10, 0, 31, 0, 0, 29, 0, 0, 0, 25, 1, 0, 11, 0, 0, 30, 34, 45, 26, 0, 0, 48, 0, 43, 2, 58, 23, 0, 38, 51, 52
|28, 0, 54, 0, 0, 0, 13, 0, 53, 0, 0, 15, 0, 0, 25, 14, 0, 0, 0, 12, 29, 0, 20, 0, 11, 46, 0, 0, 32, 0, 0, 0, 0, 17, 38, 30, 0, 0, 52, 0, 44, 0, 7, 0, 33, 24, 0, 34, 0, 57, 5, 49, 0, 0, 0, 0, 50, 1, 10, 0, 0, 40, 35, 42
|36, 11, 0, 0, 26, 40, 0, 38, 0, 0, 57, 35, 23, 0, 41, 0, 0, 0, 0, 0, 56, 30, 0, 0, 42, 19, 52, 0, 15, 44, 6, 0, 0, 12, 3, 48, 33, 45, 1, 0, 17, 60, 64, 58, 0, 0, 0, 0, 10, 61, 18, 0, 0, 0, 27, 0, 46, 0, 0, 0, 25, 0, 63, 0
|7, 18, 0, 0, 0, 0, 0, 0, 52, 34, 0, 0, 0, 13, 64, 0, 0, 47, 0, 58, 0, 0, 0, 11, 39, 0, 51, 0, 61, 53, 2, 3, 0, 55, 16, 44, 42, 23, 0, 28, 50, 15, 0, 0, 45, 10, 0, 0, 0, 62, 0, 0, 0, 0, 8, 36, 14, 0, 0, 6, 26, 49, 0, 60
|24, 48, 0, 15, 0, 31, 0, 53, 39, 42, 0, 0, 0, 60, 45, 1, 0, 50, 0, 0, 0, 0, 0, 0, 0, 0, 10, 59, 0, 25, 0, 22, 0, 14, 0, 0, 0, 35, 20, 0, 0, 23, 16, 52, 0, 0, 0, 55, 0, 19, 0, 0, 0, 0, 0, 56, 47, 41, 0, 7, 54, 0, 18, 17
|0, 0, 37, 0, 0, 35, 53, 0, 63, 0, 0, 0, 29, 0, 0, 26, 18, 10, 33, 48, 0, 0, 0, 0, 7, 21, 41, 51, 0, 20, 0, 0, 43, 0, 36, 22, 12, 57, 0, 13, 0, 0, 0, 14, 0, 50, 9, 0, 44, 0, 61, 0, 39, 0, 0, 0, 0, 0, 0, 0, 1, 0, 60, 4
|61, 10, 26, 36, 0, 0, 24, 58, 17, 0, 5, 46, 0, 0, 12, 40, 16, 44, 0, 0, 0, 0, 0, 28, 19, 0, 0, 30, 25, 13, 9, 31, 14, 34, 0, 0, 0, 0, 32, 64, 0, 0, 6, 0, 38, 0, 0, 7, 0, 0, 0, 3, 23, 0, 50, 1, 55, 51, 0, 0, 56, 52, 0, 29
|0, 25, 33, 17, 49, 21, 0, 0, 0, 0, 0, 0, 7, 14, 23, 0, 9, 0, 45, 60, 0, 37, 0, 0, 40, 6, 32, 0, 0, 10, 0, 18, 0, 28, 0, 0, 53, 1, 0, 0, 56, 5, 0, 39, 0, 57, 63, 0, 22, 59, 4, 0, 0, 0, 35, 0, 27, 0, 8, 0, 31, 58, 0, 54
|43, 0, 23, 52, 0, 0, 0, 0, 0, 2, 4, 22, 0, 0, 61, 0, 0, 30, 21, 56, 0, 0, 11, 3, 0, 57, 0, 36, 0, 0, 0, 0, 17, 0, 7, 26, 0, 31, 49, 0, 35, 34, 0, 0, 28, 0, 0, 0, 62, 38, 14, 6, 0, 51, 64, 33, 0, 0, 0, 9, 0, 13, 24, 0
|8, 60, 27, 0, 0, 11, 16, 4, 0, 0, 36, 0, 0, 0, 51, 44, 0, 0, 14, 6, 0, 13, 46, 54, 0, 0, 2, 47, 0, 1, 56, 0, 15, 40, 21, 39, 59, 18, 3, 0, 52, 61, 55, 25, 26, 0, 23, 0, 0, 48, 0, 30, 0, 0, 24, 0, 64, 0, 0, 0, 0, 0, 0, 45
|0, 0, 0, 0, 39, 50, 48, 0, 0, 0, 28, 6, 37, 0, 0, 0, 0, 63, 8, 57, 40, 0, 24, 29, 27, 0, 38, 3, 0, 0, 45, 15, 0, 61, 51, 5, 46, 0, 0, 0, 4, 11, 60, 10, 19, 0, 49, 2, 0, 52, 0, 17, 0, 26, 20, 54, 59, 35, 34, 0, 22, 33, 44, 16
|38, 40, 14, 34, 0, 54, 56, 0, 48, 13, 47, 0, 8, 0, 0, 32, 31, 61, 0, 0, 0, 51, 49, 0, 0, 42, 28, 0, 0, 11, 0, 0, 0, 45, 6, 52, 35, 0, 10, 55, 0, 59, 0, 0, 0, 58, 0, 1, 9, 0, 0, 0, 0, 63, 0, 5, 23, 0, 0, 0, 3, 0, 0, 2
|63, 0, 51, 0, 6, 0, 0, 0, 0, 35, 42, 0, 55, 0, 1, 0, 39, 15, 23, 0, 4, 32, 0, 17, 0, 0, 24, 60, 34, 0, 22, 0, 37, 9, 54, 0, 0, 0, 0, 0, 0, 0, 0, 31, 0, 27, 0, 13, 0, 40, 0, 0, 25, 0, 57, 0, 36, 48, 18, 5, 14, 0, 61, 46
|44, 35, 64, 32, 0, 0, 0, 0, 50, 0, 41, 0, 0, 23, 13, 4, 58, 3, 27, 29, 0, 11, 53, 45, 0, 25, 0, 0, 0, 0, 17, 39, 0, 46, 15, 0, 0, 0, 36, 59, 0, 21, 1, 37, 49, 52, 0, 8, 0, 0, 22, 0, 55, 0, 0, 0, 42, 0, 28, 16, 47, 0, 34, 0
|0, 0, 30, 0, 0, 0, 0, 2, 27, 55, 0, 12, 45, 17, 62, 47, 0, 0, 25, 0, 16, 0, 48, 0, 14, 0, 11, 15, 51, 59, 61, 33, 1, 0, 0, 3, 23, 0, 37, 10, 42, 64, 35, 54, 41, 0, 0, 0, 39, 0, 19, 29, 44, 0, 21, 13, 60, 0, 0, 0, 40, 0, 9, 0
|47, 3, 0, 0, 58, 23, 46, 18, 42, 26, 0, 34, 0, 1, 0, 0, 0, 0, 61, 0, 49, 62, 51, 33, 44, 0, 0, 45, 19, 0, 0, 6, 0, 0, 12, 13, 0, 21, 63, 0, 0, 0, 0, 0, 0, 43, 0, 0, 0, 0, 52, 9, 0, 0, 41, 0, 0, 0, 2, 0, 5, 11, 29, 38
|0, 0, 60, 56, 0, 59, 0, 33, 10, 53, 7, 8, 0, 0, 0, 6, 0, 52, 42, 55, 0, 4, 54, 26, 16, 22, 30, 0, 40, 34, 0, 0, 0, 0, 0, 20, 0, 0, 0, 27, 0, 0, 9, 2, 0, 0, 0, 15, 17, 0, 50, 28, 0, 0, 37, 14, 0, 13, 0, 31, 51, 1, 0, 0
|0, 0, 19, 0, 4, 13, 0, 0, 60, 3, 15, 0, 33, 0, 0, 29, 23, 35, 12, 32, 8, 50, 47, 24, 0, 0, 18, 46, 0, 0, 0, 0, 56, 0, 48, 34, 25, 54, 51, 31, 26, 0, 0, 63, 17, 55, 59, 39, 16, 5, 0, 0, 62, 0, 0, 0, 53, 0, 20, 30, 0, 0, 0, 7
|15, 55, 0, 16, 37, 0, 36, 50, 0, 22, 43, 0, 38, 49, 0, 54, 7, 0, 0, 21, 19, 0, 6, 0, 0, 23, 0, 0, 0, 0, 53, 9, 0, 58, 42, 2, 4, 8, 33, 0, 57, 28, 34, 0, 0, 44, 0, 0, 0, 0, 20, 0, 26, 40, 61, 0, 0, 32, 0, 0, 0, 0, 0, 0
|12, 0, 10, 45, 17, 0, 0, 54, 0, 0, 0, 39, 0, 0, 46, 19, 37, 13, 0, 0, 0, 56, 15, 40, 57, 47, 0, 0, 0, 42, 21, 0, 22, 0, 0, 11, 9, 0, 5, 0, 6, 38, 20, 51, 0, 0, 48, 61, 0, 25, 0, 0, 7, 35, 0, 0, 26, 50, 59, 0, 44, 23, 0, 55
|0, 0, 62, 0, 48, 0, 0, 0, 0, 0, 0, 0, 5, 58, 0, 0, 30, 39, 64, 0, 20, 0, 31, 41, 0, 1, 26, 52, 0, 0, 0, 8, 38, 0, 0, 0, 0, 44, 40, 49, 0, 0, 0, 13, 0, 25, 0, 56, 59, 46, 0, 63, 0, 0, 0, 0, 4, 0, 54, 0, 15, 0, 0, 36
|0, 0, 0, 12, 0, 0, 21, 0, 0, 7, 44, 27, 0, 48, 52, 0, 20, 42, 60, 62, 0, 0, 0, 0, 30, 0, 47, 8, 0, 63, 0, 35, 0, 38, 10, 18, 50, 32, 0, 0, 0, 33, 0, 36, 34, 56, 0, 58, 43, 22, 17, 46, 0, 4, 0, 0, 19, 6, 16, 0, 49, 0, 0, 0
|0, 0, 0, 0, 25, 49, 0, 56, 37, 59, 22, 54, 0, 31, 28, 0, 10, 0, 0, 0, 0, 27, 0, 21, 0, 0, 0, 9, 24, 38, 3, 51, 13, 0, 0, 0, 0, 20, 0, 62, 0, 0, 11, 44, 0, 0, 0, 0, 33, 0, 0, 18, 0, 5, 63, 50, 32, 0, 0, 0, 52, 0, 36, 57
|41, 23, 0, 10, 0, 63, 60, 30, 46, 36, 0, 0, 0, 0, 0, 3, 0, 25, 16, 0, 0, 0, 0, 0, 34, 0, 39, 5, 22, 0, 0, 0, 0, 0, 57, 0, 24, 4, 0, 14, 0, 50, 0, 62, 0, 7, 61, 0, 49, 0, 28, 59, 2, 0, 0, 0, 51, 15, 37, 0, 0, 0, 54, 11
|51, 36, 0, 13, 11, 3, 31, 0, 0, 0, 0, 16, 53, 25, 0, 34, 0, 0, 0, 22, 0, 0, 55, 8, 60, 62, 0, 28, 0, 0, 54, 0, 2, 0, 46, 59, 58, 37, 0, 19, 63, 0, 38, 43, 52, 41, 0, 0, 29, 32, 0, 0, 0, 30, 7, 64, 44, 0, 0, 10, 17, 50, 5, 56
|0, 44, 0, 61, 16, 0, 29, 37, 13, 11, 38, 19, 0, 18, 0, 0, 53, 45, 32, 0, 36, 1, 0, 0, 0, 0, 0, 56, 14, 33, 0, 10, 48, 51, 22, 0, 0, 40, 0, 0, 0, 0, 0, 30, 0, 2, 0, 49, 0, 60, 58, 57, 3, 20, 0, 31, 62, 63, 39, 0, 0, 0, 23, 34
|0, 0, 0, 22, 0, 64, 0, 0, 0, 0, 24, 0, 0, 0, 14, 0, 0, 31, 0, 59, 7, 3, 4, 0, 0, 0, 0, 0, 18, 0, 0, 0, 33, 25, 41, 0, 0, 0, 0, 44, 10, 0, 0, 47, 1, 39, 0, 37, 54, 0, 48, 21, 36, 23, 0, 53, 0, 46, 60, 0, 0, 28, 0, 0
|0, 0, 0, 48, 0, 0, 45, 20, 23, 47, 58, 50, 9, 63, 57, 60, 0, 0, 0, 0, 11, 17, 0, 0, 0, 0, 0, 44, 0, 0, 59, 0, 36, 30, 49, 0, 0, 0, 31, 0, 14, 6, 54, 4, 12, 0, 0, 0, 0, 0, 1, 0, 24, 0, 0, 0, 0, 0, 41, 0, 7, 26, 55, 35
|0, 0, 55, 18, 0, 28, 0, 1, 0, 0, 29, 0, 40, 61, 10, 39, 0, 0, 0, 44, 0, 0, 0, 5, 36, 0, 64, 21, 50, 52, 46, 0, 0, 0, 0, 12, 0, 0, 0, 23, 13, 57, 0, 16, 59, 42, 60, 0, 0, 6, 0, 8, 15, 0, 0, 19, 31, 0, 4, 0, 0, 0, 47, 0
|18, 0, 0, 63, 21, 0, 0, 45, 0, 40, 0, 32, 44, 5, 36, 27, 15, 1, 28, 0, 25, 0, 62, 0, 46, 38, 60, 4, 16, 0, 51, 30, 55, 0, 0, 14, 52, 6, 54, 0, 37, 0, 53, 0, 0, 17, 0, 10, 26, 0, 49, 12, 0, 0, 47, 41, 9, 0, 0, 64, 29, 0, 0, 58
|0, 38, 59, 0, 43, 0, 37, 0, 28, 0, 54, 23, 0, 0, 0, 0, 0, 0, 55, 16, 0, 48, 57, 0, 61, 14, 42, 0, 0, 29, 40, 0, 0, 11, 0, 0, 39, 0, 18, 0, 33, 24, 0, 46, 0, 32, 0, 36, 52, 0, 64, 0, 35, 0, 0, 4, 0, 0, 17, 1, 0, 0, 6, 41
|50, 0, 0, 40, 0, 14, 0, 0, 0, 0, 0, 20, 42, 22, 7, 13, 56, 0, 0, 64, 0, 6, 30, 59, 53, 36, 0, 23, 33, 58, 34, 32, 0, 37, 0, 43, 2, 3, 19, 0, 41, 49, 0, 0, 5, 63, 0, 18, 1, 0, 0, 48, 0, 0, 0, 0, 52, 0, 35, 47, 0, 0, 31, 26
|0, 4, 0, 0, 23, 0, 5, 36, 0, 46, 55, 48, 19, 0, 17, 53, 50, 58, 0, 0, 0, 24, 29, 32, 41, 0, 3, 0, 8, 0, 0, 56, 0, 42, 0, 0, 30, 49, 60, 0, 7, 0, 0, 61, 0, 34, 35, 0, 40, 0, 0, 31, 20, 57, 59, 0, 0, 37, 0, 2, 0, 43, 38, 0
|0, 28, 1, 3, 29, 7, 30, 0, 45, 0, 0, 0, 39, 0, 60, 59, 5, 36, 0, 49, 54, 0, 17, 0, 0, 0, 20, 0, 0, 35, 37, 55, 0, 22, 0, 0, 0, 0, 24, 0, 19, 0, 56, 0, 0, 0, 0, 38, 0, 14, 63, 0, 0, 0, 0, 0, 13, 0, 0, 44, 48, 34, 53, 0
|58, 0, 0, 53, 27, 0, 0, 0, 64, 0, 35, 10, 0, 47, 4, 0, 51, 0, 46, 41, 52, 26, 3, 0, 0, 63, 0, 0, 44, 7, 0, 0, 0, 5, 0, 0, 0, 38, 59, 29, 60, 0, 48, 0, 0, 0, 57, 0, 0, 0, 43, 54, 0, 0, 0, 0, 40, 0, 0, 61, 0, 0, 50, 28
|0, 0, 0, 2, 0, 46, 0, 0, 0, 0, 50, 37, 15, 0, 49, 52, 0, 0, 11, 0, 45, 42, 0, 35, 28, 9, 5, 26, 0, 0, 48, 57, 27, 32, 0, 0, 0, 0, 0, 63, 0, 0, 0, 0, 0, 16, 31, 64, 0, 0, 0, 0, 0, 3, 0, 0, 25, 30, 56, 8, 0, 0, 22, 0
|0, 0, 31, 35, 47, 0, 0, 11, 0, 63, 0, 29, 34, 26, 0, 0, 0, 0, 37, 8, 0, 43, 13, 7, 59, 2, 6, 0, 0, 19, 0, 0, 0, 23, 64, 61, 21, 0, 46, 0, 0, 14, 39, 50, 55, 0, 0, 0, 32, 17, 0, 5, 56, 9, 58, 30, 24, 54, 0, 62, 0, 0, 42, 49|];