order = 8;
grid = [|0, 22, 0, 0, 0, 0, 33, 0, 36, 12, 53, 48, 0, 26, 0, 0, 0, 29, 32, 0, 54, 0, 15, 0, 0, 0, 35, 20, 0, 9, 0, 43, 41, 19, 0, 27, 0, 0, 0, 28, 0, 0, 0, 58, 0, 0, 11, 0, 0, 42, 0, 37, 59, 51, 0, 13, 49, 0, 0, 0, 0, 0, 0, 1
|46, 59, 0, 62, 0, 45, 56, 32, 55, 0, 0, 0, 0, 0, 0, 16, 0, 19, 51, 48, 31, 0, 33, 0, 22, 0, 0, 0, 0, 42, 0, 53, 14, 0, 58, 30, 26, 0, 0, 0, 0, 44, 0, 5, 0, 21, 61, 34, 57, 0, 0, 0, 29, 15, 18, 0, 17, 0, 0, 0, 0, 50, 0, 8
|0, 0, 27, 0, 15, 39, 0, 0, 59, 0, 0, 0, 0, 0, 0, 0, 55, 0, 45, 0, 0, 0, 49, 0, 44, 0, 0, 29, 54, 5, 36, 26, 53, 0, 13, 17, 0, 0, 0, 0, 37, 8, 0, 0, 0, 56, 4, 12, 0, 0, 0, 0, 0, 64, 0, 0, 2, 25, 0, 61, 19, 24, 0, 0
|11, 0, 0, 0, 58, 0, 0, 63, 0, 7, 0, 0, 56, 10, 0, 17, 0, 0, 0, 0, 0, 0, 6, 46, 0, 0, 0, 0, 31, 41, 13, 28, 0, 64, 0, 42, 0, 0, 12, 40, 0, 0, 51, 50, 26, 0, 0, 60, 52, 5, 0, 36, 0, 0, 8, 54, 0, 0, 44, 0, 27, 9, 0, 0
|0, 0, 0, 36, 44, 0, 19, 0, 0, 0, 0, 0, 52, 21, 0, 0, 0, 8, 60, 40, 64, 0, 0, 0, 58, 0, 27, 57, 49, 55, 0, 12, 0, 0, 0, 0, 59, 0, 0, 5, 1, 38, 0, 0, 0, 0, 39, 20, 17, 7, 0, 26, 50, 0, 0, 0, 62, 54, 28, 16, 34, 45, 0, 56
|1, 12, 0, 0, 0, 55, 0, 0, 0, 0, 0, 31, 51, 0, 0, 27, 0, 35, 44, 26, 0, 7, 0, 3, 47, 0, 11, 10, 0, 17, 59, 0, 0, 2, 0, 0, 0, 50, 0, 18, 0, 46, 57, 28, 0, 0, 0, 45, 24, 0, 6, 34, 0, 0, 19, 0, 0, 0, 53, 20, 0, 0, 30, 64
|0, 0, 0, 31, 0, 0, 5, 0, 0, 0, 0, 2, 45, 28, 49, 0, 0, 38, 0, 0, 58, 13, 16, 0, 0, 7, 0, 34, 0, 0, 0, 0, 35, 0, 0, 0, 46, 0, 0, 0, 41, 10, 0, 0, 54, 36, 15, 27, 25, 0, 0, 33, 56, 0, 0, 0, 6, 0, 37, 0, 18, 0, 0, 0
|0, 34, 0, 0, 54, 28, 35, 51, 0, 9, 0, 0, 44, 0, 32, 18, 0, 0, 0, 0, 27, 0, 56, 0, 3, 23, 60, 16, 25, 0, 6, 0, 24, 0, 52, 0, 0, 0, 61, 0, 0, 0, 22, 0, 0, 64, 53, 59, 62, 0, 0, 43, 4, 2, 0, 40, 0, 48, 39, 0, 11, 42, 13, 33
|0, 0, 35, 0, 18, 26, 0, 0, 0, 11, 47, 44, 0, 50, 41, 0, 16, 55, 0, 13, 9, 0, 42, 0, 0, 61, 17, 51, 39, 62, 23, 0, 0, 45, 40, 0, 27, 4, 0, 43, 36, 0, 2, 0, 60, 0, 37, 25, 5, 63, 0, 15, 0, 0, 0, 0, 0, 0, 0, 0, 64, 7, 0, 12
|40, 0, 3, 0, 0, 30, 0, 0, 31, 53, 0, 0, 0, 0, 15, 0, 60, 45, 0, 0, 0, 22, 0, 0, 63, 54, 0, 21, 48, 34, 8, 0, 0, 44, 1, 51, 0, 0, 18, 0, 0, 0, 0, 0, 0, 62, 27, 0, 0, 55, 0, 0, 0, 11, 33, 0, 25, 23, 0, 0, 0, 0, 47, 0
|12, 46, 44, 0, 7, 13, 52, 0, 51, 0, 57, 0, 55, 1, 0, 2, 0, 62, 0, 8, 19, 0, 64, 0, 9, 25, 3, 31, 36, 0, 0, 0, 0, 0, 29, 0, 0, 0, 11, 0, 18, 39, 53, 0, 0, 0, 0, 33, 0, 6, 23, 0, 30, 0, 16, 37, 0, 0, 0, 60, 0, 0, 10, 0
|57, 0, 37, 0, 11, 5, 4, 0, 0, 48, 14, 0, 0, 0, 0, 20, 15, 0, 0, 44, 51, 21, 3, 0, 53, 60, 43, 33, 0, 0, 0, 0, 64, 0, 63, 54, 52, 28, 0, 30, 0, 1, 0, 22, 0, 26, 12, 8, 0, 49, 9, 0, 31, 0, 62, 39, 34, 0, 0, 0, 46, 58, 0, 41
|25, 15, 0, 0, 16, 51, 0, 0, 43, 27, 0, 9, 62, 46, 64, 0, 20, 30, 0, 33, 0, 54, 0, 0, 0, 26, 0, 0, 57, 47, 0, 18, 23, 53, 0, 0, 17, 0, 49, 48, 0, 52, 0, 35, 59, 55, 0, 0, 0, 34, 0, 41, 1, 58, 61, 0, 8, 0, 63, 28, 0, 0, 0, 0
|0, 0, 22, 34, 0, 0, 0, 43, 0, 0, 61, 42, 17, 0, 0, 5, 1, 49, 0, 53, 18, 0, 63, 0, 46, 12, 10, 24, 64, 32, 28, 41, 0, 0, 35, 57, 9, 0, 0, 0, 0, 0, 30, 56, 0, 45, 50, 0, 0, 0, 52, 8, 3, 14, 0, 0, 0, 0, 31, 0, 0, 0, 33, 0
|19, 17, 0, 64, 0, 0, 1, 14, 21, 0, 36, 54, 60, 29, 0, 39, 0, 0, 0, 34, 0, 0, 0, 28, 2, 49, 0, 30, 0, 0, 0, 55, 0, 0, 0, 61, 47, 0, 0, 37, 5, 0, 38, 0, 0, 0, 20, 15, 46, 45, 10, 57, 22, 48, 51, 0, 24, 27, 0, 0, 0, 18, 53, 0
|0, 21, 0, 0, 28, 41, 53, 20, 33, 0, 0, 0, 0, 12, 0, 0, 24, 46, 31, 35, 48, 17, 0, 0, 37, 29, 6, 1, 0, 15, 0, 58, 0, 0, 26, 0, 0, 0, 0, 0, 13, 23, 4, 0, 43, 0, 0, 0, 40, 0, 0, 64, 0, 0, 0, 2, 22, 0, 45, 0, 0, 0, 0, 0
|30, 41, 45, 58, 0, 0, 9, 0, 18, 57, 3, 38, 19, 64, 0, 60, 0, 0, 17, 61, 11, 0, 0, 48, 0, 0, 0, 27, 0, 46, 25, 0, 0, 63, 50, 15, 0, 0, 0, 0, 0, 47, 0, 43, 22, 0, 54, 0, 59, 29, 33, 12, 39, 0, 7, 0, 0, 31, 4, 52, 0, 0, 0, 0
|0, 0, 0, 0, 0, 35, 29, 0, 28, 6, 0, 32, 1, 0, 0, 56, 0, 54, 0, 0, 0, 0, 43, 7, 13, 0, 20, 36, 12, 58, 16, 39, 17, 0, 0, 0, 49, 0, 52, 41, 0, 50, 0, 4, 0, 10, 25, 0, 0, 51, 60, 42, 14, 0, 0, 0, 38, 24, 46, 0, 61, 0, 0, 18
|61, 44, 0, 0, 27, 12, 0, 0, 8, 20, 43, 0, 0, 0, 0, 21, 0, 0, 46, 1, 0, 0, 34, 0, 0, 0, 59, 0, 0, 0, 0, 9, 30, 0, 0, 3, 0, 14, 42, 0, 0, 53, 0, 38, 0, 51, 16, 31, 0, 0, 0, 0, 24, 0, 4, 22, 63, 0, 0, 15, 33, 5, 0, 0
|0, 57, 0, 22, 0, 47, 0, 46, 54, 51, 0, 36, 14, 0, 9, 30, 27, 41, 0, 0, 25, 0, 0, 45, 24, 15, 0, 0, 0, 6, 33, 34, 29, 35, 48, 44, 16, 0, 53, 0, 0, 21, 0, 62, 0, 37, 0, 1, 19, 17, 5, 31, 64, 0, 2, 0, 42, 0, 12, 39, 49, 0, 58, 43
|0, 0, 34, 0, 39, 0, 15, 1, 0, 47, 25, 5, 12, 49, 0, 22, 6, 0, 0, 0, 33, 4, 10, 59, 0, 52, 0, 0, 0, 53, 43, 51, 0, 7, 31, 60, 0, 23, 57, 32, 64, 61, 42, 20, 63, 35, 0, 0, 0, 36, 56, 46, 58, 37, 0, 48, 21, 50, 0, 26, 0, 0, 17, 0
|60, 53, 0, 0, 0, 0, 0, 0, 61, 44, 26, 0, 46, 0, 55, 0, 0, 0, 0, 0, 0, 23, 0, 0, 0, 0, 7, 54, 62, 0, 0, 0, 0, 27, 0, 5, 12, 38, 28, 19, 0, 33, 0, 0, 0, 0, 0, 0, 47, 52, 3, 0, 0, 34, 0, 43, 0, 0, 0, 0, 25, 40, 0, 2
|42, 16, 10, 0, 38, 0, 0, 0, 48, 39, 0, 33, 0, 59, 0, 50, 0, 12, 0, 49, 0, 0, 0, 24, 0, 41, 0, 0, 14, 0, 0, 0, 47, 54, 22, 0, 0, 0, 0, 45, 0, 5, 0, 0, 2, 30, 0, 0, 1, 0, 0, 0, 26, 0, 27, 0, 0, 8, 0, 0, 57, 0, 0, 0
|7, 0, 54, 0, 50, 14, 0, 3, 17, 52, 0, 34, 0, 27, 0, 62, 0, 0, 0, 63, 42, 29, 21, 0, 0, 44, 18, 26, 0, 0, 37, 0, 0, 6, 0, 0, 43, 61, 0, 10, 0, 41, 0, 13, 15, 12, 46, 11, 23, 0, 0, 40, 0, 35, 0, 0, 51, 0, 47, 0, 0, 19, 0, 48
|22, 50, 0, 0, 35, 0, 40, 0, 0, 34, 0, 0, 0, 8, 53, 0, 0, 0, 0, 0, 0, 45, 0, 0, 23, 0, 0, 46, 0, 4, 52, 0, 62, 5, 0, 55, 0, 42, 14, 47, 0, 17, 0, 0, 27, 43, 18, 26, 64, 0, 0, 0, 36, 25, 0, 63, 0, 16, 0, 2, 0, 0, 0, 0
|13, 47, 5, 0, 0, 0, 0, 59, 0, 0, 0, 52, 0, 0, 46, 0, 0, 48, 54, 0, 29, 41, 20, 0, 36, 0, 0, 0, 7, 0, 0, 45, 0, 0, 0, 12, 40, 0, 0, 26, 25, 4, 49, 42, 37, 0, 0, 0, 0, 53, 0, 0, 17, 0, 30, 38, 0, 57, 34, 0, 0, 0, 11, 55
|0, 0, 0, 0, 0, 0, 28, 0, 0, 0, 0, 0, 11, 15, 0, 0, 0, 26, 30, 0, 47, 0, 57, 0, 0, 16, 0, 9, 2, 0, 0, 0, 0, 0, 0, 0, 0, 0, 0, 0, 34, 56, 0, 0, 0, 13, 64, 0, 0, 0, 43, 0, 21, 8, 0, 23, 0, 5, 36, 0, 0, 35, 51, 53
|0, 0, 1, 12, 0, 0, 46, 49, 0, 0, 0, 56, 0, 0, 3, 0, 0, 11, 0, 0, 0, 36, 0, 23, 0, 6, 0, 0, 40, 0, 0, 0, 19, 0, 27, 16, 10, 43, 24, 17, 0, 0, 60, 0, 0, 38, 32, 52, 0, 0, 13, 0, 0, 0, 0, 0, 59, 4, 54, 14, 0, 0, 61, 7
|14, 11, 2, 27, 3, 60, 42, 0, 0, 21, 12, 64, 0, 32, 0, 41, 0, 0, 0, 31, 40, 34, 0, 43, 35, 0, 0, 0, 26, 50, 54, 0, 0, 13, 44, 0, 15, 59, 23, 49, 33, 57, 0, 9, 58, 53, 45, 51, 0, 61, 22, 0, 5, 0, 6, 20, 0, 0, 38, 47, 1, 10, 0, 0
|9, 0, 16, 0, 0, 0, 34, 25, 26, 0, 30, 50, 0, 0, 43, 44, 0, 61, 0, 0, 0, 28, 38, 0, 0, 13, 0, 0, 0, 57, 5, 20, 22, 39, 0, 41, 51, 11, 45, 46, 0, 19, 15, 8, 0, 1, 47, 10, 18, 59, 27, 54, 2, 32, 0, 3, 0, 33, 0, 0, 0, 17, 0, 29
|41, 0, 64, 43, 51, 0, 44, 57, 0, 4, 40, 0, 0, 23, 0, 45, 0, 9, 2, 0, 13, 32, 8, 18, 0, 0, 0, 47, 55, 0, 10, 33, 21, 52, 53, 0, 0, 0, 0, 0, 50, 14, 0, 0, 0, 54, 0, 5, 48, 11, 31, 0, 0, 60, 37, 0, 0, 0, 0, 62, 22, 0, 26, 0
|0, 8, 20, 0, 0, 19, 0, 54, 0, 59, 18, 0, 5, 61, 36, 0, 10, 37, 0, 21, 0, 0, 0, 0, 0, 56, 31, 0, 38, 43, 24, 0, 0, 34, 0, 0, 0, 57, 0, 0, 39, 0, 23, 0, 0, 22, 0, 0, 0, 33, 7, 29, 0, 0, 0, 44, 28, 32, 58, 45, 0, 41, 42, 25
|34, 0, 0, 18, 0, 54, 0, 0, 53, 1, 22, 0, 50, 0, 0, 36, 0, 0, 56, 0, 0, 31, 0, 0, 41, 0, 55, 0, 30, 51, 0, 0, 0, 46, 0, 0, 0, 24, 0, 0, 8, 0, 64, 0, 32, 0, 0, 4, 39, 0, 0, 48, 0, 29, 0, 28, 10, 0, 61, 0, 0, 33, 15, 19
|21, 0, 51, 0, 0, 0, 39, 0, 62, 0, 2, 0, 15, 0, 0, 0, 42, 4, 0, 23, 0, 46, 29, 57, 0, 0, 0, 0, 0, 0, 26, 0, 12, 0, 0, 0, 0, 32, 0, 35, 0, 0, 0, 0, 0, 40, 0, 17, 0, 56, 24, 52, 0, 0, 3, 0, 20, 11, 0, 0, 0, 34, 0, 0
|0, 25, 0, 0, 13, 64, 0, 0, 34, 0, 0, 0, 0, 31, 0, 10, 43, 0, 0, 0, 17, 0, 53, 62, 0, 8, 4, 2, 0, 16, 29, 42, 5, 0, 0, 0, 36, 0, 0, 0, 26, 54, 56, 0, 14, 58, 41, 0, 0, 0, 0, 32, 0, 0, 0, 19, 12, 1, 0, 0, 0, 0, 27, 28
|16, 37, 0, 20, 0, 52, 7, 0, 47, 0, 0, 0, 0, 0, 0, 58, 21, 60, 3, 0, 35, 24, 0, 14, 0, 17, 13, 0, 0, 0, 0, 49, 0, 0, 0, 25, 0, 39, 15, 1, 0, 48, 12, 53, 10, 0, 42, 36, 0, 0, 0, 0, 0, 0, 0, 0, 57, 0, 40, 0, 0, 2, 0, 22
|0, 0, 0, 29, 0, 4, 0, 41, 0, 0, 16, 0, 18, 0, 14, 0, 0, 0, 0, 15, 0, 33, 0, 37, 56, 0, 23, 0, 0, 0, 57, 0, 44, 0, 55, 0, 2, 0, 47, 0, 27, 0, 0, 0, 45, 0, 0, 0, 9, 22, 12, 0, 0, 0, 17, 0, 0, 13, 0, 49, 26, 0, 0, 52
|2, 0, 33, 0, 56, 0, 0, 0, 52, 46, 0, 35, 0, 39, 38, 3, 61, 0, 0, 0, 0, 19, 0, 0, 45, 34, 47, 12, 0, 31, 0, 0, 0, 0, 0, 50, 64, 22, 0, 0, 0, 24, 0, 16, 30, 0, 23, 0, 0, 13, 0, 49, 27, 40, 55, 60, 32, 0, 42, 25, 0, 0, 6, 0
|0, 0, 0, 42, 0, 0, 0, 10, 0, 26, 23, 25, 7, 0, 0, 0, 0, 28, 8, 6, 50, 59, 0, 0, 0, 0, 54, 0, 0, 0, 58, 0, 0, 0, 0, 0, 60, 49, 0, 11, 0, 35, 13, 0, 0, 0, 22, 29, 0, 14, 0, 0, 0, 57, 0, 0, 30, 17, 56, 53, 0, 31, 0, 0
|0, 0, 8, 44, 0, 23, 0, 15, 45, 28, 48, 0, 0, 13, 0, 0, 0, 0, 1, 30, 0, 0, 0, 49, 0, 0, 25, 0, 20, 0, 14, 24, 0, 17, 0, 31, 33, 0, 0, 29, 0, 0, 50, 19, 18, 5, 0, 0, 0, 4, 0, 0, 0, 43, 0, 0, 7, 0, 9, 51, 0, 0, 3, 36
|0, 0, 0, 60, 0, 40, 20, 0, 50, 0, 0, 0, 0, 0, 0, 0, 0, 0, 15, 52, 21, 0, 13, 41, 0, 0, 0, 14, 58, 64, 0, 0, 61, 22, 0, 0, 55, 9, 51, 53, 0, 18, 39, 23, 0, 0, 34, 0, 0, 0, 0, 0, 33, 27, 5, 25, 0, 38, 10, 0, 0, 29, 12, 0
|5, 35, 0, 11, 61, 59, 0, 0, 0, 0, 27, 51, 49, 33, 0, 0, 0, 0, 20, 36, 0, 0, 28, 30, 0, 0, 0, 0, 23, 24, 0, 0, 52, 0, 0, 29, 0, 19, 25, 56, 48, 0, 0, 1, 12, 0, 0, 0, 7, 46, 0, 0, 0, 0, 14, 0, 18, 43, 64, 0, 31, 57, 60, 0
|36, 0, 32, 0, 31, 16, 0, 38, 0, 0, 0, 0, 0, 0, 45, 55, 0, 42, 33, 0, 0, 63, 61, 0, 6, 18, 0, 0, 0, 0, 12, 44, 28, 41, 21, 0, 35, 0, 0, 0, 43, 62, 20, 57, 24, 0, 51, 19, 0, 54, 0, 1, 23, 0, 26, 0, 0, 39, 15, 7, 0, 13, 0, 34
|51, 0, 0, 30, 2, 3, 55, 0, 12, 5, 0, 0, 0, 16, 0, 9, 0, 56, 53, 62, 0, 50, 0, 0, 19, 21, 0, 41, 34, 27, 39, 38, 0, 49, 0, 0, 58, 0, 0, 8, 54, 0, 0, 0, 0, 14, 63, 0, 0, 24, 0, 45, 0, 13, 35, 47, 40, 0, 22, 0, 0, 0, 0, 46
|0, 7, 62, 48, 42, 0, 0, 0, 30, 18, 0, 0, 0, 0, 60, 14, 45, 0, 0, 0, 5, 0, 0, 35, 25, 0, 49, 0, 0, 0, 47, 0, 34, 23, 0, 36, 0, 0, 0, 0, 58, 55, 0, 0, 8, 0, 9, 56, 22, 0, 0, 0, 43, 19, 0, 52, 41, 0, 1, 0, 51, 27, 63, 0
|52, 0, 24, 46, 0, 22, 18, 0, 0, 0, 42, 0, 47, 53, 0, 0, 0, 0, 55, 0, 0, 25, 0, 0, 0, 50, 8, 60, 13, 37, 0, 57, 31, 1, 0, 0, 0, 0, 32, 27, 15, 0, 41, 0, 0, 28, 26, 0, 0, 0, 36, 0, 0, 10, 0, 0, 54, 0, 2, 0, 17, 21, 56, 45
|28, 0, 0, 23, 12, 0, 0, 58, 24, 0, 0, 22, 64, 3, 0, 0, 0, 0, 0, 0, 49, 0, 0, 0, 0, 0, 0, 0, 0, 33, 0, 2, 0, 0, 18, 0, 39, 0, 13, 0, 31, 0, 5, 60, 50, 0, 36, 0, 0, 0, 0, 0, 0, 17, 56, 15, 0, 55, 11, 0, 47, 0, 0, 0
|17, 49, 39, 0, 0, 1, 45, 9, 56, 2, 34, 40, 0, 43, 11, 15, 18, 0, 0, 0, 0, 48, 0, 0, 0, 0, 26, 0, 0, 36, 0, 0, 0, 0, 42, 0, 57, 0, 0, 33, 0, 0, 10, 6, 46, 29, 21, 32, 60, 64, 0, 0, 16, 0, 50, 0, 0, 14, 0, 8, 62, 28, 23, 5
|23, 13, 17, 57, 0, 0, 0, 47, 29, 61, 0, 12, 8, 0, 0, 34, 0, 33, 0, 0, 46, 0, 0, 56, 16, 31, 39, 0, 27, 20, 51, 6, 0, 18, 30, 0, 0, 0, 0, 0, 0, 28, 0, 0, 0, 0, 0, 54, 0, 0, 15, 14, 53, 0, 0, 0, 0, 64, 59, 0, 0, 0, 0, 11
|0, 38, 0, 56, 0, 0, 0, 12, 0, 0, 37, 39, 9, 0, 0, 0, 0, 57, 0, 54, 0, 0, 0, 0, 33, 5, 64, 0, 0, 0, 0, 62, 0, 15, 60, 0, 0, 10, 0, 21, 0, 0, 0, 14, 0, 23, 0, 2, 0, 0, 25, 61, 0, 28, 0, 51, 4, 0, 0, 0, 0, 0, 45, 27
|0, 0, 43, 0, 0, 0, 61, 0, 0, 33, 0, 0, 0, 30, 0, 0, 52, 31, 6, 37, 8, 0, 0, 13, 18, 0, 28, 0, 11, 12, 3, 10, 0, 20, 0, 58, 0, 0, 0, 0, 32, 27, 34, 0, 0, 50, 5, 0, 54, 19, 63, 39, 49, 22, 0, 56, 0, 0, 35, 41, 0, 25, 14, 0
|8, 0, 0, 54, 53, 0, 0, 22, 44, 0, 0, 55, 20, 24, 0, 43, 0, 27, 0, 0, 45, 64, 0, 1, 34, 0, 36, 0, 0, 2, 49, 0, 0, 14, 25, 59, 0, 0, 0, 0, 0, 15, 0, 0, 0, 0, 29, 62, 0, 0, 0, 0, 0, 7, 0, 0, 0, 28, 0, 0, 63, 0, 0, 21
|35, 0, 28, 0, 0, 0, 0, 30, 25, 13, 5, 0, 0, 0, 0, 53, 0, 20, 36, 32, 0, 60, 0, 0, 0, 14, 45, 43, 37, 0, 4, 63, 3, 0, 61, 0, 0, 0, 19, 0, 0, 59, 6, 0, 39, 47, 0, 0, 0, 2, 0, 17, 0, 0, 0, 0, 26, 0, 8, 0, 0, 23, 0, 0
|20, 0, 46, 59, 49, 0, 64, 39, 0, 45, 0, 0, 0, 22, 28, 32, 34, 0, 14, 5, 0, 0, 2, 0, 0, 58, 9, 0, 0, 23, 0, 0, 0, 56, 0, 0, 0, 0, 0, 38, 40, 25, 0, 0, 0, 0, 0, 0, 0, 0, 0, 0, 0, 0, 36, 8, 29, 62, 16, 0, 44, 0, 37, 0
|0, 0, 0, 5, 0, 0, 0, 0, 14, 49, 0, 0, 54, 52, 16, 57, 0, 21, 0, 0, 12, 0, 0, 25, 1, 0, 0, 0, 19, 0, 44, 60, 0, 36, 0, 47, 0, 2, 17, 0, 51, 0, 8, 0, 0, 0, 0, 0, 0, 40, 34, 0, 0, 9, 0, 45, 0, 0, 20, 56, 32, 0, 7, 0
|0, 0, 0, 0, 0, 15, 14, 52, 40, 0, 0, 4, 26, 36, 0, 0, 48, 0, 0, 28, 0, 61, 17, 0, 0, 0, 0, 0, 35, 56, 0, 32, 0, 0, 0, 0, 0, 0, 0, 12, 20, 37, 16, 10, 41, 0, 30, 0, 0, 0, 0, 0, 0, 18, 13, 0, 0, 51, 0, 54, 58, 1, 2, 0
|0, 0, 0, 4, 46, 58, 11, 0, 0, 0, 0, 62, 0, 25, 0, 64, 0, 0, 0, 29, 28, 0, 0, 0, 0, 27, 0, 0, 8, 0, 0, 0, 63, 48, 0, 0, 0, 45, 22, 0, 0, 51, 0, 59, 1, 0, 7, 0, 0, 0, 35, 0, 0, 21, 23, 57, 9, 53, 24, 42, 0, 0, 34, 6
|0, 61, 0, 41, 52, 0, 0, 60, 38, 0, 56, 47, 0, 0, 0, 49, 9, 0, 0, 45, 43, 55, 46, 27, 30, 40, 0, 0, 0, 0, 0, 3, 0, 0, 6, 1, 23, 15, 26, 58, 0, 0, 18, 2, 5, 4, 62, 0, 34, 28, 0, 0, 37, 0, 64, 17, 0, 0, 25, 63, 10, 0, 8, 14
|44, 54, 0, 0, 22, 63, 0, 29, 0, 32, 0, 0, 16, 34, 0, 46, 35, 0, 23, 4, 6, 37, 0, 0, 39, 0, 0, 0, 0, 19, 0, 0, 0, 0, 0, 0, 0, 47, 2, 24, 61, 0, 21, 26, 0, 3, 10, 13, 41, 0, 1, 0, 0, 12, 58, 0, 0, 45, 57, 18, 38, 52, 62, 0
|0, 0, 0, 7, 0, 0, 59, 16, 13, 36, 28, 20, 0, 0, 26, 24, 30, 0, 0, 0, 0, 0, 0, 54, 55, 57, 0, 0, 29, 0, 1, 14, 0, 42, 12, 39, 0, 0, 33, 64, 0, 60, 45, 27, 0, 8, 44, 0, 0, 38, 0, 22, 0, 0, 43, 10, 0, 58, 0, 0, 0, 56, 0, 0
|0, 27, 0, 0, 45, 0, 0, 0, 11, 0, 59, 0, 39, 0, 0, 42, 0, 0, 21, 0, 53, 0, 0, 0, 0, 64, 15, 0, 24, 35, 38, 25, 7, 0, 0, 28, 0, 54, 55, 62, 30, 0, 58, 0, 36, 41, 17, 6, 0, 0, 0, 0, 0, 61, 20, 0, 16, 0, 26, 19, 0, 0, 44, 0
|6, 0, 57, 0, 5, 0, 10, 35, 60, 17, 63, 29, 61, 0, 33, 0, 0, 0, 48, 2, 0, 20, 0, 42, 0, 36, 58, 4, 0, 0, 34, 0, 49, 21, 19, 13, 0, 53, 0, 0, 0, 0, 37, 15, 52, 24, 0, 0, 45, 16, 0, 55, 8, 39, 25, 14, 0, 7, 0, 0, 0, 0, 0, 51
|0, 0, 0, 39, 25, 2, 0, 0, 7, 0, 0, 45, 43, 19, 0, 37, 13, 34, 26, 0, 0, 58, 41, 31, 54, 0, 12, 6, 32, 0, 20, 0, 0, 0, 0, 0, 0, 0, 60, 0, 55, 0, 0, 49, 38, 0, 0, 0, 0, 0, 53, 0, 0, 5, 0, 62, 0, 61, 29, 0, 0, 22, 1, 59
|0, 32, 0, 21, 0, 48, 24, 23, 0, 0, 1, 0, 4, 0, 44, 12, 7, 39, 0, 50, 0, 0, 18, 16, 0, 10, 62, 17, 0, 63, 0, 22, 0, 0, 0, 0, 0, 0, 0, 52, 0, 43, 54, 0, 0, 19, 0, 64, 0, 26, 29, 51, 0, 42, 0, 0, 0, 0, 0, 30, 2, 0, 0, 60|];