order = 8;
grid = [|25, 0, 0, 46, 40, 63, 0, 0, 0, 0, 36, 0, 0, 24, 0, 45, 49, 51, 38, 59, 0, 0, 41, 0, 0, 0, 0, 42, 0, 0, 2, 0, 0, 1, 0, 31, 28, 7, 0, 0, 0, 0, 0, 3, 23, 0, 35, 30, 0, 14, 0, 0, 53, 0, 0, 0, 8, 62, 0, 61, 0, 54, 0, 0
|0, 9, 22, 33, 5, 13, 0, 0, 0, 2, 0, 0, 25, 29, 63, 32, 16, 0, 0, 36, 35, 3, 0, 0, 40, 45, 0, 0, 1, 55, 7, 30, 0, 0, 42, 0, 0, 11, 8, 19, 18, 0, 34, 51, 0, 54, 52, 43, 56, 0, 6, 59, 41, 0, 24, 10, 28, 0, 49, 26, 37, 38, 0, 23
|0, 0, 0, 11, 0, 47, 0, 0, 0, 0, 0, 0, 53, 19, 0, 54, 0, 43, 1, 28, 0, 63, 0, 0, 0, 0, 36, 51, 14, 0, 16, 3, 23, 59, 2, 0, 30, 62, 17, 26, 0, 21, 64, 41, 8, 13, 22, 5, 0, 0, 50, 0, 0, 0, 40, 0, 0, 27, 0, 0, 0, 15, 0, 25
|37, 19, 0, 0, 35, 42, 0, 54, 23, 0, 49, 0, 0, 0, 0, 0, 21, 61, 14, 0, 45, 31, 39, 0, 46, 0, 0, 53, 28, 0, 0, 4, 0, 0, 0, 10, 0, 0, 63, 0, 38, 0, 0, 20, 50, 0, 0, 59, 0, 0, 22, 0, 0, 27, 57, 25, 56, 0, 51, 12, 2, 1, 18, 30
|0, 0, 34, 49, 55, 0, 14, 0, 35, 57, 0, 0, 0, 7, 0, 1, 0, 0, 23, 26, 18, 15, 0, 2, 0, 0, 38, 41, 0, 5, 44, 0, 40, 20, 51, 13, 0, 9, 0, 0, 0, 0, 0, 4, 0, 6, 0, 11, 32, 0, 0, 64, 0, 28, 33, 42, 0, 0, 0, 60, 0, 0, 53, 39
|59, 1, 21, 0, 64, 30, 0, 0, 0, 14, 0, 5, 0, 0, 0, 0, 0, 6, 0, 0, 0, 0, 0, 0, 18, 0, 0, 56, 43, 33, 47, 19, 61, 0, 0, 57, 50, 39, 37, 0, 49, 0, 16, 0, 63, 0, 12, 53, 3, 0, 0, 0, 0, 2, 35, 0, 0, 10, 11, 40, 4, 58, 42, 7
|0, 0, 0, 24, 23, 0, 0, 0, 8, 0, 4, 0, 51, 0, 0, 3, 42, 30, 40, 0, 0, 0, 0, 54, 0, 0, 60, 0, 22, 0, 0, 58, 46, 0, 0, 25, 38, 0, 0, 0, 61, 57, 9, 14, 0, 0, 0, 39, 0, 7, 0, 26, 0, 0, 0, 13, 55, 35, 0, 64, 21, 29, 36, 0
|0, 58, 0, 38, 0, 0, 52, 43, 0, 16, 0, 0, 0, 0, 0, 0, 0, 25, 46, 62, 0, 0, 13, 57, 0, 0, 39, 61, 35, 23, 0, 0, 55, 0, 0, 0, 49, 53, 41, 6, 42, 28, 0, 27, 0, 0, 0, 40, 0, 0, 8, 0, 21, 54, 0, 4, 0, 14, 47, 0, 0, 0, 0, 0
|50, 0, 0, 0, 0, 46, 0, 0, 56, 0, 0, 0, 0, 62, 0, 0, 2, 0, 0, 0, 0, 37, 0, 18, 39, 0, 35, 0, 0, 0, 0, 0, 0, 53, 3, 51, 40, 0, 0, 49, 57, 47, 17, 23, 0, 0, 0, 0, 52, 5, 19, 0, 0, 0, 38, 0, 0, 0, 0, 42, 0, 10, 16, 9
|0, 25, 30, 0, 0, 0, 61, 23, 0, 42, 21, 0, 0, 37, 15, 0, 59, 0, 0, 0, 0, 12, 0, 8, 0, 40, 0, 45, 0, 53, 0, 6, 0, 10, 22, 63, 57, 17, 36, 0, 5, 0, 0, 11, 0, 0, 0, 0, 13, 0, 0, 0, 0, 0, 18, 20, 0, 0, 0, 48, 39, 4, 14, 0
|0, 2, 0, 0, 0, 54, 0, 0, 0, 18, 0, 26, 32, 0, 38, 55, 63, 0, 64, 0, 51, 60, 24, 52, 0, 0, 50, 0, 11, 0, 34, 0, 1, 39, 35, 0, 44, 48, 0, 27, 45, 6, 22, 53, 16, 33, 10, 0, 43, 17, 15, 0, 59, 0, 0, 56, 0, 0, 0, 0, 0, 37, 61, 0
|35, 6, 1, 0, 10, 0, 0, 0, 27, 30, 0, 59, 0, 4, 0, 0, 39, 48, 31, 0, 20, 0, 0, 5, 0, 0, 51, 0, 0, 0, 28, 0, 9, 0, 64, 0, 0, 19, 12, 0, 37, 0, 24, 15, 0, 0, 40, 61, 0, 32, 0, 44, 42, 0, 47, 8, 58, 0, 0, 49, 60, 0, 0, 50
|0, 43, 0, 0, 14, 0, 0, 52, 0, 0, 0, 29, 10, 13, 61, 20, 25, 50, 53, 0, 0, 42, 0, 0, 0, 36, 0, 0, 0, 0, 0, 17, 0, 58, 41, 47, 34, 4, 46, 0, 0, 44, 28, 56, 18, 0, 30, 9, 0, 12, 0, 39, 0, 33, 54, 57, 22, 0, 0, 6, 59, 0, 0, 63
|44, 33, 32, 34, 59, 0, 0, 0, 0, 0, 0, 0, 58, 0, 57, 0, 0, 0, 0, 11, 3, 0, 6, 0, 15, 60, 0, 0, 0, 0, 0, 0, 16, 7, 0, 26, 0, 0, 56, 50, 51, 0, 0, 62, 0, 0, 36, 14, 0, 0, 0, 0, 23, 0, 45, 0, 1, 31, 5, 0, 43, 0, 13, 0
|0, 41, 63, 19, 0, 40, 5, 18, 3, 50, 0, 6, 8, 0, 0, 0, 0, 28, 43, 0, 46, 0, 0, 0, 0, 0, 26, 0, 0, 0, 0, 24, 0, 0, 0, 0, 15, 23, 0, 0, 0, 31, 12, 0, 0, 58, 0, 13, 0, 0, 9, 0, 11, 0, 48, 0, 51, 32, 0, 0, 0, 0, 38, 0
|48, 17, 0, 27, 36, 56, 37, 0, 0, 0, 7, 53, 0, 0, 45, 0, 0, 21, 0, 19, 0, 0, 57, 0, 0, 0, 0, 52, 9, 3, 49, 0, 0, 0, 18, 6, 13, 31, 0, 0, 0, 20, 0, 60, 41, 35, 46, 0, 51, 0, 63, 0, 26, 40, 0, 0, 30, 0, 28, 55, 23, 34, 62, 11
|54, 11, 44, 56, 41, 0, 0, 0, 10, 0, 53, 63, 31, 1, 37, 64, 0, 34, 8, 0, 0, 0, 0, 0, 57, 0, 0, 0, 24, 0, 0, 40, 0, 0, 9, 0, 0, 35, 0, 0, 26, 0, 62, 12, 0, 20, 17, 29, 0, 0, 0, 51, 0, 14, 0, 61, 23, 21, 52, 3, 47, 2, 15, 46
|0, 23, 38, 0, 0, 0, 57, 0, 12, 0, 0, 0, 49, 48, 0, 0, 0, 0, 41, 1, 25, 0, 22, 24, 60, 0, 64, 20, 0, 13, 55, 0, 0, 50, 0, 53, 0, 58, 43, 0, 0, 0, 0, 0, 35, 0, 37, 0, 40, 52, 29, 3, 0, 62, 0, 0, 27, 0, 56, 0, 19, 31, 54, 0
|0, 0, 58, 63, 22, 48, 43, 0, 0, 0, 0, 0, 3, 0, 56, 57, 46, 39, 0, 0, 0, 13, 0, 0, 0, 0, 34, 0, 6, 45, 0, 0, 28, 0, 0, 64, 0, 0, 16, 23, 27, 0, 36, 0, 0, 60, 0, 0, 0, 41, 47, 0, 0, 1, 50, 31, 0, 55, 38, 30, 14, 0, 0, 0
|17, 5, 0, 9, 31, 0, 28, 0, 44, 55, 0, 0, 0, 0, 40, 33, 32, 0, 0, 0, 6, 0, 0, 0, 2, 0, 0, 0, 0, 39, 30, 15, 0, 0, 61, 0, 0, 12, 60, 0, 3, 7, 0, 0, 0, 34, 8, 0, 16, 0, 13, 56, 24, 0, 36, 0, 0, 0, 57, 0, 51, 62, 0, 18
|0, 0, 0, 0, 50, 25, 0, 59, 45, 29, 6, 0, 30, 2, 0, 35, 0, 55, 0, 42, 0, 0, 0, 0, 0, 0, 14, 0, 0, 0, 0, 0, 0, 0, 26, 0, 0, 0, 0, 0, 0, 41, 0, 5, 56, 11, 23, 28, 19, 0, 57, 17, 46, 44, 0, 0, 0, 0, 1, 0, 0, 36, 8, 40
|0, 46, 0, 37, 52, 0, 0, 0, 16, 9, 0, 0, 0, 0, 28, 0, 0, 0, 0, 60, 0, 11, 0, 44, 63, 21, 0, 0, 3, 17, 0, 0, 54, 57, 0, 40, 0, 0, 14, 25, 50, 0, 6, 0, 0, 0, 0, 15, 0, 0, 49, 4, 0, 0, 8, 59, 0, 0, 0, 53, 0, 0, 0, 61
|0, 0, 55, 0, 12, 18, 0, 24, 0, 0, 34, 11, 0, 0, 13, 27, 61, 52, 3, 0, 54, 45, 0, 0, 26, 0, 0, 0, 19, 0, 0, 9, 59, 46, 0, 0, 51, 47, 0, 36, 0, 0, 39, 0, 0, 31, 0, 57, 0, 0, 42, 0, 0, 53, 21, 0, 0, 41, 32, 28, 0, 5, 33, 43
|34, 0, 0, 0, 30, 0, 0, 19, 52, 0, 0, 0, 54, 8, 41, 38, 0, 53, 0, 43, 14, 0, 0, 0, 0, 11, 0, 0, 4, 0, 29, 0, 49, 0, 17, 21, 62, 6, 24, 0, 0, 0, 0, 13, 0, 0, 0, 25, 0, 60, 0, 0, 10, 0, 0, 37, 0, 0, 0, 0, 50, 0, 0, 35
|0, 0, 0, 0, 0, 26, 0, 0, 0, 0, 0, 0, 15, 0, 9, 0, 0, 0, 0, 0, 7, 0, 46, 0, 58, 0, 0, 43, 0, 16, 33, 1, 38, 8, 49, 32, 53, 0, 0, 34, 59, 4, 0, 0, 0, 0, 0, 0, 61, 0, 0, 0, 27, 18, 55, 2, 39, 0, 19, 22, 63, 0, 6, 12
|0, 0, 0, 0, 0, 5, 64, 8, 0, 0, 0, 1, 0, 32, 20, 42, 0, 0, 26, 0, 9, 0, 0, 39, 19, 0, 0, 0, 25, 0, 0, 0, 30, 0, 0, 17, 0, 0, 23, 29, 31, 56, 0, 0, 0, 0, 0, 18, 57, 0, 28, 43, 0, 7, 0, 0, 0, 2, 61, 35, 0, 46, 0, 60
|0, 0, 53, 51, 60, 0, 0, 37, 0, 12, 29, 16, 0, 6, 0, 0, 50, 0, 0, 0, 0, 23, 56, 0, 54, 0, 0, 0, 0, 0, 5, 52, 21, 14, 0, 36, 0, 59, 40, 64, 58, 8, 0, 0, 0, 44, 0, 0, 0, 34, 0, 0, 0, 0, 17, 0, 10, 0, 0, 27, 18, 0, 0, 3
|0, 38, 43, 36, 0, 0, 0, 0, 14, 31, 0, 0, 17, 51, 0, 5, 47, 44, 0, 0, 0, 0, 0, 60, 0, 61, 8, 0, 0, 0, 57, 37, 22, 6, 0, 0, 45, 50, 54, 20, 15, 0, 0, 0, 53, 0, 0, 3, 0, 35, 24, 0, 4, 0, 0, 0, 0, 0, 0, 16, 0, 0, 0, 0
|12, 7, 31, 44, 0, 0, 9, 16, 41, 46, 0, 30, 0, 55, 0, 37, 40, 0, 0, 2, 0, 0, 0, 43, 59, 39, 0, 26, 0, 0, 0, 0, 18, 33, 0, 0, 60, 0, 0, 0, 0, 0, 19, 21, 0, 49, 0, 0, 0, 50, 0, 0, 0, 0, 0, 54, 0, 0, 23, 47, 42, 0, 0, 34
|0, 18, 45, 0, 0, 58, 0, 0, 22, 53, 0, 0, 23, 35, 0, 43, 34, 27, 0, 8, 0, 6, 0, 0, 17, 0, 0, 60, 40, 0, 0, 0, 0, 0, 0, 0, 0, 0, 28, 0, 0, 62, 0, 0, 37, 50, 0, 0, 12, 56, 0, 19, 51, 0, 0, 0, 0, 0, 0, 0, 15, 0, 0, 5
|22, 59, 14, 0, 0, 21, 0, 56, 2, 48, 0, 0, 28, 45, 49, 58, 33, 36, 4, 0, 52, 38, 61, 25, 0, 6, 9, 0, 0, 0, 50, 0, 0, 19, 0, 0, 35, 27, 0, 0, 39, 32, 0, 16, 60, 12, 0, 34, 64, 0, 0, 41, 0, 37, 29, 46, 40, 0, 53, 0, 17, 24, 7, 44
|29, 0, 0, 0, 0, 0, 0, 0, 63, 8, 47, 50, 44, 0, 0, 26, 19, 57, 59, 15, 17, 0, 0, 0, 12, 3, 4, 23, 20, 24, 21, 0, 31, 0, 48, 55, 0, 51, 0, 0, 22, 43, 27, 64, 0, 0, 7, 0, 0, 0, 60, 32, 0, 11, 0, 0, 13, 0, 36, 0, 41, 14, 25, 38
|62, 0, 9, 0, 0, 14, 0, 49, 0, 0, 0, 36, 45, 0, 22, 8, 43, 0, 58, 0, 0, 0, 0, 0, 20, 0, 57, 6, 0, 15, 39, 5, 0, 0, 0, 2, 0, 0, 0, 18, 19, 29, 0, 34, 0, 16, 61, 31, 0, 0, 26, 0, 0, 0, 32, 3, 50, 0, 24, 37, 0, 0, 0, 0
|26, 0, 0, 0, 0, 0, 27, 0, 0, 37, 12, 58, 19, 0, 52, 59, 53, 0, 0, 0, 16, 0, 0, 9, 56, 35, 55, 0, 0, 0, 46, 51, 0, 0, 60, 39, 0, 22, 0, 0, 36, 0, 14, 32, 0, 3, 20, 0, 0, 0, 0, 0, 40, 61, 0, 0, 41, 0, 25, 4, 0, 48, 10, 13
|32, 52, 16, 0, 2, 38, 0, 5, 64, 54, 0, 0, 0, 0, 35, 0, 0, 0, 36, 25, 15, 0, 0, 0, 0, 0, 0, 10, 50, 0, 26, 0, 53, 0, 12, 0, 23, 0, 0, 51, 13, 9, 0, 22, 24, 0, 0, 0, 0, 0, 0, 0, 0, 17, 34, 0, 7, 0, 6, 19, 0, 40, 0, 0
|10, 0, 37, 3, 0, 12, 24, 0, 6, 62, 23, 0, 0, 0, 51, 17, 8, 13, 47, 0, 60, 35, 45, 34, 16, 19, 0, 0, 0, 0, 0, 53, 0, 9, 40, 61, 0, 0, 20, 42, 0, 15, 0, 63, 0, 21, 0, 0, 2, 0, 52, 0, 58, 0, 0, 1, 18, 28, 22, 31, 55, 56, 44, 0
|0, 0, 6, 0, 58, 17, 63, 0, 30, 0, 25, 13, 0, 43, 4, 49, 14, 62, 0, 31, 40, 39, 0, 21, 0, 1, 61, 0, 41, 0, 0, 44, 19, 0, 0, 38, 16, 0, 32, 0, 0, 51, 0, 0, 0, 28, 0, 0, 0, 48, 0, 0, 0, 55, 5, 29, 53, 0, 15, 34, 26, 0, 20, 0
|0, 60, 0, 0, 45, 4, 40, 0, 0, 0, 61, 3, 47, 0, 21, 0, 0, 20, 32, 49, 56, 0, 0, 46, 52, 0, 0, 0, 0, 0, 36, 43, 0, 0, 0, 0, 24, 0, 55, 63, 62, 50, 53, 6, 44, 0, 59, 27, 0, 16, 0, 0, 0, 41, 22, 39, 0, 0, 0, 54, 11, 57, 58, 51
|0, 31, 0, 0, 0, 61, 36, 41, 0, 0, 0, 0, 33, 0, 0, 0, 0, 0, 0, 0, 0, 0, 10, 0, 27, 0, 0, 0, 49, 60, 0, 0, 35, 0, 47, 0, 0, 0, 44, 45, 30, 40, 8, 17, 0, 18, 54, 0, 0, 0, 0, 25, 6, 42, 0, 0, 2, 46, 63, 0, 32, 21, 0, 16
|0, 42, 0, 0, 0, 0, 0, 0, 48, 63, 16, 44, 55, 5, 32, 0, 0, 0, 6, 0, 0, 0, 26, 0, 0, 59, 33, 17, 0, 0, 40, 45, 0, 13, 0, 3, 0, 34, 50, 4, 0, 23, 1, 0, 43, 64, 0, 0, 47, 0, 0, 0, 56, 9, 37, 12, 0, 0, 30, 0, 8, 49, 29, 52
|42, 0, 26, 0, 0, 0, 0, 50, 0, 41, 13, 0, 0, 0, 0, 0, 3, 0, 63, 0, 0, 14, 0, 49, 0, 0, 2, 11, 0, 51, 0, 0, 0, 0, 0, 0, 37, 0, 52, 54, 0, 22, 33, 57, 0, 0, 0, 47, 36, 0, 0, 20, 39, 5, 53, 17, 0, 40, 34, 44, 0, 0, 1, 4
|0, 0, 0, 0, 25, 0, 17, 0, 42, 5, 59, 0, 0, 0, 0, 61, 41, 0, 0, 48, 0, 34, 0, 23, 22, 0, 0, 0, 0, 0, 31, 60, 0, 0, 53, 0, 0, 2, 0, 0, 6, 0, 0, 0, 46, 0, 0, 7, 49, 0, 0, 0, 0, 4, 13, 45, 0, 0, 0, 10, 0, 0, 11, 0
|0, 49, 8, 0, 24, 55, 0, 28, 0, 0, 33, 0, 52, 54, 16, 63, 0, 0, 42, 0, 0, 36, 0, 0, 45, 9, 0, 62, 27, 64, 37, 0, 15, 0, 0, 0, 0, 0, 39, 58, 44, 2, 0, 0, 61, 0, 0, 0, 26, 0, 32, 21, 12, 51, 0, 50, 0, 0, 31, 0, 0, 0, 0, 6
|41, 0, 0, 35, 0, 0, 3, 44, 21, 0, 0, 32, 0, 25, 0, 0, 9, 56, 0, 46, 31, 0, 0, 29, 55, 0, 5, 0, 0, 54, 0, 57, 48, 0, 6, 60, 0, 49, 33, 0, 23, 0, 0, 0, 0, 45, 42, 0, 0, 18, 61, 0, 0, 0, 11, 34, 0, 0, 0, 15, 28, 0, 0, 0
|31, 63, 0, 20, 54, 0, 0, 53, 0, 0, 0, 0, 38, 3, 0, 0, 0, 0, 39, 51, 64, 24, 33, 0, 0, 17, 59, 21, 0, 0, 0, 32, 0, 44, 0, 0, 47, 0, 26, 0, 40, 0, 30, 28, 27, 9, 0, 0, 0, 0, 0, 0, 0, 15, 43, 0, 35, 0, 0, 0, 12, 0, 49, 0
|0, 4, 0, 0, 0, 0, 0, 0, 0, 0, 0, 64, 0, 58, 62, 48, 52, 35, 25, 47, 0, 22, 0, 0, 14, 0, 44, 18, 46, 0, 42, 0, 57, 0, 7, 50, 0, 0, 0, 0, 21, 0, 13, 0, 17, 0, 43, 49, 0, 10, 2, 37, 0, 0, 31, 30, 59, 24, 0, 0, 0, 27, 0, 54
|47, 61, 0, 0, 0, 0, 34, 57, 49, 0, 0, 37, 0, 0, 19, 22, 44, 26, 0, 0, 28, 0, 0, 0, 0, 43, 24, 0, 0, 4, 0, 0, 64, 0, 0, 0, 32, 46, 0, 13, 0, 0, 20, 58, 0, 0, 0, 0, 0, 25, 33, 52, 35, 56, 0, 0, 3, 0, 0, 0, 0, 60, 0, 55
|0, 0, 11, 0, 0, 0, 15, 0, 0, 45, 0, 55, 0, 0, 53, 0, 6, 32, 0, 4, 57, 1, 2, 0, 49, 52, 20, 0, 0, 34, 0, 33, 0, 0, 0, 0, 0, 0, 25, 38, 63, 26, 0, 0, 0, 0, 0, 0, 0, 8, 0, 0, 0, 0, 27, 0, 0, 0, 39, 21, 0, 47, 0, 64
|0, 35, 46, 0, 3, 22, 0, 29, 0, 21, 24, 0, 0, 28, 64, 15, 0, 0, 54, 0, 23, 0, 9, 32, 1, 0, 0, 0, 0, 6, 20, 0, 0, 47, 0, 44, 26, 0, 58, 0, 0, 59, 41, 36, 0, 27, 0, 56, 30, 0, 34, 0, 49, 10, 0, 14, 43, 0, 0, 0, 0, 0, 57, 8
|38, 0, 0, 39, 11, 0, 54, 1, 20, 0, 30, 0, 0, 0, 0, 2, 57, 0, 0, 56, 37, 0, 0, 36, 33, 0, 0, 0, 0, 0, 60, 62, 32, 29, 0, 0, 9, 0, 0, 0, 0, 0, 50, 19, 52, 0, 16, 4, 0, 64, 0, 53, 0, 0, 59, 0, 49, 0, 0, 18, 35, 0, 0, 21
|19, 53, 0, 30, 43, 49, 0, 0, 0, 0, 8, 45, 0, 52, 0, 31, 0, 0, 5, 64, 10, 41, 0, 63, 0, 2, 0, 0, 0, 12, 32, 0, 0, 4, 21, 0, 18, 0, 11, 28, 47, 38, 37, 44, 0, 40, 0, 26, 0, 0, 56, 0, 9, 0, 0, 0, 17, 29, 0, 62, 54, 0, 0, 0
|0, 0, 4, 31, 57, 0, 59, 0, 19, 0, 0, 0, 0, 56, 18, 25, 27, 8, 22, 34, 48, 0, 7, 33, 0, 0, 15, 0, 42, 0, 9, 36, 0, 0, 20, 0, 63, 0, 0, 53, 28, 0, 46, 30, 0, 1, 0, 0, 50, 0, 43, 0, 32, 45, 0, 38, 0, 0, 40, 5, 0, 16, 39, 24
|55, 32, 41, 5, 0, 0, 0, 64, 0, 0, 50, 0, 7, 26, 0, 51, 0, 0, 0, 39, 0, 0, 21, 0, 3, 13, 0, 49, 0, 0, 52, 0, 12, 25, 38, 0, 0, 0, 0, 0, 0, 42, 0, 0, 10, 14, 58, 23, 0, 0, 17, 0, 54, 31, 63, 15, 0, 0, 0, 2, 0, 28, 19, 33
|0, 14, 33, 8, 34, 0, 45, 0, 32, 0, 0, 22, 0, 49, 46, 53, 13, 59, 55, 3, 4, 20, 0, 28, 0, 31, 43, 0, 7, 26, 0, 0, 39, 40, 10, 54, 0, 42, 0, 0, 12, 17, 0, 0, 0, 61, 48, 0, 0, 37, 21, 57, 36, 6, 51, 47, 0, 0, 0, 56, 0, 0, 0, 58
|24, 56, 60, 52, 61, 6, 42, 40, 0, 0, 0, 39, 0, 0, 3, 0, 0, 0, 0, 0, 0, 47, 31, 12, 0, 0, 21, 0, 17, 0, 0, 0, 0, 48, 62, 0, 43, 0, 7, 0, 0, 0, 25, 18, 57, 0, 0, 0, 28, 0, 0, 0, 2, 0, 0, 0, 0, 0, 0, 51, 0, 53, 0, 36
|21, 0, 17, 0, 0, 0, 0, 0, 60, 0, 0, 43, 0, 0, 12, 0, 11, 40, 50, 53, 29, 26, 25, 0, 0, 0, 0, 59, 0, 0, 0, 54, 0, 56, 0, 23, 0, 14, 0, 0, 34, 49, 31, 0, 0, 32, 15, 22, 18, 0, 41, 33, 0, 16, 52, 44, 0, 0, 0, 0, 0, 30, 0, 48
|0, 13, 27, 48, 0, 23, 0, 0, 43, 0, 0, 52, 18, 0, 0, 0, 12, 0, 0, 0, 47, 0, 0, 22, 0, 0, 0, 15, 0, 9, 3, 38, 0, 0, 0, 49, 0, 45, 0, 0, 33, 37, 10, 0, 25, 0, 0, 51, 0, 63, 44, 0, 0, 0, 64, 0, 62, 0, 0, 14, 36, 0, 0, 0
|45, 0, 0, 0, 0, 50, 0, 0, 0, 0, 0, 0, 6, 11, 0, 0, 20, 0, 0, 18, 0, 0, 0, 0, 0, 42, 0, 0, 60, 49, 24, 0, 2, 0, 54, 37, 7, 0, 0, 0, 0, 16, 23, 40, 0, 0, 0, 0, 17, 0, 31, 36, 33, 0, 0, 43, 0, 0, 0, 1, 61, 0, 35, 22
|9, 0, 52, 4, 0, 0, 0, 6, 59, 0, 40, 0, 0, 0, 14, 39, 0, 23, 0, 5, 0, 0, 43, 0, 61, 0, 0, 54, 18, 1, 0, 0, 0, 0, 0, 48, 29, 0, 13, 62, 17, 58, 0, 0, 34, 38, 0, 0, 27, 42, 0, 45, 37, 0, 0, 11, 57, 33, 0, 0, 46, 51, 55, 53
|0, 22, 35, 0, 0, 11, 19, 0, 37, 0, 17, 25, 26, 0, 0, 28, 1, 33, 9, 6, 0, 0, 53, 13, 34, 0, 0, 30, 0, 0, 0, 23, 0, 0, 24, 27, 0, 0, 64, 44, 0, 60, 18, 0, 5, 0, 62, 36, 20, 59, 38, 54, 29, 0, 56, 55, 0, 0, 0, 0, 49, 43, 0, 0
|0, 0, 18, 59, 0, 24, 38, 0, 50, 0, 55, 0, 0, 20, 0, 0, 0, 63, 0, 0, 0, 0, 0, 58, 35, 0, 0, 16, 0, 0, 13, 2, 43, 0, 0, 30, 0, 36, 4, 17, 0, 0, 0, 61, 0, 53, 0, 54, 0, 26, 0, 0, 0, 0, 0, 0, 0, 0, 0, 29, 64, 7, 9, 56
|0, 0, 54, 0, 0, 0, 0, 61, 7, 19, 22, 0, 0, 36, 0, 30, 35, 0, 0, 24, 0, 0, 0, 41, 43, 0, 27, 40, 57, 14, 0, 0, 25, 0, 1, 0, 56, 0, 53, 33, 20, 0, 0, 47, 0, 0, 0, 64, 0, 9, 23, 0, 0, 50, 0, 21, 5, 0, 18, 63, 0, 0, 0, 0
|0, 29, 39, 0, 47, 0, 0, 0, 0, 0, 0, 0, 12, 61, 0, 16, 38, 0, 0, 55, 42, 19, 48, 3, 0, 0, 37, 0, 0, 56, 17, 26, 52, 0, 0, 59, 58, 0, 0, 35, 32, 63, 0, 49, 22, 57, 0, 0, 5, 30, 0, 0, 0, 8, 0, 51, 0, 0, 27, 13, 0, 0, 40, 0
|36, 0, 25, 0, 0, 0, 0, 0, 0, 56, 0, 38, 0, 44, 47, 4, 0, 0, 0, 14, 39, 32, 0, 0, 0, 0, 0, 55, 29, 59, 62, 0, 5, 12, 15, 0, 0, 0, 31, 0, 2, 0, 0, 50, 3, 0, 27, 0, 0, 0, 18, 0, 0, 0, 58, 0, 54, 16, 17, 8, 30, 6, 0, 20|];