order = 8;
grid = [|37, 0, 34, 58, 20, 0, 0, 0, 0, 17, 56, 0, 14, 0, 0, 0, 18, 0, 49, 19, 11, 0, 7, 48, 16, 32, 0, 5, 0, 9, 0, 57, 0, 0, 30, 6, 38, 45, 0, 26, 0, 0, 0, 61, 39, 22, 12, 10, 0, 13, 0, 0, 0, 0, 53, 0, 47, 0, 0, 3, 21, 35, 52, 33
|52, 0, 0, 3, 0, 35, 0, 0, 38, 58, 57, 4, 15, 55, 0, 0, 47, 59, 0, 0, 61, 0, 42, 36, 31, 21, 23, 44, 19, 0, 17, 41, 11, 62, 0, 0, 16, 14, 18, 12, 20, 0, 0, 29, 0, 13, 37, 0, 0, 0, 0, 0, 1, 49, 46, 0, 24, 45, 0, 0, 0, 34, 51, 0
|21, 0, 39, 0, 0, 0, 0, 19, 46, 47, 0, 0, 0, 0, 0, 0, 0, 0, 55, 0, 0, 16, 0, 0, 0, 0, 0, 27, 0, 0, 1, 0, 49, 15, 23, 36, 0, 28, 35, 0, 0, 0, 0, 0, 0, 11, 54, 8, 0, 50, 0, 41, 0, 3, 5, 38, 0, 13, 22, 42, 0, 7, 29, 12
|0, 61, 0, 0, 0, 45, 16, 7, 0, 0, 0, 10, 21, 0, 51, 62, 24, 0, 32, 0, 58, 3, 44, 41, 0, 47, 37, 6, 0, 0, 26, 50, 0, 53, 0, 33, 52, 42, 0, 0, 35, 0, 9, 34, 0, 60, 48, 0, 56, 39, 0, 8, 4, 0, 0, 0, 0, 0, 0, 59, 46, 15, 0, 0
|46, 62, 38, 6, 47, 0, 33, 17, 22, 0, 24, 0, 29, 12, 64, 2, 13, 0, 0, 0, 45, 0, 37, 0, 0, 48, 20, 0, 54, 0, 0, 39, 0, 0, 60, 5, 4, 0, 0, 61, 0, 0, 53, 0, 23, 14, 0, 0, 59, 32, 58, 36, 10, 21, 63, 0, 19, 8, 30, 16, 0, 0, 55, 0
|64, 0, 0, 0, 18, 31, 15, 0, 23, 13, 33, 40, 16, 0, 0, 52, 0, 0, 0, 0, 20, 0, 17, 22, 0, 0, 30, 0, 56, 0, 60, 0, 63, 2, 25, 0, 50, 19, 32, 0, 4, 62, 0, 0, 55, 0, 0, 0, 0, 43, 0, 12, 0, 54, 0, 0, 0, 0, 48, 61, 0, 0, 0, 27
|0, 0, 44, 36, 0, 55, 0, 53, 0, 0, 0, 0, 30, 0, 48, 20, 0, 0, 0, 0, 29, 26, 0, 0, 10, 25, 0, 0, 0, 33, 0, 15, 9, 46, 21, 0, 17, 43, 59, 51, 0, 0, 0, 18, 64, 28, 0, 3, 61, 0, 60, 0, 52, 0, 0, 16, 0, 5, 31, 56, 0, 0, 0, 0
|0, 25, 0, 24, 1, 0, 12, 59, 43, 49, 0, 0, 9, 0, 0, 3, 52, 0, 0, 15, 64, 0, 0, 0, 0, 53, 0, 45, 29, 35, 0, 0, 20, 34, 56, 7, 10, 41, 0, 0, 0, 32, 17, 0, 0, 0, 0, 6, 33, 11, 42, 57, 0, 0, 0, 0, 14, 0, 0, 62, 0, 4, 26, 58
|20, 47, 14, 0, 49, 0, 24, 63, 0, 15, 17, 0, 55, 0, 0, 1, 60, 0, 5, 0, 51, 0, 0, 57, 0, 16, 0, 21, 2, 0, 38, 0, 0, 54, 10, 43, 0, 62, 0, 4, 0, 8, 48, 0, 42, 0, 0, 19, 46, 37, 39, 56, 31, 0, 0, 7, 0, 53, 58, 11, 0, 30, 0, 0
|34, 0, 0, 21, 0, 4, 5, 15, 0, 0, 0, 0, 54, 0, 0, 53, 0, 6, 0, 0, 0, 23, 0, 11, 0, 55, 26, 0, 0, 30, 0, 62, 2, 50, 39, 64, 0, 0, 12, 47, 46, 51, 0, 0, 45, 0, 61, 0, 0, 0, 17, 44, 0, 0, 49, 9, 59, 0, 0, 0, 0, 0, 48, 25
|31, 0, 25, 0, 11, 0, 52, 0, 0, 0, 0, 2, 35, 0, 0, 49, 0, 0, 15, 0, 0, 0, 0, 0, 5, 0, 9, 0, 0, 0, 0, 0, 33, 60, 16, 32, 0, 38, 53, 0, 47, 0, 0, 6, 57, 7, 30, 24, 19, 54, 0, 23, 0, 0, 0, 63, 0, 50, 18, 51, 61, 55, 0, 39
|0, 0, 0, 0, 0, 0, 54, 0, 60, 0, 19, 0, 7, 40, 59, 41, 0, 0, 52, 0, 0, 8, 0, 45, 49, 0, 0, 42, 33, 24, 0, 53, 0, 35, 0, 15, 0, 21, 0, 22, 0, 4, 0, 0, 13, 0, 2, 0, 0, 57, 0, 16, 64, 11, 0, 0, 0, 0, 0, 14, 0, 0, 9, 17
|0, 43, 0, 0, 26, 32, 0, 0, 0, 0, 0, 0, 25, 0, 0, 0, 0, 56, 0, 34, 28, 53, 14, 0, 15, 52, 0, 0, 0, 61, 0, 31, 8, 6, 0, 29, 0, 0, 41, 40, 9, 0, 0, 16, 27, 0, 0, 0, 0, 0, 0, 0, 0, 0, 0, 0, 22, 24, 12, 0, 0, 33, 0, 0
|35, 0, 50, 12, 0, 0, 29, 64, 5, 9, 22, 31, 0, 0, 0, 4, 37, 0, 0, 0, 21, 54, 58, 24, 0, 0, 0, 17, 0, 0, 56, 0, 42, 0, 0, 19, 0, 20, 7, 0, 33, 0, 44, 0, 0, 0, 0, 0, 30, 14, 62, 32, 0, 0, 0, 0, 0, 0, 0, 46, 10, 0, 49, 47
|16, 60, 0, 2, 0, 0, 59, 0, 0, 0, 23, 29, 0, 0, 0, 0, 0, 0, 30, 0, 62, 0, 9, 46, 54, 0, 0, 41, 63, 0, 0, 0, 61, 37, 0, 0, 55, 0, 25, 0, 43, 12, 0, 40, 0, 0, 0, 0, 18, 0, 38, 0, 50, 0, 0, 53, 0, 6, 0, 8, 0, 5, 0, 3
|22, 3, 0, 13, 39, 0, 0, 0, 0, 0, 0, 0, 46, 64, 30, 43, 0, 38, 0, 0, 48, 7, 32, 0, 50, 10, 0, 59, 0, 60, 11, 0, 0, 0, 14, 0, 0, 5, 0, 0, 0, 0, 0, 0, 49, 0, 0, 0, 0, 0, 15, 0, 35, 51, 0, 47, 0, 62, 0, 57, 0, 0, 4, 0
|0, 16, 33, 0, 25, 0, 10, 0, 0, 0, 41, 0, 48, 30, 18, 32, 0, 4, 0, 0, 0, 17, 64, 52, 0, 0, 0, 26, 12, 21, 54, 6, 0, 0, 0, 0, 0, 0, 24, 14, 0, 46, 0, 0, 61, 0, 0, 0, 51, 0, 2, 55, 19, 20, 43, 0, 0, 0, 0, 23, 50, 62, 22, 0
|0, 0, 12, 28, 0, 0, 0, 22, 0, 61, 0, 0, 51, 0, 23, 0, 48, 0, 41, 43, 0, 0, 0, 0, 47, 58, 0, 0, 13, 0, 46, 14, 0, 0, 37, 50, 42, 34, 15, 0, 59, 57, 0, 17, 0, 40, 0, 18, 0, 49, 31, 0, 0, 0, 60, 56, 0, 0, 0, 4, 0, 39, 44, 11
|0, 0, 15, 30, 5, 0, 0, 0, 0, 0, 0, 0, 37, 0, 50, 26, 0, 13, 0, 0, 0, 0, 0, 0, 0, 0, 0, 1, 0, 38, 36, 0, 0, 0, 4, 0, 51, 11, 28, 49, 0, 64, 0, 42, 0, 0, 23, 0, 54, 0, 24, 63, 0, 10, 0, 58, 0, 0, 46, 34, 0, 0, 59, 8
|51, 19, 0, 7, 0, 20, 11, 13, 1, 0, 0, 0, 0, 0, 17, 0, 0, 60, 0, 18, 0, 0, 15, 14, 64, 39, 0, 0, 27, 62, 0, 10, 0, 22, 40, 53, 0, 0, 26, 0, 52, 25, 12, 0, 0, 0, 34, 16, 37, 41, 23, 30, 0, 0, 0, 0, 48, 54, 0, 0, 0, 24, 0, 43
|0, 0, 1, 56, 42, 0, 0, 0, 0, 10, 43, 28, 0, 21, 38, 0, 0, 0, 12, 37, 55, 5, 36, 53, 61, 0, 51, 25, 0, 0, 0, 0, 0, 0, 7, 0, 9, 0, 62, 0, 26, 54, 0, 48, 0, 63, 0, 4, 13, 3, 0, 18, 15, 40, 64, 8, 35, 47, 0, 60, 52, 0, 0, 0
|0, 0, 61, 0, 37, 0, 0, 4, 25, 22, 36, 0, 0, 46, 54, 0, 6, 0, 40, 0, 0, 32, 0, 47, 0, 42, 18, 0, 44, 0, 8, 0, 0, 0, 31, 0, 39, 0, 48, 2, 3, 0, 30, 10, 0, 45, 49, 21, 0, 34, 1, 9, 0, 26, 0, 52, 5, 0, 0, 0, 58, 0, 28, 0
|0, 0, 0, 0, 0, 0, 0, 0, 13, 0, 5, 12, 49, 15, 6, 9, 58, 0, 0, 0, 0, 51, 0, 0, 0, 24, 0, 63, 23, 0, 0, 0, 52, 0, 0, 0, 29, 27, 0, 0, 39, 0, 0, 47, 0, 20, 0, 56, 0, 0, 0, 62, 0, 57, 59, 0, 42, 0, 0, 0, 0, 0, 33, 0
|0, 0, 48, 43, 54, 23, 49, 18, 0, 35, 40, 0, 62, 47, 0, 19, 42, 21, 50, 63, 34, 0, 0, 0, 56, 9, 15, 0, 0, 5, 28, 0, 0, 0, 46, 0, 0, 1, 57, 0, 55, 7, 33, 0, 41, 36, 22, 0, 45, 0, 0, 4, 0, 32, 0, 14, 0, 0, 0, 26, 12, 6, 31, 0
|0, 52, 0, 0, 51, 0, 32, 0, 0, 0, 6, 0, 0, 0, 0, 0, 46, 11, 0, 26, 0, 0, 39, 60, 0, 28, 0, 0, 0, 0, 0, 0, 25, 0, 0, 0, 61, 0, 55, 0, 22, 0, 0, 0, 10, 49, 0, 44, 53, 0, 45, 0, 41, 47, 0, 12, 8, 19, 0, 0, 48, 0, 0, 14
|0, 48, 0, 0, 0, 0, 0, 8, 61, 0, 63, 21, 0, 0, 15, 10, 0, 44, 58, 0, 0, 0, 12, 0, 33, 0, 0, 53, 45, 25, 5, 43, 50, 0, 49, 47, 36, 0, 64, 0, 0, 0, 0, 54, 20, 0, 0, 0, 1, 0, 0, 0, 2, 0, 62, 34, 51, 0, 0, 0, 13, 0, 0, 30
|57, 20, 13, 0, 0, 0, 25, 60, 0, 0, 34, 41, 0, 0, 0, 0, 0, 48, 7, 0, 24, 36, 55, 0, 8, 0, 21, 11, 39, 58, 19, 0, 0, 0, 0, 0, 18, 23, 0, 10, 0, 0, 16, 50, 0, 53, 31, 0, 0, 29, 26, 0, 0, 0, 51, 0, 4, 1, 0, 0, 42, 47, 5, 61
|0, 22, 0, 0, 34, 37, 0, 0, 52, 0, 29, 19, 0, 35, 0, 59, 27, 45, 21, 0, 5, 20, 0, 4, 40, 0, 54, 0, 0, 47, 31, 32, 28, 0, 0, 0, 56, 30, 11, 0, 0, 23, 18, 0, 0, 51, 0, 0, 15, 0, 0, 7, 0, 48, 0, 0, 0, 0, 0, 53, 0, 0, 36, 49
|0, 0, 0, 0, 0, 0, 0, 47, 40, 0, 0, 0, 0, 0, 2, 36, 8, 9, 61, 0, 19, 0, 0, 3, 23, 29, 50, 38, 22, 10, 49, 0, 0, 0, 27, 0, 59, 54, 37, 0, 0, 0, 0, 7, 60, 0, 33, 57, 39, 0, 0, 13, 18, 0, 20, 0, 0, 0, 0, 0, 0, 0, 58, 0
|58, 0, 56, 0, 0, 39, 64, 2, 0, 0, 0, 57, 0, 38, 7, 0, 0, 17, 47, 62, 0, 29, 0, 51, 0, 4, 0, 0, 60, 42, 48, 44, 0, 41, 24, 9, 32, 0, 0, 31, 0, 1, 13, 26, 28, 35, 45, 63, 0, 8, 10, 43, 27, 37, 0, 49, 33, 0, 20, 0, 0, 21, 0, 52
|0, 54, 0, 0, 33, 44, 0, 21, 20, 45, 39, 48, 22, 53, 1, 23, 16, 0, 14, 50, 10, 0, 0, 0, 7, 0, 27, 0, 18, 0, 64, 0, 0, 0, 15, 13, 0, 58, 3, 0, 34, 47, 29, 56, 8, 61, 6, 0, 0, 52, 63, 28, 60, 25, 0, 5, 57, 0, 0, 41, 24, 0, 2, 40
|53, 23, 45, 0, 31, 3, 18, 10, 0, 28, 0, 47, 60, 0, 9, 5, 2, 52, 0, 25, 0, 59, 34, 0, 0, 0, 13, 56, 0, 20, 14, 0, 12, 0, 51, 0, 0, 17, 0, 0, 48, 11, 46, 0, 19, 0, 0, 58, 36, 55, 0, 0, 0, 0, 57, 0, 0, 32, 44, 22, 0, 50, 0, 0
|0, 51, 0, 0, 0, 0, 2, 0, 0, 0, 7, 0, 0, 0, 34, 0, 17, 0, 53, 38, 26, 0, 63, 0, 39, 5, 0, 0, 0, 0, 21, 8, 0, 0, 19, 30, 35, 0, 0, 54, 0, 42, 0, 3, 14, 12, 0, 0, 0, 0, 0, 33, 0, 23, 48, 45, 11, 61, 57, 0, 0, 16, 32, 31
|0, 0, 0, 14, 21, 22, 0, 0, 0, 0, 0, 0, 0, 19, 26, 48, 0, 51, 56, 52, 7, 9, 0, 55, 46, 0, 11, 0, 0, 0, 2, 0, 0, 0, 0, 34, 49, 37, 0, 0, 0, 50, 0, 8, 4, 0, 0, 61, 35, 0, 0, 25, 16, 12, 0, 62, 0, 0, 0, 0, 27, 41, 0, 59
|0, 0, 6, 0, 17, 0, 0, 0, 16, 0, 47, 33, 0, 0, 0, 0, 0, 19, 0, 23, 60, 0, 0, 15, 55, 43, 0, 0, 28, 0, 0, 25, 45, 0, 12, 18, 0, 0, 42, 0, 0, 5, 0, 1, 0, 58, 11, 39, 0, 21, 0, 0, 61, 50, 0, 0, 2, 0, 63, 0, 0, 0, 62, 48
|0, 0, 60, 33, 0, 5, 0, 27, 0, 0, 28, 24, 3, 54, 0, 0, 10, 31, 11, 0, 14, 42, 1, 0, 0, 0, 61, 35, 59, 63, 44, 38, 47, 0, 6, 0, 57, 15, 0, 0, 0, 0, 52, 23, 46, 0, 0, 7, 0, 0, 53, 0, 0, 8, 41, 26, 0, 0, 0, 45, 0, 17, 19, 0
|0, 0, 23, 41, 29, 0, 0, 0, 35, 0, 0, 0, 0, 32, 0, 45, 0, 0, 0, 0, 59, 47, 0, 13, 0, 49, 53, 3, 31, 0, 0, 16, 56, 0, 61, 4, 0, 0, 0, 63, 0, 33, 62, 44, 6, 37, 60, 28, 52, 58, 0, 40, 34, 2, 14, 0, 0, 55, 0, 7, 0, 0, 64, 42
|0, 45, 58, 61, 4, 54, 0, 0, 2, 8, 46, 0, 0, 37, 0, 0, 3, 57, 25, 29, 0, 49, 0, 32, 0, 7, 33, 0, 0, 0, 0, 13, 41, 0, 50, 60, 0, 59, 52, 0, 53, 63, 0, 0, 51, 30, 0, 17, 0, 0, 43, 19, 0, 0, 31, 44, 12, 0, 0, 47, 23, 26, 10, 5
|0, 0, 47, 9, 0, 11, 56, 25, 0, 0, 60, 0, 0, 0, 0, 0, 21, 50, 0, 39, 0, 0, 40, 0, 17, 34, 0, 36, 6, 54, 22, 0, 1, 0, 0, 31, 2, 0, 27, 0, 16, 0, 55, 19, 15, 43, 35, 0, 63, 0, 0, 42, 0, 0, 0, 59, 53, 0, 29, 52, 33, 0, 0, 0
|7, 0, 0, 40, 16, 63, 0, 0, 0, 0, 0, 0, 50, 0, 0, 56, 0, 61, 54, 41, 33, 6, 28, 8, 0, 0, 58, 19, 10, 0, 0, 45, 53, 24, 62, 0, 14, 0, 51, 0, 0, 0, 0, 57, 0, 47, 9, 0, 38, 15, 0, 0, 0, 13, 0, 11, 0, 0, 39, 0, 0, 44, 0, 21
|33, 0, 0, 51, 0, 0, 43, 5, 0, 0, 35, 44, 0, 0, 0, 21, 50, 0, 0, 0, 0, 2, 0, 38, 0, 45, 0, 37, 11, 0, 0, 27, 29, 47, 59, 46, 0, 12, 0, 0, 0, 0, 10, 0, 0, 54, 0, 1, 0, 36, 0, 0, 57, 0, 0, 0, 0, 0, 53, 48, 0, 0, 56, 0
|0, 0, 0, 0, 0, 18, 61, 0, 24, 0, 8, 0, 5, 0, 19, 0, 64, 0, 9, 54, 57, 52, 47, 35, 51, 0, 1, 30, 55, 0, 25, 63, 60, 43, 0, 0, 53, 31, 4, 0, 0, 6, 41, 0, 29, 26, 0, 37, 0, 40, 21, 10, 0, 0, 56, 0, 17, 27, 23, 20, 0, 32, 38, 0
|27, 0, 8, 0, 56, 0, 40, 0, 0, 53, 0, 39, 31, 59, 47, 0, 0, 55, 0, 17, 15, 0, 0, 0, 52, 0, 10, 0, 34, 41, 0, 0, 51, 0, 35, 61, 26, 0, 0, 42, 0, 14, 19, 0, 5, 4, 0, 0, 0, 63, 0, 0, 0, 0, 0, 0, 0, 0, 0, 0, 16, 49, 18, 46
|42, 0, 0, 0, 23, 30, 0, 0, 17, 0, 0, 51, 56, 52, 57, 0, 25, 20, 10, 36, 0, 0, 18, 49, 0, 0, 0, 0, 16, 31, 15, 21, 27, 0, 0, 24, 0, 39, 0, 0, 11, 0, 58, 60, 0, 9, 8, 47, 41, 0, 0, 0, 0, 0, 0, 37, 0, 0, 7, 0, 2, 3, 45, 0
|0, 0, 24, 53, 52, 0, 58, 0, 3, 16, 0, 60, 36, 4, 40, 63, 0, 33, 22, 0, 37, 34, 0, 0, 0, 35, 0, 0, 48, 0, 0, 0, 0, 0, 0, 41, 0, 0, 0, 11, 0, 0, 0, 0, 0, 50, 17, 0, 0, 25, 29, 0, 12, 7, 27, 0, 0, 0, 0, 64, 0, 19, 0, 62
|25, 0, 57, 0, 41, 0, 0, 0, 0, 37, 0, 64, 13, 45, 0, 0, 51, 42, 43, 60, 23, 0, 27, 0, 53, 18, 0, 47, 20, 0, 6, 17, 62, 49, 34, 63, 0, 0, 40, 7, 0, 0, 0, 15, 0, 24, 38, 0, 3, 1, 52, 39, 54, 16, 4, 0, 9, 0, 5, 0, 59, 0, 30, 50
|0, 11, 4, 0, 0, 0, 0, 0, 18, 43, 0, 0, 0, 0, 0, 0, 7, 0, 0, 0, 53, 0, 41, 19, 0, 0, 0, 33, 0, 26, 29, 0, 32, 0, 0, 0, 1, 0, 2, 25, 30, 16, 0, 0, 56, 0, 64, 34, 47, 51, 0, 58, 23, 46, 24, 0, 61, 57, 0, 28, 15, 0, 0, 37
|63, 0, 32, 15, 13, 6, 60, 50, 48, 1, 20, 61, 2, 0, 0, 33, 29, 0, 31, 11, 0, 0, 0, 0, 0, 0, 0, 7, 9, 49, 4, 0, 0, 56, 8, 38, 0, 0, 0, 0, 0, 0, 51, 0, 44, 0, 62, 35, 34, 0, 64, 0, 59, 18, 22, 19, 0, 52, 47, 58, 26, 40, 21, 10
|0, 0, 29, 0, 14, 0, 0, 33, 11, 0, 0, 16, 10, 0, 0, 0, 0, 0, 35, 0, 0, 62, 0, 0, 1, 0, 0, 0, 0, 0, 0, 40, 0, 0, 0, 12, 5, 32, 36, 21, 0, 18, 0, 53, 43, 25, 0, 38, 48, 0, 0, 49, 3, 19, 0, 0, 0, 22, 0, 0, 8, 51, 0, 60
|0, 13, 22, 34, 0, 0, 63, 0, 0, 51, 3, 0, 41, 0, 21, 39, 0, 0, 38, 0, 2, 40, 0, 17, 9, 44, 12, 48, 0, 0, 0, 18, 19, 0, 0, 62, 28, 0, 0, 53, 61, 60, 0, 4, 0, 0, 0, 50, 0, 30, 8, 0, 56, 0, 0, 0, 43, 31, 0, 0, 47, 0, 46, 6
|36, 50, 0, 0, 48, 53, 0, 58, 12, 27, 14, 0, 0, 6, 4, 24, 44, 16, 0, 47, 0, 0, 0, 10, 63, 0, 0, 0, 0, 0, 0, 5, 57, 42, 0, 23, 0, 35, 60, 0, 1, 0, 0, 2, 52, 0, 32, 20, 0, 61, 25, 17, 0, 0, 0, 40, 0, 15, 9, 0, 0, 54, 0, 0
|1, 8, 0, 47, 30, 49, 0, 0, 57, 0, 0, 0, 28, 23, 0, 0, 43, 15, 29, 0, 63, 0, 0, 0, 0, 3, 19, 54, 21, 0, 0, 0, 13, 0, 0, 55, 0, 0, 34, 0, 31, 0, 0, 62, 0, 48, 51, 12, 0, 0, 0, 0, 20, 36, 32, 0, 0, 33, 56, 0, 64, 0, 7, 4
|12, 9, 0, 38, 0, 0, 28, 0, 0, 0, 0, 0, 0, 26, 0, 0, 55, 39, 45, 0, 0, 0, 0, 61, 0, 57, 0, 46, 24, 37, 52, 0, 14, 0, 0, 0, 15, 0, 0, 56, 6, 0, 0, 0, 0, 33, 0, 64, 0, 0, 0, 51, 47, 60, 2, 13, 1, 40, 59, 0, 29, 36, 50, 23
|0, 0, 18, 32, 61, 43, 21, 31, 33, 0, 9, 0, 64, 0, 0, 55, 0, 34, 0, 0, 12, 0, 0, 0, 0, 0, 8, 0, 0, 36, 16, 0, 10, 30, 0, 0, 0, 49, 0, 0, 23, 40, 3, 0, 54, 0, 29, 15, 0, 24, 57, 50, 0, 0, 0, 1, 0, 0, 62, 27, 25, 52, 0, 44
|0, 0, 0, 5, 0, 0, 0, 0, 0, 0, 0, 1, 44, 0, 0, 13, 0, 49, 0, 32, 0, 0, 0, 18, 25, 15, 0, 0, 0, 59, 61, 51, 40, 0, 33, 0, 54, 0, 0, 0, 56, 9, 47, 14, 0, 0, 28, 0, 0, 12, 0, 0, 0, 0, 11, 23, 0, 0, 0, 19, 45, 0, 0, 16
|0, 0, 20, 0, 2, 0, 3, 11, 0, 0, 0, 0, 53, 0, 56, 15, 4, 14, 1, 0, 0, 13, 60, 0, 0, 33, 6, 0, 0, 0, 62, 23, 16, 51, 52, 27, 0, 44, 0, 0, 0, 55, 45, 46, 0, 0, 0, 36, 0, 0, 37, 0, 0, 64, 0, 0, 32, 39, 61, 10, 0, 12, 0, 0
|0, 0, 62, 25, 0, 0, 0, 0, 0, 57, 1, 45, 0, 0, 55, 40, 0, 53, 6, 22, 0, 0, 0, 0, 0, 20, 0, 14, 0, 18, 50, 0, 7, 28, 13, 54, 0, 29, 0, 38, 21, 61, 0, 0, 36, 19, 0, 23, 64, 59, 0, 3, 0, 0, 0, 43, 0, 0, 10, 9, 41, 0, 47, 51
|0, 29, 59, 52, 36, 51, 0, 49, 44, 6, 0, 43, 8, 24, 5, 0, 35, 3, 28, 56, 0, 19, 16, 0, 0, 0, 0, 0, 30, 0, 0, 0, 0, 11, 0, 42, 47, 10, 58, 34, 0, 0, 57, 0, 53, 0, 7, 60, 0, 0, 40, 0, 0, 9, 0, 41, 0, 0, 0, 0, 39, 0, 23, 38
|0, 0, 30, 0, 9, 61, 35, 0, 10, 41, 13, 7, 0, 0, 0, 0, 63, 0, 26, 0, 0, 24, 0, 0, 60, 0, 59, 0, 58, 6, 0, 49, 31, 0, 0, 25, 12, 36, 56, 0, 45, 0, 4, 32, 47, 17, 0, 54, 0, 0, 0, 48, 0, 38, 0, 51, 21, 42, 0, 0, 53, 20, 0, 0
|0, 0, 0, 10, 0, 34, 44, 0, 0, 0, 26, 25, 0, 0, 28, 17, 0, 47, 0, 51, 0, 0, 0, 0, 0, 11, 16, 0, 0, 0, 39, 0, 30, 40, 0, 0, 0, 64, 0, 9, 0, 58, 0, 22, 12, 0, 55, 0, 0, 0, 56, 5, 36, 0, 35, 0, 0, 49, 0, 0, 0, 13, 1, 0
|5, 0, 7, 64, 0, 0, 22, 0, 0, 0, 0, 0, 19, 0, 0, 16, 62, 0, 0, 0, 36, 0, 29, 12, 38, 41, 0, 13, 25, 0, 0, 0, 0, 0, 0, 0, 0, 0, 0, 0, 8, 0, 2, 0, 9, 0, 0, 0, 42, 23, 55, 47, 0, 0, 61, 21, 0, 59, 6, 0, 0, 0, 17, 35
|2, 0, 0, 0, 0, 0, 0, 0, 29, 0, 58, 50, 47, 60, 61, 0, 32, 1, 17, 0, 0, 55, 0, 0, 21, 0, 5, 0, 3, 0, 9, 19, 0, 0, 53, 0, 6, 0, 0, 62, 37, 0, 0, 0, 0, 0, 0, 0, 0, 0, 20, 0, 45, 0, 10, 54, 0, 0, 14, 0, 22, 28, 11, 0
|0, 0, 0, 0, 19, 0, 0, 0, 0, 0, 4, 34, 59, 0, 0, 35, 0, 0, 0, 7, 0, 0, 0, 31, 0, 0, 44, 0, 0, 28, 47, 0, 0, 0, 17, 14, 0, 61, 20, 23, 0, 0, 0, 0, 0, 16, 0, 0, 0, 26, 6, 11, 30, 39, 15, 0, 0, 63, 36, 32, 0, 43, 0, 0
|6, 33, 21, 0, 40, 0, 0, 56, 0, 0, 0, 23, 39, 0, 3, 38, 0, 0, 42, 14, 43, 0, 13, 54, 34, 0, 7, 0, 0, 12, 55, 0, 0, 0, 0, 0, 0, 0, 0, 59, 0, 10, 15, 35, 0, 0, 24, 0, 28, 0, 19, 53, 63, 0, 0, 32, 52, 0, 8, 30, 5, 25, 57, 0|];