order = 8;
grid = [|7, 52, 2, 13, 64, 0, 15, 6, 0, 4, 34, 19, 0, 0, 17, 10, 48, 35, 29, 12, 0, 30, 0, 16, 55, 27, 0, 0, 63, 0, 58, 0, 0, 44, 40, 0, 53, 59, 0, 0, 9, 56, 0, 25, 14, 41, 0, 61, 36, 0, 45, 0, 0, 18, 0, 57, 46, 5, 0, 0, 0, 1, 47, 49
|19, 62, 0, 54, 34, 0, 0, 45, 0, 46, 0, 0, 0, 18, 39, 0, 24, 2, 49, 0, 40, 60, 6, 25, 0, 37, 0, 50, 47, 0, 0, 5, 0, 0, 0, 0, 17, 0, 21, 33, 0, 0, 0, 20, 0, 0, 0, 0, 3, 0, 0, 48, 59, 0, 23, 0, 57, 53, 10, 0, 31, 14, 32, 0
|0, 0, 0, 33, 51, 0, 56, 1, 41, 0, 47, 0, 0, 0, 0, 0, 0, 50, 0, 0, 31, 4, 0, 0, 53, 0, 0, 22, 59, 60, 62, 0, 0, 0, 0, 27, 0, 0, 0, 0, 0, 0, 0, 26, 0, 55, 0, 0, 6, 0, 0, 64, 0, 37, 52, 5, 0, 0, 0, 0, 0, 0, 24, 0
|43, 14, 0, 0, 0, 31, 0, 47, 26, 60, 0, 30, 0, 0, 0, 0, 32, 13, 37, 63, 59, 41, 53, 0, 28, 0, 4, 35, 25, 0, 0, 20, 0, 61, 50, 24, 0, 23, 0, 0, 5, 6, 49, 33, 0, 0, 0, 57, 0, 27, 56, 2, 46, 16, 44, 12, 36, 39, 22, 0, 0, 0, 0, 45
|0, 32, 0, 3, 0, 16, 17, 42, 0, 0, 51, 0, 0, 0, 0, 45, 0, 0, 0, 23, 62, 0, 39, 28, 57, 14, 0, 0, 30, 24, 52, 61, 12, 0, 25, 29, 41, 49, 54, 0, 31, 15, 0, 0, 19, 37, 22, 46, 0, 0, 7, 53, 20, 0, 60, 1, 0, 33, 34, 4, 64, 6, 44, 9
|20, 0, 0, 63, 0, 0, 0, 37, 35, 2, 12, 0, 57, 21, 0, 28, 44, 0, 45, 0, 11, 0, 1, 9, 0, 54, 3, 0, 6, 64, 7, 36, 0, 0, 34, 0, 0, 60, 0, 0, 27, 0, 0, 0, 50, 17, 0, 52, 61, 33, 0, 0, 0, 0, 0, 13, 0, 0, 48, 0, 0, 56, 58, 0
|41, 59, 24, 60, 8, 0, 39, 5, 0, 0, 0, 0, 0, 0, 0, 0, 0, 0, 46, 0, 43, 0, 0, 52, 0, 0, 2, 0, 0, 16, 33, 0, 26, 62, 57, 51, 0, 0, 55, 7, 4, 3, 0, 18, 0, 0, 0, 45, 34, 28, 0, 0, 0, 0, 0, 17, 61, 0, 0, 40, 0, 50, 0, 0
|46, 0, 0, 28, 27, 36, 0, 0, 22, 0, 0, 0, 50, 3, 5, 0, 0, 17, 7, 61, 0, 0, 0, 0, 45, 0, 34, 31, 0, 0, 0, 0, 0, 0, 0, 0, 0, 43, 6, 0, 10, 0, 64, 53, 23, 0, 0, 0, 4, 0, 24, 35, 0, 0, 15, 39, 60, 12, 62, 0, 0, 0, 0, 0
|5, 56, 52, 0, 0, 0, 0, 0, 31, 57, 0, 0, 29, 0, 41, 0, 13, 9, 0, 0, 26, 0, 0, 0, 0, 0, 39, 0, 0, 0, 37, 0, 53, 50, 0, 0, 0, 8, 0, 36, 17, 45, 0, 0, 0, 0, 0, 6, 64, 1, 0, 28, 32, 0, 0, 34, 18, 0, 0, 12, 0, 10, 0, 0
|15, 0, 0, 26, 0, 33, 3, 0, 34, 56, 0, 58, 62, 46, 52, 48, 0, 60, 0, 0, 0, 43, 32, 47, 0, 57, 18, 59, 61, 0, 9, 29, 55, 0, 27, 0, 0, 0, 0, 11, 0, 30, 0, 0, 35, 0, 0, 51, 0, 14, 63, 31, 53, 19, 0, 10, 50, 0, 6, 0, 0, 0, 64, 0
|2, 0, 0, 0, 62, 59, 18, 41, 0, 9, 0, 10, 55, 0, 0, 0, 17, 28, 12, 45, 52, 0, 0, 30, 0, 0, 44, 3, 4, 38, 0, 19, 0, 15, 47, 0, 0, 46, 0, 60, 0, 0, 0, 0, 37, 0, 48, 0, 0, 0, 0, 0, 24, 13, 0, 27, 7, 0, 0, 39, 0, 0, 0, 0
|0, 51, 0, 0, 43, 8, 0, 0, 0, 21, 0, 40, 0, 37, 0, 19, 0, 53, 61, 18, 0, 0, 59, 0, 0, 0, 10, 0, 0, 0, 24, 64, 57, 0, 16, 45, 0, 0, 62, 0, 42, 0, 0, 56, 41, 0, 13, 0, 0, 9, 0, 23, 48, 0, 12, 0, 0, 29, 54, 0, 0, 0, 46, 0
|63, 16, 35, 0, 47, 57, 0, 14, 7, 15, 42, 51, 0, 0, 0, 30, 0, 39, 0, 58, 10, 0, 0, 0, 0, 11, 0, 28, 0, 0, 6, 0, 3, 56, 0, 49, 23, 41, 0, 29, 32, 0, 0, 0, 53, 9, 1, 38, 45, 0, 0, 46, 25, 0, 0, 0, 4, 31, 52, 0, 61, 27, 0, 8
|10, 1, 0, 0, 42, 7, 61, 9, 0, 0, 4, 45, 32, 50, 24, 0, 0, 14, 0, 6, 19, 29, 0, 0, 0, 0, 0, 0, 0, 25, 47, 0, 43, 0, 0, 59, 34, 0, 0, 26, 60, 0, 40, 15, 0, 0, 0, 0, 0, 38, 62, 0, 0, 35, 0, 16, 0, 51, 5, 49, 36, 23, 2, 13
|50, 0, 28, 45, 23, 30, 27, 40, 0, 3, 0, 0, 0, 14, 59, 0, 0, 0, 15, 31, 0, 0, 0, 37, 0, 0, 0, 0, 0, 0, 56, 0, 0, 0, 0, 2, 0, 22, 52, 32, 61, 0, 0, 0, 63, 0, 10, 0, 0, 0, 36, 26, 6, 0, 4, 11, 0, 20, 47, 0, 0, 43, 38, 0
|0, 46, 0, 48, 39, 0, 24, 13, 0, 12, 53, 0, 0, 0, 0, 64, 20, 0, 57, 2, 0, 0, 0, 27, 0, 0, 0, 0, 0, 32, 45, 60, 0, 0, 42, 0, 35, 6, 0, 31, 26, 0, 0, 16, 0, 0, 55, 47, 59, 0, 0, 44, 50, 58, 7, 0, 9, 34, 15, 0, 62, 63, 0, 0
|0, 64, 41, 5, 59, 4, 0, 0, 29, 0, 0, 3, 60, 0, 0, 7, 0, 0, 32, 0, 0, 0, 0, 0, 0, 33, 36, 18, 62, 35, 1, 0, 54, 16, 0, 12, 0, 0, 0, 9, 48, 0, 0, 47, 0, 0, 0, 27, 43, 17, 28, 0, 0, 0, 0, 0, 0, 0, 0, 0, 8, 0, 0, 24
|53, 54, 56, 0, 0, 37, 26, 20, 0, 27, 44, 0, 0, 36, 0, 0, 29, 0, 47, 0, 17, 0, 0, 0, 0, 0, 0, 0, 19, 8, 0, 0, 21, 0, 0, 7, 43, 0, 10, 28, 0, 0, 60, 45, 0, 3, 0, 0, 0, 64, 0, 0, 0, 25, 0, 0, 0, 35, 16, 32, 59, 51, 0, 50
|33, 23, 12, 14, 32, 17, 52, 7, 0, 0, 43, 35, 0, 8, 1, 34, 60, 0, 19, 13, 21, 0, 0, 0, 0, 0, 9, 0, 0, 5, 0, 0, 0, 0, 0, 0, 55, 0, 0, 0, 0, 57, 0, 0, 20, 10, 51, 0, 0, 49, 0, 0, 0, 45, 0, 29, 0, 64, 0, 3, 4, 0, 48, 0
|0, 0, 29, 0, 0, 24, 16, 15, 0, 19, 57, 0, 45, 10, 18, 6, 54, 0, 34, 0, 0, 0, 3, 4, 0, 0, 0, 0, 0, 20, 0, 26, 59, 53, 0, 0, 42, 0, 30, 0, 50, 22, 0, 28, 0, 0, 56, 0, 13, 51, 0, 52, 47, 0, 0, 0, 0, 25, 0, 31, 33, 0, 1, 36
|44, 0, 11, 0, 0, 49, 50, 0, 62, 0, 0, 48, 56, 32, 0, 0, 23, 0, 0, 0, 53, 59, 25, 26, 0, 63, 0, 0, 0, 0, 29, 0, 0, 40, 0, 5, 8, 0, 0, 0, 64, 0, 13, 38, 0, 0, 7, 17, 1, 16, 10, 0, 14, 0, 0, 0, 0, 41, 0, 0, 20, 0, 0, 15
|27, 0, 0, 46, 0, 0, 13, 0, 30, 31, 0, 0, 0, 0, 0, 4, 0, 57, 0, 9, 0, 0, 0, 0, 0, 0, 21, 0, 3, 0, 39, 0, 25, 0, 0, 0, 38, 56, 34, 0, 2, 0, 0, 44, 0, 42, 54, 0, 8, 0, 0, 18, 12, 0, 0, 59, 29, 0, 0, 5, 49, 0, 7, 0
|36, 0, 51, 43, 0, 45, 25, 38, 59, 0, 22, 41, 61, 9, 0, 13, 2, 33, 52, 46, 0, 48, 37, 0, 0, 4, 28, 0, 0, 0, 0, 0, 0, 0, 0, 0, 39, 3, 0, 49, 0, 0, 53, 0, 0, 0, 8, 0, 0, 21, 30, 20, 34, 31, 0, 7, 40, 0, 17, 0, 0, 0, 0, 62
|18, 34, 0, 0, 9, 10, 0, 0, 0, 37, 50, 28, 0, 0, 0, 0, 0, 0, 0, 8, 0, 0, 0, 43, 0, 0, 0, 15, 52, 7, 54, 17, 0, 58, 6, 0, 31, 0, 24, 48, 0, 0, 11, 0, 29, 32, 49, 12, 0, 3, 0, 0, 0, 39, 0, 0, 0, 0, 0, 0, 0, 44, 14, 46
|28, 0, 0, 0, 0, 46, 59, 56, 52, 0, 40, 0, 19, 0, 48, 0, 0, 32, 0, 0, 0, 18, 55, 13, 34, 0, 0, 0, 0, 0, 15, 0, 0, 0, 0, 6, 3, 0, 0, 0, 0, 0, 50, 0, 10, 57, 0, 8, 11, 44, 0, 17, 1, 41, 16, 62, 0, 0, 29, 0, 0, 22, 61, 27
|0, 0, 0, 2, 0, 0, 0, 34, 37, 0, 60, 0, 0, 1, 62, 11, 26, 0, 54, 0, 0, 27, 0, 0, 0, 0, 59, 0, 0, 0, 0, 0, 0, 0, 0, 44, 33, 45, 0, 0, 3, 0, 42, 0, 49, 31, 0, 36, 0, 0, 18, 0, 0, 0, 6, 0, 0, 0, 50, 9, 0, 21, 4, 0
|0, 0, 5, 0, 45, 0, 33, 36, 0, 22, 0, 0, 0, 58, 34, 0, 43, 30, 20, 0, 61, 0, 28, 0, 29, 0, 0, 0, 0, 0, 0, 50, 0, 0, 8, 0, 0, 63, 0, 59, 0, 0, 55, 39, 0, 18, 0, 0, 47, 0, 42, 0, 3, 0, 0, 64, 10, 0, 0, 41, 0, 0, 0, 44
|42, 0, 0, 51, 29, 0, 21, 0, 28, 0, 41, 56, 39, 0, 0, 0, 8, 36, 0, 0, 0, 0, 0, 0, 0, 0, 61, 12, 26, 0, 63, 0, 0, 4, 0, 62, 0, 50, 48, 22, 0, 17, 35, 0, 0, 0, 9, 24, 15, 0, 0, 0, 0, 59, 25, 31, 32, 0, 37, 45, 6, 0, 0, 0
|0, 24, 38, 0, 44, 43, 22, 50, 32, 36, 0, 0, 7, 0, 0, 59, 31, 10, 0, 0, 0, 3, 62, 0, 0, 64, 0, 58, 0, 54, 0, 0, 0, 0, 11, 0, 60, 13, 0, 61, 53, 26, 14, 21, 0, 0, 47, 29, 55, 0, 0, 0, 30, 0, 19, 0, 0, 0, 0, 0, 5, 8, 20, 0
|0, 6, 0, 39, 0, 52, 19, 0, 0, 17, 3, 47, 0, 4, 0, 0, 49, 63, 0, 59, 50, 0, 0, 5, 25, 18, 0, 0, 51, 0, 27, 0, 34, 0, 32, 0, 21, 37, 0, 0, 15, 0, 22, 0, 0, 12, 0, 48, 0, 60, 20, 0, 10, 0, 9, 36, 0, 13, 0, 0, 0, 30, 0, 0
|0, 0, 10, 0, 0, 0, 0, 0, 45, 0, 0, 15, 0, 0, 50, 0, 0, 34, 17, 0, 41, 25, 33, 29, 21, 0, 0, 43, 24, 0, 0, 0, 0, 0, 0, 56, 0, 9, 20, 0, 0, 0, 19, 0, 52, 46, 11, 0, 37, 7, 0, 27, 0, 0, 22, 0, 0, 59, 0, 35, 0, 0, 39, 31
|8, 0, 0, 49, 0, 0, 12, 54, 10, 26, 61, 27, 46, 43, 25, 0, 0, 0, 1, 11, 48, 9, 56, 0, 44, 42, 19, 0, 0, 28, 31, 3, 36, 0, 29, 0, 5, 58, 7, 0, 0, 33, 0, 0, 40, 0, 59, 0, 0, 2, 4, 0, 63, 53, 0, 0, 24, 0, 0, 0, 0, 0, 0, 0
|0, 0, 30, 0, 5, 0, 38, 0, 0, 0, 26, 0, 0, 31, 0, 37, 0, 0, 0, 35, 22, 34, 42, 40, 0, 8, 62, 0, 0, 0, 0, 24, 0, 6, 0, 0, 0, 4, 53, 0, 0, 54, 15, 49, 0, 0, 50, 11, 0, 0, 47, 0, 9, 0, 0, 28, 0, 0, 18, 27, 0, 0, 0, 58
|0, 25, 0, 0, 46, 0, 44, 31, 9, 0, 35, 0, 17, 20, 47, 0, 28, 52, 33, 4, 0, 32, 43, 12, 5, 53, 0, 0, 0, 14, 0, 0, 0, 0, 1, 42, 0, 0, 50, 0, 63, 23, 0, 22, 0, 0, 26, 0, 0, 0, 0, 0, 0, 0, 11, 6, 0, 30, 0, 0, 34, 57, 21, 0
|1, 0, 64, 0, 11, 20, 49, 21, 42, 10, 0, 33, 0, 0, 0, 0, 0, 5, 9, 57, 14, 0, 27, 0, 35, 6, 0, 0, 0, 0, 0, 2, 62, 0, 58, 0, 0, 31, 23, 55, 46, 0, 51, 0, 0, 0, 37, 56, 32, 0, 0, 19, 44, 0, 36, 30, 0, 0, 8, 26, 13, 0, 0, 0
|0, 0, 62, 34, 0, 28, 0, 23, 0, 0, 48, 49, 0, 11, 22, 0, 56, 3, 36, 64, 0, 63, 16, 39, 0, 40, 31, 4, 20, 0, 0, 0, 5, 32, 0, 54, 30, 27, 8, 0, 0, 38, 10, 0, 0, 0, 58, 0, 0, 26, 0, 42, 52, 0, 0, 0, 59, 0, 7, 15, 29, 0, 45, 0
|0, 42, 0, 17, 52, 60, 58, 35, 43, 41, 0, 29, 12, 0, 0, 0, 0, 20, 0, 0, 0, 54, 0, 45, 0, 0, 50, 33, 0, 0, 0, 0, 63, 0, 0, 0, 0, 0, 0, 0, 0, 21, 48, 1, 61, 0, 0, 0, 0, 31, 0, 0, 0, 64, 0, 56, 51, 19, 0, 0, 0, 0, 0, 40
|48, 33, 0, 0, 0, 6, 0, 0, 0, 62, 0, 0, 27, 16, 28, 0, 0, 55, 21, 37, 0, 0, 0, 0, 0, 47, 0, 54, 0, 0, 19, 0, 0, 0, 59, 0, 51, 35, 56, 0, 18, 24, 0, 12, 0, 0, 0, 7, 49, 0, 43, 3, 15, 0, 0, 0, 1, 22, 0, 0, 39, 0, 0, 4
|0, 37, 0, 0, 26, 39, 9, 0, 0, 0, 2, 0, 0, 0, 44, 0, 0, 29, 58, 0, 1, 0, 0, 62, 30, 16, 25, 45, 7, 3, 12, 0, 20, 18, 21, 48, 52, 34, 33, 0, 13, 41, 0, 27, 0, 0, 0, 0, 5, 0, 54, 55, 0, 0, 0, 0, 43, 0, 14, 36, 0, 38, 0, 61
|0, 0, 27, 12, 13, 15, 0, 0, 4, 0, 0, 34, 38, 0, 0, 3, 47, 48, 18, 0, 0, 0, 0, 31, 0, 43, 49, 0, 0, 51, 22, 0, 0, 0, 0, 64, 46, 26, 0, 25, 0, 40, 0, 29, 0, 35, 53, 14, 33, 0, 0, 57, 0, 50, 2, 63, 0, 54, 0, 0, 16, 0, 0, 42
|54, 0, 17, 36, 0, 0, 0, 0, 15, 32, 0, 0, 3, 0, 0, 50, 0, 0, 48, 43, 34, 37, 40, 0, 0, 0, 0, 41, 0, 0, 0, 59, 0, 46, 62, 0, 0, 55, 47, 0, 25, 0, 0, 30, 0, 0, 0, 49, 52, 24, 57, 7, 45, 6, 0, 0, 0, 0, 0, 0, 0, 0, 0, 10
|14, 12, 3, 0, 24, 0, 8, 52, 23, 16, 37, 0, 0, 39, 40, 0, 0, 7, 60, 1, 47, 0, 29, 21, 42, 58, 22, 0, 0, 0, 0, 0, 0, 45, 38, 0, 0, 0, 0, 0, 0, 20, 0, 0, 33, 0, 41, 0, 0, 53, 0, 25, 17, 0, 0, 15, 31, 0, 4, 0, 48, 0, 0, 0
|0, 50, 0, 35, 0, 0, 51, 0, 0, 45, 54, 0, 0, 29, 0, 0, 0, 22, 0, 0, 57, 0, 0, 20, 39, 0, 0, 0, 64, 46, 0, 14, 28, 13, 0, 43, 0, 0, 0, 21, 0, 0, 0, 52, 58, 27, 61, 0, 0, 0, 1, 0, 0, 0, 32, 0, 62, 2, 59, 0, 0, 0, 0, 0
|0, 0, 1, 6, 0, 0, 0, 49, 0, 35, 0, 0, 0, 62, 4, 47, 10, 58, 14, 0, 0, 26, 0, 63, 61, 0, 0, 24, 0, 0, 36, 52, 0, 59, 0, 9, 0, 40, 0, 42, 0, 2, 0, 54, 0, 0, 12, 31, 0, 37, 0, 0, 8, 44, 0, 18, 55, 60, 0, 0, 51, 0, 0, 3
|0, 0, 23, 0, 0, 47, 11, 60, 13, 0, 10, 0, 0, 0, 0, 36, 4, 0, 0, 17, 39, 0, 0, 3, 0, 0, 0, 1, 44, 0, 25, 35, 8, 0, 22, 0, 0, 24, 18, 0, 0, 0, 0, 42, 5, 0, 62, 55, 12, 30, 0, 0, 0, 51, 0, 0, 0, 27, 0, 54, 0, 64, 0, 0
|0, 0, 0, 0, 0, 48, 0, 33, 0, 58, 8, 0, 0, 34, 12, 31, 0, 41, 0, 0, 0, 42, 61, 0, 0, 19, 0, 9, 0, 0, 30, 0, 56, 52, 0, 0, 64, 32, 0, 0, 0, 46, 0, 51, 24, 15, 0, 39, 2, 0, 55, 0, 0, 0, 40, 60, 0, 21, 0, 0, 0, 0, 28, 29
|0, 39, 0, 0, 0, 0, 0, 22, 0, 43, 19, 57, 2, 60, 7, 20, 0, 0, 64, 0, 0, 31, 0, 59, 10, 12, 0, 37, 15, 17, 0, 0, 33, 0, 0, 0, 0, 51, 0, 6, 0, 32, 0, 0, 0, 0, 40, 21, 0, 63, 0, 41, 35, 0, 0, 0, 0, 36, 0, 34, 44, 0, 0, 0
|0, 0, 0, 42, 0, 19, 46, 10, 0, 6, 52, 0, 49, 27, 14, 0, 0, 25, 8, 0, 0, 0, 0, 32, 0, 0, 53, 29, 40, 34, 0, 0, 0, 23, 26, 0, 7, 0, 0, 0, 0, 48, 0, 0, 4, 0, 45, 59, 0, 61, 0, 5, 16, 0, 0, 0, 17, 18, 0, 0, 9, 0, 0, 0
|0, 48, 0, 31, 0, 0, 0, 51, 0, 49, 0, 39, 34, 61, 0, 56, 0, 0, 4, 0, 13, 0, 14, 24, 0, 45, 0, 0, 16, 19, 0, 0, 0, 55, 0, 0, 0, 47, 0, 23, 0, 0, 27, 0, 0, 52, 0, 25, 0, 11, 44, 9, 22, 0, 0, 0, 0, 8, 0, 0, 0, 59, 0, 1
|45, 15, 0, 38, 0, 35, 64, 27, 0, 0, 31, 50, 0, 0, 0, 0, 0, 0, 0, 0, 37, 58, 26, 61, 0, 0, 7, 17, 0, 0, 0, 12, 0, 2, 56, 22, 1, 0, 25, 0, 0, 43, 33, 13, 11, 59, 57, 0, 0, 0, 19, 21, 0, 0, 39, 0, 42, 10, 0, 63, 0, 48, 60, 0
|4, 0, 0, 0, 19, 61, 0, 0, 0, 0, 28, 0, 0, 51, 37, 0, 0, 0, 0, 0, 45, 57, 20, 0, 3, 21, 0, 60, 27, 52, 0, 0, 0, 0, 9, 0, 0, 0, 43, 0, 0, 1, 16, 32, 0, 38, 39, 26, 0, 0, 0, 34, 0, 0, 0, 0, 0, 0, 30, 0, 0, 0, 56, 18
|0, 0, 0, 0, 56, 0, 0, 0, 14, 59, 0, 1, 8, 0, 38, 57, 0, 0, 22, 32, 0, 49, 50, 60, 0, 39, 64, 53, 34, 42, 13, 0, 0, 29, 48, 0, 0, 19, 0, 24, 45, 0, 37, 0, 2, 20, 0, 54, 51, 0, 27, 0, 0, 0, 0, 25, 0, 0, 21, 61, 46, 0, 55, 35
|0, 0, 0, 0, 0, 42, 63, 11, 0, 24, 0, 0, 48, 35, 0, 26, 0, 64, 0, 62, 0, 0, 0, 0, 59, 22, 0, 0, 0, 47, 20, 0, 17, 5, 0, 40, 61, 38, 0, 0, 0, 14, 0, 0, 28, 44, 0, 0, 0, 0, 6, 45, 33, 0, 0, 43, 0, 0, 32, 0, 0, 7, 34, 23
|17, 0, 36, 0, 58, 0, 0, 0, 0, 0, 32, 0, 41, 0, 53, 0, 52, 11, 0, 56, 0, 0, 0, 0, 8, 0, 24, 0, 0, 10, 0, 37, 0, 0, 4, 0, 27, 14, 64, 0, 21, 42, 61, 48, 12, 0, 29, 0, 0, 0, 0, 60, 0, 0, 0, 0, 13, 0, 0, 0, 22, 45, 5, 0
|0, 55, 0, 32, 0, 34, 0, 0, 0, 23, 45, 0, 0, 54, 30, 40, 41, 1, 0, 0, 0, 0, 48, 0, 2, 0, 0, 44, 0, 61, 5, 38, 52, 51, 0, 0, 26, 11, 0, 0, 49, 0, 0, 0, 0, 0, 0, 0, 0, 0, 16, 29, 0, 0, 0, 37, 53, 24, 0, 0, 43, 9, 31, 14
|22, 0, 43, 24, 14, 0, 37, 29, 46, 0, 62, 13, 20, 17, 0, 63, 0, 27, 28, 0, 0, 38, 0, 8, 0, 35, 0, 0, 32, 56, 11, 31, 7, 0, 3, 36, 59, 54, 60, 0, 51, 0, 0, 55, 0, 0, 18, 0, 48, 57, 26, 61, 0, 0, 50, 47, 0, 49, 64, 44, 15, 0, 19, 39
|47, 0, 42, 0, 0, 0, 54, 0, 20, 0, 0, 0, 0, 52, 3, 0, 0, 4, 0, 39, 0, 6, 23, 0, 0, 0, 0, 7, 0, 0, 35, 0, 45, 26, 37, 14, 0, 17, 0, 0, 28, 0, 0, 0, 0, 0, 0, 53, 40, 0, 12, 0, 0, 0, 0, 50, 0, 44, 46, 0, 63, 24, 0, 32
|58, 0, 34, 0, 0, 26, 0, 32, 5, 13, 0, 31, 0, 0, 51, 0, 12, 61, 0, 0, 18, 24, 0, 57, 14, 28, 0, 0, 55, 22, 0, 0, 1, 39, 0, 33, 0, 52, 27, 64, 16, 50, 29, 46, 0, 60, 0, 0, 0, 0, 37, 0, 0, 38, 0, 19, 54, 4, 0, 8, 0, 2, 43, 0
|6, 0, 0, 56, 0, 0, 43, 0, 48, 18, 0, 53, 40, 0, 0, 0, 55, 0, 0, 0, 0, 0, 5, 0, 52, 0, 47, 0, 42, 33, 50, 49, 0, 0, 61, 0, 36, 12, 59, 0, 14, 58, 0, 0, 0, 0, 23, 0, 27, 0, 0, 4, 0, 0, 0, 0, 22, 38, 0, 0, 17, 0, 0, 0
|0, 0, 8, 22, 2, 0, 28, 0, 6, 25, 16, 0, 42, 0, 0, 0, 27, 40, 0, 10, 0, 17, 0, 1, 58, 36, 0, 0, 38, 4, 34, 0, 50, 0, 0, 55, 32, 0, 0, 56, 0, 0, 21, 31, 0, 0, 0, 0, 0, 45, 0, 0, 0, 43, 0, 35, 0, 37, 39, 0, 0, 0, 0, 0
|49, 53, 0, 7, 33, 0, 0, 12, 0, 0, 38, 8, 0, 0, 0, 21, 37, 47, 0, 0, 0, 0, 0, 34, 0, 0, 0, 27, 9, 41, 0, 0, 0, 0, 10, 0, 16, 42, 0, 44, 36, 0, 0, 0, 0, 0, 0, 0, 0, 0, 0, 54, 0, 0, 46, 48, 0, 0, 0, 58, 0, 61, 0, 0
|55, 0, 20, 0, 48, 3, 0, 18, 12, 0, 49, 0, 37, 0, 0, 0, 0, 42, 0, 25, 36, 0, 46, 0, 0, 56, 26, 0, 0, 0, 10, 0, 0, 34, 43, 0, 6, 21, 0, 0, 0, 0, 0, 0, 0, 8, 0, 40, 63, 47, 15, 16, 29, 0, 58, 0, 0, 62, 0, 11, 50, 28, 0, 0
|0, 35, 21, 27, 31, 0, 0, 0, 0, 28, 0, 54, 4, 44, 33, 0, 3, 15, 0, 0, 29, 53, 0, 0, 0, 24, 0, 0, 0, 12, 32, 48, 0, 38, 63, 0, 58, 0, 0, 0, 47, 49, 0, 0, 56, 5, 43, 0, 60, 6, 25, 51, 64, 36, 0, 0, 20, 0, 1, 0, 10, 55, 13, 0
|0, 17, 19, 0, 10, 50, 0, 61, 58, 14, 29, 0, 0, 47, 9, 0, 45, 0, 43, 0, 0, 0, 38, 0, 18, 3, 13, 0, 0, 59, 16, 63, 0, 24, 0, 20, 0, 28, 5, 0, 0, 0, 34, 11, 0, 0, 0, 62, 44, 42, 0, 0, 21, 57, 55, 0, 49, 0, 0, 64, 60, 0, 41, 0|];