order = 8;
grid = [|0, 0, 19, 0, 64, 26, 6, 38, 63, 0, 0, 0, 20, 44, 0, 34, 0, 3, 0, 0, 0, 0, 0, 0, 32, 35, 0, 48, 0, 4, 27, 0, 18, 51, 0, 24, 37, 0, 0, 0, 46, 0, 58, 0, 0, 23, 53, 47, 5, 0, 11, 0, 15, 0, 0, 0, 40, 29, 22, 0, 0, 31, 1, 0
|0, 0, 0, 0, 28, 0, 36, 0, 42, 0, 24, 0, 0, 41, 54, 0, 0, 57, 32, 9, 53, 31, 18, 0, 34, 30, 0, 0, 0, 0, 16, 0, 0, 44, 0, 0, 0, 13, 6, 0, 0, 25, 0, 0, 0, 0, 60, 52, 10, 0, 0, 63, 59, 48, 21, 1, 0, 0, 56, 35, 0, 0, 19, 0
|0, 0, 0, 0, 43, 29, 0, 0, 0, 31, 10, 48, 64, 0, 9, 62, 0, 0, 0, 0, 54, 6, 0, 0, 63, 0, 0, 0, 38, 0, 22, 37, 50, 30, 0, 8, 20, 45, 53, 0, 0, 0, 0, 0, 26, 0, 49, 34, 36, 0, 12, 0, 41, 52, 16, 24, 0, 0, 0, 0, 44, 39, 0, 57
|31, 4, 0, 0, 0, 0, 52, 34, 0, 0, 0, 0, 0, 0, 22, 0, 1, 0, 2, 33, 0, 49, 60, 0, 0, 0, 13, 0, 0, 8, 62, 42, 0, 0, 0, 47, 0, 0, 58, 7, 50, 0, 0, 0, 0, 21, 39, 0, 18, 0, 6, 57, 64, 0, 0, 0, 48, 11, 36, 41, 61, 0, 0, 45
|0, 17, 32, 16, 0, 25, 0, 57, 0, 1, 0, 0, 0, 35, 4, 0, 0, 0, 0, 0, 0, 30, 38, 51, 64, 0, 0, 0, 0, 0, 0, 6, 40, 0, 2, 0, 0, 36, 0, 0, 10, 0, 3, 0, 0, 0, 15, 0, 9, 0, 0, 33, 22, 56, 26, 0, 0, 0, 18, 47, 0, 0, 58, 53
|0, 0, 5, 59, 0, 1, 0, 0, 0, 3, 0, 0, 0, 0, 0, 0, 0, 64, 0, 0, 22, 0, 56, 0, 39, 21, 26, 58, 17, 0, 0, 0, 55, 14, 0, 0, 25, 0, 0, 9, 0, 41, 28, 57, 0, 0, 0, 0, 0, 35, 50, 0, 0, 0, 0, 0, 16, 6, 60, 12, 24, 0, 0, 0
|0, 0, 27, 60, 23, 0, 40, 0, 0, 51, 0, 0, 0, 0, 18, 58, 8, 29, 4, 10, 0, 48, 0, 37, 53, 0, 2, 0, 0, 57, 24, 0, 0, 22, 0, 38, 0, 46, 0, 0, 42, 0, 61, 0, 5, 0, 63, 0, 34, 62, 0, 31, 17, 13, 3, 43, 49, 33, 0, 0, 25, 28, 0, 7
|22, 8, 9, 30, 0, 0, 0, 0, 61, 0, 47, 57, 0, 50, 0, 0, 0, 26, 0, 0, 0, 0, 24, 0, 0, 15, 1, 56, 25, 31, 49, 40, 21, 39, 11, 0, 0, 0, 41, 43, 48, 0, 0, 0, 0, 54, 0, 20, 0, 42, 0, 58, 0, 7, 0, 0, 4, 34, 0, 52, 14, 0, 0, 0
|0, 0, 47, 0, 0, 0, 38, 5, 14, 0, 0, 0, 24, 45, 0, 0, 0, 0, 28, 51, 0, 53, 0, 0, 9, 17, 6, 19, 23, 15, 31, 49, 0, 27, 0, 0, 0, 0, 0, 0, 0, 0, 0, 0, 0, 11, 0, 40, 0, 0, 41, 1, 0, 42, 32, 0, 30, 0, 34, 0, 52, 64, 0, 13
|12, 33, 0, 56, 9, 61, 45, 0, 0, 39, 22, 26, 38, 32, 0, 11, 0, 14, 62, 8, 25, 4, 27, 3, 1, 57, 0, 36, 40, 43, 0, 10, 0, 28, 0, 41, 0, 0, 0, 29, 0, 52, 0, 55, 0, 34, 21, 48, 35, 0, 0, 0, 7, 0, 5, 53, 0, 42, 24, 0, 0, 0, 16, 0
|60, 0, 28, 19, 62, 27, 0, 24, 0, 6, 0, 53, 0, 0, 36, 0, 0, 0, 0, 0, 5, 0, 0, 47, 0, 54, 4, 12, 7, 42, 0, 3, 13, 2, 0, 0, 0, 11, 0, 20, 0, 39, 1, 0, 0, 29, 0, 56, 63, 10, 15, 18, 0, 0, 0, 0, 0, 17, 40, 0, 41, 0, 31, 14
|0, 0, 48, 57, 0, 0, 15, 51, 0, 47, 42, 0, 0, 0, 0, 0, 0, 63, 52, 31, 0, 0, 0, 0, 0, 0, 0, 37, 0, 0, 0, 53, 17, 0, 0, 0, 9, 0, 8, 0, 23, 0, 64, 0, 0, 3, 0, 0, 20, 0, 29, 0, 40, 0, 0, 34, 0, 58, 1, 6, 0, 49, 61, 4
|0, 0, 0, 0, 0, 0, 0, 0, 0, 0, 0, 54, 0, 34, 16, 0, 0, 23, 0, 0, 41, 10, 0, 0, 0, 44, 14, 0, 48, 0, 0, 30, 61, 0, 0, 0, 53, 25, 0, 42, 49, 27, 8, 0, 50, 35, 0, 0, 13, 59, 0, 2, 57, 11, 43, 0, 37, 56, 55, 0, 0, 0, 0, 47
|53, 3, 42, 0, 0, 0, 0, 0, 0, 0, 59, 0, 48, 0, 31, 41, 0, 0, 0, 0, 0, 0, 0, 34, 33, 47, 0, 32, 0, 16, 28, 35, 0, 0, 0, 26, 30, 0, 19, 0, 0, 14, 0, 0, 46, 0, 4, 0, 0, 0, 0, 21, 0, 0, 0, 0, 0, 54, 50, 45, 0, 22, 0, 8
|0, 23, 0, 0, 16, 0, 0, 0, 2, 29, 0, 44, 0, 0, 0, 5, 33, 0, 0, 0, 42, 0, 0, 0, 0, 0, 45, 0, 52, 0, 0, 34, 4, 1, 0, 32, 21, 37, 0, 54, 0, 58, 47, 0, 0, 0, 6, 0, 0, 0, 0, 0, 0, 0, 0, 3, 26, 0, 25, 0, 57, 59, 0, 28
|1, 14, 37, 40, 0, 39, 34, 4, 43, 0, 58, 20, 57, 13, 51, 0, 55, 0, 0, 0, 50, 54, 21, 0, 0, 24, 62, 0, 0, 0, 0, 2, 49, 48, 0, 0, 46, 0, 3, 5, 9, 22, 16, 0, 25, 63, 0, 31, 28, 52, 0, 47, 33, 0, 0, 0, 0, 0, 0, 0, 35, 36, 0, 19
|58, 29, 0, 34, 61, 0, 0, 0, 0, 53, 51, 0, 2, 14, 0, 13, 48, 0, 0, 0, 24, 55, 46, 60, 26, 0, 0, 54, 42, 1, 0, 62, 0, 49, 0, 40, 28, 20, 23, 0, 56, 0, 0, 0, 0, 37, 52, 16, 17, 0, 0, 45, 44, 0, 30, 0, 0, 0, 43, 0, 32, 0, 11, 0
|0, 0, 0, 0, 0, 37, 64, 62, 0, 0, 35, 0, 50, 49, 0, 43, 0, 17, 39, 0, 0, 0, 0, 0, 15, 0, 20, 0, 44, 30, 7, 55, 0, 0, 0, 52, 0, 22, 0, 0, 0, 0, 33, 6, 0, 58, 18, 41, 47, 0, 56, 53, 12, 0, 0, 0, 31, 0, 51, 48, 0, 63, 42, 59
|0, 52, 0, 0, 38, 46, 56, 0, 0, 37, 0, 28, 0, 3, 0, 0, 0, 0, 0, 0, 12, 0, 0, 2, 0, 0, 0, 14, 0, 50, 0, 33, 5, 36, 0, 0, 0, 0, 0, 0, 4, 0, 0, 0, 0, 39, 0, 24, 0, 34, 64, 0, 62, 0, 0, 0, 18, 0, 0, 0, 0, 27, 9, 0
|0, 0, 0, 0, 0, 33, 48, 53, 0, 0, 0, 19, 63, 8, 0, 0, 0, 0, 0, 0, 30, 59, 58, 13, 0, 0, 0, 6, 57, 0, 0, 0, 0, 18, 0, 37, 0, 26, 4, 44, 3, 0, 0, 34, 0, 32, 29, 60, 0, 51, 0, 0, 0, 39, 0, 0, 0, 0, 0, 0, 50, 0, 0, 0
|42, 36, 0, 0, 0, 0, 0, 0, 0, 0, 62, 0, 0, 0, 0, 4, 64, 0, 11, 37, 0, 0, 41, 0, 0, 61, 53, 0, 9, 38, 5, 24, 31, 12, 0, 0, 29, 27, 0, 0, 13, 0, 49, 0, 0, 19, 28, 0, 0, 21, 0, 0, 16, 35, 58, 0, 0, 0, 26, 0, 10, 0, 0, 0
|0, 59, 0, 12, 0, 13, 0, 0, 0, 0, 23, 17, 0, 57, 0, 0, 0, 34, 42, 0, 0, 45, 33, 52, 0, 0, 0, 39, 0, 51, 0, 56, 60, 0, 0, 0, 0, 61, 48, 35, 26, 0, 46, 0, 8, 0, 0, 0, 25, 0, 18, 20, 9, 0, 63, 32, 14, 0, 0, 0, 0, 15, 28, 0
|0, 0, 0, 9, 0, 0, 31, 0, 0, 58, 0, 40, 41, 0, 20, 0, 0, 28, 0, 32, 0, 0, 49, 0, 36, 0, 0, 0, 63, 0, 0, 0, 0, 19, 0, 53, 47, 50, 0, 51, 0, 5, 0, 0, 12, 0, 22, 23, 55, 0, 42, 0, 48, 37, 0, 0, 0, 64, 0, 0, 8, 7, 0, 0
|50, 16, 26, 55, 4, 0, 0, 0, 7, 0, 0, 9, 32, 6, 0, 45, 0, 0, 0, 44, 0, 15, 0, 0, 0, 25, 0, 0, 21, 19, 34, 0, 59, 62, 30, 0, 64, 0, 0, 2, 54, 48, 0, 0, 51, 42, 0, 0, 0, 0, 13, 36, 24, 0, 0, 0, 52, 0, 53, 58, 0, 0, 49, 0
|5, 31, 0, 0, 0, 17, 0, 26, 39, 54, 0, 35, 4, 0, 48, 0, 61, 40, 0, 56, 0, 0, 0, 0, 60, 42, 29, 0, 64, 27, 0, 50, 25, 43, 0, 46, 59, 8, 13, 62, 24, 0, 55, 49, 63, 1, 0, 28, 22, 0, 2, 34, 30, 0, 0, 20, 0, 0, 0, 0, 0, 32, 3, 0
|54, 0, 0, 32, 20, 0, 35, 28, 0, 0, 0, 0, 18, 0, 11, 0, 43, 41, 34, 12, 29, 60, 42, 0, 0, 0, 0, 0, 49, 0, 10, 52, 0, 50, 3, 0, 0, 0, 1, 14, 0, 0, 4, 0, 15, 30, 25, 58, 0, 37, 5, 0, 0, 46, 0, 31, 64, 55, 0, 8, 0, 13, 0, 22
|0, 0, 0, 0, 0, 0, 0, 21, 0, 0, 0, 0, 5, 0, 37, 31, 3, 0, 30, 0, 0, 0, 0, 11, 0, 4, 7, 0, 56, 0, 0, 26, 9, 0, 40, 0, 34, 28, 27, 0, 0, 0, 0, 0, 39, 0, 61, 57, 64, 33, 0, 0, 0, 15, 0, 25, 0, 62, 0, 0, 0, 0, 38, 17
|63, 30, 64, 25, 33, 36, 61, 14, 0, 0, 0, 27, 26, 0, 13, 0, 0, 46, 5, 0, 0, 50, 15, 59, 57, 0, 23, 43, 58, 11, 0, 8, 41, 0, 0, 16, 55, 0, 0, 0, 0, 42, 31, 3, 53, 0, 10, 22, 0, 0, 0, 44, 0, 0, 38, 0, 6, 9, 21, 0, 56, 0, 0, 37
|24, 13, 0, 0, 49, 56, 0, 0, 3, 0, 0, 46, 36, 55, 0, 0, 0, 6, 0, 53, 37, 0, 64, 4, 0, 14, 0, 0, 0, 0, 39, 22, 0, 0, 0, 61, 0, 10, 0, 0, 0, 0, 50, 0, 0, 0, 9, 0, 42, 0, 0, 11, 19, 18, 0, 35, 57, 0, 0, 29, 0, 41, 0, 0
|0, 0, 53, 50, 0, 55, 41, 0, 0, 17, 25, 0, 9, 0, 2, 0, 0, 0, 0, 0, 10, 0, 0, 0, 0, 0, 0, 0, 0, 0, 0, 5, 33, 0, 0, 0, 0, 4, 49, 18, 52, 0, 0, 0, 54, 0, 0, 0, 7, 0, 0, 0, 36, 57, 0, 45, 58, 0, 0, 40, 0, 43, 20, 31
|0, 2, 0, 4, 22, 0, 0, 43, 8, 41, 0, 60, 29, 0, 30, 0, 7, 0, 0, 19, 0, 0, 36, 33, 20, 0, 25, 13, 24, 28, 3, 0, 0, 0, 64, 0, 45, 0, 0, 0, 0, 0, 5, 0, 6, 38, 56, 51, 0, 0, 0, 0, 50, 59, 14, 0, 0, 18, 46, 0, 0, 48, 0, 42
|0, 34, 0, 23, 0, 0, 3, 0, 62, 64, 52, 0, 0, 42, 0, 0, 20, 0, 0, 0, 28, 0, 16, 31, 0, 37, 40, 61, 0, 0, 33, 32, 0, 0, 0, 22, 0, 0, 26, 0, 7, 29, 13, 0, 0, 17, 0, 0, 8, 49, 0, 0, 0, 0, 10, 12, 36, 44, 27, 0, 15, 24, 39, 0
|9, 0, 55, 0, 0, 59, 12, 0, 0, 0, 0, 15, 0, 28, 0, 1, 31, 27, 37, 0, 20, 32, 0, 0, 21, 0, 18, 17, 62, 0, 63, 44, 46, 0, 16, 0, 0, 0, 0, 52, 34, 0, 7, 26, 0, 13, 48, 0, 0, 43, 25, 6, 0, 61, 57, 0, 0, 0, 0, 24, 53, 30, 0, 64
|0, 0, 16, 28, 6, 0, 0, 0, 36, 46, 0, 0, 21, 10, 5, 24, 17, 0, 0, 0, 0, 26, 40, 0, 0, 56, 0, 0, 53, 41, 0, 0, 0, 0, 8, 18, 35, 0, 7, 0, 0, 4, 37, 0, 0, 0, 62, 25, 12, 2, 14, 60, 39, 0, 0, 0, 0, 0, 57, 44, 0, 0, 50, 0
|0, 58, 35, 0, 14, 5, 37, 25, 16, 63, 0, 29, 0, 31, 39, 53, 12, 49, 55, 52, 0, 34, 0, 0, 0, 0, 0, 0, 0, 0, 0, 19, 42, 0, 0, 54, 61, 44, 10, 21, 0, 38, 57, 0, 41, 0, 0, 3, 0, 13, 48, 0, 46, 0, 22, 40, 0, 27, 17, 28, 0, 0, 18, 0
|21, 0, 2, 3, 48, 11, 0, 0, 0, 0, 50, 0, 60, 54, 0, 37, 9, 0, 47, 0, 0, 61, 62, 0, 12, 26, 0, 0, 0, 0, 0, 15, 53, 0, 0, 0, 36, 29, 57, 0, 0, 0, 10, 51, 0, 0, 0, 39, 0, 0, 49, 0, 35, 1, 0, 64, 0, 43, 33, 0, 0, 0, 0, 6
|34, 15, 20, 0, 29, 0, 19, 61, 27, 33, 48, 22, 0, 40, 41, 17, 0, 0, 0, 0, 6, 0, 4, 0, 0, 5, 47, 0, 2, 0, 0, 0, 0, 26, 45, 0, 0, 43, 0, 38, 0, 21, 63, 0, 30, 0, 0, 1, 37, 0, 51, 55, 11, 62, 56, 0, 59, 31, 0, 54, 0, 10, 0, 32
|52, 0, 40, 45, 0, 0, 4, 33, 0, 57, 0, 12, 0, 0, 34, 61, 5, 0, 35, 14, 0, 24, 50, 41, 27, 0, 54, 0, 0, 0, 0, 0, 19, 0, 0, 0, 51, 0, 2, 56, 6, 43, 53, 0, 0, 0, 0, 0, 0, 30, 0, 29, 32, 23, 36, 44, 0, 20, 62, 39, 46, 0, 7, 63
|0, 32, 1, 0, 50, 8, 26, 0, 55, 0, 18, 0, 0, 20, 23, 0, 38, 19, 57, 0, 21, 13, 0, 53, 42, 0, 61, 0, 0, 0, 0, 59, 12, 25, 58, 11, 22, 62, 0, 0, 27, 0, 29, 0, 35, 0, 0, 0, 0, 7, 63, 17, 0, 47, 0, 15, 2, 37, 9, 0, 0, 45, 0, 0
|56, 53, 57, 0, 31, 0, 17, 64, 0, 0, 0, 0, 25, 9, 58, 44, 0, 0, 29, 48, 51, 42, 43, 0, 14, 0, 3, 0, 0, 0, 0, 39, 0, 0, 47, 27, 0, 0, 50, 33, 5, 8, 0, 0, 59, 15, 0, 0, 0, 0, 28, 26, 0, 34, 0, 0, 60, 0, 0, 11, 55, 0, 22, 12
|0, 42, 17, 5, 0, 20, 27, 0, 23, 40, 26, 0, 1, 0, 0, 50, 0, 0, 46, 24, 0, 0, 10, 62, 0, 3, 0, 0, 6, 45, 56, 16, 29, 61, 25, 0, 54, 47, 0, 0, 0, 0, 0, 8, 0, 64, 41, 63, 2, 0, 21, 0, 0, 30, 0, 22, 9, 19, 0, 0, 0, 0, 0, 0
|28, 0, 0, 0, 26, 19, 24, 0, 0, 0, 0, 13, 16, 0, 6, 42, 59, 0, 0, 0, 0, 18, 0, 55, 0, 0, 0, 0, 0, 5, 0, 0, 0, 0, 0, 60, 41, 33, 0, 0, 62, 46, 56, 48, 17, 0, 1, 36, 43, 57, 7, 0, 14, 31, 0, 0, 0, 21, 0, 22, 0, 2, 64, 0
|59, 0, 0, 18, 0, 22, 0, 3, 44, 0, 54, 41, 46, 0, 57, 49, 0, 0, 53, 30, 0, 0, 0, 26, 48, 36, 0, 0, 35, 0, 12, 60, 51, 0, 27, 45, 0, 21, 52, 0, 28, 0, 0, 9, 0, 2, 0, 0, 0, 0, 0, 42, 47, 0, 0, 0, 20, 4, 58, 1, 31, 0, 0, 55
|2, 44, 0, 53, 52, 0, 0, 30, 0, 0, 0, 25, 61, 58, 0, 0, 0, 31, 21, 60, 0, 63, 0, 0, 0, 11, 0, 0, 0, 0, 0, 0, 0, 0, 0, 0, 0, 0, 37, 4, 57, 0, 22, 45, 0, 0, 35, 0, 0, 0, 0, 0, 0, 0, 0, 59, 0, 46, 12, 23, 39, 34, 24, 0
|0, 51, 15, 0, 0, 0, 33, 0, 47, 22, 63, 30, 0, 0, 0, 0, 0, 0, 12, 0, 43, 0, 37, 0, 24, 0, 50, 57, 28, 0, 0, 0, 44, 0, 0, 0, 8, 0, 0, 10, 0, 31, 0, 13, 14, 53, 58, 21, 0, 61, 0, 0, 0, 25, 0, 55, 0, 38, 54, 0, 0, 0, 26, 0
|0, 0, 7, 0, 41, 0, 21, 0, 0, 0, 4, 11, 0, 53, 17, 29, 51, 0, 40, 38, 0, 0, 5, 0, 0, 8, 19, 0, 0, 0, 15, 0, 62, 0, 46, 0, 12, 0, 0, 22, 25, 0, 24, 27, 18, 0, 20, 0, 0, 0, 0, 49, 60, 0, 0, 50, 56, 45, 13, 32, 0, 0, 59, 0
|61, 0, 0, 0, 37, 0, 0, 50, 24, 62, 39, 0, 0, 0, 19, 0, 56, 0, 20, 49, 2, 0, 11, 48, 0, 0, 22, 0, 18, 0, 38, 14, 0, 31, 0, 0, 0, 0, 64, 17, 40, 10, 0, 29, 47, 0, 0, 6, 46, 44, 34, 0, 45, 0, 0, 52, 41, 53, 30, 57, 0, 0, 15, 35
|0, 56, 0, 1, 46, 0, 55, 0, 12, 0, 0, 8, 31, 0, 45, 0, 0, 0, 22, 0, 39, 0, 0, 9, 37, 0, 58, 0, 0, 62, 25, 43, 0, 0, 20, 0, 0, 0, 0, 0, 0, 30, 0, 5, 0, 0, 0, 4, 33, 0, 0, 27, 0, 26, 35, 0, 50, 0, 0, 0, 7, 0, 0, 29
|51, 19, 43, 48, 21, 0, 63, 0, 0, 38, 49, 0, 0, 0, 0, 0, 0, 0, 59, 34, 11, 0, 39, 0, 18, 0, 52, 20, 22, 9, 0, 27, 26, 0, 36, 55, 16, 0, 44, 50, 0, 0, 0, 1, 0, 0, 0, 7, 15, 24, 0, 62, 0, 0, 0, 0, 45, 10, 6, 31, 0, 0, 0, 0
|0, 0, 0, 33, 32, 0, 2, 55, 0, 15, 44, 0, 0, 0, 0, 27, 0, 0, 6, 50, 0, 0, 28, 0, 8, 60, 0, 0, 61, 56, 14, 0, 0, 47, 22, 1, 0, 42, 34, 0, 63, 16, 48, 39, 0, 49, 64, 0, 0, 9, 31, 59, 43, 21, 0, 10, 0, 41, 0, 0, 0, 57, 0, 58
|0, 57, 49, 0, 0, 40, 18, 13, 29, 0, 60, 1, 0, 19, 0, 0, 41, 0, 0, 2, 16, 0, 63, 0, 0, 64, 31, 0, 0, 0, 0, 0, 43, 0, 0, 21, 7, 9, 46, 0, 0, 15, 0, 58, 28, 33, 0, 0, 53, 55, 0, 0, 34, 0, 44, 0, 25, 0, 0, 0, 0, 52, 0, 0
|0, 28, 0, 42, 3, 0, 0, 0, 40, 2, 0, 0, 22, 0, 25, 47, 4, 0, 8, 20, 0, 0, 1, 0, 0, 6, 0, 23, 32, 34, 0, 45, 38, 0, 13, 29, 0, 0, 0, 0, 0, 0, 21, 52, 0, 31, 26, 50, 0, 0, 0, 0, 5, 0, 33, 0, 62, 0, 48, 63, 0, 0, 44, 0
|0, 0, 0, 10, 30, 0, 0, 0, 45, 0, 0, 24, 0, 23, 53, 9, 0, 38, 7, 22, 0, 36, 52, 40, 58, 0, 42, 0, 0, 0, 0, 29, 28, 8, 32, 48, 15, 0, 0, 6, 51, 0, 0, 54, 0, 0, 5, 62, 0, 18, 57, 64, 0, 3, 17, 0, 35, 0, 37, 0, 21, 0, 60, 0
|46, 0, 0, 17, 15, 0, 9, 0, 0, 42, 55, 32, 0, 0, 0, 12, 58, 0, 0, 0, 31, 0, 0, 25, 0, 0, 11, 0, 0, 63, 48, 0, 0, 64, 0, 33, 40, 24, 0, 0, 43, 53, 0, 0, 0, 47, 0, 18, 61, 0, 0, 41, 20, 27, 0, 0, 28, 0, 0, 30, 49, 26, 0, 0
|29, 20, 4, 0, 1, 53, 50, 47, 0, 0, 28, 33, 62, 0, 35, 52, 60, 18, 0, 0, 49, 19, 0, 24, 44, 16, 0, 10, 3, 0, 55, 0, 0, 41, 61, 17, 0, 58, 0, 31, 0, 0, 0, 25, 27, 0, 30, 0, 0, 8, 32, 46, 0, 0, 40, 0, 43, 0, 42, 0, 64, 0, 34, 39
|0, 26, 8, 0, 24, 0, 0, 0, 64, 0, 13, 0, 58, 21, 63, 48, 30, 0, 45, 0, 44, 33, 0, 0, 46, 0, 15, 0, 43, 2, 0, 0, 11, 0, 52, 5, 4, 3, 25, 0, 0, 56, 41, 0, 29, 0, 0, 0, 14, 0, 60, 0, 37, 0, 0, 0, 54, 0, 47, 18, 9, 0, 55, 20
|0, 0, 41, 64, 0, 0, 0, 40, 0, 0, 17, 47, 27, 0, 0, 26, 0, 0, 0, 61, 59, 0, 20, 0, 0, 2, 0, 0, 1, 53, 0, 11, 22, 56, 29, 0, 0, 0, 21, 0, 0, 44, 38, 0, 60, 0, 13, 30, 0, 45, 46, 7, 0, 24, 0, 0, 0, 0, 23, 42, 0, 4, 0, 16
|15, 48, 0, 44, 36, 31, 28, 0, 22, 0, 0, 45, 0, 0, 55, 39, 0, 35, 58, 0, 0, 14, 47, 5, 16, 63, 0, 0, 34, 0, 0, 4, 0, 46, 42, 0, 60, 38, 0, 49, 33, 61, 52, 0, 0, 0, 59, 0, 0, 11, 30, 0, 0, 9, 53, 18, 13, 0, 41, 19, 3, 25, 0, 54
|0, 0, 0, 24, 42, 45, 51, 0, 41, 0, 36, 58, 0, 11, 0, 0, 0, 0, 0, 55, 0, 39, 30, 19, 6, 7, 0, 27, 0, 14, 29, 0, 35, 16, 0, 20, 32, 0, 0, 59, 64, 34, 26, 2, 3, 0, 8, 5, 0, 0, 4, 10, 61, 0, 0, 63, 17, 28, 49, 0, 22, 12, 37, 18
|23, 0, 30, 0, 0, 7, 0, 35, 0, 0, 0, 14, 0, 0, 56, 63, 16, 24, 0, 17, 0, 2, 13, 0, 61, 0, 0, 46, 33, 0, 0, 51, 0, 0, 0, 0, 26, 18, 45, 0, 47, 19, 0, 0, 0, 0, 31, 0, 49, 0, 44, 0, 0, 12, 0, 37, 32, 8, 10, 64, 48, 0, 27, 0
|0, 0, 6, 0, 27, 0, 0, 1, 53, 0, 0, 0, 42, 25, 0, 16, 0, 0, 0, 0, 57, 0, 0, 8, 0, 0, 59, 0, 0, 22, 23, 17, 0, 3, 37, 51, 0, 63, 33, 30, 12, 49, 0, 0, 48, 0, 0, 0, 19, 0, 0, 0, 55, 0, 0, 0, 0, 0, 39, 0, 47, 56, 0, 5
|0, 12, 29, 26, 54, 47, 60, 32, 9, 0, 0, 6, 0, 0, 0, 0, 45, 10, 49, 63, 27, 46, 0, 21, 56, 0, 0, 28, 5, 44, 0, 0, 8, 53, 0, 4, 0, 64, 0, 0, 36, 57, 0, 11, 0, 25, 23, 0, 0, 0, 0, 0, 42, 16, 0, 17, 51, 61, 0, 43, 59, 0, 0, 0
|17, 0, 0, 0, 0, 3, 5, 0, 0, 0, 31, 0, 49, 60, 46, 0, 22, 51, 48, 64, 0, 0, 53, 0, 0, 39, 12, 0, 0, 54, 0, 47, 0, 6, 41, 0, 0, 2, 43, 61, 1, 0, 45, 10, 16, 0, 0, 37, 0, 29, 0, 23, 0, 0, 25, 62, 0, 52, 38, 0, 11, 0, 0, 44
|0, 0, 11, 22, 2, 9, 0, 56, 10, 0, 0, 38, 44, 0, 0, 0, 0, 25, 18, 4, 26, 1, 0, 32, 0, 0, 0, 0, 15, 0, 0, 0, 47, 52, 50, 19, 39, 7, 5, 0, 17, 28, 0, 63, 0, 0, 46, 0, 0, 48, 20, 51, 54, 0, 0, 0, 29, 0, 14, 34, 6, 55, 45, 30|];