order = 8;
grid = [|56, 10, 0, 4, 0, 6, 36, 44, 0, 7, 0, 9, 0, 0, 29, 0, 0, 19, 0, 13, 0, 3, 0, 0, 0, 28, 17, 0, 46, 25, 0, 5, 60, 38, 0, 0, 11, 23, 0, 0, 21, 0, 0, 30, 51, 34, 54, 0, 26, 0, 61, 0, 39, 0, 22, 50, 0, 0, 0, 0, 42, 55, 0, 0
|14, 15, 0, 22, 0, 37, 9, 0, 0, 0, 0, 0, 32, 0, 0, 39, 0, 0, 0, 0, 0, 0, 0, 30, 21, 53, 0, 62, 2, 0, 56, 26, 0, 31, 52, 50, 0, 57, 0, 63, 19, 0, 36, 55, 0, 0, 58, 11, 48, 0, 42, 5, 10, 0, 7, 35, 47, 0, 0, 61, 8, 0, 44, 0
|0, 0, 38, 13, 0, 47, 0, 0, 0, 0, 0, 11, 15, 0, 0, 0, 27, 0, 45, 0, 24, 0, 0, 0, 44, 6, 0, 48, 0, 0, 16, 0, 35, 0, 0, 21, 0, 0, 46, 59, 40, 0, 61, 12, 57, 33, 60, 0, 0, 0, 51, 20, 55, 0, 0, 62, 54, 52, 0, 0, 0, 0, 18, 5
|27, 31, 60, 0, 0, 50, 0, 0, 0, 38, 3, 64, 26, 57, 0, 56, 0, 0, 21, 2, 0, 0, 0, 0, 0, 0, 42, 0, 0, 0, 0, 0, 0, 47, 0, 51, 6, 16, 58, 55, 32, 41, 1, 0, 5, 53, 0, 0, 0, 0, 59, 33, 54, 0, 0, 0, 49, 17, 36, 19, 0, 48, 4, 29
|55, 0, 0, 0, 0, 0, 0, 29, 5, 0, 0, 12, 0, 0, 51, 0, 1, 43, 0, 0, 0, 57, 36, 42, 0, 0, 10, 50, 20, 4, 0, 63, 0, 28, 0, 19, 54, 0, 0, 9, 47, 0, 0, 46, 17, 0, 0, 2, 0, 25, 0, 49, 0, 0, 0, 45, 0, 0, 0, 0, 0, 53, 0, 0
|0, 0, 43, 0, 46, 0, 51, 0, 53, 0, 0, 52, 0, 40, 19, 17, 0, 38, 0, 62, 0, 0, 0, 23, 0, 41, 0, 0, 29, 0, 47, 0, 0, 48, 27, 0, 0, 45, 0, 1, 15, 42, 0, 0, 0, 0, 0, 0, 0, 11, 0, 60, 36, 64, 0, 0, 14, 0, 0, 39, 57, 0, 0, 0
|26, 40, 0, 0, 0, 0, 20, 0, 44, 2, 0, 0, 47, 0, 41, 0, 32, 16, 59, 60, 25, 0, 0, 0, 55, 0, 8, 0, 0, 0, 0, 0, 0, 0, 0, 5, 37, 14, 0, 4, 0, 0, 0, 64, 0, 3, 0, 10, 19, 1, 56, 9, 21, 43, 6, 24, 0, 0, 51, 63, 23, 0, 0, 28
|32, 64, 0, 7, 0, 1, 0, 48, 0, 63, 0, 0, 61, 13, 0, 27, 55, 40, 0, 11, 22, 0, 0, 0, 34, 0, 0, 0, 12, 9, 0, 0, 29, 0, 42, 0, 0, 0, 30, 25, 0, 0, 0, 52, 4, 14, 0, 16, 46, 31, 0, 58, 0, 47, 0, 17, 0, 35, 60, 0, 15, 26, 59, 0
|44, 19, 0, 0, 0, 0, 0, 0, 0, 0, 0, 0, 0, 17, 31, 0, 0, 9, 0, 0, 0, 0, 0, 0, 0, 0, 0, 56, 1, 6, 48, 0, 54, 0, 7, 40, 61, 39, 0, 0, 0, 0, 0, 21, 28, 60, 0, 0, 0, 0, 0, 46, 47, 0, 14, 55, 11, 0, 0, 26, 0, 0, 0, 0
|6, 38, 18, 41, 0, 0, 45, 10, 12, 0, 24, 33, 2, 44, 0, 46, 54, 0, 22, 0, 1, 0, 0, 64, 14, 0, 28, 0, 50, 43, 0, 32, 0, 0, 0, 15, 0, 55, 0, 0, 36, 11, 0, 42, 0, 0, 17, 0, 21, 60, 63, 61, 0, 0, 56, 40, 0, 0, 0, 0, 62, 37, 39, 7
|0, 39, 3, 0, 17, 40, 52, 9, 35, 0, 61, 0, 8, 18, 43, 0, 0, 11, 0, 14, 0, 38, 48, 5, 0, 0, 7, 0, 10, 0, 0, 30, 0, 51, 0, 0, 0, 0, 0, 0, 57, 0, 62, 0, 44, 19, 49, 0, 0, 16, 0, 26, 58, 45, 0, 0, 23, 0, 0, 4, 33, 0, 29, 0
|0, 0, 0, 0, 24, 55, 37, 0, 10, 0, 0, 62, 21, 41, 0, 0, 42, 0, 26, 61, 0, 0, 0, 44, 0, 0, 36, 0, 49, 39, 0, 0, 18, 3, 58, 0, 17, 0, 4, 47, 0, 38, 0, 0, 64, 32, 0, 33, 5, 0, 54, 27, 0, 35, 0, 15, 0, 0, 57, 0, 56, 0, 14, 48
|28, 0, 11, 1, 0, 30, 0, 13, 0, 45, 63, 0, 49, 0, 20, 26, 0, 51, 10, 0, 31, 59, 60, 12, 0, 0, 0, 0, 0, 57, 5, 19, 41, 6, 0, 0, 35, 56, 0, 37, 58, 53, 0, 0, 34, 0, 46, 0, 4, 50, 0, 0, 25, 0, 48, 0, 61, 9, 0, 0, 36, 0, 16, 17
|0, 0, 0, 32, 0, 0, 0, 0, 0, 51, 47, 0, 11, 42, 0, 48, 20, 25, 0, 0, 0, 62, 7, 41, 16, 60, 0, 23, 0, 0, 0, 0, 44, 46, 57, 0, 5, 0, 0, 0, 0, 8, 26, 0, 31, 0, 0, 0, 0, 9, 17, 0, 28, 0, 0, 49, 13, 34, 63, 58, 0, 0, 3, 0
|8, 14, 0, 57, 0, 0, 47, 58, 0, 25, 0, 29, 7, 0, 0, 0, 15, 17, 53, 0, 56, 33, 0, 0, 0, 21, 31, 0, 62, 26, 0, 11, 12, 50, 0, 0, 48, 0, 43, 0, 0, 1, 0, 39, 59, 0, 0, 45, 0, 13, 0, 23, 24, 18, 0, 37, 44, 0, 0, 38, 0, 0, 0, 35
|31, 25, 7, 27, 48, 20, 0, 26, 15, 0, 6, 5, 0, 36, 53, 64, 0, 0, 49, 0, 28, 0, 0, 0, 0, 0, 0, 0, 47, 12, 0, 51, 0, 0, 21, 24, 0, 19, 29, 14, 0, 13, 35, 50, 0, 0, 23, 18, 11, 0, 0, 38, 41, 0, 0, 0, 22, 0, 55, 0, 0, 54, 46, 10
|0, 6, 58, 0, 63, 0, 0, 38, 0, 0, 0, 51, 34, 0, 62, 24, 59, 0, 0, 0, 60, 35, 20, 18, 0, 0, 0, 0, 0, 0, 21, 0, 0, 11, 0, 4, 0, 1, 19, 0, 0, 0, 0, 0, 0, 0, 7, 29, 64, 0, 0, 36, 48, 32, 0, 46, 0, 14, 0, 54, 0, 30, 0, 0
|0, 0, 0, 50, 0, 7, 0, 0, 23, 0, 0, 13, 28, 0, 60, 0, 21, 0, 5, 0, 0, 45, 0, 63, 0, 3, 0, 0, 64, 32, 54, 48, 0, 0, 15, 0, 26, 41, 0, 12, 0, 52, 58, 0, 39, 0, 0, 1, 59, 0, 38, 17, 11, 0, 0, 0, 0, 29, 2, 20, 47, 44, 10, 55
|53, 0, 0, 47, 0, 0, 0, 24, 0, 37, 44, 0, 0, 0, 2, 33, 10, 28, 0, 31, 0, 0, 0, 0, 58, 23, 35, 60, 15, 40, 0, 42, 0, 0, 0, 16, 45, 32, 20, 18, 11, 0, 13, 41, 63, 59, 61, 12, 0, 0, 26, 0, 0, 0, 54, 0, 0, 62, 48, 0, 0, 0, 6, 43
|0, 29, 0, 0, 28, 59, 0, 0, 46, 0, 11, 0, 0, 31, 0, 0, 62, 0, 32, 0, 9, 44, 0, 0, 0, 0, 0, 17, 37, 50, 0, 7, 39, 0, 0, 2, 49, 0, 3, 33, 43, 0, 0, 57, 36, 10, 0, 8, 0, 55, 52, 41, 0, 0, 53, 63, 58, 0, 0, 23, 0, 40, 61, 0
|1, 56, 0, 0, 0, 0, 15, 61, 43, 0, 0, 55, 50, 0, 0, 0, 0, 0, 0, 36, 3, 0, 64, 0, 63, 8, 33, 28, 14, 59, 0, 18, 0, 10, 53, 60, 0, 54, 0, 27, 38, 0, 0, 23, 0, 35, 0, 6, 0, 0, 20, 0, 40, 0, 0, 0, 0, 0, 0, 11, 4, 9, 34, 0
|13, 45, 0, 34, 0, 17, 11, 0, 57, 10, 0, 0, 0, 0, 0, 0, 0, 0, 0, 43, 0, 12, 0, 22, 0, 9, 62, 0, 0, 1, 2, 36, 48, 0, 51, 0, 0, 0, 47, 46, 33, 55, 0, 31, 0, 64, 0, 0, 18, 3, 0, 0, 0, 61, 0, 29, 0, 21, 0, 41, 37, 28, 27, 0
|0, 5, 0, 0, 0, 0, 0, 43, 0, 12, 0, 47, 0, 25, 0, 42, 0, 41, 23, 55, 0, 13, 14, 49, 26, 38, 27, 44, 61, 53, 57, 45, 40, 0, 0, 37, 50, 24, 63, 52, 0, 0, 34, 22, 30, 20, 0, 0, 28, 0, 0, 0, 0, 0, 0, 0, 7, 19, 0, 17, 18, 0, 8, 0
|48, 0, 0, 0, 64, 0, 0, 0, 0, 0, 30, 18, 0, 0, 0, 15, 2, 0, 0, 0, 58, 0, 57, 7, 0, 52, 0, 0, 0, 0, 0, 46, 0, 0, 0, 28, 8, 9, 25, 0, 62, 0, 17, 32, 53, 37, 44, 56, 31, 27, 43, 0, 0, 34, 0, 4, 5, 24, 0, 22, 63, 0, 60, 33
|4, 24, 32, 59, 30, 0, 19, 0, 0, 8, 0, 1, 9, 0, 63, 0, 0, 22, 57, 0, 0, 53, 41, 0, 0, 5, 16, 0, 0, 54, 0, 0, 61, 0, 56, 0, 0, 25, 2, 31, 45, 0, 49, 0, 0, 0, 21, 52, 20, 0, 0, 0, 0, 7, 36, 23, 39, 15, 0, 0, 38, 0, 28, 0
|49, 9, 0, 0, 40, 0, 0, 0, 28, 57, 46, 0, 0, 0, 44, 0, 38, 0, 12, 0, 16, 47, 18, 56, 61, 0, 0, 0, 25, 3, 0, 4, 0, 24, 0, 0, 0, 0, 6, 0, 0, 0, 0, 37, 54, 0, 0, 0, 0, 0, 0, 0, 0, 0, 41, 5, 0, 23, 33, 0, 45, 0, 30, 0
|54, 61, 31, 0, 0, 0, 0, 12, 7, 41, 18, 16, 29, 2, 23, 0, 0, 58, 11, 9, 0, 10, 21, 4, 0, 20, 0, 0, 0, 0, 15, 53, 0, 0, 0, 49, 0, 52, 0, 0, 0, 0, 0, 0, 0, 42, 64, 0, 35, 45, 0, 0, 0, 25, 0, 19, 0, 47, 0, 50, 17, 24, 55, 0
|63, 23, 27, 44, 0, 0, 33, 56, 0, 36, 0, 0, 55, 0, 0, 47, 31, 0, 62, 0, 0, 0, 3, 39, 0, 0, 0, 0, 11, 0, 43, 52, 21, 22, 45, 0, 0, 0, 0, 50, 0, 12, 0, 0, 7, 0, 19, 0, 17, 64, 0, 30, 0, 0, 29, 0, 26, 0, 9, 0, 0, 0, 25, 0
|0, 0, 50, 0, 0, 0, 22, 18, 64, 0, 0, 32, 0, 56, 11, 0, 23, 0, 33, 20, 51, 0, 0, 0, 19, 0, 14, 0, 45, 0, 10, 0, 27, 0, 37, 0, 4, 0, 0, 0, 30, 44, 0, 0, 0, 0, 55, 0, 8, 0, 0, 0, 57, 63, 61, 0, 0, 7, 3, 0, 0, 0, 49, 41
|41, 0, 45, 0, 53, 0, 0, 6, 58, 0, 0, 0, 39, 0, 33, 0, 7, 48, 52, 0, 55, 0, 0, 0, 0, 1, 46, 0, 0, 0, 0, 0, 0, 0, 20, 0, 0, 64, 0, 0, 0, 0, 47, 8, 0, 0, 0, 0, 0, 28, 9, 0, 0, 4, 0, 21, 60, 2, 44, 5, 0, 0, 0, 63
|0, 60, 0, 11, 10, 0, 5, 0, 0, 4, 0, 0, 30, 0, 0, 0, 0, 0, 0, 24, 0, 14, 0, 8, 38, 0, 0, 0, 0, 0, 37, 58, 0, 41, 0, 33, 23, 0, 9, 15, 0, 0, 57, 0, 0, 0, 2, 34, 12, 26, 0, 43, 42, 0, 59, 54, 35, 40, 62, 0, 20, 0, 32, 0
|0, 0, 0, 0, 26, 0, 21, 28, 0, 14, 0, 61, 3, 48, 0, 25, 43, 30, 0, 45, 0, 0, 0, 0, 0, 0, 0, 0, 33, 44, 12, 0, 0, 36, 0, 47, 18, 0, 59, 0, 0, 0, 0, 0, 1, 11, 29, 23, 0, 0, 0, 39, 31, 38, 15, 56, 0, 0, 0, 10, 0, 8, 64, 0
|0, 0, 0, 0, 56, 5, 14, 31, 30, 17, 0, 36, 64, 24, 0, 0, 0, 27, 0, 12, 15, 22, 26, 51, 0, 35, 6, 0, 0, 13, 44, 41, 0, 0, 0, 23, 0, 34, 0, 0, 29, 0, 0, 0, 0, 62, 37, 0, 45, 57, 48, 0, 63, 0, 0, 0, 0, 60, 59, 7, 55, 33, 54, 20
|60, 2, 6, 0, 16, 41, 0, 62, 0, 21, 0, 39, 44, 1, 0, 0, 45, 56, 31, 46, 0, 0, 23, 0, 0, 57, 0, 63, 0, 64, 33, 0, 47, 20, 0, 26, 10, 27, 0, 19, 0, 15, 30, 0, 52, 0, 32, 0, 34, 51, 0, 0, 3, 50, 0, 0, 9, 5, 0, 42, 29, 43, 0, 0
|3, 0, 0, 0, 0, 10, 0, 11, 0, 0, 2, 41, 0, 0, 0, 0, 0, 0, 0, 58, 0, 18, 0, 0, 17, 0, 26, 0, 54, 0, 62, 0, 50, 5, 61, 53, 33, 21, 15, 43, 0, 60, 56, 0, 0, 0, 63, 0, 1, 0, 0, 0, 46, 27, 0, 52, 40, 0, 12, 24, 51, 49, 0, 0
|52, 20, 0, 0, 39, 0, 0, 51, 32, 6, 0, 0, 0, 33, 56, 0, 14, 0, 1, 7, 19, 0, 49, 43, 37, 0, 0, 0, 0, 42, 8, 15, 46, 0, 48, 57, 64, 35, 24, 30, 28, 3, 55, 0, 0, 44, 36, 0, 0, 18, 0, 0, 17, 54, 23, 12, 0, 0, 50, 47, 0, 0, 0, 34
|0, 33, 0, 0, 36, 0, 48, 0, 0, 28, 0, 0, 45, 0, 8, 43, 29, 63, 0, 30, 5, 37, 59, 0, 0, 40, 52, 0, 27, 0, 0, 0, 0, 58, 54, 0, 12, 4, 0, 41, 2, 35, 0, 34, 0, 9, 13, 14, 47, 7, 0, 0, 26, 21, 25, 0, 15, 0, 17, 0, 16, 46, 19, 0
|64, 1, 37, 0, 0, 0, 0, 0, 0, 0, 42, 15, 0, 0, 0, 3, 0, 32, 0, 0, 21, 48, 0, 0, 0, 0, 0, 0, 0, 0, 28, 0, 49, 55, 0, 0, 0, 7, 0, 6, 0, 57, 24, 45, 0, 0, 31, 17, 0, 56, 8, 0, 59, 0, 20, 0, 52, 61, 4, 13, 0, 36, 0, 30
|15, 8, 47, 0, 32, 0, 0, 0, 0, 59, 23, 34, 10, 0, 0, 0, 0, 0, 0, 0, 33, 50, 11, 0, 46, 48, 0, 16, 30, 45, 19, 3, 0, 63, 36, 0, 0, 28, 0, 0, 51, 7, 0, 1, 0, 54, 40, 0, 0, 0, 0, 24, 0, 0, 0, 0, 53, 38, 0, 18, 2, 0, 26, 0
|34, 63, 0, 18, 23, 0, 26, 4, 0, 40, 0, 0, 46, 5, 49, 11, 60, 0, 36, 0, 62, 0, 52, 35, 0, 0, 0, 58, 0, 51, 0, 21, 45, 0, 0, 0, 59, 42, 0, 0, 0, 19, 20, 0, 0, 0, 33, 0, 29, 0, 44, 0, 0, 0, 2, 0, 41, 0, 0, 27, 3, 57, 56, 0
|50, 0, 61, 23, 6, 0, 0, 0, 41, 33, 29, 0, 0, 49, 0, 0, 11, 0, 17, 0, 37, 21, 0, 0, 0, 0, 0, 15, 56, 20, 0, 9, 0, 0, 18, 58, 19, 22, 0, 44, 0, 0, 5, 10, 47, 0, 1, 55, 0, 0, 16, 0, 0, 0, 43, 60, 0, 53, 14, 0, 39, 0, 63, 0
|35, 0, 0, 19, 0, 0, 0, 54, 42, 3, 0, 0, 0, 23, 30, 28, 0, 0, 0, 59, 47, 34, 61, 38, 0, 33, 58, 0, 57, 60, 0, 16, 0, 0, 0, 0, 56, 51, 32, 8, 17, 0, 46, 0, 24, 29, 0, 36, 0, 0, 0, 0, 0, 26, 0, 20, 0, 0, 49, 0, 27, 0, 0, 0
|45, 43, 26, 28, 20, 27, 0, 5, 40, 0, 8, 44, 0, 0, 0, 6, 56, 31, 42, 33, 29, 0, 12, 0, 0, 0, 48, 0, 52, 0, 61, 50, 0, 0, 0, 55, 60, 13, 0, 24, 0, 0, 0, 11, 0, 49, 39, 0, 0, 62, 0, 7, 0, 59, 0, 0, 0, 0, 18, 0, 0, 0, 23, 0
|39, 0, 0, 48, 38, 14, 0, 0, 54, 18, 0, 27, 0, 60, 57, 5, 9, 7, 20, 41, 53, 0, 58, 0, 0, 51, 0, 0, 0, 0, 31, 0, 62, 34, 46, 0, 0, 43, 21, 45, 12, 0, 0, 0, 2, 0, 0, 0, 0, 0, 0, 63, 0, 0, 0, 0, 8, 36, 6, 0, 0, 0, 0, 42
|0, 16, 0, 37, 0, 0, 13, 32, 0, 48, 0, 0, 63, 0, 47, 0, 0, 14, 0, 0, 54, 25, 5, 19, 0, 46, 0, 36, 0, 34, 0, 0, 64, 49, 0, 61, 57, 3, 42, 0, 60, 50, 0, 53, 0, 21, 0, 0, 0, 44, 30, 45, 0, 8, 0, 38, 0, 0, 0, 0, 0, 12, 20, 0
|22, 53, 0, 0, 18, 8, 12, 46, 0, 39, 19, 0, 0, 0, 64, 0, 40, 15, 0, 0, 0, 0, 10, 55, 0, 17, 0, 0, 63, 62, 42, 0, 30, 52, 6, 0, 0, 33, 0, 0, 59, 31, 0, 56, 0, 0, 0, 38, 9, 0, 0, 0, 34, 0, 49, 0, 29, 37, 7, 28, 48, 13, 50, 0
|58, 41, 0, 24, 0, 2, 49, 0, 0, 0, 34, 56, 0, 0, 0, 0, 57, 0, 0, 63, 46, 0, 22, 0, 0, 18, 53, 0, 0, 30, 0, 14, 20, 40, 0, 0, 0, 0, 0, 5, 23, 0, 52, 13, 42, 0, 0, 0, 6, 19, 12, 0, 0, 29, 3, 0, 64, 33, 54, 60, 0, 0, 11, 0
|0, 30, 0, 60, 0, 63, 4, 17, 16, 0, 14, 0, 59, 0, 13, 0, 0, 18, 48, 0, 0, 0, 0, 24, 0, 0, 0, 54, 21, 0, 0, 29, 37, 0, 11, 0, 0, 0, 0, 23, 26, 61, 32, 0, 0, 22, 0, 7, 0, 0, 40, 51, 0, 10, 0, 27, 25, 1, 0, 56, 9, 0, 0, 19
|37, 0, 0, 0, 0, 0, 0, 39, 0, 29, 0, 50, 0, 52, 0, 23, 63, 0, 0, 0, 59, 16, 0, 57, 11, 0, 0, 13, 3, 48, 14, 24, 28, 35, 0, 0, 0, 0, 0, 62, 0, 0, 0, 60, 0, 7, 0, 0, 49, 46, 34, 40, 15, 9, 42, 0, 21, 0, 30, 53, 5, 41, 36, 38
|33, 0, 51, 8, 0, 0, 0, 64, 24, 0, 0, 43, 0, 3, 0, 0, 58, 29, 0, 0, 0, 0, 45, 0, 0, 27, 0, 6, 0, 0, 63, 60, 53, 0, 55, 0, 40, 47, 39, 0, 48, 34, 0, 2, 0, 0, 0, 0, 0, 36, 28, 54, 30, 56, 0, 61, 0, 11, 52, 46, 0, 0, 7, 0
|0, 32, 34, 30, 52, 60, 0, 0, 0, 0, 0, 0, 36, 0, 14, 0, 0, 5, 0, 35, 0, 11, 37, 33, 0, 26, 0, 21, 38, 0, 0, 1, 51, 56, 0, 0, 0, 0, 0, 0, 63, 0, 0, 54, 0, 47, 0, 0, 39, 24, 0, 22, 0, 0, 0, 58, 0, 3, 23, 59, 6, 16, 9, 0
|0, 0, 46, 56, 22, 0, 0, 36, 33, 0, 58, 0, 0, 0, 0, 61, 49, 42, 7, 0, 0, 26, 0, 14, 23, 15, 0, 0, 34, 0, 0, 0, 0, 0, 10, 0, 24, 0, 11, 0, 0, 9, 0, 17, 0, 31, 59, 0, 63, 5, 0, 62, 16, 20, 0, 0, 0, 13, 47, 0, 54, 29, 0, 0
|0, 0, 0, 6, 0, 0, 0, 0, 0, 46, 35, 28, 62, 11, 17, 57, 47, 0, 0, 0, 0, 51, 39, 0, 7, 37, 30, 22, 59, 0, 0, 40, 58, 42, 0, 0, 0, 36, 0, 0, 0, 0, 8, 26, 0, 25, 0, 49, 3, 33, 0, 0, 52, 0, 13, 2, 55, 0, 24, 31, 61, 0, 15, 0
|5, 0, 0, 10, 9, 24, 0, 41, 0, 0, 39, 0, 0, 7, 0, 0, 0, 64, 0, 0, 0, 0, 0, 0, 56, 61, 0, 0, 51, 16, 49, 62, 4, 45, 19, 6, 0, 0, 18, 0, 52, 40, 22, 29, 0, 0, 0, 30, 0, 59, 0, 48, 60, 0, 21, 0, 0, 0, 27, 0, 0, 0, 0, 0
|47, 0, 53, 15, 14, 0, 0, 0, 2, 0, 0, 0, 20, 9, 40, 18, 0, 0, 0, 3, 0, 0, 0, 31, 52, 0, 0, 25, 55, 33, 4, 0, 5, 0, 0, 0, 63, 60, 8, 29, 13, 0, 0, 51, 41, 0, 0, 61, 0, 37, 64, 1, 0, 0, 0, 11, 56, 10, 22, 0, 34, 0, 0, 0
|12, 7, 0, 49, 29, 0, 61, 0, 0, 0, 0, 25, 0, 10, 5, 55, 30, 62, 0, 0, 34, 0, 1, 50, 31, 58, 20, 0, 42, 0, 0, 28, 23, 0, 0, 0, 43, 0, 0, 48, 0, 0, 0, 0, 0, 0, 53, 0, 51, 0, 0, 44, 0, 0, 0, 0, 17, 63, 0, 35, 0, 0, 0, 0
|18, 59, 48, 31, 0, 46, 0, 45, 0, 11, 40, 0, 5, 30, 0, 10, 0, 52, 0, 64, 0, 63, 0, 58, 0, 0, 0, 19, 44, 15, 0, 38, 6, 25, 0, 8, 47, 53, 16, 22, 55, 62, 0, 28, 0, 61, 0, 3, 60, 0, 27, 42, 0, 13, 50, 32, 20, 0, 0, 9, 14, 35, 0, 1
|0, 21, 0, 0, 33, 62, 8, 0, 55, 0, 0, 0, 14, 0, 0, 41, 4, 54, 47, 56, 30, 0, 2, 0, 0, 0, 45, 35, 0, 0, 0, 23, 0, 1, 49, 0, 27, 59, 37, 51, 64, 0, 60, 0, 0, 24, 6, 0, 0, 0, 0, 0, 20, 0, 16, 0, 3, 43, 38, 52, 0, 25, 0, 46
|24, 0, 0, 38, 58, 0, 0, 15, 0, 0, 64, 23, 48, 54, 0, 0, 0, 61, 35, 27, 7, 31, 0, 0, 6, 14, 0, 0, 13, 0, 0, 10, 2, 0, 0, 12, 0, 18, 36, 39, 0, 0, 40, 0, 0, 17, 22, 0, 0, 63, 0, 56, 0, 0, 5, 0, 50, 0, 26, 0, 32, 59, 0, 0
|0, 13, 0, 29, 0, 64, 34, 0, 0, 0, 0, 38, 43, 0, 50, 12, 0, 0, 18, 49, 32, 20, 24, 0, 28, 42, 4, 47, 0, 0, 0, 2, 0, 0, 0, 0, 0, 0, 60, 10, 0, 0, 0, 0, 25, 0, 26, 51, 0, 0, 45, 0, 0, 11, 8, 0, 0, 58, 0, 0, 0, 0, 17, 15
|16, 0, 0, 20, 50, 19, 0, 60, 21, 0, 0, 0, 33, 29, 0, 0, 34, 0, 8, 1, 0, 17, 0, 0, 30, 0, 39, 0, 58, 0, 46, 0, 0, 0, 0, 3, 0, 48, 55, 7, 0, 0, 0, 0, 0, 0, 0, 0, 0, 0, 0, 0, 64, 49, 0, 0, 12, 18, 0, 0, 0, 0, 31, 27
|0, 49, 55, 0, 12, 26, 0, 53, 39, 0, 57, 0, 35, 0, 0, 0, 0, 0, 29, 5, 23, 60, 0, 48, 25, 22, 0, 3, 31, 0, 0, 0, 14, 33, 32, 42, 0, 63, 64, 0, 0, 0, 16, 7, 11, 1, 0, 50, 0, 15, 18, 0, 0, 0, 0, 36, 0, 0, 61, 0, 28, 62, 24, 37
|57, 0, 0, 9, 0, 0, 0, 63, 0, 62, 45, 0, 18, 15, 0, 0, 22, 0, 38, 42, 0, 46, 55, 25, 24, 49, 0, 0, 32, 29, 0, 34, 0, 19, 0, 43, 21, 0, 0, 0, 0, 4, 0, 58, 13, 8, 0, 59, 52, 0, 0, 0, 0, 33, 0, 0, 0, 0, 0, 36, 0, 7, 48, 0
|23, 22, 0, 0, 0, 4, 0, 0, 1, 42, 0, 59, 0, 46, 0, 0, 0, 3, 19, 0, 0, 40, 0, 0, 0, 7, 0, 0, 8, 0, 0, 0, 0, 15, 41, 0, 0, 0, 45, 0, 0, 0, 63, 18, 0, 0, 38, 0, 30, 14, 39, 0, 29, 62, 55, 26, 0, 0, 0, 0, 0, 2, 0, 49|];