order = 8;
grid = [|0, 17, 0, 16, 0, 0, 44, 0, 0, 0, 0, 41, 0, 0, 58, 59, 0, 0, 0, 15, 0, 0, 35, 0, 0, 0, 0, 0, 25, 0, 0, 0, 52, 0, 0, 0, 42, 46, 6, 47, 0, 5, 0, 0, 0, 0, 0, 48, 57, 3, 0, 9, 0, 0, 0, 31, 0, 0, 0, 0, 0, 43, 12, 0
|0, 19, 8, 27, 0, 0, 0, 0, 0, 39, 9, 52, 5, 0, 38, 30, 0, 0, 0, 34, 0, 24, 0, 28, 53, 48, 0, 0, 0, 0, 17, 0, 0, 11, 0, 0, 13, 16, 62, 0, 0, 50, 0, 0, 0, 36, 0, 0, 0, 40, 0, 59, 0, 0, 42, 0, 0, 57, 0, 0, 35, 0, 54, 61
|35, 26, 0, 9, 0, 58, 0, 59, 12, 0, 0, 23, 0, 0, 0, 29, 53, 0, 57, 0, 13, 47, 0, 0, 0, 2, 16, 0, 0, 0, 0, 18, 0, 0, 36, 34, 21, 0, 38, 0, 46, 1, 51, 0, 0, 0, 0, 0, 0, 0, 52, 5, 0, 19, 45, 20, 6, 0, 0, 17, 32, 39, 31, 0
|0, 46, 49, 54, 0, 0, 3, 38, 0, 28, 0, 0, 0, 32, 6, 35, 0, 62, 0, 36, 4, 0, 0, 0, 41, 27, 0, 59, 0, 24, 0, 57, 18, 29, 0, 0, 0, 0, 0, 8, 0, 0, 0, 63, 0, 0, 52, 0, 53, 0, 0, 0, 17, 64, 26, 7, 20, 60, 0, 40, 0, 15, 5, 56
|56, 39, 0, 20, 0, 0, 24, 52, 17, 45, 13, 64, 0, 0, 8, 0, 0, 54, 43, 0, 0, 0, 21, 0, 0, 0, 0, 33, 47, 60, 22, 15, 61, 0, 0, 26, 0, 0, 40, 0, 0, 0, 25, 0, 18, 19, 41, 0, 50, 0, 0, 0, 27, 63, 0, 0, 0, 3, 0, 0, 0, 0, 28, 0
|0, 0, 22, 0, 7, 11, 0, 0, 3, 0, 42, 0, 0, 0, 19, 10, 9, 20, 0, 59, 0, 30, 0, 18, 0, 64, 56, 54, 1, 50, 44, 34, 5, 39, 0, 60, 58, 53, 17, 0, 0, 0, 12, 0, 24, 31, 0, 23, 8, 48, 0, 38, 0, 46, 0, 32, 0, 0, 0, 37, 63, 52, 13, 0
|43, 15, 0, 0, 30, 6, 42, 1, 0, 53, 0, 49, 0, 61, 33, 0, 16, 0, 0, 0, 14, 0, 52, 50, 31, 23, 9, 0, 38, 21, 37, 0, 35, 0, 64, 0, 63, 41, 0, 0, 29, 0, 0, 0, 0, 27, 0, 0, 34, 0, 0, 0, 24, 28, 55, 56, 10, 0, 0, 62, 0, 0, 0, 59
|0, 57, 0, 62, 60, 0, 25, 0, 20, 54, 1, 0, 37, 11, 0, 0, 0, 0, 0, 0, 0, 0, 64, 0, 5, 0, 0, 52, 0, 0, 45, 7, 0, 0, 24, 59, 0, 0, 0, 9, 49, 33, 0, 17, 38, 26, 13, 0, 0, 0, 0, 29, 0, 0, 51, 0, 0, 19, 0, 44, 0, 50, 42, 0
|0, 64, 0, 0, 0, 43, 0, 44, 51, 56, 46, 21, 0, 30, 23, 25, 32, 53, 0, 0, 28, 0, 0, 42, 0, 34, 0, 0, 57, 0, 13, 0, 0, 60, 0, 0, 47, 27, 0, 0, 33, 0, 35, 0, 52, 12, 26, 36, 0, 0, 1, 20, 0, 0, 0, 39, 0, 10, 0, 63, 0, 0, 11, 14
|0, 0, 9, 0, 0, 0, 0, 0, 0, 57, 0, 0, 0, 0, 41, 0, 52, 14, 11, 0, 56, 3, 63, 45, 7, 0, 18, 0, 61, 46, 20, 0, 36, 0, 0, 0, 34, 59, 0, 0, 0, 0, 0, 0, 29, 0, 0, 0, 44, 21, 30, 43, 25, 60, 53, 22, 0, 0, 58, 0, 0, 0, 0, 1
|0, 40, 0, 57, 15, 0, 0, 0, 0, 18, 0, 20, 0, 6, 0, 0, 13, 0, 19, 5, 61, 41, 0, 0, 0, 0, 0, 0, 50, 56, 60, 21, 0, 37, 3, 31, 1, 0, 16, 0, 0, 0, 22, 0, 0, 0, 7, 11, 0, 59, 23, 0, 33, 0, 0, 0, 0, 47, 12, 0, 38, 0, 0, 0
|0, 0, 56, 0, 0, 49, 0, 45, 42, 0, 0, 63, 32, 5, 14, 39, 23, 0, 0, 0, 0, 33, 0, 44, 11, 0, 0, 26, 0, 38, 52, 1, 46, 4, 55, 19, 43, 0, 0, 0, 0, 0, 0, 0, 0, 25, 0, 53, 0, 0, 0, 16, 0, 57, 28, 34, 0, 6, 62, 61, 50, 59, 0, 22
|0, 0, 0, 60, 0, 38, 11, 21, 0, 0, 44, 0, 62, 0, 0, 0, 0, 50, 47, 1, 15, 0, 46, 0, 0, 0, 23, 0, 16, 0, 0, 49, 42, 18, 0, 0, 33, 0, 0, 25, 0, 0, 0, 0, 0, 0, 34, 0, 0, 35, 31, 56, 0, 0, 6, 0, 39, 20, 13, 28, 0, 0, 4, 27
|46, 23, 0, 22, 39, 0, 0, 0, 8, 1, 3, 0, 0, 0, 0, 0, 43, 0, 0, 0, 62, 0, 0, 0, 0, 0, 0, 0, 36, 59, 0, 19, 57, 0, 0, 30, 29, 10, 64, 0, 0, 0, 0, 0, 27, 56, 28, 41, 11, 0, 50, 0, 5, 0, 49, 58, 0, 0, 7, 24, 51, 0, 0, 0
|0, 0, 0, 0, 0, 7, 5, 3, 40, 0, 0, 28, 0, 16, 0, 53, 0, 0, 0, 0, 0, 0, 59, 0, 51, 62, 15, 44, 0, 0, 0, 14, 58, 0, 0, 0, 0, 56, 32, 20, 0, 61, 0, 0, 50, 0, 0, 0, 38, 26, 0, 2, 0, 12, 41, 0, 21, 34, 55, 31, 0, 45, 0, 43
|0, 0, 16, 0, 0, 28, 0, 14, 59, 0, 0, 0, 0, 36, 35, 43, 0, 0, 34, 0, 0, 31, 20, 64, 0, 10, 0, 27, 0, 42, 0, 0, 0, 0, 61, 23, 0, 0, 0, 44, 0, 17, 0, 39, 0, 0, 0, 5, 55, 0, 0, 37, 54, 24, 0, 0, 57, 32, 60, 0, 41, 0, 0, 48
|2, 0, 11, 64, 57, 0, 0, 0, 13, 0, 26, 0, 0, 0, 54, 0, 0, 0, 0, 0, 0, 38, 0, 8, 0, 0, 45, 0, 0, 0, 0, 12, 0, 36, 30, 48, 0, 34, 0, 0, 0, 0, 0, 50, 0, 0, 0, 61, 0, 0, 53, 18, 15, 0, 0, 23, 31, 0, 17, 55, 33, 0, 0, 0
|0, 31, 0, 0, 4, 0, 16, 0, 63, 0, 0, 56, 0, 0, 52, 62, 46, 51, 9, 0, 47, 11, 0, 0, 2, 35, 7, 64, 0, 39, 42, 0, 37, 32, 0, 0, 0, 55, 0, 0, 0, 0, 43, 19, 12, 17, 49, 0, 1, 0, 0, 24, 0, 0, 0, 0, 0, 41, 45, 27, 0, 5, 0, 26
|38, 0, 0, 0, 0, 0, 0, 12, 30, 61, 0, 5, 0, 0, 0, 17, 0, 0, 45, 42, 22, 2, 24, 0, 0, 13, 37, 19, 63, 47, 33, 4, 0, 0, 0, 1, 0, 0, 9, 0, 0, 0, 46, 0, 0, 0, 0, 29, 28, 0, 58, 0, 16, 55, 36, 0, 34, 0, 0, 35, 0, 0, 0, 23
|58, 0, 0, 15, 0, 0, 30, 0, 0, 8, 11, 60, 0, 0, 0, 49, 0, 0, 27, 0, 0, 0, 6, 0, 29, 0, 24, 0, 3, 43, 23, 0, 0, 25, 0, 0, 59, 0, 0, 5, 0, 63, 0, 20, 0, 0, 16, 51, 0, 0, 0, 14, 41, 56, 0, 21, 0, 0, 64, 0, 46, 28, 38, 32
|0, 0, 52, 0, 0, 0, 0, 29, 0, 31, 35, 0, 64, 22, 0, 0, 0, 0, 0, 0, 0, 0, 25, 40, 0, 20, 5, 0, 0, 0, 0, 30, 11, 19, 0, 0, 0, 0, 0, 0, 0, 0, 26, 0, 36, 41, 14, 0, 0, 47, 0, 0, 0, 0, 0, 50, 0, 0, 0, 6, 24, 0, 57, 0
|0, 36, 0, 0, 0, 22, 27, 0, 47, 0, 0, 44, 59, 0, 15, 23, 63, 0, 0, 0, 18, 34, 0, 0, 26, 0, 61, 0, 58, 0, 31, 53, 0, 0, 0, 0, 10, 0, 33, 0, 42, 0, 0, 0, 64, 0, 45, 3, 51, 0, 0, 4, 2, 0, 38, 25, 49, 11, 0, 0, 7, 40, 1, 0
|5, 0, 63, 0, 0, 17, 0, 0, 55, 0, 0, 10, 2, 0, 0, 0, 4, 28, 0, 26, 0, 64, 0, 56, 0, 54, 36, 0, 0, 16, 62, 0, 0, 0, 27, 0, 7, 42, 0, 38, 0, 53, 9, 0, 0, 0, 23, 0, 6, 29, 35, 0, 57, 0, 39, 0, 47, 30, 0, 22, 8, 0, 0, 13
|0, 0, 0, 0, 0, 61, 0, 23, 24, 16, 33, 1, 57, 46, 0, 36, 5, 48, 0, 0, 0, 0, 0, 30, 0, 15, 32, 18, 21, 0, 38, 0, 28, 0, 0, 29, 0, 0, 4, 54, 0, 11, 0, 0, 13, 0, 0, 0, 0, 63, 0, 0, 52, 3, 0, 0, 0, 50, 0, 0, 0, 10, 0, 0
|0, 35, 0, 24, 0, 29, 0, 46, 0, 12, 0, 0, 52, 17, 0, 0, 57, 5, 0, 0, 0, 58, 18, 63, 13, 26, 0, 0, 11, 1, 0, 32, 10, 0, 0, 0, 0, 0, 0, 14, 2, 0, 21, 43, 0, 0, 0, 27, 0, 54, 0, 0, 0, 0, 0, 0, 60, 38, 37, 0, 36, 6, 0, 0
|0, 16, 43, 1, 0, 5, 0, 7, 0, 0, 27, 0, 13, 64, 11, 18, 0, 0, 0, 4, 0, 26, 0, 0, 8, 46, 55, 37, 24, 0, 10, 0, 0, 17, 21, 0, 0, 0, 0, 0, 3, 6, 31, 61, 22, 32, 39, 0, 35, 60, 0, 0, 40, 41, 29, 36, 0, 0, 0, 0, 48, 0, 0, 0
|0, 0, 15, 26, 0, 0, 0, 31, 0, 0, 0, 0, 0, 0, 1, 5, 0, 0, 61, 0, 50, 13, 0, 0, 0, 29, 0, 20, 0, 2, 0, 0, 0, 0, 18, 0, 0, 0, 0, 0, 0, 34, 10, 24, 40, 0, 0, 0, 0, 0, 0, 0, 0, 7, 3, 0, 0, 0, 0, 0, 0, 0, 64, 0
|64, 0, 0, 36, 0, 41, 0, 55, 35, 23, 58, 39, 0, 0, 30, 20, 0, 0, 53, 7, 0, 16, 27, 0, 18, 0, 63, 42, 33, 14, 0, 0, 19, 1, 0, 0, 15, 38, 0, 0, 0, 25, 54, 12, 8, 48, 0, 0, 0, 0, 32, 0, 37, 44, 56, 62, 26, 31, 5, 0, 34, 57, 40, 11
|4, 0, 0, 0, 14, 0, 21, 0, 0, 44, 59, 0, 0, 0, 0, 56, 35, 43, 0, 64, 0, 0, 0, 0, 15, 0, 39, 62, 0, 36, 34, 0, 6, 8, 0, 63, 0, 0, 0, 0, 26, 0, 1, 0, 0, 0, 38, 0, 23, 0, 51, 0, 0, 0, 0, 0, 0, 0, 0, 16, 17, 13, 33, 7
|12, 0, 0, 63, 0, 0, 0, 0, 0, 0, 0, 0, 0, 0, 0, 0, 0, 46, 36, 32, 1, 0, 0, 0, 0, 0, 0, 0, 0, 5, 0, 16, 0, 0, 11, 37, 60, 0, 59, 45, 23, 19, 7, 28, 0, 20, 0, 13, 52, 0, 38, 6, 0, 27, 0, 18, 14, 53, 51, 0, 0, 8, 0, 58
|0, 0, 62, 0, 28, 0, 19, 0, 0, 2, 0, 22, 63, 33, 37, 0, 34, 47, 0, 56, 45, 39, 10, 0, 0, 0, 60, 23, 30, 6, 53, 58, 16, 0, 0, 42, 50, 0, 0, 0, 5, 15, 0, 36, 0, 0, 0, 0, 20, 64, 0, 31, 0, 1, 0, 8, 0, 29, 49, 41, 59, 0, 0, 24
|57, 0, 0, 0, 0, 37, 9, 34, 0, 0, 0, 26, 0, 45, 0, 0, 0, 59, 0, 28, 30, 0, 12, 0, 0, 21, 0, 0, 0, 0, 51, 41, 0, 0, 13, 0, 0, 0, 27, 23, 60, 0, 16, 64, 35, 53, 0, 0, 0, 0, 0, 0, 49, 14, 0, 0, 52, 1, 0, 18, 22, 0, 39, 0
|37, 0, 61, 0, 25, 60, 38, 39, 53, 22, 24, 0, 46, 27, 0, 0, 0, 0, 0, 0, 31, 54, 0, 0, 0, 44, 0, 0, 0, 0, 11, 0, 26, 30, 0, 5, 0, 0, 45, 0, 41, 0, 33, 35, 0, 0, 4, 0, 9, 0, 20, 0, 6, 0, 64, 0, 63, 0, 10, 0, 0, 56, 7, 3
|32, 0, 51, 0, 0, 0, 57, 36, 54, 11, 0, 45, 15, 0, 25, 0, 0, 0, 17, 0, 0, 5, 1, 41, 50, 56, 34, 0, 6, 58, 0, 0, 20, 0, 2, 0, 0, 0, 60, 0, 13, 52, 0, 0, 31, 0, 61, 0, 24, 53, 4, 48, 0, 43, 23, 0, 0, 37, 0, 19, 0, 0, 0, 0
|0, 7, 0, 0, 0, 0, 28, 35, 0, 63, 49, 0, 0, 0, 0, 8, 0, 22, 24, 0, 0, 0, 0, 47, 45, 5, 30, 0, 0, 26, 0, 64, 4, 23, 0, 52, 32, 36, 29, 39, 17, 43, 0, 0, 58, 0, 0, 0, 0, 38, 0, 25, 0, 0, 12, 0, 0, 0, 1, 57, 0, 27, 0, 0
|49, 9, 0, 0, 0, 0, 0, 0, 36, 0, 0, 58, 31, 19, 20, 0, 12, 0, 0, 11, 0, 27, 0, 0, 0, 0, 4, 51, 0, 15, 0, 54, 0, 0, 0, 21, 0, 28, 42, 0, 0, 22, 56, 0, 0, 0, 0, 18, 32, 57, 10, 0, 0, 0, 60, 16, 50, 14, 40, 52, 47, 24, 44, 25
|0, 0, 0, 48, 0, 0, 0, 20, 33, 14, 5, 0, 12, 0, 0, 50, 39, 40, 58, 0, 0, 57, 0, 9, 37, 43, 35, 0, 59, 7, 0, 0, 54, 15, 0, 0, 0, 0, 44, 0, 0, 0, 36, 0, 0, 0, 27, 16, 26, 0, 0, 17, 0, 0, 61, 0, 0, 0, 23, 0, 13, 53, 49, 31
|10, 0, 33, 2, 0, 0, 4, 15, 26, 30, 0, 0, 23, 57, 28, 1, 0, 0, 60, 3, 64, 0, 44, 59, 0, 61, 0, 0, 0, 0, 0, 48, 0, 27, 56, 0, 12, 18, 0, 0, 0, 0, 0, 0, 9, 62, 0, 0, 13, 51, 0, 0, 58, 31, 40, 0, 42, 54, 43, 0, 0, 0, 0, 41
|24, 0, 0, 44, 18, 0, 0, 0, 4, 43, 51, 0, 0, 40, 16, 13, 20, 8, 15, 38, 0, 0, 0, 46, 36, 0, 28, 12, 0, 0, 2, 0, 0, 22, 49, 0, 0, 0, 58, 10, 32, 57, 0, 7, 63, 0, 53, 0, 0, 0, 0, 0, 11, 0, 62, 1, 0, 21, 0, 0, 0, 30, 55, 34
|16, 45, 0, 19, 54, 12, 26, 6, 64, 21, 0, 0, 56, 0, 44, 0, 0, 36, 0, 23, 0, 0, 0, 43, 0, 33, 0, 0, 20, 9, 0, 0, 40, 0, 0, 0, 0, 0, 47, 34, 11, 38, 0, 0, 0, 15, 0, 0, 2, 41, 14, 0, 0, 0, 0, 63, 0, 0, 0, 51, 0, 0, 0, 46
|31, 0, 0, 12, 0, 0, 23, 0, 32, 49, 0, 0, 39, 0, 0, 14, 58, 45, 0, 0, 60, 0, 0, 0, 0, 0, 0, 15, 55, 11, 8, 61, 30, 0, 29, 0, 0, 0, 0, 0, 52, 0, 62, 41, 0, 0, 0, 25, 22, 0, 0, 36, 56, 38, 0, 0, 0, 0, 53, 0, 0, 47, 63, 0
|42, 27, 0, 0, 0, 45, 41, 62, 29, 0, 0, 46, 17, 18, 0, 54, 0, 0, 63, 33, 0, 10, 0, 20, 0, 0, 6, 56, 34, 0, 26, 0, 60, 0, 37, 0, 0, 0, 0, 64, 0, 30, 0, 0, 14, 0, 58, 12, 21, 0, 15, 0, 0, 0, 47, 0, 0, 0, 0, 0, 0, 0, 50, 0
|0, 0, 0, 0, 0, 0, 0, 26, 15, 0, 0, 0, 0, 63, 13, 0, 0, 0, 0, 8, 54, 0, 0, 0, 0, 0, 0, 3, 0, 0, 7, 27, 0, 0, 45, 40, 52, 23, 28, 56, 0, 48, 0, 42, 34, 33, 32, 0, 64, 0, 60, 0, 10, 51, 2, 0, 0, 0, 44, 0, 0, 58, 0, 18
|0, 0, 64, 28, 20, 0, 14, 11, 0, 0, 53, 25, 0, 37, 0, 45, 0, 19, 6, 47, 49, 0, 34, 0, 38, 30, 21, 48, 52, 0, 0, 2, 0, 0, 33, 0, 0, 0, 0, 43, 51, 54, 50, 0, 15, 22, 0, 63, 3, 7, 0, 58, 0, 0, 0, 0, 0, 46, 41, 23, 0, 0, 32, 0
|0, 0, 0, 0, 44, 18, 61, 56, 58, 0, 19, 0, 0, 48, 59, 0, 1, 0, 0, 0, 38, 0, 0, 32, 0, 0, 43, 0, 0, 0, 0, 0, 3, 55, 0, 7, 14, 22, 0, 0, 0, 10, 17, 40, 0, 8, 46, 0, 0, 28, 0, 53, 20, 13, 0, 9, 45, 24, 0, 0, 0, 2, 6, 0
|8, 33, 58, 0, 16, 0, 54, 50, 27, 0, 0, 0, 0, 0, 0, 0, 0, 35, 0, 51, 0, 62, 0, 0, 59, 0, 49, 0, 17, 0, 0, 13, 0, 0, 0, 39, 46, 21, 2, 0, 0, 0, 6, 0, 19, 0, 36, 43, 0, 0, 29, 0, 30, 25, 37, 14, 28, 0, 20, 34, 52, 0, 48, 38
|25, 6, 0, 0, 0, 0, 22, 51, 16, 52, 0, 0, 0, 34, 0, 0, 0, 57, 30, 0, 0, 17, 14, 0, 0, 28, 0, 63, 0, 19, 0, 20, 53, 41, 0, 10, 0, 0, 15, 27, 0, 2, 0, 0, 21, 0, 24, 0, 0, 12, 0, 46, 0, 0, 0, 0, 0, 0, 0, 0, 0, 0, 0, 5
|7, 59, 60, 52, 0, 19, 15, 0, 57, 0, 0, 30, 33, 0, 43, 0, 0, 0, 28, 25, 36, 56, 0, 16, 0, 0, 0, 1, 0, 0, 14, 46, 0, 0, 0, 0, 0, 0, 0, 0, 27, 23, 45, 0, 0, 4, 0, 0, 42, 0, 8, 50, 0, 0, 0, 41, 17, 40, 0, 13, 0, 21, 0, 0
|0, 30, 18, 10, 0, 0, 20, 2, 0, 38, 0, 0, 0, 59, 63, 0, 0, 64, 50, 43, 0, 0, 0, 49, 0, 0, 0, 0, 7, 22, 4, 0, 1, 31, 47, 14, 57, 62, 12, 0, 0, 0, 0, 13, 0, 0, 0, 0, 0, 0, 48, 0, 51, 0, 15, 61, 44, 0, 0, 0, 0, 41, 56, 29
|48, 44, 0, 7, 0, 0, 56, 49, 0, 0, 30, 15, 43, 47, 0, 37, 22, 0, 0, 10, 17, 0, 0, 0, 9, 1, 52, 58, 19, 40, 0, 60, 0, 2, 0, 38, 0, 33, 0, 21, 12, 20, 0, 32, 28, 61, 55, 57, 0, 45, 18, 3, 0, 0, 27, 24, 23, 42, 35, 59, 0, 0, 0, 0
|61, 43, 31, 0, 0, 27, 0, 0, 0, 55, 0, 0, 0, 35, 0, 0, 30, 9, 0, 6, 0, 19, 0, 0, 10, 0, 0, 2, 0, 23, 0, 0, 0, 0, 0, 58, 53, 64, 0, 0, 62, 0, 40, 51, 0, 0, 5, 47, 0, 39, 21, 13, 4, 0, 0, 59, 0, 48, 63, 1, 0, 0, 37, 45
|0, 4, 59, 0, 0, 0, 63, 0, 2, 0, 0, 54, 36, 21, 5, 0, 0, 0, 20, 0, 39, 60, 0, 0, 0, 18, 0, 24, 49, 0, 57, 0, 13, 44, 0, 0, 27, 0, 0, 0, 35, 14, 0, 0, 0, 0, 0, 17, 30, 0, 0, 7, 0, 26, 46, 38, 0, 0, 8, 0, 0, 0, 0, 0
|0, 14, 36, 33, 0, 0, 0, 5, 6, 10, 0, 0, 45, 8, 39, 0, 11, 0, 0, 16, 26, 0, 40, 0, 0, 0, 0, 61, 0, 30, 0, 0, 0, 42, 0, 49, 56, 0, 0, 60, 0, 7, 2, 44, 0, 34, 0, 0, 63, 0, 0, 0, 47, 0, 25, 0, 53, 51, 38, 58, 57, 0, 21, 0
|0, 51, 40, 0, 0, 0, 58, 0, 44, 29, 0, 0, 53, 26, 22, 0, 0, 38, 0, 27, 0, 21, 62, 1, 33, 45, 14, 32, 0, 0, 64, 0, 0, 16, 0, 54, 9, 0, 0, 0, 0, 60, 0, 0, 0, 0, 48, 31, 0, 56, 0, 0, 34, 0, 10, 42, 0, 0, 0, 0, 12, 0, 24, 0
|39, 12, 26, 32, 0, 0, 60, 9, 1, 0, 40, 0, 49, 23, 51, 52, 0, 0, 41, 0, 24, 42, 29, 35, 0, 6, 0, 0, 27, 48, 0, 36, 7, 43, 22, 18, 37, 3, 50, 59, 0, 0, 0, 11, 0, 45, 0, 8, 58, 0, 57, 0, 0, 0, 0, 28, 0, 0, 61, 0, 0, 0, 34, 20
|55, 38, 57, 8, 0, 0, 50, 0, 31, 32, 0, 48, 0, 58, 64, 41, 0, 0, 0, 37, 33, 0, 0, 0, 34, 42, 0, 29, 0, 17, 46, 0, 0, 0, 0, 35, 40, 4, 0, 6, 18, 0, 39, 0, 0, 0, 19, 59, 16, 1, 0, 23, 0, 0, 43, 0, 0, 0, 2, 14, 62, 9, 27, 0
|0, 48, 0, 0, 59, 0, 0, 0, 39, 0, 0, 0, 0, 0, 0, 0, 15, 0, 23, 0, 51, 40, 0, 0, 0, 0, 42, 0, 0, 0, 36, 33, 0, 56, 35, 16, 0, 0, 30, 0, 0, 0, 38, 46, 54, 0, 0, 0, 18, 0, 24, 41, 50, 0, 11, 49, 0, 52, 0, 20, 29, 14, 2, 0
|3, 49, 0, 0, 63, 0, 0, 0, 5, 34, 0, 0, 28, 0, 17, 11, 0, 0, 0, 0, 52, 0, 0, 0, 46, 0, 0, 0, 0, 27, 56, 0, 59, 64, 0, 47, 51, 0, 20, 0, 48, 35, 23, 0, 0, 30, 0, 26, 0, 0, 44, 33, 0, 0, 0, 54, 24, 61, 0, 0, 58, 1, 0, 60
|62, 34, 0, 30, 36, 16, 0, 0, 50, 59, 22, 0, 58, 38, 31, 64, 0, 24, 18, 0, 0, 0, 0, 33, 0, 63, 25, 0, 0, 0, 1, 52, 0, 5, 42, 27, 8, 0, 0, 53, 0, 0, 4, 60, 0, 6, 12, 15, 39, 0, 0, 26, 35, 10, 0, 48, 0, 0, 0, 0, 0, 51, 0, 17
|15, 0, 0, 23, 0, 55, 0, 0, 0, 62, 0, 19, 0, 20, 29, 0, 0, 0, 46, 0, 0, 0, 47, 0, 0, 0, 0, 30, 0, 3, 0, 0, 21, 50, 38, 0, 28, 0, 0, 0, 25, 40, 0, 0, 0, 14, 0, 32, 7, 0, 45, 0, 0, 4, 0, 2, 48, 36, 34, 0, 0, 0, 0, 0
|47, 0, 0, 11, 61, 32, 0, 60, 0, 0, 0, 53, 0, 7, 0, 0, 62, 0, 64, 0, 0, 0, 0, 19, 4, 0, 0, 0, 0, 51, 16, 0, 0, 0, 0, 0, 54, 0, 23, 0, 20, 27, 0, 34, 2, 10, 0, 39, 0, 0, 0, 0, 0, 29, 0, 0, 37, 15, 57, 0, 43, 0, 0, 21
|18, 52, 7, 6, 29, 64, 31, 8, 23, 0, 0, 2, 0, 56, 0, 32, 0, 4, 0, 61, 16, 63, 3, 17, 0, 39, 48, 0, 0, 0, 21, 35, 0, 0, 0, 0, 44, 0, 26, 19, 22, 51, 0, 0, 33, 37, 0, 0, 47, 0, 42, 0, 0, 0, 58, 30, 62, 45, 11, 0, 0, 38, 41, 0
|33, 20, 0, 41, 19, 50, 0, 37, 52, 51, 8, 24, 0, 60, 0, 0, 0, 25, 0, 0, 0, 0, 0, 0, 0, 0, 11, 53, 2, 0, 55, 0, 0, 0, 39, 0, 0, 0, 0, 3, 36, 59, 29, 0, 57, 43, 17, 0, 61, 0, 56, 0, 0, 0, 31, 40, 0, 0, 0, 0, 44, 0, 0, 0
|26, 2, 0, 0, 0, 0, 53, 0, 0, 0, 48, 0, 0, 54, 21, 15, 8, 0, 0, 0, 0, 0, 30, 0, 24, 0, 47, 17, 0, 0, 6, 0, 0, 0, 0, 41, 45, 0, 0, 0, 58, 0, 49, 16, 56, 28, 11, 55, 0, 0, 0, 0, 23, 0, 63, 0, 7, 0, 59, 4, 25, 0, 0, 50|];