order = 8;
grid = [|51, 3, 0, 0, 0, 0, 0, 2, 17, 58, 38, 0, 0, 4, 33, 24, 0, 6, 1, 47, 0, 10, 21, 0, 0, 15, 0, 0, 49, 0, 0, 14, 0, 42, 0, 35, 30, 0, 45, 11, 0, 0, 40, 0, 39, 27, 0, 0, 0, 0, 0, 61, 62, 56, 0, 0, 18, 0, 0, 55, 20, 23, 0, 0
|0, 0, 0, 0, 47, 13, 61, 0, 0, 0, 0, 0, 0, 0, 21, 8, 0, 31, 26, 0, 9, 0, 46, 48, 27, 0, 0, 0, 0, 56, 38, 0, 0, 58, 0, 0, 50, 0, 0, 5, 30, 0, 0, 0, 62, 4, 0, 0, 37, 60, 0, 14, 43, 49, 0, 0, 0, 24, 0, 0, 63, 16, 25, 0
|0, 0, 0, 57, 0, 0, 14, 0, 13, 16, 25, 0, 52, 2, 23, 0, 37, 0, 0, 39, 36, 35, 0, 62, 0, 0, 40, 0, 0, 20, 0, 0, 21, 0, 0, 0, 3, 0, 0, 0, 0, 59, 60, 43, 17, 31, 0, 0, 18, 0, 1, 42, 48, 28, 0, 0, 0, 0, 64, 50, 0, 5, 0, 0
|0, 52, 19, 50, 4, 9, 0, 0, 0, 0, 64, 3, 61, 0, 0, 43, 0, 0, 0, 63, 0, 51, 16, 0, 39, 0, 0, 33, 0, 30, 60, 0, 0, 26, 0, 0, 31, 0, 25, 0, 35, 0, 0, 45, 44, 48, 15, 0, 54, 0, 23, 46, 0, 53, 0, 57, 0, 47, 12, 0, 0, 38, 40, 17
|0, 49, 0, 39, 0, 62, 0, 8, 0, 0, 5, 0, 0, 0, 7, 0, 40, 60, 0, 59, 42, 0, 15, 43, 0, 21, 0, 0, 0, 12, 0, 64, 17, 0, 27, 56, 0, 2, 19, 33, 0, 0, 1, 55, 41, 25, 13, 18, 9, 38, 58, 0, 0, 44, 16, 0, 0, 0, 4, 34, 61, 14, 0, 0
|0, 27, 0, 26, 21, 35, 0, 0, 0, 0, 51, 0, 0, 41, 42, 60, 0, 44, 55, 28, 0, 17, 64, 4, 1, 18, 0, 0, 58, 52, 0, 0, 53, 57, 0, 0, 49, 59, 22, 0, 0, 2, 0, 47, 0, 0, 0, 20, 40, 0, 0, 0, 0, 0, 0, 0, 0, 0, 46, 0, 0, 0, 56, 0
|0, 0, 0, 36, 18, 0, 17, 0, 0, 0, 40, 0, 14, 0, 44, 6, 61, 0, 0, 3, 50, 0, 0, 11, 47, 46, 0, 0, 0, 0, 0, 0, 0, 63, 0, 0, 0, 43, 48, 0, 26, 34, 64, 0, 42, 57, 0, 33, 25, 0, 0, 30, 0, 13, 39, 0, 54, 0, 19, 0, 0, 0, 0, 31
|58, 0, 0, 0, 0, 0, 1, 48, 27, 0, 0, 47, 35, 26, 0, 11, 0, 34, 13, 41, 23, 0, 0, 18, 0, 8, 2, 63, 61, 0, 44, 43, 16, 0, 0, 20, 0, 12, 0, 0, 0, 28, 54, 0, 0, 0, 0, 0, 17, 3, 0, 55, 0, 0, 0, 22, 0, 0, 7, 0, 0, 0, 0, 45
|8, 39, 4, 0, 2, 3, 16, 55, 56, 32, 0, 0, 58, 5, 61, 7, 64, 0, 59, 0, 62, 0, 42, 0, 0, 47, 0, 11, 0, 63, 34, 0, 0, 49, 46, 0, 45, 0, 0, 10, 0, 22, 0, 0, 0, 0, 0, 0, 0, 29, 27, 60, 37, 31, 0, 0, 23, 0, 0, 0, 0, 0, 0, 14
|0, 33, 18, 0, 0, 0, 0, 0, 8, 0, 15, 0, 0, 19, 3, 52, 41, 1, 35, 46, 0, 13, 0, 24, 0, 40, 0, 37, 22, 0, 0, 0, 0, 0, 6, 7, 28, 54, 0, 0, 0, 39, 59, 0, 60, 2, 0, 62, 0, 0, 0, 17, 0, 9, 30, 0, 20, 4, 0, 10, 0, 0, 0, 36
|43, 36, 41, 27, 0, 37, 0, 0, 38, 0, 0, 35, 0, 0, 1, 54, 0, 0, 21, 55, 12, 0, 0, 19, 0, 0, 0, 28, 59, 0, 52, 53, 30, 0, 0, 0, 0, 0, 47, 0, 44, 40, 0, 0, 0, 3, 16, 51, 0, 0, 61, 0, 45, 63, 26, 0, 48, 0, 0, 5, 0, 0, 31, 33
|14, 7, 20, 0, 35, 52, 44, 0, 63, 26, 36, 22, 51, 0, 9, 0, 57, 53, 0, 27, 0, 0, 8, 0, 0, 0, 0, 2, 0, 61, 0, 0, 64, 37, 0, 0, 0, 23, 15, 0, 58, 12, 0, 29, 0, 0, 4, 0, 0, 0, 39, 0, 0, 50, 11, 46, 0, 0, 40, 24, 0, 1, 18, 6
|0, 0, 28, 46, 0, 60, 25, 0, 0, 0, 0, 44, 0, 0, 14, 16, 15, 0, 0, 0, 0, 0, 0, 30, 0, 0, 0, 4, 12, 0, 58, 51, 61, 0, 29, 0, 59, 42, 0, 0, 6, 17, 20, 21, 8, 24, 0, 0, 0, 41, 56, 48, 53, 3, 0, 0, 52, 9, 38, 35, 0, 2, 19, 0
|24, 17, 0, 19, 40, 51, 0, 59, 64, 0, 30, 0, 48, 53, 0, 0, 20, 61, 0, 0, 16, 60, 29, 54, 3, 31, 41, 0, 0, 18, 0, 0, 44, 0, 0, 0, 57, 4, 34, 27, 38, 9, 0, 10, 1, 0, 0, 0, 14, 25, 33, 22, 0, 36, 0, 0, 7, 0, 55, 0, 46, 0, 63, 0
|0, 11, 0, 0, 53, 22, 29, 47, 0, 0, 31, 0, 0, 0, 49, 0, 7, 9, 0, 0, 0, 40, 0, 0, 26, 0, 0, 0, 0, 23, 62, 10, 25, 0, 0, 3, 55, 0, 0, 0, 19, 0, 0, 63, 0, 0, 0, 27, 32, 13, 0, 0, 0, 18, 0, 0, 61, 0, 51, 0, 0, 59, 0, 0
|9, 0, 10, 15, 54, 0, 0, 0, 0, 42, 0, 0, 28, 37, 40, 2, 0, 56, 0, 0, 44, 0, 4, 36, 38, 0, 27, 0, 46, 0, 0, 29, 1, 0, 62, 53, 0, 0, 33, 0, 31, 0, 0, 23, 49, 50, 43, 11, 0, 6, 19, 0, 0, 0, 55, 8, 3, 34, 0, 57, 0, 0, 41, 26
|0, 24, 0, 17, 0, 0, 0, 0, 44, 0, 0, 0, 0, 1, 0, 3, 38, 0, 42, 36, 54, 8, 0, 5, 0, 13, 48, 14, 0, 47, 0, 50, 0, 20, 31, 0, 0, 0, 62, 58, 33, 4, 0, 0, 0, 21, 0, 49, 6, 53, 35, 32, 39, 0, 0, 0, 25, 12, 29, 0, 0, 0, 0, 52
|59, 0, 0, 0, 33, 18, 0, 64, 19, 0, 39, 0, 31, 48, 0, 20, 49, 13, 0, 0, 46, 0, 22, 15, 0, 0, 0, 0, 25, 32, 24, 21, 4, 0, 0, 47, 0, 0, 0, 35, 2, 0, 0, 14, 23, 0, 56, 28, 7, 0, 0, 27, 29, 10, 0, 17, 0, 1, 0, 0, 62, 0, 0, 0
|0, 0, 0, 49, 10, 0, 60, 57, 0, 40, 0, 0, 29, 0, 8, 64, 0, 0, 0, 35, 0, 43, 18, 59, 52, 37, 0, 0, 0, 0, 0, 2, 9, 0, 0, 30, 17, 0, 0, 16, 0, 61, 0, 0, 0, 0, 0, 34, 22, 4, 24, 0, 0, 21, 0, 0, 32, 39, 53, 47, 0, 48, 14, 0
|0, 0, 8, 32, 16, 50, 39, 14, 0, 11, 0, 59, 0, 47, 0, 0, 0, 0, 27, 61, 48, 3, 0, 37, 0, 29, 0, 62, 40, 0, 51, 18, 0, 0, 0, 0, 24, 0, 0, 0, 17, 35, 43, 0, 0, 0, 0, 0, 19, 0, 45, 38, 0, 20, 0, 26, 0, 5, 0, 9, 22, 56, 34, 0
|35, 0, 0, 0, 0, 6, 0, 0, 0, 12, 0, 0, 0, 0, 38, 0, 0, 25, 47, 0, 7, 0, 0, 0, 0, 16, 0, 31, 39, 57, 0, 0, 18, 36, 28, 0, 0, 0, 0, 53, 3, 46, 19, 0, 0, 13, 0, 30, 59, 0, 0, 51, 0, 0, 0, 60, 4, 0, 37, 0, 8, 0, 20, 24
|13, 0, 0, 0, 48, 15, 37, 58, 34, 21, 23, 0, 0, 0, 50, 41, 0, 32, 12, 60, 0, 24, 62, 20, 0, 0, 0, 0, 0, 54, 0, 11, 0, 0, 0, 39, 0, 0, 29, 0, 0, 0, 0, 0, 25, 52, 44, 0, 63, 9, 0, 0, 47, 14, 0, 3, 27, 0, 10, 0, 0, 0, 0, 46
|20, 31, 0, 0, 30, 0, 0, 52, 49, 24, 0, 0, 55, 0, 13, 42, 0, 40, 29, 0, 0, 0, 0, 0, 56, 0, 0, 43, 0, 27, 0, 22, 0, 21, 0, 15, 0, 48, 38, 46, 0, 0, 0, 0, 0, 0, 41, 47, 57, 1, 25, 0, 16, 0, 0, 28, 0, 6, 54, 26, 35, 45, 3, 64
|47, 5, 54, 61, 0, 42, 43, 0, 0, 0, 10, 37, 17, 51, 25, 35, 0, 28, 14, 0, 45, 0, 0, 0, 0, 59, 60, 30, 23, 0, 4, 15, 0, 0, 3, 0, 0, 32, 8, 0, 0, 0, 0, 12, 0, 58, 0, 48, 64, 0, 0, 0, 40, 0, 2, 41, 0, 0, 49, 7, 50, 0, 57, 38
|53, 0, 0, 0, 0, 0, 36, 27, 60, 0, 0, 56, 0, 31, 0, 1, 0, 0, 62, 38, 8, 0, 33, 0, 30, 43, 0, 59, 0, 2, 0, 0, 6, 55, 0, 34, 58, 0, 4, 44, 63, 0, 7, 0, 16, 20, 0, 0, 12, 19, 0, 0, 10, 0, 9, 13, 0, 40, 0, 0, 25, 49, 54, 0
|0, 0, 0, 0, 13, 0, 0, 17, 0, 19, 47, 0, 25, 11, 55, 63, 0, 0, 0, 48, 51, 54, 0, 34, 0, 39, 0, 0, 0, 24, 49, 0, 0, 0, 14, 29, 0, 0, 0, 0, 0, 0, 45, 0, 0, 0, 40, 3, 30, 64, 0, 0, 0, 22, 0, 36, 2, 35, 52, 0, 15, 4, 0, 21
|21, 56, 42, 33, 0, 0, 0, 0, 48, 34, 9, 36, 0, 0, 5, 0, 0, 0, 0, 12, 59, 61, 0, 0, 29, 0, 4, 0, 27, 14, 47, 0, 0, 30, 0, 0, 0, 0, 46, 19, 0, 0, 0, 32, 55, 0, 28, 35, 0, 0, 0, 0, 0, 0, 17, 45, 39, 0, 0, 0, 0, 20, 11, 0
|60, 0, 64, 62, 63, 0, 0, 25, 14, 0, 0, 0, 0, 0, 0, 10, 0, 0, 15, 58, 0, 56, 28, 17, 0, 0, 0, 0, 0, 0, 55, 46, 49, 0, 0, 0, 0, 0, 39, 36, 0, 0, 0, 31, 0, 29, 0, 44, 0, 0, 54, 0, 0, 0, 41, 0, 0, 0, 9, 53, 24, 30, 0, 0
|0, 0, 0, 0, 0, 0, 6, 0, 35, 0, 0, 0, 0, 0, 0, 0, 45, 20, 0, 64, 27, 0, 47, 0, 0, 7, 25, 13, 0, 0, 0, 0, 60, 0, 51, 37, 12, 0, 17, 41, 49, 26, 23, 56, 0, 0, 0, 0, 62, 8, 42, 28, 0, 38, 0, 0, 59, 0, 16, 58, 36, 0, 0, 0
|54, 30, 0, 59, 0, 45, 0, 0, 41, 28, 0, 58, 22, 0, 27, 23, 0, 57, 4, 0, 35, 49, 0, 0, 0, 0, 0, 20, 17, 42, 0, 0, 5, 64, 0, 0, 43, 0, 56, 0, 0, 50, 0, 34, 0, 0, 25, 0, 0, 0, 52, 7, 0, 29, 0, 55, 0, 26, 0, 0, 3, 13, 0, 0
|0, 0, 61, 0, 9, 57, 52, 0, 12, 0, 0, 46, 0, 59, 0, 49, 22, 10, 7, 0, 5, 2, 25, 0, 15, 0, 0, 38, 0, 36, 0, 45, 0, 0, 0, 0, 47, 21, 32, 0, 53, 41, 4, 0, 0, 19, 0, 0, 39, 35, 0, 58, 14, 43, 0, 34, 0, 62, 0, 6, 29, 28, 0, 0
|3, 0, 0, 35, 0, 0, 0, 0, 15, 0, 33, 0, 64, 0, 26, 21, 23, 55, 36, 31, 19, 0, 0, 0, 53, 44, 10, 0, 0, 0, 1, 28, 54, 0, 59, 0, 0, 0, 57, 0, 39, 51, 9, 37, 58, 38, 30, 14, 0, 46, 6, 0, 32, 48, 49, 4, 56, 43, 0, 61, 17, 41, 0, 8
|0, 50, 0, 24, 32, 14, 9, 0, 0, 0, 42, 0, 0, 0, 0, 58, 0, 4, 0, 62, 60, 15, 0, 0, 34, 48, 0, 57, 64, 0, 0, 16, 37, 56, 0, 0, 0, 0, 0, 54, 0, 0, 0, 0, 0, 1, 0, 25, 0, 0, 0, 0, 0, 17, 38, 0, 51, 0, 33, 0, 44, 0, 0, 0
|49, 0, 0, 0, 0, 27, 0, 0, 54, 48, 44, 55, 0, 52, 0, 26, 0, 46, 0, 1, 33, 6, 37, 9, 60, 32, 0, 8, 0, 31, 0, 4, 63, 0, 0, 0, 53, 18, 30, 22, 0, 42, 0, 7, 0, 0, 0, 50, 0, 14, 12, 0, 0, 5, 45, 16, 0, 0, 15, 0, 21, 0, 39, 28
|0, 8, 59, 55, 0, 30, 48, 56, 51, 0, 0, 38, 33, 6, 60, 0, 28, 49, 0, 0, 0, 0, 36, 0, 0, 41, 0, 0, 45, 46, 10, 5, 0, 34, 47, 0, 1, 35, 42, 0, 9, 0, 53, 0, 0, 26, 14, 2, 0, 23, 0, 0, 7, 0, 61, 0, 0, 16, 27, 19, 40, 54, 58, 0
|6, 0, 0, 52, 0, 33, 0, 22, 0, 62, 0, 19, 0, 0, 56, 50, 39, 0, 0, 0, 0, 23, 0, 35, 49, 0, 42, 7, 0, 0, 54, 47, 59, 44, 55, 0, 41, 24, 0, 0, 0, 27, 12, 60, 3, 8, 0, 15, 31, 58, 9, 0, 1, 0, 64, 0, 53, 0, 0, 17, 26, 0, 5, 20
|26, 0, 44, 5, 0, 0, 41, 16, 7, 36, 13, 25, 0, 0, 0, 0, 56, 0, 51, 0, 55, 64, 38, 40, 0, 0, 0, 0, 0, 0, 0, 0, 33, 0, 0, 12, 0, 0, 50, 0, 0, 0, 35, 58, 0, 0, 61, 24, 8, 49, 48, 0, 0, 34, 22, 59, 0, 0, 0, 0, 47, 0, 60, 0
|37, 38, 0, 20, 0, 63, 0, 0, 43, 0, 1, 0, 3, 9, 0, 0, 34, 0, 11, 0, 0, 53, 0, 0, 0, 0, 30, 0, 50, 0, 0, 0, 0, 61, 0, 57, 0, 52, 21, 0, 56, 5, 16, 62, 28, 39, 0, 40, 0, 32, 13, 0, 0, 0, 42, 0, 0, 0, 24, 36, 0, 0, 0, 0
|25, 28, 39, 10, 0, 12, 0, 0, 0, 35, 0, 0, 16, 0, 45, 15, 0, 52, 0, 0, 30, 26, 5, 0, 0, 24, 0, 0, 43, 0, 56, 0, 0, 0, 17, 0, 20, 36, 58, 0, 59, 44, 0, 49, 0, 0, 0, 21, 0, 0, 57, 37, 0, 6, 0, 0, 29, 0, 2, 0, 4, 18, 13, 34
|45, 0, 0, 0, 0, 0, 23, 0, 0, 0, 28, 0, 10, 0, 0, 59, 43, 0, 3, 0, 0, 47, 0, 58, 0, 1, 0, 0, 13, 29, 27, 0, 0, 0, 5, 4, 40, 0, 60, 62, 20, 0, 0, 0, 0, 0, 0, 0, 52, 0, 51, 21, 0, 55, 36, 35, 0, 41, 0, 30, 56, 0, 0, 0
|12, 0, 26, 0, 31, 24, 0, 21, 40, 20, 0, 9, 0, 0, 53, 32, 47, 50, 38, 0, 25, 0, 0, 46, 0, 0, 49, 0, 0, 0, 0, 0, 0, 0, 42, 0, 0, 0, 59, 0, 11, 62, 44, 0, 0, 14, 0, 0, 13, 0, 5, 15, 63, 30, 0, 0, 0, 0, 36, 52, 0, 0, 0, 4
|0, 57, 51, 0, 46, 0, 45, 19, 0, 54, 48, 2, 50, 0, 39, 56, 60, 0, 0, 0, 0, 7, 41, 0, 14, 0, 0, 0, 0, 0, 8, 40, 0, 29, 0, 49, 44, 0, 52, 0, 4, 58, 31, 27, 35, 22, 0, 59, 33, 0, 43, 0, 0, 32, 37, 18, 5, 0, 0, 0, 0, 0, 0, 0
|42, 0, 0, 44, 37, 0, 15, 0, 57, 41, 0, 8, 0, 30, 0, 0, 0, 0, 22, 0, 56, 0, 0, 10, 0, 35, 0, 61, 51, 0, 0, 0, 43, 31, 0, 0, 0, 0, 13, 2, 18, 0, 32, 0, 5, 28, 0, 38, 0, 0, 0, 0, 54, 40, 0, 0, 0, 0, 0, 0, 0, 27, 7, 63
|56, 0, 14, 2, 0, 41, 33, 50, 3, 0, 0, 26, 0, 15, 0, 28, 0, 18, 48, 0, 4, 9, 23, 0, 0, 0, 0, 10, 60, 0, 5, 59, 0, 62, 0, 27, 32, 16, 12, 0, 0, 43, 0, 0, 47, 40, 36, 0, 42, 21, 0, 0, 24, 45, 44, 0, 0, 0, 13, 0, 49, 8, 37, 39
|0, 29, 22, 0, 11, 0, 0, 0, 0, 55, 37, 0, 49, 27, 0, 0, 62, 45, 28, 42, 15, 5, 2, 0, 7, 4, 0, 0, 21, 48, 0, 0, 24, 0, 0, 17, 46, 39, 0, 0, 0, 6, 0, 0, 63, 9, 20, 0, 26, 0, 34, 57, 0, 0, 53, 25, 0, 0, 0, 18, 0, 0, 51, 19
|52, 0, 62, 0, 8, 0, 0, 0, 24, 61, 0, 23, 45, 0, 36, 38, 59, 0, 0, 57, 0, 0, 31, 0, 0, 19, 0, 0, 0, 0, 28, 26, 22, 53, 0, 0, 56, 51, 5, 55, 42, 10, 0, 0, 21, 0, 0, 13, 0, 0, 0, 0, 46, 0, 50, 6, 0, 0, 20, 54, 14, 0, 17, 0
|5, 0, 48, 0, 49, 43, 58, 1, 21, 0, 0, 0, 0, 0, 0, 0, 19, 39, 40, 0, 20, 16, 30, 0, 0, 0, 9, 18, 0, 0, 0, 0, 0, 0, 0, 0, 0, 28, 41, 37, 54, 0, 0, 0, 0, 55, 33, 0, 0, 51, 2, 0, 0, 0, 56, 0, 15, 0, 0, 44, 34, 26, 0, 0
|0, 0, 35, 0, 20, 53, 0, 36, 33, 51, 19, 34, 0, 58, 18, 31, 0, 63, 44, 0, 24, 0, 0, 64, 42, 54, 39, 0, 29, 11, 46, 23, 50, 15, 0, 60, 0, 1, 0, 0, 61, 0, 48, 0, 0, 56, 0, 0, 0, 12, 49, 62, 9, 7, 0, 47, 57, 0, 0, 0, 0, 0, 0, 41
|40, 61, 0, 0, 5, 0, 35, 0, 25, 38, 0, 14, 0, 16, 0, 53, 51, 30, 18, 37, 11, 21, 0, 23, 0, 9, 0, 0, 47, 0, 0, 7, 0, 0, 56, 50, 33, 0, 0, 0, 0, 19, 29, 44, 12, 0, 31, 0, 0, 0, 0, 6, 22, 54, 28, 10, 0, 59, 0, 0, 0, 52, 62, 49
|0, 13, 52, 42, 50, 0, 0, 15, 0, 0, 58, 31, 0, 24, 0, 61, 0, 54, 0, 2, 53, 0, 26, 0, 0, 0, 29, 56, 20, 60, 0, 25, 51, 0, 4, 0, 0, 49, 0, 0, 0, 0, 0, 38, 27, 33, 0, 0, 48, 55, 0, 0, 17, 0, 62, 0, 0, 0, 43, 0, 0, 0, 47, 5
|34, 19, 0, 14, 12, 56, 0, 37, 18, 52, 0, 0, 0, 33, 0, 0, 55, 62, 0, 15, 64, 0, 60, 0, 0, 2, 0, 32, 0, 0, 6, 63, 0, 0, 21, 5, 0, 0, 0, 0, 48, 0, 0, 40, 9, 49, 58, 0, 0, 0, 30, 0, 0, 16, 7, 61, 0, 0, 39, 29, 38, 0, 0, 54
|41, 0, 0, 0, 17, 0, 0, 30, 0, 6, 0, 49, 0, 0, 0, 5, 0, 0, 33, 22, 0, 0, 61, 29, 54, 10, 35, 0, 0, 0, 43, 0, 0, 0, 0, 0, 0, 20, 26, 31, 0, 0, 63, 0, 0, 0, 0, 1, 0, 34, 15, 50, 0, 2, 0, 44, 0, 27, 3, 14, 0, 7, 28, 12
|0, 0, 6, 60, 0, 49, 0, 45, 20, 0, 63, 0, 26, 0, 19, 0, 48, 27, 34, 0, 0, 38, 43, 0, 0, 61, 62, 0, 42, 59, 0, 0, 0, 0, 0, 0, 7, 44, 0, 12, 0, 0, 37, 25, 0, 30, 17, 0, 11, 0, 0, 0, 0, 0, 0, 33, 0, 0, 58, 0, 51, 0, 0, 0
|0, 0, 16, 7, 0, 0, 2, 0, 0, 27, 0, 57, 0, 54, 0, 0, 0, 35, 0, 56, 0, 0, 17, 0, 51, 0, 0, 64, 48, 0, 0, 38, 0, 0, 24, 0, 0, 29, 61, 8, 0, 15, 42, 28, 0, 5, 11, 6, 4, 0, 21, 31, 60, 0, 0, 43, 26, 0, 1, 0, 0, 34, 0, 0
|0, 0, 0, 43, 0, 28, 0, 63, 0, 0, 29, 1, 0, 0, 4, 62, 16, 0, 57, 5, 52, 41, 0, 14, 0, 0, 0, 0, 53, 49, 37, 30, 0, 47, 54, 22, 34, 0, 0, 0, 0, 18, 0, 39, 0, 35, 59, 0, 0, 42, 0, 0, 51, 26, 25, 0, 17, 15, 48, 0, 55, 0, 9, 61
|0, 0, 0, 0, 0, 47, 46, 51, 2, 17, 0, 0, 42, 0, 0, 0, 0, 3, 0, 24, 0, 0, 44, 0, 0, 12, 0, 5, 0, 0, 15, 8, 0, 0, 57, 38, 48, 58, 11, 30, 14, 0, 0, 20, 26, 7, 0, 0, 49, 37, 63, 1, 0, 27, 32, 0, 0, 25, 35, 16, 23, 6, 0, 0
|0, 0, 0, 0, 0, 0, 0, 60, 36, 0, 26, 28, 56, 0, 24, 0, 44, 5, 0, 50, 21, 0, 0, 0, 0, 0, 33, 0, 54, 0, 0, 0, 35, 2, 0, 32, 0, 15, 7, 0, 40, 31, 0, 51, 30, 47, 0, 58, 61, 0, 0, 0, 42, 25, 0, 0, 10, 0, 0, 39, 45, 19, 0, 0
|50, 34, 2, 0, 57, 21, 51, 0, 0, 31, 0, 0, 38, 0, 54, 18, 0, 0, 64, 0, 0, 12, 0, 0, 9, 45, 0, 0, 0, 15, 0, 0, 47, 0, 40, 0, 4, 3, 0, 0, 0, 25, 0, 0, 0, 0, 0, 5, 35, 0, 60, 0, 44, 0, 0, 39, 6, 63, 0, 0, 1, 53, 49, 0
|0, 0, 0, 11, 61, 44, 30, 0, 5, 1, 2, 0, 60, 42, 6, 0, 0, 15, 41, 45, 26, 0, 0, 27, 0, 17, 0, 39, 0, 37, 0, 0, 14, 0, 12, 0, 18, 0, 0, 0, 0, 0, 22, 33, 32, 63, 0, 53, 20, 0, 36, 24, 0, 0, 51, 64, 0, 55, 56, 4, 9, 46, 0, 40
|0, 12, 56, 16, 25, 0, 63, 0, 0, 0, 22, 0, 0, 0, 37, 0, 0, 0, 0, 30, 0, 59, 0, 0, 62, 0, 5, 0, 0, 64, 0, 60, 0, 13, 61, 0, 0, 17, 0, 50, 0, 0, 24, 35, 19, 11, 0, 43, 0, 0, 53, 0, 0, 0, 0, 32, 0, 0, 0, 23, 7, 0, 0, 27
|0, 0, 43, 64, 0, 0, 0, 0, 47, 0, 34, 11, 0, 0, 0, 0, 0, 51, 61, 23, 0, 37, 0, 8, 0, 52, 0, 0, 0, 40, 36, 20, 29, 33, 26, 55, 0, 45, 24, 0, 0, 0, 56, 0, 0, 0, 42, 7, 0, 0, 0, 0, 0, 0, 0, 0, 0, 0, 0, 12, 5, 0, 30, 0
|48, 0, 5, 0, 0, 0, 19, 6, 0, 0, 0, 0, 23, 0, 0, 0, 3, 38, 60, 33, 39, 0, 0, 0, 35, 50, 14, 0, 7, 0, 18, 56, 10, 22, 0, 0, 27, 37, 0, 1, 28, 29, 0, 0, 46, 44, 45, 26, 0, 31, 0, 40, 55, 62, 21, 30, 0, 0, 0, 0, 64, 24, 0, 25
|0, 37, 24, 0, 0, 38, 59, 18, 32, 0, 62, 64, 44, 25, 0, 27, 0, 2, 0, 0, 22, 55, 0, 0, 0, 0, 0, 0, 0, 8, 53, 57, 0, 46, 11, 0, 54, 30, 0, 0, 60, 20, 41, 0, 0, 0, 21, 0, 0, 5, 0, 63, 0, 19, 12, 0, 0, 0, 47, 0, 0, 35, 52, 3
|0, 15, 45, 47, 58, 0, 0, 32, 0, 0, 21, 30, 0, 7, 43, 48, 6, 0, 0, 40, 0, 0, 0, 63, 24, 0, 34, 19, 38, 4, 2, 27, 56, 8, 41, 25, 0, 62, 0, 0, 0, 0, 0, 1, 0, 0, 0, 0, 16, 54, 0, 0, 0, 0, 52, 11, 0, 61, 26, 42, 31, 60, 22, 44|];