order = 8;
grid = [|0, 58, 2, 0, 0, 19, 46, 8, 11, 42, 4, 44, 0, 6, 35, 0, 45, 0, 0, 34, 0, 17, 30, 27, 0, 3, 0, 54, 0, 28, 0, 10, 57, 0, 0, 0, 0, 39, 0, 9, 32, 0, 24, 0, 0, 23, 0, 0, 0, 0, 0, 0, 0, 0, 0, 0, 0, 64, 0, 59, 40, 0, 48, 43
|60, 12, 0, 3, 0, 0, 37, 52, 64, 15, 0, 0, 9, 27, 0, 0, 1, 13, 49, 25, 11, 0, 58, 41, 31, 51, 34, 2, 0, 46, 0, 0, 0, 47, 0, 48, 0, 19, 0, 16, 0, 62, 0, 50, 0, 36, 0, 0, 0, 0, 38, 0, 0, 0, 0, 0, 22, 0, 0, 0, 18, 35, 0, 26
|16, 0, 0, 25, 0, 44, 5, 33, 50, 39, 53, 0, 0, 0, 0, 40, 22, 9, 51, 0, 0, 60, 42, 0, 0, 0, 0, 57, 7, 0, 21, 45, 55, 0, 0, 0, 59, 0, 4, 54, 31, 56, 3, 0, 0, 0, 0, 1, 35, 23, 2, 14, 11, 8, 17, 0, 10, 15, 24, 0, 0, 62, 41, 0
|59, 0, 64, 38, 27, 55, 36, 14, 57, 5, 0, 48, 0, 0, 33, 21, 16, 12, 0, 0, 0, 0, 0, 0, 0, 22, 0, 60, 23, 0, 11, 17, 35, 0, 46, 0, 0, 0, 30, 0, 0, 40, 0, 0, 4, 26, 0, 2, 0, 15, 6, 19, 0, 0, 0, 0, 0, 34, 37, 45, 9, 39, 0, 0
|0, 0, 34, 7, 10, 61, 0, 15, 0, 0, 19, 0, 0, 0, 22, 26, 0, 0, 0, 0, 31, 38, 57, 29, 0, 58, 33, 0, 0, 0, 16, 0, 53, 0, 0, 0, 0, 0, 0, 62, 64, 35, 0, 30, 0, 39, 11, 0, 0, 0, 59, 0, 52, 0, 0, 0, 42, 0, 0, 0, 47, 0, 54, 0
|30, 0, 31, 50, 41, 40, 29, 4, 17, 0, 0, 34, 0, 0, 0, 0, 0, 54, 39, 0, 33, 0, 35, 6, 0, 38, 19, 14, 0, 1, 0, 0, 23, 0, 0, 10, 0, 0, 0, 0, 0, 25, 0, 0, 9, 0, 48, 0, 18, 28, 20, 16, 62, 0, 21, 7, 0, 44, 51, 53, 0, 56, 49, 0
|9, 0, 0, 63, 0, 11, 18, 0, 0, 0, 10, 7, 16, 0, 0, 28, 0, 50, 0, 47, 0, 0, 4, 43, 29, 0, 36, 0, 35, 61, 30, 0, 22, 51, 0, 40, 0, 0, 0, 0, 20, 0, 19, 0, 45, 60, 34, 53, 42, 0, 56, 5, 3, 57, 27, 0, 0, 0, 23, 58, 25, 0, 0, 17
|24, 0, 35, 42, 6, 0, 54, 1, 0, 8, 56, 0, 0, 52, 0, 0, 0, 0, 2, 40, 0, 0, 14, 0, 32, 0, 39, 53, 0, 64, 0, 9, 3, 0, 0, 60, 0, 25, 0, 45, 0, 0, 0, 17, 0, 0, 55, 0, 0, 41, 0, 0, 34, 50, 0, 61, 0, 0, 0, 0, 0, 46, 19, 33
|15, 47, 0, 0, 0, 13, 0, 6, 32, 0, 55, 0, 49, 2, 4, 0, 38, 56, 10, 37, 50, 0, 0, 0, 0, 40, 44, 43, 57, 60, 24, 12, 0, 0, 54, 53, 0, 0, 31, 0, 0, 0, 0, 0, 0, 0, 0, 0, 11, 0, 34, 0, 0, 0, 0, 26, 0, 28, 45, 46, 27, 33, 0, 16
|0, 0, 42, 0, 16, 0, 45, 0, 44, 35, 0, 54, 24, 29, 0, 7, 0, 0, 63, 0, 0, 0, 0, 0, 0, 0, 0, 30, 0, 27, 3, 0, 0, 0, 57, 4, 15, 46, 0, 0, 6, 0, 0, 0, 0, 41, 0, 0, 0, 0, 28, 0, 49, 0, 53, 56, 9, 0, 21, 26, 51, 14, 37, 0
|0, 64, 0, 0, 33, 0, 7, 0, 8, 63, 5, 0, 40, 0, 38, 0, 24, 62, 53, 4, 34, 0, 0, 0, 46, 0, 0, 17, 0, 0, 58, 37, 0, 0, 59, 0, 0, 27, 28, 0, 15, 30, 45, 0, 55, 0, 26, 42, 57, 0, 0, 35, 39, 22, 0, 23, 0, 47, 0, 0, 13, 0, 0, 0
|0, 0, 0, 29, 54, 59, 0, 18, 0, 28, 0, 0, 0, 0, 41, 19, 51, 0, 26, 12, 3, 0, 45, 0, 4, 0, 56, 0, 0, 34, 0, 55, 0, 0, 24, 0, 0, 0, 1, 40, 61, 0, 0, 57, 44, 17, 49, 0, 6, 9, 0, 48, 0, 31, 0, 0, 60, 7, 0, 0, 62, 0, 0, 0
|0, 0, 0, 36, 0, 0, 31, 0, 30, 25, 0, 0, 11, 0, 16, 0, 49, 35, 0, 0, 44, 1, 15, 57, 0, 0, 0, 0, 47, 42, 0, 39, 0, 61, 0, 0, 0, 3, 0, 38, 27, 54, 0, 7, 51, 56, 0, 0, 0, 58, 17, 45, 0, 37, 12, 52, 43, 53, 19, 18, 0, 0, 20, 0
|0, 0, 24, 0, 0, 0, 0, 0, 6, 0, 0, 0, 0, 0, 0, 0, 59, 33, 0, 0, 5, 58, 60, 64, 0, 21, 0, 41, 32, 0, 7, 61, 0, 36, 0, 34, 0, 0, 0, 0, 0, 46, 11, 0, 48, 31, 9, 28, 40, 0, 44, 55, 0, 0, 0, 0, 0, 38, 29, 42, 0, 25, 56, 0
|44, 0, 0, 0, 40, 35, 0, 56, 0, 13, 0, 0, 64, 0, 1, 50, 21, 30, 0, 55, 0, 0, 23, 0, 0, 26, 5, 0, 25, 6, 20, 0, 18, 0, 11, 22, 0, 0, 0, 60, 0, 52, 0, 0, 36, 10, 12, 0, 0, 63, 0, 0, 0, 0, 0, 0, 0, 0, 31, 39, 0, 54, 0, 0
|0, 0, 0, 0, 0, 20, 0, 34, 0, 0, 42, 0, 0, 0, 17, 62, 0, 0, 0, 27, 6, 25, 36, 48, 0, 31, 0, 18, 0, 51, 0, 0, 44, 56, 7, 0, 0, 0, 0, 32, 8, 0, 0, 24, 22, 0, 21, 0, 5, 13, 41, 0, 0, 47, 1, 0, 0, 0, 49, 63, 0, 0, 0, 61
|0, 0, 0, 43, 18, 22, 40, 35, 0, 0, 0, 33, 0, 51, 0, 0, 30, 3, 0, 0, 23, 0, 0, 0, 11, 0, 0, 36, 44, 2, 60, 0, 0, 42, 49, 0, 0, 0, 55, 0, 24, 0, 0, 0, 0, 0, 0, 0, 0, 4, 0, 37, 0, 62, 0, 0, 0, 0, 28, 0, 0, 0, 0, 0
|58, 0, 51, 0, 19, 8, 50, 0, 43, 0, 0, 0, 28, 0, 0, 0, 0, 29, 0, 0, 42, 0, 0, 0, 45, 54, 0, 1, 39, 41, 0, 25, 26, 6, 17, 14, 46, 59, 52, 56, 0, 0, 33, 0, 34, 0, 0, 57, 0, 24, 0, 0, 48, 16, 0, 53, 0, 36, 63, 0, 15, 22, 35, 3
|36, 6, 5, 1, 0, 52, 0, 46, 31, 0, 35, 50, 0, 0, 12, 11, 40, 45, 43, 59, 14, 0, 47, 0, 0, 0, 0, 34, 0, 19, 49, 0, 16, 15, 25, 0, 21, 4, 51, 58, 60, 9, 0, 29, 0, 53, 0, 0, 13, 0, 0, 28, 22, 42, 39, 41, 0, 0, 0, 0, 0, 0, 0, 38
|0, 0, 48, 4, 12, 0, 41, 0, 0, 0, 16, 0, 0, 0, 57, 0, 37, 49, 24, 0, 15, 13, 28, 61, 17, 6, 0, 62, 0, 20, 53, 0, 2, 33, 0, 8, 7, 5, 44, 29, 0, 19, 0, 0, 30, 11, 0, 0, 31, 0, 36, 0, 0, 63, 0, 21, 0, 0, 18, 32, 0, 0, 60, 45
|56, 0, 15, 16, 0, 0, 60, 7, 0, 47, 0, 0, 0, 20, 32, 0, 0, 0, 11, 0, 12, 46, 0, 21, 0, 37, 0, 0, 0, 0, 0, 0, 10, 38, 45, 0, 0, 0, 13, 57, 0, 0, 52, 28, 26, 0, 6, 0, 58, 64, 0, 17, 0, 0, 0, 18, 0, 0, 9, 25, 42, 0, 1, 0
|45, 21, 0, 0, 0, 0, 17, 0, 19, 0, 0, 0, 48, 0, 0, 15, 20, 7, 0, 0, 0, 44, 33, 9, 0, 29, 0, 31, 52, 0, 0, 3, 0, 37, 0, 50, 0, 24, 0, 41, 49, 0, 0, 0, 12, 0, 18, 0, 1, 0, 0, 0, 60, 0, 0, 0, 0, 54, 39, 4, 26, 0, 13, 0
|2, 49, 61, 0, 20, 63, 0, 0, 0, 10, 22, 0, 45, 0, 0, 39, 58, 0, 0, 56, 0, 53, 51, 34, 0, 42, 30, 0, 4, 13, 9, 0, 0, 0, 40, 0, 0, 11, 48, 28, 0, 0, 35, 0, 0, 0, 0, 47, 54, 29, 0, 0, 0, 0, 19, 33, 41, 0, 0, 12, 0, 17, 0, 0
|0, 37, 26, 0, 9, 14, 47, 0, 0, 60, 29, 0, 0, 58, 0, 64, 50, 0, 0, 0, 0, 36, 62, 0, 0, 0, 28, 40, 46, 38, 0, 22, 54, 0, 0, 0, 19, 0, 53, 0, 0, 5, 0, 0, 8, 7, 0, 63, 43, 0, 49, 11, 0, 15, 44, 45, 51, 6, 0, 23, 0, 16, 21, 52
|39, 25, 0, 52, 0, 9, 0, 0, 45, 0, 0, 0, 0, 0, 0, 51, 7, 36, 48, 38, 0, 33, 6, 0, 0, 0, 0, 19, 17, 47, 0, 62, 0, 34, 56, 0, 31, 0, 60, 5, 0, 21, 0, 53, 54, 0, 0, 50, 23, 0, 16, 1, 27, 0, 0, 0, 0, 0, 35, 0, 44, 26, 10, 28
|0, 0, 3, 0, 0, 0, 61, 26, 33, 0, 38, 0, 0, 0, 19, 0, 32, 0, 5, 21, 54, 30, 0, 0, 0, 0, 0, 0, 36, 0, 27, 0, 50, 0, 0, 0, 1, 7, 0, 0, 39, 0, 12, 0, 10, 16, 0, 0, 0, 0, 0, 0, 0, 0, 0, 22, 0, 60, 14, 0, 0, 0, 47, 0
|43, 55, 12, 40, 42, 0, 2, 63, 0, 53, 62, 17, 0, 0, 0, 34, 52, 0, 60, 31, 35, 49, 0, 0, 5, 0, 51, 0, 9, 0, 0, 54, 0, 0, 30, 0, 0, 0, 21, 26, 41, 57, 58, 0, 37, 0, 19, 0, 47, 0, 0, 20, 45, 44, 14, 36, 0, 25, 6, 16, 38, 50, 29, 0
|4, 16, 0, 28, 36, 0, 53, 31, 39, 0, 9, 20, 6, 25, 0, 0, 0, 11, 42, 62, 0, 59, 17, 26, 0, 13, 48, 0, 0, 14, 0, 29, 0, 52, 43, 0, 0, 45, 40, 2, 0, 0, 56, 33, 0, 47, 0, 38, 15, 21, 51, 0, 35, 0, 0, 0, 0, 57, 27, 55, 8, 0, 63, 34
|0, 59, 0, 0, 0, 27, 0, 0, 0, 0, 0, 10, 58, 0, 0, 14, 0, 0, 50, 0, 0, 24, 12, 23, 34, 0, 0, 0, 0, 53, 0, 26, 0, 8, 0, 47, 0, 0, 0, 6, 43, 22, 48, 61, 0, 0, 0, 9, 0, 0, 0, 0, 0, 13, 0, 0, 0, 0, 1, 0, 0, 0, 0, 18
|11, 35, 56, 0, 49, 0, 0, 47, 0, 52, 57, 0, 0, 0, 0, 0, 0, 0, 34, 51, 0, 14, 0, 0, 0, 0, 31, 50, 0, 0, 28, 0, 24, 25, 61, 29, 0, 53, 0, 0, 40, 32, 62, 27, 0, 44, 36, 26, 0, 39, 5, 0, 0, 0, 6, 17, 0, 0, 30, 22, 0, 0, 0, 13
|0, 24, 38, 0, 46, 0, 19, 22, 0, 0, 47, 64, 0, 30, 11, 29, 55, 0, 57, 0, 1, 0, 0, 0, 7, 45, 42, 0, 0, 0, 0, 16, 0, 10, 48, 0, 0, 12, 0, 27, 0, 0, 0, 49, 0, 28, 0, 0, 0, 0, 0, 0, 32, 33, 0, 0, 0, 0, 17, 40, 43, 0, 0, 0
|0, 8, 0, 51, 0, 0, 0, 29, 0, 41, 0, 1, 5, 24, 44, 0, 0, 0, 45, 43, 47, 40, 0, 0, 0, 0, 38, 0, 0, 0, 0, 0, 28, 22, 0, 0, 16, 23, 54, 0, 14, 34, 64, 2, 0, 42, 0, 0, 0, 56, 0, 50, 0, 48, 0, 25, 0, 0, 59, 0, 0, 0, 0, 0
|0, 0, 13, 0, 47, 24, 12, 32, 0, 33, 0, 14, 62, 0, 0, 63, 0, 0, 52, 0, 9, 27, 54, 53, 49, 0, 18, 0, 0, 58, 48, 0, 38, 3, 10, 5, 40, 2, 16, 0, 0, 0, 21, 0, 19, 51, 7, 45, 56, 43, 0, 42, 1, 11, 22, 0, 0, 0, 26, 0, 23, 59, 57, 20
|0, 5, 19, 60, 0, 58, 0, 0, 20, 0, 0, 0, 54, 0, 0, 0, 43, 0, 0, 0, 0, 10, 50, 36, 0, 1, 0, 0, 64, 0, 0, 0, 41, 0, 0, 25, 0, 28, 24, 0, 48, 3, 42, 31, 59, 6, 0, 4, 0, 0, 0, 15, 0, 0, 0, 0, 34, 18, 11, 8, 32, 49, 30, 7
|0, 0, 0, 0, 25, 43, 0, 50, 5, 4, 0, 46, 22, 56, 29, 0, 44, 57, 64, 0, 18, 0, 21, 0, 37, 0, 20, 27, 0, 26, 0, 40, 60, 32, 51, 55, 47, 0, 0, 0, 0, 28, 0, 0, 58, 61, 0, 11, 24, 0, 0, 10, 0, 19, 49, 0, 13, 41, 53, 52, 0, 0, 0, 0
|49, 0, 20, 64, 61, 4, 0, 0, 10, 0, 0, 0, 0, 23, 42, 0, 0, 0, 0, 28, 0, 0, 2, 33, 15, 5, 45, 51, 19, 0, 0, 57, 13, 0, 0, 0, 0, 0, 22, 59, 36, 27, 0, 0, 32, 0, 37, 0, 8, 17, 7, 53, 0, 34, 41, 63, 3, 0, 16, 35, 39, 0, 0, 0
|28, 15, 62, 11, 0, 30, 16, 51, 24, 1, 0, 32, 2, 0, 26, 59, 17, 42, 25, 22, 49, 0, 19, 0, 61, 7, 0, 0, 13, 0, 6, 0, 0, 53, 0, 0, 57, 8, 20, 0, 29, 0, 0, 56, 0, 0, 46, 0, 0, 0, 0, 0, 23, 0, 60, 5, 0, 58, 0, 0, 0, 0, 27, 0
|0, 0, 17, 8, 0, 0, 0, 0, 0, 48, 50, 0, 39, 57, 28, 0, 0, 0, 0, 0, 62, 0, 55, 40, 56, 11, 60, 0, 0, 0, 0, 0, 64, 0, 0, 52, 0, 1, 19, 63, 0, 26, 0, 0, 47, 0, 10, 49, 0, 36, 0, 0, 0, 3, 18, 0, 25, 61, 0, 0, 0, 51, 15, 0
|52, 0, 9, 0, 34, 57, 48, 42, 55, 0, 0, 31, 0, 15, 61, 17, 6, 8, 0, 0, 51, 11, 0, 59, 47, 41, 0, 0, 0, 0, 4, 0, 0, 39, 0, 0, 14, 0, 0, 0, 16, 0, 0, 0, 0, 30, 53, 0, 37, 0, 0, 64, 0, 40, 35, 0, 28, 0, 0, 0, 0, 0, 0, 60
|40, 3, 1, 53, 0, 10, 0, 59, 0, 64, 52, 45, 0, 0, 43, 0, 0, 0, 0, 20, 0, 7, 29, 0, 0, 0, 0, 0, 12, 17, 0, 36, 0, 0, 0, 0, 0, 50, 0, 61, 0, 0, 0, 23, 0, 0, 0, 8, 0, 0, 0, 57, 6, 0, 55, 48, 56, 0, 22, 0, 14, 4, 0, 0
|38, 0, 16, 0, 0, 62, 39, 0, 0, 0, 0, 6, 0, 0, 0, 0, 3, 64, 36, 58, 0, 12, 34, 51, 21, 0, 0, 4, 11, 0, 18, 23, 0, 0, 0, 0, 0, 0, 9, 19, 53, 0, 0, 0, 24, 22, 0, 59, 20, 0, 0, 56, 13, 25, 52, 31, 0, 0, 0, 41, 46, 0, 45, 37
|0, 0, 0, 58, 22, 0, 0, 49, 0, 0, 37, 41, 0, 0, 0, 0, 0, 46, 0, 0, 10, 0, 38, 32, 0, 0, 29, 0, 16, 0, 5, 0, 56, 0, 63, 51, 0, 52, 0, 0, 0, 0, 0, 60, 0, 57, 40, 7, 50, 0, 62, 6, 0, 27, 30, 0, 0, 23, 33, 54, 0, 0, 0, 42
|48, 1, 0, 46, 50, 33, 64, 0, 2, 0, 0, 0, 0, 32, 60, 16, 0, 27, 14, 0, 56, 41, 61, 31, 51, 0, 59, 13, 0, 0, 57, 49, 17, 0, 0, 15, 55, 21, 0, 34, 25, 0, 0, 0, 0, 0, 29, 0, 7, 0, 0, 63, 0, 0, 8, 12, 4, 22, 58, 0, 52, 38, 9, 6
|6, 26, 8, 19, 52, 41, 43, 9, 0, 59, 11, 0, 0, 13, 0, 0, 4, 20, 30, 15, 21, 54, 39, 0, 44, 27, 0, 38, 0, 7, 22, 0, 58, 0, 0, 0, 0, 0, 0, 0, 0, 63, 0, 34, 3, 0, 42, 12, 0, 53, 45, 49, 17, 23, 0, 40, 0, 35, 0, 14, 55, 0, 0, 0
|0, 42, 25, 47, 60, 51, 0, 53, 58, 24, 23, 0, 30, 0, 52, 0, 33, 55, 44, 0, 0, 0, 0, 1, 0, 39, 0, 63, 56, 15, 0, 0, 0, 40, 32, 0, 12, 31, 0, 0, 38, 14, 28, 48, 0, 0, 4, 18, 0, 37, 0, 0, 0, 5, 36, 29, 50, 0, 3, 10, 0, 0, 11, 0
|37, 29, 63, 13, 0, 21, 55, 40, 42, 0, 54, 0, 56, 4, 0, 0, 0, 26, 16, 7, 43, 50, 48, 0, 0, 12, 0, 0, 14, 0, 19, 28, 0, 49, 0, 0, 60, 0, 0, 22, 45, 11, 10, 8, 0, 0, 0, 36, 0, 1, 33, 2, 0, 64, 0, 0, 0, 39, 34, 0, 30, 15, 0, 62
|0, 2, 0, 54, 0, 15, 11, 5, 0, 49, 17, 0, 10, 34, 0, 25, 0, 0, 23, 60, 22, 0, 0, 24, 0, 0, 37, 8, 1, 0, 50, 0, 0, 0, 0, 0, 30, 14, 0, 13, 0, 6, 9, 0, 0, 58, 0, 0, 0, 0, 42, 0, 41, 0, 48, 57, 0, 26, 44, 0, 0, 63, 0, 0
|0, 32, 0, 0, 59, 56, 3, 0, 0, 21, 0, 0, 55, 63, 0, 0, 0, 0, 13, 0, 25, 0, 0, 62, 52, 0, 0, 58, 0, 45, 0, 0, 1, 35, 33, 38, 0, 54, 10, 0, 30, 44, 0, 0, 0, 2, 50, 19, 14, 0, 4, 0, 24, 26, 15, 11, 0, 51, 0, 0, 60, 28, 53, 40
|0, 57, 0, 9, 51, 0, 24, 0, 41, 0, 0, 0, 31, 11, 0, 0, 0, 0, 6, 0, 0, 0, 5, 35, 0, 0, 53, 0, 37, 39, 0, 0, 47, 19, 0, 3, 56, 0, 0, 14, 0, 0, 0, 52, 0, 45, 59, 0, 0, 54, 10, 58, 0, 0, 0, 0, 26, 0, 64, 50, 0, 0, 8, 0
|35, 0, 37, 5, 0, 36, 0, 48, 0, 54, 8, 0, 7, 0, 58, 33, 23, 0, 0, 9, 19, 28, 46, 0, 24, 0, 0, 44, 0, 0, 0, 0, 0, 63, 52, 13, 53, 0, 32, 0, 0, 0, 0, 0, 40, 29, 17, 0, 0, 47, 0, 31, 0, 0, 57, 0, 0, 16, 0, 2, 0, 0, 55, 14
|0, 10, 0, 0, 0, 0, 0, 0, 28, 16, 15, 0, 4, 39, 9, 0, 0, 0, 18, 26, 0, 32, 53, 50, 0, 0, 21, 0, 49, 59, 54, 41, 12, 0, 0, 61, 17, 36, 0, 0, 58, 8, 0, 5, 60, 0, 23, 30, 0, 2, 46, 0, 25, 0, 0, 44, 0, 40, 0, 0, 37, 0, 0, 0
|0, 0, 0, 0, 0, 53, 0, 21, 63, 3, 25, 0, 38, 19, 10, 0, 56, 0, 8, 0, 0, 31, 0, 0, 64, 47, 0, 0, 26, 12, 35, 0, 0, 0, 0, 0, 0, 0, 0, 50, 57, 42, 0, 6, 41, 0, 20, 0, 0, 0, 23, 33, 0, 0, 0, 37, 45, 30, 0, 62, 0, 0, 52, 5
|0, 0, 0, 0, 3, 0, 0, 0, 40, 23, 0, 0, 0, 0, 55, 0, 0, 10, 0, 0, 0, 63, 0, 0, 0, 46, 14, 45, 0, 50, 0, 20, 0, 0, 4, 26, 25, 0, 0, 24, 0, 36, 0, 62, 0, 37, 47, 0, 0, 0, 1, 0, 0, 0, 43, 0, 0, 0, 0, 60, 0, 13, 0, 0
|0, 0, 46, 0, 64, 0, 0, 0, 53, 0, 44, 29, 0, 50, 0, 0, 0, 0, 59, 0, 52, 0, 7, 0, 36, 0, 23, 0, 0, 0, 0, 11, 0, 0, 0, 0, 5, 0, 0, 0, 0, 0, 0, 21, 38, 15, 0, 0, 0, 0, 63, 8, 26, 0, 0, 24, 49, 0, 25, 0, 0, 0, 58, 31
|0, 50, 47, 20, 28, 0, 0, 41, 0, 32, 60, 0, 43, 59, 0, 36, 0, 0, 29, 0, 0, 57, 64, 0, 0, 0, 0, 0, 0, 0, 0, 63, 31, 0, 2, 0, 0, 0, 46, 48, 7, 0, 22, 26, 0, 0, 0, 24, 0, 52, 0, 4, 21, 38, 0, 3, 0, 33, 0, 17, 0, 61, 18, 0
|8, 34, 0, 26, 23, 0, 0, 0, 37, 0, 30, 0, 0, 0, 0, 46, 0, 0, 0, 0, 58, 16, 0, 0, 10, 25, 0, 0, 61, 0, 0, 31, 0, 18, 0, 0, 0, 0, 0, 43, 56, 0, 0, 0, 11, 0, 35, 0, 0, 0, 0, 29, 64, 0, 0, 14, 38, 0, 12, 0, 20, 0, 0, 39
|0, 0, 49, 0, 0, 0, 0, 54, 4, 0, 41, 0, 59, 0, 0, 0, 12, 32, 7, 6, 17, 0, 0, 11, 60, 0, 2, 0, 30, 43, 0, 27, 0, 5, 0, 19, 0, 0, 0, 0, 51, 0, 34, 58, 28, 8, 0, 61, 22, 0, 0, 21, 0, 18, 0, 1, 0, 24, 0, 56, 35, 36, 26, 0
|47, 19, 52, 0, 0, 50, 0, 0, 51, 0, 7, 30, 20, 0, 5, 9, 0, 58, 0, 41, 37, 62, 56, 0, 0, 0, 4, 46, 28, 48, 0, 44, 0, 0, 0, 31, 45, 55, 0, 0, 26, 10, 36, 32, 0, 18, 0, 33, 63, 11, 0, 61, 57, 0, 0, 0, 0, 0, 0, 38, 49, 60, 0, 0
|0, 11, 0, 0, 0, 0, 0, 36, 0, 12, 28, 22, 0, 0, 0, 0, 0, 5, 0, 0, 61, 0, 8, 0, 39, 14, 16, 29, 0, 0, 59, 19, 0, 0, 0, 0, 0, 32, 0, 18, 0, 0, 0, 47, 0, 0, 0, 21, 27, 40, 15, 24, 0, 0, 0, 6, 0, 0, 0, 34, 1, 53, 0, 0
|55, 0, 53, 0, 0, 0, 34, 27, 0, 0, 1, 0, 15, 0, 0, 52, 42, 43, 19, 0, 0, 20, 31, 28, 0, 33, 0, 0, 0, 0, 0, 0, 0, 13, 0, 24, 0, 47, 56, 0, 11, 23, 6, 0, 57, 0, 0, 5, 0, 49, 3, 36, 38, 46, 64, 0, 21, 0, 0, 30, 0, 37, 0, 9
|33, 9, 4, 56, 0, 39, 0, 0, 0, 0, 0, 0, 34, 35, 63, 42, 13, 48, 27, 1, 29, 0, 0, 25, 0, 0, 17, 0, 0, 11, 0, 58, 52, 12, 60, 36, 44, 0, 38, 23, 2, 0, 0, 0, 0, 0, 24, 0, 26, 30, 0, 54, 53, 0, 16, 0, 8, 0, 50, 28, 0, 18, 51, 15
|25, 46, 45, 0, 26, 60, 0, 58, 0, 6, 0, 43, 23, 0, 0, 31, 53, 0, 35, 36, 0, 22, 0, 49, 0, 50, 3, 0, 0, 0, 0, 0, 0, 0, 28, 0, 0, 0, 0, 51, 1, 0, 7, 9, 29, 0, 0, 40, 0, 10, 48, 52, 0, 17, 5, 0, 0, 0, 41, 11, 63, 0, 0, 0
|21, 40, 6, 0, 62, 2, 42, 12, 0, 27, 48, 57, 44, 0, 56, 0, 18, 59, 9, 63, 0, 34, 0, 30, 0, 35, 24, 0, 41, 36, 8, 52, 29, 0, 64, 43, 0, 58, 49, 0, 19, 0, 0, 39, 50, 0, 0, 0, 28, 25, 0, 0, 20, 0, 0, 51, 0, 0, 0, 0, 5, 23, 0, 47
|0, 0, 0, 0, 1, 0, 0, 64, 25, 11, 26, 0, 0, 33, 3, 60, 2, 0, 0, 0, 40, 23, 0, 0, 54, 61, 9, 5, 53, 21, 15, 42, 0, 48, 39, 0, 0, 0, 0, 35, 52, 38, 0, 0, 20, 0, 0, 0, 0, 0, 19, 0, 0, 0, 0, 0, 29, 0, 13, 0, 0, 0, 0, 0|];