order = 8;
grid = [|38, 0, 0, 23, 0, 0, 33, 55, 50, 0, 0, 0, 27, 47, 30, 0, 31, 64, 0, 29, 16, 11, 0, 53, 22, 0, 12, 0, 0, 0, 0, 0, 35, 63, 0, 0, 62, 9, 0, 14, 51, 0, 7, 45, 58, 1, 37, 52, 0, 0, 13, 48, 0, 5, 19, 0, 0, 28, 46, 0, 8, 0, 3, 40
|31, 58, 0, 22, 16, 0, 32, 0, 0, 0, 0, 0, 0, 0, 0, 0, 0, 28, 0, 19, 44, 0, 0, 27, 0, 11, 0, 29, 0, 51, 63, 2, 64, 43, 26, 0, 0, 7, 56, 20, 5, 0, 0, 0, 0, 0, 9, 24, 14, 61, 0, 0, 0, 17, 34, 0, 62, 59, 0, 41, 37, 0, 47, 35
|0, 53, 0, 0, 0, 18, 0, 0, 0, 0, 42, 0, 0, 0, 0, 44, 0, 46, 0, 48, 0, 45, 43, 0, 23, 0, 0, 49, 56, 50, 7, 62, 0, 5, 0, 58, 13, 16, 4, 0, 0, 0, 47, 0, 6, 11, 0, 32, 54, 0, 39, 0, 0, 2, 55, 26, 0, 30, 21, 63, 0, 0, 14, 52
|0, 0, 0, 0, 0, 0, 0, 0, 57, 12, 10, 63, 46, 7, 25, 58, 13, 0, 0, 56, 0, 30, 42, 0, 0, 0, 0, 0, 48, 0, 32, 0, 50, 0, 0, 11, 39, 51, 61, 54, 19, 53, 62, 36, 0, 0, 33, 0, 38, 23, 0, 41, 0, 0, 0, 59, 0, 49, 0, 0, 34, 0, 31, 45
|1, 0, 0, 7, 0, 0, 44, 56, 0, 0, 51, 0, 0, 0, 53, 2, 0, 57, 58, 0, 54, 0, 25, 8, 47, 3, 38, 13, 45, 16, 0, 28, 12, 18, 0, 0, 0, 24, 0, 0, 0, 29, 46, 21, 0, 14, 42, 0, 0, 0, 35, 0, 33, 0, 50, 0, 0, 0, 0, 55, 19, 26, 48, 0
|11, 0, 0, 0, 13, 0, 0, 0, 0, 0, 8, 36, 54, 43, 5, 0, 0, 24, 21, 4, 0, 0, 0, 0, 0, 9, 0, 59, 0, 0, 33, 0, 0, 52, 0, 0, 0, 0, 48, 2, 0, 17, 0, 27, 0, 0, 0, 0, 0, 0, 0, 6, 0, 32, 0, 40, 0, 10, 0, 7, 0, 29, 0, 20
|45, 17, 0, 0, 24, 54, 0, 0, 0, 9, 0, 11, 0, 0, 0, 35, 0, 0, 26, 0, 3, 41, 0, 0, 30, 0, 46, 42, 0, 0, 0, 0, 55, 0, 0, 21, 0, 22, 0, 0, 8, 0, 10, 4, 0, 0, 61, 0, 47, 0, 52, 53, 0, 0, 57, 0, 0, 13, 0, 6, 12, 43, 32, 15
|0, 20, 30, 29, 0, 14, 48, 26, 0, 49, 0, 22, 0, 23, 0, 45, 36, 0, 0, 0, 55, 0, 0, 0, 10, 0, 0, 34, 0, 0, 54, 0, 46, 15, 0, 0, 40, 0, 0, 0, 16, 0, 0, 56, 0, 0, 13, 41, 0, 27, 7, 31, 0, 0, 58, 0, 53, 0, 0, 0, 0, 2, 0, 0
|13, 0, 0, 47, 0, 45, 38, 0, 12, 41, 0, 0, 37, 0, 0, 43, 59, 0, 0, 0, 0, 0, 54, 0, 20, 35, 0, 0, 17, 27, 0, 0, 0, 58, 0, 40, 15, 0, 0, 7, 0, 9, 8, 52, 55, 46, 1, 57, 0, 0, 0, 36, 0, 44, 10, 0, 3, 0, 33, 0, 64, 0, 0, 0
|0, 0, 36, 2, 0, 0, 0, 0, 0, 0, 0, 61, 0, 62, 18, 0, 4, 0, 33, 0, 0, 31, 13, 32, 39, 0, 0, 48, 49, 0, 47, 7, 45, 0, 22, 0, 0, 0, 14, 8, 0, 10, 15, 42, 56, 29, 50, 28, 40, 34, 0, 0, 0, 0, 52, 0, 0, 0, 0, 0, 21, 58, 0, 63
|44, 24, 29, 32, 0, 0, 0, 0, 0, 2, 60, 0, 30, 54, 0, 6, 41, 0, 5, 22, 37, 63, 0, 0, 0, 0, 0, 0, 0, 55, 43, 0, 4, 0, 38, 17, 10, 0, 0, 0, 0, 0, 18, 61, 0, 0, 36, 27, 23, 0, 45, 0, 0, 42, 0, 0, 0, 7, 50, 35, 52, 0, 11, 0
|62, 7, 0, 30, 54, 4, 0, 0, 0, 55, 0, 0, 0, 64, 0, 23, 0, 0, 1, 0, 0, 0, 61, 0, 0, 46, 25, 0, 5, 60, 58, 34, 47, 26, 0, 0, 20, 0, 18, 29, 0, 0, 0, 0, 33, 0, 0, 0, 19, 0, 57, 13, 0, 24, 31, 21, 0, 32, 42, 0, 0, 40, 0, 0
|61, 40, 42, 0, 0, 0, 0, 0, 0, 0, 0, 0, 31, 0, 56, 0, 0, 0, 0, 64, 0, 23, 27, 57, 0, 0, 0, 53, 41, 14, 0, 4, 0, 62, 0, 0, 0, 0, 12, 59, 0, 39, 0, 0, 0, 5, 20, 11, 0, 29, 28, 49, 18, 63, 60, 0, 48, 0, 0, 43, 46, 0, 26, 0
|0, 60, 0, 43, 0, 0, 0, 28, 0, 0, 0, 3, 39, 51, 0, 0, 56, 0, 36, 0, 46, 8, 47, 10, 29, 0, 2, 45, 0, 0, 0, 0, 0, 44, 0, 34, 0, 0, 0, 30, 17, 7, 0, 0, 40, 35, 0, 0, 53, 0, 4, 37, 38, 0, 0, 0, 0, 0, 0, 0, 13, 0, 0, 1
|17, 0, 12, 0, 10, 0, 21, 63, 44, 32, 0, 0, 0, 0, 40, 0, 11, 29, 35, 50, 0, 0, 0, 0, 56, 0, 0, 0, 51, 3, 0, 0, 0, 0, 23, 0, 0, 0, 43, 0, 0, 0, 19, 0, 0, 34, 4, 0, 0, 0, 0, 64, 14, 8, 7, 0, 25, 0, 54, 45, 18, 0, 5, 0
|0, 48, 0, 0, 0, 0, 0, 0, 0, 0, 7, 58, 29, 0, 0, 0, 38, 21, 0, 43, 0, 0, 45, 0, 0, 50, 13, 0, 11, 0, 24, 0, 56, 0, 61, 0, 57, 0, 41, 0, 0, 0, 0, 0, 0, 0, 60, 30, 0, 9, 25, 22, 59, 0, 0, 0, 0, 12, 47, 28, 62, 19, 0, 10
|26, 18, 0, 46, 0, 38, 3, 0, 0, 23, 20, 0, 0, 0, 0, 16, 29, 2, 0, 34, 0, 0, 0, 45, 0, 41, 54, 0, 7, 53, 0, 49, 10, 56, 39, 31, 0, 0, 0, 35, 0, 0, 0, 9, 0, 0, 0, 0, 0, 44, 0, 32, 24, 0, 0, 0, 27, 15, 12, 0, 25, 0, 8, 61
|48, 0, 6, 0, 0, 0, 39, 0, 0, 4, 0, 35, 0, 0, 0, 0, 44, 14, 0, 25, 0, 0, 32, 51, 0, 0, 0, 0, 0, 0, 0, 0, 60, 27, 0, 47, 0, 0, 0, 57, 0, 62, 0, 0, 50, 19, 45, 21, 36, 0, 0, 46, 0, 0, 38, 2, 0, 41, 0, 10, 23, 11, 0, 13
|59, 28, 0, 0, 63, 0, 13, 0, 19, 0, 30, 44, 0, 0, 0, 39, 40, 41, 49, 0, 6, 0, 0, 0, 52, 0, 0, 47, 0, 0, 0, 0, 0, 14, 0, 0, 43, 0, 0, 15, 0, 34, 33, 24, 23, 18, 0, 0, 0, 0, 26, 0, 50, 60, 1, 25, 0, 22, 0, 32, 0, 31, 55, 4
|0, 0, 64, 0, 0, 8, 0, 10, 0, 6, 0, 49, 3, 27, 51, 0, 60, 0, 17, 0, 0, 0, 0, 0, 0, 37, 0, 55, 0, 0, 0, 0, 0, 0, 0, 63, 0, 40, 0, 0, 28, 0, 31, 20, 0, 59, 0, 0, 5, 0, 15, 57, 30, 0, 0, 0, 7, 56, 0, 44, 26, 0, 53, 54
|33, 0, 0, 31, 0, 21, 0, 30, 0, 0, 25, 0, 0, 0, 2, 62, 0, 27, 8, 0, 11, 39, 0, 18, 0, 0, 0, 0, 60, 0, 0, 0, 0, 0, 42, 0, 0, 64, 0, 0, 61, 0, 38, 0, 0, 0, 0, 43, 34, 0, 0, 14, 0, 53, 0, 19, 0, 40, 48, 0, 36, 0, 52, 0
|23, 0, 0, 24, 55, 40, 52, 0, 0, 0, 64, 0, 60, 0, 0, 10, 0, 0, 22, 0, 26, 0, 0, 0, 0, 0, 0, 0, 0, 5, 0, 30, 0, 32, 0, 0, 29, 21, 0, 1, 0, 0, 0, 0, 0, 0, 0, 51, 0, 47, 0, 0, 0, 0, 0, 0, 43, 38, 28, 0, 0, 0, 0, 18
|0, 0, 25, 16, 0, 62, 36, 0, 43, 0, 0, 0, 17, 29, 8, 11, 0, 0, 54, 24, 20, 0, 38, 61, 14, 19, 21, 0, 13, 0, 0, 0, 0, 0, 0, 7, 0, 0, 0, 0, 0, 1, 0, 0, 0, 60, 56, 0, 12, 0, 0, 55, 0, 58, 27, 0, 5, 39, 6, 46, 47, 0, 0, 0
|60, 0, 0, 5, 0, 0, 17, 51, 1, 0, 0, 50, 32, 0, 0, 56, 0, 0, 53, 0, 7, 0, 37, 0, 0, 4, 0, 0, 26, 0, 27, 35, 9, 55, 0, 0, 0, 0, 0, 0, 39, 0, 6, 0, 30, 0, 0, 48, 13, 0, 0, 0, 22, 0, 23, 10, 45, 21, 64, 58, 63, 0, 20, 0
|0, 62, 10, 0, 0, 50, 55, 0, 0, 59, 48, 64, 0, 17, 0, 18, 0, 43, 0, 1, 47, 0, 30, 2, 0, 15, 35, 32, 0, 0, 8, 12, 0, 57, 0, 38, 0, 0, 0, 46, 60, 22, 0, 51, 11, 36, 19, 0, 0, 0, 0, 0, 0, 49, 0, 53, 9, 5, 0, 0, 0, 0, 37, 56
|34, 0, 0, 0, 7, 42, 46, 0, 0, 0, 52, 0, 5, 0, 0, 0, 50, 16, 0, 0, 39, 62, 9, 0, 0, 31, 0, 18, 61, 0, 0, 0, 37, 47, 12, 54, 0, 43, 0, 13, 0, 15, 0, 0, 0, 30, 0, 0, 56, 57, 0, 0, 0, 0, 14, 64, 0, 53, 0, 17, 0, 36, 0, 0
|0, 0, 0, 12, 0, 0, 59, 0, 0, 0, 50, 6, 0, 0, 13, 46, 8, 0, 0, 0, 23, 53, 57, 34, 9, 0, 5, 21, 4, 40, 0, 0, 0, 0, 0, 1, 18, 0, 0, 0, 0, 44, 35, 41, 25, 0, 10, 64, 0, 0, 0, 26, 0, 20, 28, 0, 11, 0, 38, 42, 0, 32, 0, 47
|0, 0, 0, 9, 0, 53, 40, 16, 23, 19, 35, 57, 2, 0, 62, 0, 52, 5, 0, 3, 27, 0, 64, 26, 36, 0, 14, 63, 46, 38, 60, 39, 0, 21, 4, 20, 0, 33, 28, 0, 29, 0, 1, 0, 59, 0, 0, 0, 0, 31, 0, 0, 0, 54, 12, 55, 0, 51, 43, 0, 44, 25, 0, 6
|0, 0, 3, 18, 0, 0, 25, 0, 33, 0, 0, 0, 0, 9, 45, 0, 35, 0, 0, 38, 0, 0, 17, 0, 0, 0, 0, 26, 0, 48, 28, 0, 0, 0, 0, 16, 0, 23, 7, 0, 0, 0, 57, 6, 0, 32, 0, 50, 46, 62, 37, 44, 0, 29, 0, 0, 1, 34, 0, 0, 15, 12, 63, 0
|0, 38, 23, 19, 26, 35, 14, 0, 0, 11, 44, 0, 0, 0, 0, 0, 25, 0, 0, 0, 31, 0, 0, 22, 0, 17, 56, 0, 0, 37, 0, 50, 0, 0, 0, 0, 49, 0, 29, 53, 34, 20, 0, 0, 0, 27, 52, 13, 0, 0, 0, 18, 2, 4, 42, 0, 0, 3, 0, 57, 0, 21, 45, 41
|63, 0, 0, 44, 0, 0, 4, 0, 49, 36, 29, 16, 20, 12, 0, 26, 42, 0, 46, 0, 0, 28, 0, 6, 0, 58, 22, 19, 0, 0, 1, 0, 0, 0, 40, 8, 0, 0, 0, 0, 0, 21, 0, 39, 54, 9, 18, 0, 52, 0, 0, 17, 0, 48, 61, 7, 0, 0, 23, 2, 0, 0, 62, 0
|41, 0, 32, 0, 58, 5, 56, 17, 28, 0, 15, 1, 53, 3, 38, 25, 0, 0, 20, 0, 13, 4, 40, 0, 54, 0, 49, 33, 0, 0, 2, 42, 62, 0, 35, 0, 0, 44, 0, 0, 0, 0, 55, 0, 14, 24, 0, 0, 59, 0, 43, 23, 39, 9, 0, 50, 52, 60, 61, 18, 0, 0, 64, 0
|0, 47, 22, 15, 45, 0, 0, 59, 29, 0, 0, 40, 0, 0, 52, 0, 23, 1, 0, 17, 28, 0, 55, 41, 0, 0, 0, 38, 0, 8, 0, 0, 54, 31, 27, 0, 0, 0, 0, 64, 56, 6, 0, 0, 16, 53, 0, 62, 60, 0, 49, 3, 0, 0, 0, 61, 30, 18, 0, 26, 5, 0, 0, 0
|0, 0, 0, 63, 18, 33, 30, 11, 0, 0, 38, 0, 24, 36, 0, 59, 0, 34, 0, 0, 0, 27, 0, 44, 0, 53, 60, 4, 0, 0, 0, 51, 0, 7, 45, 0, 0, 0, 40, 39, 0, 32, 0, 0, 2, 0, 0, 49, 0, 0, 0, 0, 0, 14, 0, 28, 0, 0, 56, 15, 43, 6, 10, 0
|7, 0, 38, 0, 28, 49, 0, 0, 0, 0, 27, 0, 0, 60, 0, 0, 0, 0, 18, 53, 0, 50, 0, 36, 41, 22, 37, 20, 40, 0, 35, 56, 1, 4, 0, 5, 0, 0, 0, 0, 57, 30, 0, 8, 39, 0, 0, 0, 16, 11, 47, 52, 0, 0, 0, 0, 0, 0, 58, 59, 55, 3, 24, 19
|39, 50, 0, 0, 0, 0, 0, 0, 0, 0, 0, 14, 8, 44, 0, 0, 0, 25, 0, 0, 0, 33, 19, 0, 48, 0, 0, 6, 0, 0, 0, 0, 0, 0, 0, 0, 28, 0, 49, 0, 9, 0, 12, 47, 31, 0, 0, 0, 0, 53, 1, 0, 37, 0, 45, 58, 46, 20, 0, 0, 0, 0, 0, 0
|2, 44, 0, 14, 0, 41, 27, 20, 0, 50, 0, 0, 0, 0, 31, 0, 0, 59, 39, 35, 56, 60, 0, 15, 12, 43, 0, 57, 0, 61, 0, 0, 21, 0, 0, 0, 0, 0, 42, 0, 0, 55, 25, 0, 29, 52, 58, 37, 0, 30, 0, 0, 0, 18, 0, 0, 36, 0, 0, 48, 0, 0, 13, 64
|16, 0, 0, 0, 0, 60, 31, 35, 48, 64, 0, 0, 0, 58, 0, 33, 20, 26, 30, 0, 0, 0, 3, 0, 2, 14, 39, 25, 0, 0, 10, 0, 0, 0, 0, 18, 8, 0, 0, 0, 63, 0, 24, 0, 0, 21, 5, 0, 22, 43, 0, 0, 0, 12, 0, 13, 42, 0, 49, 53, 38, 0, 0, 44
|19, 0, 51, 17, 6, 0, 26, 0, 10, 0, 0, 0, 0, 0, 43, 0, 0, 9, 0, 0, 45, 2, 22, 47, 0, 42, 1, 0, 0, 31, 18, 58, 14, 16, 0, 0, 41, 0, 57, 38, 23, 0, 0, 0, 60, 0, 0, 44, 8, 0, 33, 0, 62, 55, 24, 0, 0, 0, 0, 0, 32, 0, 0, 0
|0, 1, 0, 0, 57, 0, 12, 0, 30, 61, 2, 0, 45, 0, 3, 0, 0, 31, 0, 0, 10, 13, 14, 38, 0, 54, 0, 28, 0, 24, 0, 0, 0, 20, 33, 0, 0, 11, 37, 56, 4, 41, 0, 59, 18, 0, 7, 0, 0, 0, 17, 15, 0, 0, 32, 0, 60, 0, 0, 50, 22, 47, 0, 0
|0, 32, 0, 38, 37, 0, 15, 44, 61, 0, 0, 33, 0, 0, 10, 28, 34, 8, 0, 39, 1, 0, 0, 0, 17, 52, 0, 54, 0, 63, 23, 29, 59, 0, 0, 19, 58, 0, 0, 43, 0, 24, 13, 16, 0, 0, 53, 0, 57, 60, 14, 0, 0, 0, 0, 0, 47, 0, 26, 56, 0, 18, 30, 0
|0, 0, 0, 25, 0, 0, 0, 5, 0, 0, 63, 0, 0, 0, 0, 19, 17, 48, 0, 14, 0, 0, 0, 55, 49, 33, 16, 0, 62, 0, 20, 0, 0, 51, 18, 29, 54, 0, 60, 23, 46, 37, 64, 10, 0, 0, 32, 4, 0, 0, 2, 0, 53, 50, 0, 34, 12, 43, 0, 9, 57, 44, 58, 0
|55, 0, 0, 0, 21, 0, 0, 0, 25, 0, 0, 0, 18, 52, 0, 0, 0, 0, 19, 0, 0, 57, 56, 54, 38, 2, 43, 0, 50, 11, 41, 40, 0, 37, 46, 26, 0, 0, 0, 0, 1, 27, 0, 0, 44, 47, 63, 0, 20, 0, 0, 30, 0, 0, 33, 9, 0, 24, 0, 64, 49, 0, 0, 0
|0, 0, 0, 0, 22, 28, 0, 0, 54, 53, 16, 0, 1, 48, 0, 0, 0, 47, 0, 0, 38, 0, 0, 30, 0, 0, 6, 0, 31, 0, 0, 8, 32, 17, 0, 57, 14, 15, 0, 0, 35, 59, 51, 0, 3, 43, 39, 9, 0, 37, 27, 0, 12, 0, 0, 0, 55, 0, 0, 0, 41, 0, 29, 0
|0, 0, 7, 20, 0, 39, 0, 2, 26, 0, 0, 59, 0, 0, 0, 17, 51, 0, 50, 0, 52, 0, 0, 0, 37, 60, 9, 58, 12, 0, 0, 0, 34, 35, 0, 55, 22, 0, 1, 48, 0, 0, 0, 0, 0, 56, 31, 6, 0, 4, 46, 62, 0, 0, 0, 5, 0, 0, 3, 0, 28, 10, 0, 32
|6, 0, 0, 0, 0, 0, 0, 0, 4, 0, 46, 32, 55, 30, 60, 0, 43, 0, 0, 2, 61, 0, 5, 0, 13, 26, 47, 56, 19, 0, 0, 0, 44, 0, 0, 10, 0, 63, 11, 0, 48, 0, 0, 34, 0, 0, 15, 7, 25, 0, 23, 39, 51, 38, 0, 52, 0, 14, 0, 20, 53, 0, 0, 33
|0, 0, 1, 27, 0, 26, 41, 54, 0, 0, 0, 0, 0, 0, 0, 12, 0, 53, 10, 0, 0, 46, 20, 23, 0, 0, 48, 0, 0, 0, 0, 14, 0, 0, 0, 0, 0, 30, 0, 0, 0, 40, 0, 0, 19, 0, 62, 0, 0, 0, 21, 0, 0, 31, 0, 44, 39, 0, 0, 0, 59, 4, 51, 60
|0, 0, 18, 0, 0, 24, 0, 46, 15, 29, 0, 31, 0, 14, 0, 34, 0, 0, 0, 0, 58, 7, 44, 16, 51, 61, 0, 0, 22, 0, 53, 10, 0, 6, 0, 39, 4, 8, 0, 50, 11, 60, 0, 0, 0, 55, 0, 0, 49, 0, 32, 47, 0, 19, 0, 0, 38, 37, 1, 0, 0, 48, 40, 5
|22, 0, 0, 62, 0, 37, 0, 0, 2, 52, 59, 0, 0, 6, 46, 0, 0, 0, 28, 11, 33, 20, 23, 1, 0, 63, 0, 10, 0, 0, 0, 31, 0, 0, 29, 50, 64, 60, 24, 16, 36, 0, 49, 25, 0, 0, 0, 54, 15, 0, 0, 0, 55, 0, 17, 0, 35, 0, 51, 8, 0, 0, 12, 27
|0, 3, 0, 0, 17, 0, 0, 0, 47, 0, 0, 30, 57, 0, 0, 63, 46, 37, 2, 27, 0, 21, 39, 31, 7, 51, 42, 0, 0, 49, 0, 38, 0, 0, 62, 0, 32, 4, 0, 0, 52, 35, 0, 29, 0, 64, 44, 0, 48, 0, 8, 5, 1, 26, 13, 54, 28, 0, 10, 0, 0, 55, 0, 50
|18, 30, 24, 0, 5, 0, 6, 0, 0, 62, 37, 0, 64, 0, 9, 13, 12, 0, 38, 10, 0, 0, 0, 0, 50, 0, 28, 0, 0, 0, 48, 11, 0, 53, 41, 0, 0, 47, 0, 0, 0, 33, 45, 0, 0, 0, 21, 0, 29, 46, 51, 0, 58, 0, 3, 14, 0, 0, 0, 52, 61, 7, 0, 0
|56, 0, 0, 0, 0, 7, 0, 0, 35, 0, 40, 0, 28, 41, 17, 29, 18, 0, 3, 5, 0, 42, 51, 48, 57, 45, 44, 24, 47, 21, 64, 6, 0, 38, 43, 0, 33, 26, 8, 0, 0, 23, 11, 0, 10, 0, 55, 58, 0, 2, 62, 19, 0, 0, 53, 0, 0, 0, 0, 4, 0, 16, 0, 25
|0, 0, 0, 48, 0, 0, 42, 40, 0, 33, 4, 12, 44, 50, 0, 0, 0, 15, 0, 30, 0, 0, 0, 0, 35, 5, 20, 0, 29, 0, 0, 54, 0, 34, 0, 14, 0, 6, 0, 9, 0, 2, 0, 0, 0, 62, 24, 39, 45, 38, 41, 0, 0, 0, 16, 32, 21, 0, 0, 3, 11, 0, 0, 0
|0, 52, 46, 0, 0, 0, 0, 38, 20, 48, 18, 0, 0, 0, 0, 0, 0, 0, 0, 6, 0, 0, 0, 0, 0, 55, 34, 0, 0, 0, 0, 0, 0, 0, 54, 0, 0, 0, 0, 0, 3, 0, 4, 0, 8, 0, 0, 0, 0, 49, 61, 0, 31, 0, 9, 0, 0, 57, 62, 0, 24, 0, 2, 42
|47, 8, 21, 0, 34, 51, 58, 0, 0, 14, 23, 0, 10, 31, 0, 54, 16, 0, 0, 44, 63, 0, 0, 50, 62, 25, 0, 43, 0, 0, 4, 46, 11, 0, 0, 0, 0, 5, 0, 52, 42, 56, 0, 0, 41, 28, 0, 26, 0, 18, 0, 59, 0, 0, 40, 0, 20, 33, 0, 0, 1, 0, 0, 38
|54, 31, 0, 28, 11, 0, 2, 0, 0, 38, 0, 0, 0, 42, 19, 51, 57, 4, 0, 0, 34, 49, 62, 29, 27, 1, 0, 12, 59, 41, 37, 9, 0, 25, 0, 0, 0, 48, 0, 0, 18, 0, 0, 0, 0, 6, 14, 47, 50, 64, 0, 10, 0, 43, 20, 0, 63, 45, 53, 36, 60, 13, 0, 0
|30, 55, 0, 10, 0, 0, 49, 64, 0, 28, 0, 0, 51, 45, 0, 60, 37, 3, 0, 23, 5, 44, 0, 7, 11, 0, 0, 41, 32, 26, 17, 43, 16, 0, 8, 24, 0, 0, 0, 18, 0, 0, 56, 0, 0, 0, 0, 0, 0, 22, 0, 0, 34, 0, 63, 57, 19, 36, 0, 40, 35, 0, 0, 0
|0, 0, 0, 60, 0, 0, 0, 32, 52, 7, 17, 41, 0, 0, 0, 0, 0, 0, 11, 54, 53, 0, 8, 56, 0, 0, 0, 46, 0, 15, 19, 0, 27, 0, 57, 0, 48, 0, 51, 0, 0, 45, 0, 0, 12, 0, 6, 5, 21, 0, 55, 50, 44, 0, 0, 0, 10, 29, 14, 0, 0, 37, 0, 0
|0, 0, 14, 45, 27, 0, 0, 25, 0, 10, 0, 0, 0, 56, 49, 0, 0, 17, 59, 12, 0, 0, 29, 0, 0, 62, 0, 60, 39, 9, 0, 55, 0, 0, 11, 0, 0, 0, 0, 0, 44, 0, 0, 0, 0, 0, 0, 0, 0, 0, 0, 0, 43, 0, 64, 0, 0, 0, 0, 23, 0, 63, 0, 0
|15, 0, 44, 0, 0, 2, 16, 0, 0, 57, 36, 0, 0, 0, 61, 0, 0, 32, 0, 0, 0, 24, 52, 0, 53, 12, 33, 0, 0, 42, 5, 0, 29, 0, 0, 64, 0, 41, 0, 0, 10, 58, 54, 0, 47, 0, 59, 0, 0, 0, 0, 0, 40, 0, 37, 23, 0, 55, 11, 34, 0, 27, 22, 0
|0, 0, 39, 0, 0, 23, 0, 0, 5, 0, 31, 0, 59, 55, 0, 4, 22, 61, 0, 0, 0, 0, 0, 0, 44, 0, 27, 3, 0, 36, 0, 0, 0, 0, 0, 9, 0, 0, 0, 26, 0, 19, 0, 32, 51, 0, 25, 0, 0, 45, 48, 0, 0, 0, 11, 46, 57, 0, 52, 12, 0, 0, 16, 58
|0, 0, 62, 13, 3, 61, 29, 37, 11, 0, 9, 0, 0, 8, 44, 0, 64, 35, 4, 41, 42, 0, 2, 0, 0, 0, 0, 0, 0, 0, 0, 45, 15, 1, 0, 0, 55, 0, 0, 0, 0, 0, 0, 63, 21, 0, 34, 53, 33, 14, 0, 0, 0, 39, 49, 0, 0, 46, 20, 5, 0, 56, 18, 43
|28, 0, 5, 0, 46, 0, 0, 0, 0, 43, 1, 0, 0, 33, 12, 3, 0, 0, 0, 16, 0, 51, 31, 14, 63, 56, 64, 35, 6, 7, 61, 57, 53, 22, 37, 4, 34, 0, 0, 0, 0, 11, 0, 55, 9, 0, 0, 0, 0, 52, 0, 24, 32, 0, 0, 20, 41, 0, 44, 25, 45, 42, 17, 21
|9, 0, 0, 41, 0, 0, 7, 1, 32, 0, 0, 23, 0, 2, 27, 14, 48, 0, 62, 57, 0, 0, 0, 0, 0, 10, 0, 0, 0, 34, 0, 0, 52, 0, 44, 35, 45, 20, 0, 12, 30, 64, 0, 0, 38, 0, 0, 33, 0, 3, 0, 8, 0, 0, 0, 31, 15, 0, 0, 0, 0, 54, 60, 53|];