order = 8;
grid = [|22, 0, 36, 0, 0, 0, 21, 29, 0, 0, 2, 25, 43, 0, 0, 45, 0, 15, 4, 33, 0, 61, 0, 0, 46, 0, 19, 59, 0, 0, 0, 54, 49, 0, 48, 26, 0, 0, 0, 38, 23, 18, 1, 63, 0, 0, 0, 0, 42, 0, 0, 62, 30, 41, 0, 27, 5, 47, 0, 0, 0, 51, 0, 64
|1, 9, 4, 0, 0, 23, 0, 0, 28, 64, 0, 0, 0, 46, 47, 12, 22, 25, 27, 0, 0, 52, 39, 0, 3, 0, 50, 45, 58, 0, 11, 24, 0, 15, 0, 0, 7, 0, 34, 0, 0, 0, 0, 8, 51, 0, 0, 49, 48, 26, 21, 0, 0, 57, 36, 0, 20, 61, 0, 37, 16, 0, 6, 32
|0, 0, 0, 0, 0, 0, 0, 0, 0, 14, 4, 0, 55, 0, 0, 0, 31, 0, 13, 57, 0, 59, 58, 17, 25, 21, 49, 0, 0, 60, 0, 28, 5, 41, 1, 20, 0, 0, 50, 27, 36, 37, 0, 0, 0, 0, 29, 22, 44, 32, 39, 19, 12, 0, 63, 47, 0, 3, 7, 53, 48, 0, 0, 15
|0, 34, 0, 49, 0, 39, 58, 62, 0, 57, 5, 15, 0, 23, 44, 0, 55, 0, 0, 0, 3, 0, 46, 0, 0, 0, 0, 0, 61, 0, 41, 0, 0, 8, 0, 16, 0, 18, 0, 36, 12, 47, 0, 0, 64, 0, 26, 0, 0, 28, 4, 0, 0, 2, 0, 0, 0, 29, 0, 63, 0, 0, 0, 0
|5, 0, 0, 45, 0, 0, 0, 0, 0, 32, 48, 0, 1, 0, 30, 0, 0, 0, 0, 0, 0, 63, 11, 21, 15, 0, 0, 38, 0, 26, 0, 0, 3, 44, 0, 0, 42, 59, 2, 0, 6, 0, 0, 0, 0, 41, 58, 13, 0, 0, 0, 29, 0, 0, 0, 24, 0, 34, 46, 23, 0, 0, 0, 18
|10, 15, 63, 14, 0, 0, 0, 0, 26, 7, 0, 0, 52, 0, 0, 11, 0, 6, 8, 0, 29, 0, 0, 44, 0, 23, 36, 9, 0, 62, 0, 42, 25, 40, 57, 0, 0, 19, 0, 30, 21, 27, 0, 0, 0, 0, 0, 33, 0, 0, 0, 0, 0, 0, 16, 0, 2, 0, 59, 41, 0, 0, 12, 0
|0, 46, 0, 16, 11, 19, 3, 0, 29, 63, 0, 22, 0, 21, 35, 41, 0, 1, 64, 0, 45, 48, 23, 0, 0, 0, 0, 51, 0, 0, 43, 17, 58, 0, 0, 61, 31, 4, 6, 0, 39, 24, 0, 0, 15, 0, 28, 9, 5, 25, 0, 52, 0, 0, 14, 38, 0, 0, 0, 30, 0, 60, 0, 0
|0, 52, 33, 44, 0, 8, 0, 0, 0, 6, 39, 0, 53, 31, 56, 18, 50, 32, 19, 0, 0, 12, 16, 49, 57, 7, 63, 13, 4, 27, 0, 0, 54, 17, 11, 0, 35, 0, 64, 0, 0, 42, 0, 20, 0, 0, 0, 0, 0, 3, 0, 0, 0, 9, 0, 46, 24, 0, 0, 45, 38, 0, 0, 21
|0, 12, 41, 0, 0, 59, 47, 10, 0, 0, 26, 14, 0, 8, 0, 3, 0, 9, 0, 56, 15, 11, 45, 60, 50, 13, 21, 36, 0, 29, 52, 40, 17, 5, 0, 0, 0, 0, 54, 34, 0, 0, 49, 53, 0, 43, 42, 2, 0, 51, 24, 35, 64, 63, 18, 4, 25, 0, 37, 0, 0, 0, 48, 33
|0, 0, 15, 0, 0, 16, 0, 36, 0, 0, 0, 39, 61, 0, 38, 0, 0, 0, 0, 0, 52, 0, 0, 0, 20, 4, 0, 30, 0, 0, 28, 37, 26, 46, 0, 27, 0, 0, 13, 23, 0, 0, 0, 0, 21, 11, 63, 55, 0, 0, 0, 53, 0, 0, 0, 0, 0, 0, 6, 35, 0, 19, 0, 10
|0, 24, 17, 1, 0, 22, 54, 63, 0, 0, 44, 32, 0, 10, 37, 43, 0, 50, 5, 0, 0, 0, 8, 35, 0, 34, 0, 47, 0, 58, 53, 18, 0, 0, 36, 0, 28, 0, 49, 0, 13, 30, 25, 0, 23, 0, 0, 15, 0, 56, 0, 16, 0, 0, 0, 57, 0, 38, 42, 61, 0, 29, 0, 9
|56, 14, 0, 55, 0, 0, 0, 0, 0, 36, 0, 60, 51, 0, 13, 1, 0, 0, 39, 29, 4, 18, 0, 25, 0, 35, 0, 63, 43, 15, 19, 59, 21, 62, 30, 41, 0, 33, 0, 0, 9, 0, 0, 37, 0, 0, 64, 50, 49, 0, 0, 0, 0, 6, 0, 42, 7, 16, 0, 0, 0, 0, 0, 23
|0, 2, 8, 0, 40, 43, 49, 21, 0, 0, 0, 56, 0, 18, 0, 28, 1, 0, 0, 0, 0, 0, 19, 0, 0, 0, 42, 0, 25, 22, 3, 45, 47, 24, 0, 0, 0, 50, 4, 51, 0, 29, 58, 36, 7, 35, 16, 54, 62, 0, 10, 15, 31, 30, 26, 17, 0, 0, 52, 34, 0, 46, 64, 5
|0, 19, 0, 0, 0, 5, 35, 0, 24, 45, 0, 0, 15, 62, 0, 0, 54, 36, 0, 0, 55, 0, 0, 63, 0, 56, 33, 2, 44, 0, 10, 0, 0, 53, 0, 0, 16, 0, 60, 58, 0, 41, 0, 61, 8, 18, 0, 1, 46, 0, 0, 0, 34, 21, 0, 7, 51, 22, 4, 0, 50, 26, 0, 0
|0, 58, 60, 0, 64, 4, 0, 50, 17, 22, 53, 42, 0, 0, 20, 46, 49, 0, 0, 0, 41, 0, 26, 0, 23, 57, 39, 0, 0, 0, 14, 27, 9, 2, 0, 35, 3, 0, 31, 0, 0, 56, 0, 0, 32, 6, 0, 0, 29, 0, 0, 45, 11, 55, 61, 1, 0, 40, 44, 62, 43, 0, 30, 13
|0, 0, 53, 7, 32, 0, 0, 28, 0, 0, 0, 0, 0, 4, 52, 0, 0, 46, 34, 0, 13, 31, 17, 0, 0, 24, 0, 0, 0, 0, 0, 0, 0, 19, 0, 0, 0, 15, 0, 42, 0, 40, 45, 0, 0, 33, 39, 0, 9, 0, 0, 0, 0, 0, 59, 43, 1, 58, 0, 0, 0, 8, 63, 2
|0, 0, 21, 32, 20, 0, 53, 0, 43, 58, 24, 1, 0, 0, 0, 0, 2, 0, 12, 4, 0, 0, 18, 0, 0, 0, 11, 0, 30, 0, 0, 0, 13, 0, 0, 57, 0, 31, 16, 15, 37, 26, 41, 0, 14, 0, 0, 59, 0, 0, 17, 34, 0, 0, 8, 61, 62, 10, 0, 64, 0, 0, 28, 46
|63, 0, 6, 51, 0, 1, 0, 0, 15, 0, 0, 0, 0, 12, 0, 40, 9, 27, 0, 0, 0, 0, 13, 0, 34, 0, 3, 0, 0, 37, 0, 0, 0, 0, 53, 5, 0, 0, 23, 10, 43, 4, 0, 0, 62, 55, 11, 46, 0, 30, 33, 44, 0, 26, 0, 0, 54, 0, 0, 0, 0, 2, 24, 17
|55, 0, 2, 18, 54, 0, 9, 0, 0, 0, 16, 0, 30, 0, 64, 57, 0, 0, 42, 28, 0, 36, 50, 37, 13, 0, 0, 0, 23, 12, 27, 0, 44, 6, 0, 58, 56, 48, 0, 0, 0, 0, 51, 0, 24, 0, 0, 35, 31, 41, 52, 21, 29, 59, 53, 49, 45, 19, 5, 0, 7, 61, 22, 40
|0, 59, 49, 0, 0, 0, 22, 56, 0, 62, 0, 17, 0, 0, 5, 0, 35, 0, 0, 0, 8, 26, 15, 0, 63, 0, 16, 0, 0, 33, 0, 52, 29, 54, 0, 21, 37, 0, 0, 0, 25, 19, 0, 44, 0, 58, 0, 0, 0, 0, 0, 0, 0, 11, 20, 0, 0, 55, 27, 47, 0, 3, 0, 0
|24, 0, 0, 19, 0, 35, 0, 0, 33, 0, 0, 4, 0, 0, 54, 56, 29, 0, 0, 25, 0, 0, 0, 0, 0, 26, 51, 57, 42, 0, 0, 0, 50, 0, 0, 0, 12, 39, 1, 0, 0, 49, 0, 2, 0, 0, 61, 0, 0, 0, 0, 0, 0, 0, 6, 0, 60, 14, 0, 31, 0, 23, 0, 34
|0, 16, 0, 38, 37, 0, 0, 58, 32, 0, 7, 0, 2, 22, 45, 0, 60, 64, 57, 0, 51, 24, 21, 23, 31, 0, 0, 6, 17, 49, 0, 1, 55, 0, 8, 0, 0, 41, 0, 0, 0, 0, 3, 40, 53, 5, 54, 48, 0, 43, 12, 0, 63, 13, 0, 0, 33, 26, 35, 0, 36, 39, 0, 0
|0, 43, 34, 0, 50, 0, 23, 7, 0, 0, 18, 0, 39, 36, 55, 0, 0, 22, 0, 0, 0, 1, 0, 0, 0, 0, 29, 0, 19, 25, 4, 9, 24, 0, 28, 0, 0, 62, 0, 2, 31, 12, 0, 21, 47, 0, 33, 0, 0, 0, 0, 0, 48, 35, 27, 0, 16, 0, 0, 58, 0, 15, 37, 0
|0, 0, 62, 15, 0, 28, 60, 31, 35, 61, 0, 0, 0, 0, 0, 0, 0, 53, 54, 0, 0, 47, 0, 0, 59, 41, 10, 0, 0, 21, 46, 14, 0, 0, 7, 0, 0, 0, 0, 0, 0, 0, 13, 0, 45, 0, 0, 0, 58, 38, 0, 0, 0, 0, 0, 40, 0, 0, 43, 8, 0, 57, 44, 0
|0, 0, 0, 0, 16, 0, 2, 12, 8, 0, 0, 49, 0, 0, 19, 0, 13, 0, 0, 0, 62, 14, 38, 52, 0, 28, 41, 0, 0, 0, 61, 35, 39, 51, 22, 0, 0, 57, 0, 0, 55, 0, 15, 29, 33, 30, 18, 0, 43, 0, 1, 50, 0, 0, 21, 0, 0, 0, 9, 0, 23, 7, 40, 54
|0, 6, 0, 28, 58, 0, 29, 35, 39, 30, 0, 37, 57, 0, 0, 61, 25, 47, 0, 43, 0, 0, 1, 0, 45, 20, 8, 14, 0, 36, 0, 46, 10, 0, 0, 59, 19, 0, 0, 0, 38, 32, 0, 54, 0, 0, 0, 52, 0, 5, 60, 17, 9, 0, 0, 0, 0, 0, 0, 0, 0, 0, 2, 0
|41, 0, 64, 0, 0, 0, 39, 0, 0, 13, 12, 31, 0, 0, 14, 50, 51, 40, 26, 55, 0, 46, 36, 0, 4, 58, 9, 0, 0, 56, 42, 44, 1, 27, 0, 17, 0, 0, 0, 16, 60, 0, 19, 0, 0, 0, 53, 0, 0, 52, 0, 0, 0, 0, 2, 48, 8, 37, 18, 0, 0, 0, 59, 20
|0, 11, 45, 0, 59, 42, 0, 0, 22, 0, 0, 0, 63, 16, 29, 55, 0, 0, 0, 0, 0, 0, 12, 8, 43, 39, 24, 0, 0, 0, 38, 7, 0, 33, 0, 0, 36, 64, 18, 9, 4, 0, 35, 0, 46, 37, 56, 5, 26, 0, 28, 0, 58, 40, 15, 41, 32, 30, 62, 0, 0, 31, 57, 47
|17, 0, 0, 0, 0, 55, 1, 13, 40, 52, 0, 33, 0, 6, 2, 0, 0, 0, 0, 30, 21, 0, 0, 45, 16, 0, 18, 0, 15, 3, 60, 63, 0, 20, 25, 4, 47, 34, 38, 31, 62, 0, 43, 0, 50, 0, 9, 11, 19, 0, 0, 61, 0, 51, 0, 0, 64, 0, 0, 14, 0, 24, 0, 58
|4, 0, 0, 0, 0, 0, 0, 0, 0, 23, 0, 26, 0, 0, 25, 0, 0, 0, 33, 39, 58, 0, 28, 32, 10, 0, 59, 0, 0, 0, 30, 53, 14, 0, 41, 54, 0, 55, 0, 63, 2, 17, 40, 0, 0, 0, 0, 3, 18, 0, 0, 47, 38, 0, 7, 62, 0, 0, 0, 51, 0, 0, 15, 0
|0, 0, 0, 30, 0, 57, 52, 0, 47, 0, 0, 34, 56, 60, 0, 27, 15, 16, 0, 63, 0, 19, 35, 64, 0, 11, 0, 21, 40, 2, 51, 0, 0, 0, 0, 0, 49, 37, 0, 7, 0, 39, 0, 0, 0, 0, 24, 0, 53, 0, 0, 0, 25, 12, 54, 0, 0, 0, 10, 38, 0, 1, 0, 0
|0, 0, 3, 0, 0, 0, 40, 9, 0, 0, 0, 10, 0, 0, 0, 20, 0, 0, 59, 0, 0, 0, 5, 0, 33, 19, 0, 54, 0, 23, 0, 25, 0, 0, 60, 15, 53, 30, 42, 0, 0, 21, 27, 57, 0, 0, 51, 0, 0, 0, 34, 0, 0, 37, 45, 16, 0, 0, 26, 36, 0, 0, 0, 0
|50, 0, 0, 0, 0, 0, 5, 2, 0, 24, 13, 0, 6, 0, 36, 0, 30, 39, 55, 41, 0, 37, 48, 34, 0, 0, 0, 0, 21, 40, 0, 0, 0, 0, 51, 0, 14, 46, 0, 8, 0, 0, 0, 0, 0, 53, 0, 0, 0, 0, 0, 0, 54, 22, 32, 0, 52, 0, 17, 0, 10, 47, 43, 0
|0, 57, 55, 33, 0, 13, 0, 45, 46, 0, 49, 0, 0, 0, 32, 38, 64, 0, 61, 0, 0, 25, 40, 31, 36, 0, 0, 29, 22, 8, 47, 0, 0, 0, 0, 30, 0, 0, 41, 0, 50, 54, 9, 0, 35, 23, 44, 0, 63, 62, 0, 0, 0, 10, 0, 52, 0, 0, 14, 0, 0, 0, 53, 16
|54, 0, 0, 0, 0, 0, 0, 11, 63, 0, 55, 30, 26, 15, 0, 9, 0, 0, 43, 0, 0, 0, 0, 0, 0, 17, 32, 56, 37, 0, 0, 0, 36, 10, 23, 0, 64, 0, 21, 22, 0, 0, 62, 0, 12, 0, 8, 51, 34, 29, 0, 0, 0, 53, 42, 0, 38, 45, 0, 0, 0, 0, 35, 6
|0, 64, 7, 0, 43, 0, 0, 0, 42, 0, 0, 0, 0, 0, 22, 0, 0, 5, 0, 0, 11, 0, 44, 0, 0, 14, 13, 0, 0, 59, 0, 15, 56, 0, 0, 0, 4, 12, 35, 24, 17, 0, 0, 0, 0, 47, 0, 37, 3, 0, 16, 0, 0, 0, 41, 51, 0, 49, 0, 29, 0, 0, 1, 0
|38, 23, 46, 29, 0, 60, 0, 0, 18, 0, 0, 0, 0, 2, 0, 58, 56, 0, 0, 0, 0, 3, 0, 36, 0, 0, 54, 10, 24, 0, 64, 61, 0, 32, 0, 0, 0, 25, 5, 0, 0, 13, 39, 0, 11, 31, 0, 0, 47, 0, 30, 0, 0, 0, 0, 0, 0, 63, 0, 0, 0, 0, 0, 0
|0, 0, 32, 0, 0, 10, 6, 0, 57, 0, 35, 0, 0, 0, 43, 21, 0, 54, 0, 38, 24, 8, 0, 12, 0, 45, 5, 58, 33, 0, 0, 0, 53, 0, 37, 9, 50, 60, 0, 17, 0, 0, 0, 0, 0, 0, 0, 16, 55, 4, 23, 0, 0, 28, 46, 64, 0, 31, 15, 0, 11, 0, 20, 0
|35, 1, 0, 58, 0, 48, 0, 0, 0, 0, 14, 50, 0, 0, 11, 31, 18, 0, 63, 0, 0, 0, 49, 29, 53, 60, 0, 0, 0, 44, 9, 39, 42, 0, 38, 0, 0, 54, 40, 47, 0, 0, 0, 0, 5, 0, 55, 0, 24, 0, 15, 6, 0, 33, 37, 0, 36, 25, 61, 0, 8, 64, 0, 62
|0, 41, 37, 0, 24, 61, 63, 0, 0, 0, 0, 5, 0, 0, 0, 0, 4, 57, 0, 0, 1, 0, 47, 51, 0, 0, 20, 0, 0, 46, 6, 0, 0, 31, 33, 11, 43, 16, 0, 26, 0, 38, 64, 32, 0, 0, 0, 34, 0, 0, 0, 49, 13, 8, 0, 44, 0, 0, 0, 0, 54, 0, 58, 0
|0, 49, 0, 0, 0, 0, 12, 52, 0, 21, 42, 24, 3, 34, 0, 0, 0, 0, 0, 0, 0, 20, 0, 53, 17, 0, 0, 27, 14, 61, 0, 0, 41, 0, 0, 0, 0, 0, 19, 0, 0, 28, 63, 0, 0, 0, 0, 39, 0, 50, 0, 0, 0, 0, 0, 0, 26, 0, 0, 54, 0, 38, 23, 0
|0, 60, 54, 0, 0, 25, 0, 0, 0, 26, 0, 55, 0, 9, 63, 0, 0, 35, 50, 59, 0, 6, 0, 0, 0, 38, 40, 20, 3, 0, 16, 12, 0, 0, 46, 31, 0, 0, 53, 0, 7, 33, 0, 0, 0, 0, 0, 24, 45, 0, 48, 0, 0, 0, 0, 0, 0, 36, 0, 0, 0, 0, 41, 52
|0, 48, 0, 9, 45, 44, 0, 0, 0, 0, 0, 53, 46, 38, 0, 0, 0, 0, 18, 0, 31, 0, 41, 0, 0, 0, 0, 33, 0, 28, 37, 0, 35, 30, 14, 0, 0, 52, 63, 64, 0, 20, 0, 0, 29, 26, 4, 58, 0, 15, 0, 12, 16, 0, 0, 21, 3, 0, 11, 0, 0, 0, 0, 0
|0, 51, 0, 37, 2, 0, 0, 0, 0, 35, 0, 27, 8, 14, 58, 39, 34, 0, 48, 0, 25, 60, 54, 0, 0, 0, 0, 42, 41, 0, 21, 64, 0, 0, 4, 0, 33, 0, 0, 50, 0, 11, 12, 46, 10, 40, 0, 53, 28, 0, 0, 31, 0, 61, 0, 0, 57, 62, 0, 6, 0, 63, 16, 0
|0, 0, 0, 0, 0, 34, 41, 46, 45, 20, 0, 0, 59, 28, 0, 5, 63, 0, 0, 15, 0, 39, 4, 0, 0, 54, 44, 52, 50, 0, 31, 0, 27, 0, 0, 0, 0, 0, 0, 0, 0, 0, 6, 64, 0, 17, 48, 0, 0, 0, 0, 0, 0, 36, 35, 0, 40, 60, 0, 43, 0, 0, 18, 0
|40, 31, 30, 26, 6, 0, 0, 0, 7, 60, 0, 36, 41, 29, 0, 0, 0, 3, 24, 0, 0, 45, 0, 0, 0, 0, 43, 35, 0, 1, 0, 4, 0, 0, 59, 0, 0, 0, 17, 0, 5, 34, 0, 55, 0, 0, 15, 0, 52, 19, 62, 0, 0, 54, 38, 33, 0, 0, 0, 0, 0, 0, 0, 61
|0, 0, 0, 63, 0, 0, 11, 0, 0, 0, 0, 0, 0, 0, 57, 0, 0, 10, 38, 58, 2, 0, 62, 26, 5, 15, 0, 0, 0, 32, 0, 51, 0, 7, 34, 0, 40, 36, 3, 0, 45, 59, 42, 0, 0, 0, 41, 0, 0, 1, 0, 24, 0, 49, 55, 30, 17, 0, 0, 33, 0, 48, 46, 0
|42, 0, 59, 24, 56, 58, 0, 3, 6, 18, 0, 48, 0, 30, 0, 52, 0, 0, 21, 12, 0, 0, 0, 13, 47, 62, 57, 0, 36, 53, 7, 0, 38, 26, 0, 37, 54, 0, 51, 0, 0, 60, 0, 25, 43, 16, 0, 0, 0, 44, 0, 0, 0, 46, 0, 39, 31, 0, 0, 0, 15, 20, 45, 27
|0, 30, 56, 0, 13, 15, 27, 0, 0, 0, 10, 0, 7, 55, 61, 26, 3, 60, 0, 1, 43, 58, 6, 0, 0, 51, 34, 12, 45, 41, 2, 0, 0, 22, 44, 0, 0, 0, 0, 53, 33, 0, 0, 31, 0, 0, 46, 64, 0, 0, 0, 0, 0, 0, 11, 0, 18, 50, 0, 28, 0, 0, 0, 49
|3, 53, 9, 0, 0, 0, 0, 64, 0, 0, 8, 2, 5, 0, 0, 0, 21, 31, 11, 26, 56, 55, 51, 59, 37, 0, 60, 25, 0, 0, 33, 0, 0, 4, 0, 0, 0, 61, 0, 32, 0, 0, 0, 0, 44, 38, 30, 0, 0, 58, 0, 0, 0, 0, 0, 0, 0, 0, 0, 22, 0, 0, 7, 0
|0, 0, 14, 0, 0, 0, 42, 17, 59, 0, 64, 0, 36, 13, 0, 47, 0, 37, 0, 54, 0, 0, 0, 15, 0, 0, 26, 4, 6, 39, 49, 19, 0, 50, 12, 0, 30, 35, 20, 25, 40, 16, 22, 1, 55, 0, 62, 0, 0, 0, 0, 0, 0, 0, 5, 34, 58, 32, 0, 0, 0, 0, 56, 0
|0, 10, 1, 0, 26, 41, 20, 23, 25, 0, 56, 46, 18, 0, 21, 51, 0, 0, 0, 50, 0, 0, 30, 42, 0, 0, 0, 0, 8, 0, 32, 13, 40, 43, 29, 63, 57, 11, 0, 5, 0, 0, 2, 19, 4, 0, 12, 0, 6, 47, 0, 7, 0, 0, 0, 0, 0, 39, 34, 60, 44, 62, 61, 53
|51, 7, 28, 50, 0, 0, 43, 0, 0, 0, 0, 0, 38, 0, 48, 34, 0, 29, 32, 20, 19, 22, 27, 0, 0, 61, 0, 0, 16, 0, 0, 0, 64, 42, 26, 0, 23, 21, 47, 0, 11, 0, 5, 39, 0, 0, 25, 0, 0, 12, 9, 0, 3, 18, 0, 0, 46, 52, 30, 0, 35, 37, 14, 57
|19, 55, 0, 60, 0, 49, 0, 22, 0, 0, 50, 0, 4, 20, 12, 42, 0, 13, 47, 34, 39, 0, 0, 62, 0, 53, 23, 44, 64, 57, 63, 5, 16, 3, 54, 0, 0, 0, 0, 0, 0, 48, 0, 17, 0, 0, 43, 26, 0, 40, 46, 59, 0, 0, 0, 0, 0, 0, 0, 0, 0, 0, 0, 0
|0, 47, 0, 0, 57, 0, 4, 0, 0, 0, 6, 35, 0, 0, 60, 0, 0, 0, 0, 0, 0, 10, 61, 38, 0, 0, 0, 11, 0, 0, 50, 21, 31, 0, 0, 1, 0, 58, 0, 41, 42, 3, 37, 0, 0, 0, 59, 18, 13, 0, 0, 0, 0, 0, 0, 0, 0, 0, 2, 19, 26, 0, 51, 0
|0, 37, 0, 0, 46, 29, 0, 0, 52, 1, 33, 0, 0, 57, 0, 0, 40, 8, 0, 23, 12, 44, 0, 0, 48, 0, 58, 0, 59, 0, 62, 0, 0, 0, 10, 49, 0, 9, 0, 0, 47, 7, 0, 41, 60, 15, 0, 45, 0, 0, 55, 0, 26, 19, 0, 63, 0, 42, 0, 0, 0, 0, 0, 11
|26, 21, 0, 35, 36, 37, 28, 0, 11, 0, 27, 0, 0, 33, 62, 0, 0, 55, 0, 0, 7, 30, 56, 39, 58, 0, 0, 0, 0, 54, 13, 41, 57, 0, 24, 19, 15, 17, 0, 49, 16, 1, 10, 59, 0, 60, 0, 47, 20, 8, 5, 0, 43, 3, 0, 0, 0, 0, 25, 50, 2, 0, 34, 14
|9, 50, 13, 10, 61, 12, 0, 0, 4, 0, 0, 0, 0, 0, 0, 15, 0, 0, 0, 21, 0, 0, 0, 0, 60, 33, 53, 46, 0, 19, 59, 0, 62, 14, 31, 47, 25, 2, 45, 0, 0, 22, 17, 0, 0, 0, 0, 0, 0, 0, 0, 0, 55, 48, 0, 6, 11, 0, 23, 52, 0, 44, 27, 39
|57, 63, 0, 0, 19, 0, 56, 0, 0, 0, 0, 18, 0, 45, 0, 24, 0, 49, 35, 11, 27, 0, 60, 22, 29, 52, 0, 16, 31, 0, 39, 0, 30, 38, 3, 43, 59, 0, 26, 0, 61, 0, 33, 5, 9, 0, 0, 0, 2, 0, 0, 58, 28, 0, 12, 0, 0, 0, 0, 20, 1, 0, 0, 41
|11, 0, 0, 23, 0, 0, 0, 34, 0, 0, 0, 0, 0, 0, 0, 0, 12, 19, 0, 0, 0, 0, 25, 0, 24, 63, 0, 0, 0, 51, 45, 0, 0, 0, 42, 0, 0, 0, 0, 0, 0, 0, 0, 0, 26, 39, 37, 7, 36, 0, 41, 32, 46, 0, 0, 0, 0, 33, 0, 0, 0, 0, 10, 0
|16, 8, 39, 59, 1, 33, 7, 14, 0, 48, 0, 52, 0, 63, 0, 6, 17, 0, 45, 40, 50, 38, 31, 0, 0, 55, 2, 32, 9, 11, 0, 0, 0, 18, 64, 36, 46, 0, 0, 0, 0, 51, 0, 0, 0, 12, 0, 0, 0, 0, 0, 0, 24, 0, 0, 0, 61, 0, 0, 13, 4, 0, 26, 0
|0, 45, 0, 0, 5, 0, 0, 0, 30, 12, 61, 0, 0, 0, 8, 0, 0, 26, 52, 0, 0, 0, 0, 10, 1, 37, 7, 0, 20, 35, 56, 3, 0, 39, 0, 0, 0, 27, 55, 0, 0, 0, 28, 13, 57, 19, 0, 25, 16, 21, 0, 11, 0, 0, 31, 54, 0, 0, 0, 18, 17, 0, 0, 0
|0, 0, 0, 4, 0, 62, 0, 44, 0, 0, 0, 23, 13, 39, 26, 0, 37, 33, 0, 3, 0, 41, 2, 0, 0, 0, 14, 0, 49, 34, 0, 0, 0, 11, 16, 0, 5, 0, 0, 0, 0, 0, 0, 0, 18, 0, 21, 38, 17, 0, 56, 0, 0, 50, 64, 0, 47, 0, 0, 15, 0, 59, 0, 19
|49, 18, 27, 3, 0, 6, 31, 51, 0, 0, 0, 0, 0, 1, 16, 19, 0, 24, 0, 0, 0, 0, 0, 0, 21, 12, 0, 26, 47, 0, 15, 30, 0, 34, 0, 50, 41, 13, 61, 4, 0, 36, 0, 0, 56, 0, 0, 0, 0, 45, 0, 33, 53, 39, 0, 0, 37, 7, 60, 0, 46, 0, 62, 0|];