order = 8;
grid = [|25, 0, 40, 0, 0, 38, 0, 23, 37, 20, 31, 0, 61, 0, 12, 0, 0, 3, 0, 45, 0, 0, 0, 0, 0, 0, 0, 44, 0, 5, 29, 0, 0, 47, 0, 0, 56, 0, 27, 0, 35, 0, 49, 6, 0, 41, 0, 0, 39, 22, 58, 0, 55, 0, 26, 16, 2, 0, 19, 18, 0, 36, 34, 63
|0, 0, 0, 32, 7, 0, 0, 54, 50, 6, 0, 33, 55, 29, 0, 0, 0, 0, 46, 0, 1, 43, 0, 0, 48, 25, 62, 0, 14, 0, 19, 0, 60, 0, 61, 63, 22, 0, 0, 0, 0, 52, 0, 27, 0, 0, 0, 57, 0, 0, 17, 0, 20, 0, 40, 0, 15, 0, 59, 38, 42, 3, 58, 45
|0, 36, 0, 0, 15, 46, 58, 0, 0, 48, 0, 25, 0, 0, 11, 7, 0, 52, 54, 0, 44, 0, 40, 63, 59, 42, 0, 0, 31, 20, 0, 0, 0, 33, 0, 0, 0, 0, 32, 0, 0, 18, 0, 0, 0, 39, 0, 2, 64, 27, 14, 0, 5, 37, 1, 0, 61, 0, 0, 0, 0, 0, 22, 9
|0, 0, 39, 11, 0, 0, 22, 26, 0, 62, 0, 0, 38, 0, 0, 0, 0, 0, 41, 0, 0, 17, 13, 2, 0, 4, 0, 18, 0, 0, 32, 0, 0, 0, 55, 54, 30, 36, 42, 37, 0, 46, 0, 0, 0, 0, 33, 34, 31, 25, 0, 8, 60, 23, 59, 0, 0, 0, 64, 7, 0, 57, 1, 47
|0, 4, 0, 0, 57, 0, 0, 8, 0, 63, 0, 0, 18, 32, 0, 64, 33, 0, 31, 0, 27, 24, 16, 0, 39, 7, 60, 0, 0, 43, 55, 35, 0, 0, 11, 0, 0, 0, 0, 0, 53, 0, 0, 61, 0, 0, 56, 0, 0, 38, 36, 0, 0, 0, 45, 0, 29, 0, 0, 0, 0, 0, 0, 44
|37, 0, 12, 0, 0, 0, 27, 0, 28, 57, 0, 0, 0, 42, 47, 26, 0, 36, 0, 8, 58, 9, 25, 0, 0, 0, 53, 0, 0, 17, 49, 46, 0, 19, 0, 40, 0, 0, 18, 0, 0, 63, 59, 0, 38, 7, 23, 0, 0, 11, 43, 48, 33, 56, 32, 50, 14, 0, 0, 0, 0, 0, 0, 0
|34, 62, 60, 0, 18, 29, 59, 0, 0, 5, 0, 30, 24, 0, 35, 39, 0, 37, 0, 38, 0, 0, 53, 0, 12, 2, 0, 64, 11, 0, 0, 0, 0, 0, 6, 0, 0, 3, 0, 58, 0, 15, 0, 17, 0, 0, 0, 0, 0, 10, 47, 9, 7, 42, 61, 46, 0, 33, 43, 16, 51, 0, 25, 8
|0, 35, 0, 0, 0, 0, 0, 0, 0, 1, 0, 0, 0, 0, 3, 43, 0, 0, 0, 0, 34, 0, 59, 18, 23, 16, 0, 57, 36, 0, 0, 0, 50, 41, 17, 7, 0, 0, 0, 0, 29, 60, 40, 0, 62, 25, 42, 0, 0, 0, 15, 0, 0, 2, 0, 0, 0, 0, 46, 0, 48, 0, 11, 32
|0, 0, 0, 0, 0, 0, 15, 0, 1, 31, 0, 0, 0, 0, 0, 37, 0, 27, 10, 0, 46, 13, 30, 0, 0, 0, 21, 0, 35, 0, 9, 0, 25, 8, 0, 0, 20, 0, 52, 61, 26, 43, 3, 0, 0, 0, 63, 42, 0, 16, 0, 0, 57, 7, 0, 0, 0, 19, 0, 0, 0, 0, 0, 58
|0, 44, 0, 0, 0, 63, 37, 0, 2, 61, 57, 0, 7, 48, 49, 0, 0, 42, 0, 0, 56, 31, 60, 0, 28, 0, 0, 0, 52, 19, 0, 0, 18, 64, 0, 0, 10, 0, 0, 35, 36, 0, 50, 41, 6, 12, 0, 0, 24, 0, 21, 0, 0, 25, 29, 58, 20, 0, 0, 15, 11, 0, 45, 40
|0, 0, 10, 0, 50, 0, 62, 0, 27, 43, 0, 0, 25, 0, 60, 0, 0, 0, 48, 4, 0, 36, 0, 52, 44, 0, 29, 55, 38, 63, 34, 0, 0, 30, 0, 57, 0, 0, 0, 42, 0, 64, 0, 7, 46, 56, 28, 0, 0, 32, 49, 0, 41, 0, 0, 0, 17, 0, 0, 0, 0, 39, 2, 24
|0, 0, 0, 55, 3, 49, 19, 13, 0, 18, 0, 0, 63, 56, 0, 0, 0, 0, 0, 0, 2, 0, 0, 0, 0, 46, 16, 36, 53, 59, 60, 0, 51, 0, 58, 0, 62, 12, 0, 0, 0, 20, 57, 39, 0, 0, 0, 61, 0, 47, 30, 0, 50, 0, 0, 0, 0, 29, 0, 0, 27, 41, 0, 6
|27, 0, 0, 9, 0, 0, 52, 18, 0, 38, 0, 0, 6, 41, 0, 0, 0, 25, 39, 0, 63, 20, 34, 35, 0, 0, 50, 22, 2, 0, 0, 12, 44, 29, 3, 0, 26, 0, 56, 0, 49, 0, 51, 30, 0, 53, 0, 0, 0, 17, 5, 62, 0, 0, 54, 0, 57, 61, 0, 14, 0, 48, 23, 31
|0, 54, 0, 0, 23, 28, 29, 0, 35, 0, 0, 0, 0, 0, 16, 0, 0, 38, 58, 61, 0, 7, 9, 21, 0, 0, 0, 32, 20, 0, 43, 64, 6, 5, 0, 31, 19, 4, 0, 49, 0, 0, 47, 40, 22, 60, 2, 0, 0, 0, 0, 52, 12, 53, 0, 0, 0, 59, 25, 44, 0, 0, 0, 0
|39, 0, 0, 0, 22, 21, 14, 35, 0, 0, 8, 0, 50, 0, 15, 0, 0, 33, 0, 0, 41, 28, 32, 0, 62, 0, 0, 58, 17, 0, 23, 0, 36, 2, 46, 55, 16, 63, 24, 0, 0, 0, 44, 0, 29, 0, 18, 0, 0, 61, 11, 0, 0, 0, 27, 59, 10, 0, 4, 26, 7, 38, 0, 30
|43, 0, 0, 42, 0, 0, 56, 0, 0, 0, 0, 0, 14, 20, 0, 0, 16, 0, 50, 29, 0, 12, 62, 0, 6, 0, 45, 0, 0, 0, 0, 41, 27, 39, 0, 17, 37, 0, 53, 0, 0, 0, 23, 0, 0, 35, 0, 5, 0, 0, 1, 19, 9, 0, 38, 0, 8, 63, 28, 0, 0, 0, 47, 33
|16, 0, 0, 45, 27, 0, 0, 0, 18, 24, 0, 0, 31, 44, 0, 0, 38, 0, 9, 57, 64, 0, 0, 0, 0, 35, 46, 0, 3, 0, 5, 53, 0, 63, 1, 42, 0, 0, 50, 0, 0, 0, 0, 0, 0, 13, 0, 0, 36, 49, 0, 0, 0, 0, 17, 0, 0, 0, 39, 0, 0, 0, 0, 0
|0, 0, 56, 57, 54, 1, 0, 37, 0, 0, 0, 0, 0, 0, 59, 0, 0, 16, 49, 3, 0, 34, 0, 0, 0, 0, 43, 48, 0, 0, 31, 52, 39, 40, 8, 0, 25, 32, 0, 41, 0, 0, 0, 42, 9, 38, 0, 36, 33, 0, 0, 0, 0, 6, 10, 21, 11, 60, 0, 0, 0, 0, 0, 4
|19, 10, 0, 61, 4, 0, 41, 0, 29, 37, 0, 12, 20, 25, 0, 0, 0, 22, 0, 33, 60, 0, 0, 24, 8, 59, 49, 38, 16, 26, 2, 17, 0, 44, 9, 23, 0, 6, 0, 7, 27, 0, 58, 21, 0, 0, 39, 0, 0, 0, 18, 15, 0, 0, 0, 0, 55, 0, 0, 35, 0, 0, 13, 62
|49, 29, 0, 22, 9, 60, 0, 0, 0, 47, 50, 0, 0, 57, 51, 53, 0, 41, 13, 40, 0, 0, 0, 0, 0, 0, 0, 0, 1, 0, 36, 62, 0, 0, 0, 18, 0, 21, 3, 0, 4, 32, 14, 0, 20, 34, 0, 46, 35, 19, 54, 58, 48, 27, 0, 0, 0, 26, 38, 0, 59, 0, 15, 0
|13, 0, 0, 31, 51, 47, 0, 50, 41, 0, 0, 60, 27, 0, 63, 8, 0, 15, 53, 62, 0, 0, 0, 48, 0, 30, 64, 0, 0, 14, 21, 23, 24, 37, 12, 20, 36, 17, 11, 28, 7, 26, 0, 19, 0, 0, 1, 0, 2, 55, 0, 0, 0, 61, 0, 0, 40, 0, 0, 0, 34, 0, 0, 18
|23, 5, 48, 33, 12, 0, 0, 38, 52, 13, 62, 0, 0, 30, 39, 0, 0, 0, 11, 0, 0, 0, 45, 6, 0, 0, 32, 0, 0, 0, 44, 18, 0, 0, 0, 0, 14, 34, 26, 4, 2, 0, 0, 0, 25, 50, 43, 0, 9, 0, 53, 0, 0, 40, 47, 63, 0, 36, 7, 0, 0, 1, 0, 0
|0, 0, 0, 8, 0, 26, 0, 0, 64, 42, 0, 0, 21, 0, 43, 0, 14, 19, 1, 0, 0, 32, 5, 46, 54, 58, 0, 0, 0, 0, 50, 33, 52, 0, 38, 13, 35, 0, 0, 0, 30, 22, 60, 0, 63, 17, 16, 0, 0, 51, 59, 7, 0, 0, 0, 0, 0, 0, 0, 23, 61, 37, 0, 10
|0, 0, 52, 0, 0, 7, 34, 0, 0, 11, 0, 32, 0, 0, 0, 0, 59, 0, 56, 0, 31, 0, 0, 50, 15, 40, 4, 63, 39, 45, 47, 0, 0, 0, 0, 0, 29, 53, 0, 22, 0, 44, 12, 0, 0, 0, 41, 0, 38, 0, 0, 0, 62, 30, 0, 0, 0, 9, 0, 0, 5, 25, 0, 57
|18, 34, 0, 2, 0, 3, 0, 62, 63, 0, 0, 39, 30, 45, 0, 49, 13, 0, 37, 0, 28, 0, 8, 40, 9, 15, 56, 16, 58, 0, 0, 4, 7, 52, 0, 0, 31, 61, 0, 0, 0, 0, 0, 0, 27, 24, 0, 0, 47, 0, 38, 0, 0, 0, 11, 0, 0, 0, 21, 0, 36, 35, 26, 42
|0, 42, 0, 0, 38, 32, 13, 0, 14, 0, 61, 0, 51, 0, 0, 24, 0, 62, 17, 9, 0, 60, 0, 30, 34, 29, 33, 43, 0, 0, 12, 0, 0, 28, 0, 0, 0, 39, 2, 0, 0, 0, 0, 0, 57, 16, 49, 1, 52, 23, 3, 0, 0, 0, 55, 5, 0, 0, 0, 64, 4, 0, 48, 25
|55, 0, 9, 0, 16, 31, 0, 15, 0, 0, 64, 37, 0, 59, 0, 0, 5, 11, 19, 0, 26, 0, 0, 57, 38, 41, 22, 60, 7, 23, 0, 0, 13, 0, 36, 58, 0, 42, 51, 0, 0, 0, 0, 3, 0, 0, 0, 43, 0, 0, 0, 0, 34, 0, 0, 62, 49, 0, 24, 2, 47, 0, 0, 29
|57, 40, 0, 48, 24, 0, 0, 0, 0, 25, 0, 0, 0, 4, 0, 50, 53, 32, 16, 0, 0, 0, 38, 0, 0, 55, 0, 0, 62, 0, 64, 0, 0, 0, 0, 12, 3, 0, 37, 0, 0, 0, 41, 0, 0, 0, 44, 18, 0, 29, 0, 51, 15, 0, 0, 0, 0, 0, 0, 45, 63, 0, 0, 54
|20, 59, 0, 46, 0, 4, 0, 0, 11, 0, 16, 0, 0, 26, 0, 21, 3, 44, 24, 64, 61, 49, 31, 0, 0, 0, 6, 37, 42, 30, 27, 36, 53, 0, 35, 19, 33, 0, 0, 15, 0, 0, 0, 63, 0, 0, 25, 0, 0, 0, 28, 0, 0, 0, 0, 0, 34, 32, 0, 13, 0, 0, 62, 23
|0, 0, 47, 0, 52, 64, 0, 0, 0, 15, 0, 0, 0, 0, 0, 0, 42, 4, 0, 0, 25, 45, 18, 43, 32, 31, 0, 17, 5, 57, 1, 0, 54, 0, 44, 0, 0, 38, 21, 0, 60, 0, 61, 13, 0, 0, 0, 0, 0, 24, 20, 0, 30, 0, 7, 0, 3, 41, 0, 8, 10, 27, 0, 0
|0, 23, 45, 10, 6, 33, 50, 0, 57, 44, 47, 0, 0, 0, 22, 38, 0, 51, 52, 58, 20, 27, 0, 36, 0, 26, 0, 0, 61, 0, 14, 28, 0, 62, 0, 4, 0, 1, 0, 0, 32, 0, 39, 0, 0, 0, 64, 0, 40, 31, 0, 16, 0, 12, 49, 37, 0, 18, 0, 0, 0, 0, 59, 7
|35, 0, 21, 0, 0, 0, 49, 19, 0, 0, 43, 3, 33, 17, 13, 28, 46, 0, 7, 0, 0, 55, 0, 0, 11, 45, 0, 0, 51, 0, 20, 59, 0, 0, 0, 0, 6, 0, 0, 0, 0, 0, 62, 0, 0, 15, 22, 0, 0, 50, 0, 0, 54, 10, 42, 0, 0, 0, 0, 0, 37, 0, 0, 56
|26, 12, 0, 35, 14, 24, 51, 0, 31, 55, 0, 0, 16, 0, 0, 13, 0, 0, 0, 15, 17, 0, 0, 0, 1, 62, 48, 23, 49, 0, 11, 0, 40, 0, 64, 10, 9, 0, 46, 44, 0, 0, 18, 34, 50, 0, 0, 41, 25, 53, 32, 0, 45, 52, 33, 43, 0, 56, 0, 47, 29, 22, 20, 60
|0, 30, 0, 62, 0, 0, 20, 0, 0, 0, 15, 17, 0, 0, 2, 40, 0, 0, 0, 0, 0, 0, 23, 0, 0, 0, 8, 0, 0, 53, 13, 0, 0, 0, 0, 26, 7, 33, 48, 0, 22, 16, 0, 32, 0, 63, 0, 12, 0, 9, 0, 59, 10, 0, 0, 64, 0, 0, 0, 1, 24, 0, 0, 0
|38, 0, 2, 0, 0, 13, 0, 9, 47, 32, 0, 0, 0, 46, 24, 61, 0, 58, 29, 0, 0, 0, 0, 33, 0, 43, 0, 0, 18, 0, 4, 0, 0, 0, 31, 0, 0, 0, 0, 57, 64, 56, 10, 0, 0, 0, 0, 0, 23, 0, 0, 0, 51, 11, 44, 12, 0, 0, 0, 3, 39, 0, 0, 17
|21, 0, 0, 0, 0, 0, 0, 0, 0, 0, 9, 48, 0, 0, 56, 0, 0, 0, 43, 63, 52, 8, 0, 0, 0, 0, 0, 0, 12, 7, 0, 22, 0, 0, 27, 38, 0, 0, 0, 0, 0, 54, 0, 35, 28, 11, 0, 0, 16, 0, 0, 42, 18, 17, 0, 0, 13, 14, 0, 30, 57, 4, 31, 19
|0, 0, 0, 0, 19, 0, 7, 0, 0, 60, 0, 0, 45, 23, 5, 30, 34, 50, 0, 11, 0, 10, 0, 0, 20, 63, 0, 0, 27, 0, 0, 0, 28, 0, 0, 0, 12, 0, 35, 0, 40, 17, 0, 2, 61, 29, 0, 0, 57, 4, 0, 1, 56, 55, 0, 31, 6, 48, 49, 0, 25, 62, 44, 43
|0, 55, 17, 0, 0, 50, 0, 0, 8, 0, 0, 0, 0, 0, 28, 0, 0, 0, 12, 0, 0, 0, 0, 0, 31, 0, 25, 21, 0, 0, 0, 57, 0, 0, 0, 0, 0, 13, 0, 39, 9, 0, 0, 0, 14, 0, 0, 0, 49, 0, 61, 47, 29, 0, 0, 0, 0, 7, 0, 0, 26, 2, 0, 0
|0, 0, 5, 0, 0, 34, 0, 42, 0, 0, 39, 53, 57, 0, 0, 29, 2, 0, 27, 0, 0, 46, 49, 0, 41, 17, 10, 19, 6, 0, 35, 16, 0, 0, 0, 0, 0, 0, 0, 0, 33, 0, 0, 60, 48, 0, 45, 0, 7, 0, 37, 21, 0, 0, 0, 0, 0, 0, 58, 51, 0, 32, 64, 50
|0, 16, 0, 0, 63, 23, 18, 45, 0, 58, 42, 0, 0, 0, 0, 0, 31, 0, 0, 0, 36, 0, 0, 44, 60, 0, 30, 0, 26, 64, 0, 24, 0, 0, 0, 0, 0, 49, 0, 56, 47, 13, 8, 0, 0, 0, 0, 53, 0, 0, 0, 6, 27, 38, 62, 19, 59, 46, 40, 33, 12, 0, 0, 61
|53, 50, 0, 0, 41, 0, 47, 0, 0, 23, 7, 16, 11, 1, 0, 0, 20, 28, 0, 0, 0, 0, 0, 0, 0, 0, 58, 0, 59, 62, 18, 3, 0, 0, 60, 8, 5, 27, 0, 0, 46, 0, 2, 9, 0, 0, 48, 4, 0, 0, 0, 44, 43, 49, 51, 0, 0, 0, 0, 54, 17, 0, 19, 0
|61, 37, 0, 0, 64, 36, 0, 0, 43, 0, 52, 0, 54, 15, 30, 32, 0, 7, 0, 35, 0, 0, 51, 31, 47, 0, 26, 0, 50, 0, 57, 0, 12, 59, 13, 41, 45, 0, 0, 19, 0, 28, 29, 11, 18, 5, 17, 6, 8, 0, 46, 0, 53, 48, 0, 0, 0, 40, 63, 62, 0, 0, 0, 0
|54, 27, 0, 0, 42, 0, 0, 0, 0, 0, 0, 35, 0, 0, 61, 0, 0, 0, 8, 16, 0, 64, 0, 0, 55, 5, 31, 0, 0, 0, 0, 0, 2, 0, 29, 34, 17, 44, 0, 25, 0, 0, 63, 33, 0, 0, 0, 56, 10, 36, 52, 23, 0, 57, 0, 11, 51, 0, 45, 0, 0, 49, 0, 1
|0, 0, 0, 25, 49, 0, 45, 14, 0, 17, 0, 10, 62, 47, 0, 18, 0, 21, 0, 26, 9, 0, 0, 60, 30, 0, 0, 42, 0, 16, 46, 34, 20, 22, 48, 28, 0, 35, 0, 36, 0, 61, 37, 0, 0, 0, 0, 0, 0, 0, 6, 0, 0, 0, 0, 55, 5, 0, 56, 50, 0, 12, 57, 39
|24, 57, 0, 59, 0, 15, 26, 29, 56, 33, 0, 0, 0, 0, 0, 0, 1, 17, 34, 0, 5, 0, 0, 4, 64, 49, 11, 40, 22, 6, 53, 0, 0, 0, 0, 37, 46, 0, 43, 0, 0, 25, 16, 0, 0, 0, 60, 0, 27, 20, 0, 0, 35, 63, 18, 38, 28, 42, 0, 0, 3, 0, 0, 21
|0, 17, 16, 0, 0, 5, 43, 0, 48, 21, 34, 0, 28, 22, 0, 57, 0, 12, 44, 0, 0, 62, 0, 56, 63, 51, 0, 0, 15, 0, 0, 0, 0, 0, 0, 32, 0, 64, 0, 23, 0, 0, 35, 0, 24, 0, 0, 0, 4, 14, 19, 0, 47, 1, 3, 41, 7, 52, 33, 29, 31, 0, 60, 53
|7, 9, 55, 18, 0, 62, 31, 6, 0, 14, 63, 0, 2, 0, 0, 46, 0, 0, 59, 54, 38, 22, 37, 0, 4, 36, 23, 29, 0, 12, 0, 19, 0, 0, 0, 16, 0, 11, 0, 3, 42, 0, 64, 0, 0, 0, 0, 0, 50, 15, 56, 0, 17, 0, 60, 33, 0, 20, 0, 0, 0, 47, 0, 34
|0, 0, 20, 12, 0, 56, 0, 51, 0, 0, 0, 4, 29, 37, 0, 0, 18, 57, 32, 19, 0, 52, 0, 0, 0, 27, 17, 7, 0, 0, 48, 60, 0, 0, 0, 0, 0, 15, 0, 33, 0, 34, 0, 49, 3, 0, 0, 0, 0, 0, 16, 0, 31, 0, 22, 61, 0, 44, 11, 46, 0, 0, 0, 0
|29, 64, 38, 0, 37, 0, 33, 0, 0, 51, 49, 0, 0, 0, 0, 60, 0, 45, 0, 0, 16, 1, 0, 0, 46, 12, 36, 0, 0, 0, 30, 0, 0, 11, 0, 52, 0, 40, 0, 0, 0, 5, 34, 56, 2, 0, 0, 0, 42, 0, 0, 61, 0, 0, 0, 0, 0, 8, 0, 0, 0, 0, 0, 0
|5, 32, 0, 56, 39, 0, 0, 46, 0, 0, 20, 0, 41, 18, 0, 63, 0, 8, 4, 2, 57, 47, 0, 0, 17, 0, 52, 1, 0, 11, 15, 0, 48, 0, 0, 0, 42, 24, 0, 12, 61, 6, 0, 0, 53, 54, 0, 25, 58, 30, 0, 13, 0, 31, 0, 0, 16, 35, 29, 40, 45, 60, 33, 0
|0, 0, 57, 0, 34, 17, 0, 49, 0, 8, 0, 56, 48, 0, 0, 0, 32, 35, 0, 0, 0, 0, 0, 55, 53, 0, 0, 2, 0, 0, 40, 42, 0, 15, 0, 0, 13, 0, 45, 30, 0, 62, 9, 14, 59, 0, 0, 20, 0, 18, 63, 60, 21, 0, 0, 52, 50, 51, 0, 0, 41, 0, 0, 0
|8, 0, 0, 58, 61, 42, 0, 0, 5, 0, 37, 0, 46, 0, 0, 0, 0, 56, 30, 0, 0, 0, 21, 49, 0, 0, 0, 0, 64, 0, 0, 48, 16, 57, 54, 1, 0, 50, 20, 29, 24, 41, 0, 15, 0, 19, 26, 0, 45, 34, 25, 36, 0, 33, 43, 0, 0, 0, 3, 0, 62, 0, 0, 0
|0, 0, 53, 0, 44, 0, 0, 4, 0, 0, 32, 42, 0, 0, 0, 23, 0, 31, 33, 10, 0, 14, 64, 0, 45, 8, 51, 0, 37, 0, 41, 0, 0, 0, 0, 0, 34, 0, 7, 0, 0, 0, 28, 0, 0, 0, 0, 35, 19, 0, 0, 0, 49, 0, 15, 2, 38, 24, 18, 63, 43, 0, 9, 0
|28, 0, 0, 43, 25, 0, 21, 0, 13, 19, 58, 0, 0, 64, 36, 16, 52, 54, 0, 60, 6, 0, 0, 20, 18, 0, 0, 26, 32, 0, 62, 0, 3, 0, 0, 51, 0, 0, 0, 0, 0, 0, 0, 0, 30, 44, 0, 0, 53, 40, 0, 39, 4, 0, 0, 48, 47, 0, 0, 0, 46, 23, 42, 11
|47, 13, 15, 0, 0, 0, 0, 2, 0, 7, 0, 0, 10, 12, 45, 25, 0, 34, 0, 0, 62, 41, 46, 27, 21, 38, 0, 5, 0, 39, 0, 6, 0, 0, 0, 14, 0, 18, 0, 31, 17, 49, 0, 48, 0, 8, 0, 3, 1, 54, 51, 11, 16, 9, 0, 44, 0, 64, 0, 0, 52, 56, 0, 28
|0, 1, 0, 3, 0, 51, 0, 0, 61, 0, 27, 52, 0, 0, 54, 2, 15, 29, 0, 13, 0, 50, 0, 0, 0, 14, 57, 0, 47, 9, 0, 49, 64, 25, 0, 39, 0, 43, 44, 0, 0, 11, 0, 0, 42, 0, 7, 63, 46, 0, 0, 17, 0, 5, 0, 6, 22, 4, 30, 0, 32, 0, 0, 0
|22, 49, 0, 23, 0, 0, 57, 32, 0, 16, 11, 63, 0, 7, 0, 0, 0, 0, 0, 46, 43, 21, 28, 34, 5, 9, 12, 8, 0, 0, 56, 0, 17, 0, 53, 0, 24, 48, 29, 0, 10, 3, 13, 0, 4, 0, 0, 0, 15, 0, 31, 38, 0, 35, 0, 47, 60, 0, 0, 6, 0, 44, 18, 0
|44, 31, 1, 7, 0, 0, 0, 0, 59, 0, 2, 5, 37, 13, 55, 0, 0, 60, 15, 42, 48, 0, 57, 0, 0, 0, 38, 35, 23, 46, 0, 0, 0, 3, 33, 45, 49, 0, 0, 6, 63, 14, 30, 0, 0, 28, 8, 52, 20, 43, 39, 0, 61, 54, 0, 0, 0, 10, 0, 0, 56, 29, 0, 27
|0, 0, 4, 0, 20, 52, 0, 0, 0, 0, 35, 0, 0, 0, 0, 31, 0, 0, 14, 27, 54, 0, 0, 0, 0, 19, 0, 41, 0, 21, 17, 0, 42, 0, 22, 0, 0, 0, 1, 50, 56, 0, 7, 57, 44, 18, 0, 29, 11, 0, 34, 10, 0, 60, 48, 23, 32, 0, 0, 24, 9, 0, 0, 59
|50, 0, 0, 34, 55, 0, 0, 0, 0, 0, 46, 0, 0, 0, 18, 17, 0, 10, 63, 20, 0, 4, 29, 0, 0, 0, 28, 0, 54, 0, 0, 0, 57, 35, 0, 0, 44, 0, 0, 0, 43, 0, 48, 24, 64, 45, 0, 0, 0, 8, 0, 53, 40, 0, 25, 0, 0, 21, 0, 0, 0, 15, 0, 13
|0, 0, 0, 0, 29, 2, 8, 60, 0, 0, 24, 0, 9, 21, 38, 0, 25, 0, 47, 31, 0, 23, 3, 19, 26, 0, 0, 59, 0, 0, 6, 37, 46, 0, 7, 64, 11, 0, 41, 0, 5, 35, 17, 12, 0, 33, 0, 0, 55, 57, 50, 0, 63, 18, 0, 0, 0, 1, 0, 0, 0, 28, 36, 0
|0, 21, 0, 54, 0, 0, 0, 0, 20, 0, 10, 0, 32, 61, 0, 33, 8, 55, 0, 7, 0, 0, 0, 37, 29, 0, 0, 0, 0, 0, 0, 0, 9, 0, 39, 0, 15, 30, 0, 40, 0, 0, 1, 0, 0, 2, 38, 0, 5, 41, 22, 0, 0, 26, 0, 0, 0, 0, 34, 4, 0, 0, 0, 3
|14, 28, 11, 0, 43, 0, 0, 0, 0, 30, 0, 1, 47, 0, 29, 44, 0, 24, 0, 32, 59, 0, 0, 0, 2, 60, 20, 0, 57, 0, 3, 51, 0, 38, 0, 0, 21, 0, 10, 0, 0, 0, 42, 22, 0, 49, 31, 37, 0, 13, 0, 0, 0, 0, 0, 45, 0, 0, 0, 0, 50, 0, 40, 46
|10, 0, 0, 13, 0, 0, 16, 5, 0, 4, 0, 34, 0, 0, 0, 45, 9, 49, 0, 52, 35, 0, 22, 0, 0, 64, 0, 15, 0, 0, 7, 0, 32, 0, 62, 36, 0, 31, 0, 18, 41, 50, 25, 20, 0, 0, 6, 51, 3, 2, 24, 29, 28, 44, 46, 0, 0, 0, 0, 19, 23, 8, 17, 38|];