order = 8;
grid = [|0, 47, 0, 0, 55, 0, 0, 10, 53, 7, 0, 0, 0, 0, 0, 34, 0, 0, 19, 14, 0, 0, 0, 0, 27, 0, 0, 22, 21, 0, 0, 0, 0, 39, 16, 0, 60, 0, 12, 24, 59, 0, 0, 0, 42, 0, 0, 35, 0, 0, 3, 0, 0, 0, 51, 0, 0, 0, 15, 0, 30, 0, 44, 28
|0, 53, 0, 0, 0, 0, 38, 57, 43, 54, 0, 0, 48, 52, 0, 23, 16, 40, 0, 0, 0, 0, 35, 13, 0, 47, 0, 0, 0, 17, 0, 0, 0, 0, 0, 0, 0, 63, 0, 0, 0, 50, 0, 1, 0, 10, 0, 0, 14, 29, 30, 19, 0, 0, 0, 0, 0, 0, 58, 0, 0, 56, 62, 7
|0, 0, 5, 25, 63, 3, 44, 46, 35, 0, 40, 0, 0, 0, 0, 24, 0, 36, 0, 0, 0, 55, 29, 28, 42, 51, 45, 0, 0, 7, 0, 0, 2, 32, 0, 13, 30, 54, 49, 0, 0, 48, 0, 0, 26, 0, 0, 0, 21, 0, 57, 0, 53, 0, 8, 16, 14, 59, 0, 0, 20, 0, 39, 9
|0, 6, 40, 20, 49, 0, 28, 0, 0, 0, 30, 0, 0, 39, 50, 14, 0, 0, 10, 0, 27, 31, 0, 0, 0, 9, 24, 0, 0, 0, 44, 0, 0, 0, 48, 0, 0, 0, 25, 0, 0, 0, 0, 51, 0, 0, 0, 8, 0, 0, 0, 0, 0, 36, 58, 46, 0, 0, 18, 0, 54, 0, 1, 0
|0, 61, 12, 41, 14, 0, 7, 0, 0, 0, 0, 0, 26, 0, 0, 0, 54, 64, 0, 53, 0, 33, 63, 5, 0, 10, 0, 0, 31, 18, 28, 0, 0, 57, 20, 0, 0, 1, 9, 0, 0, 49, 0, 24, 0, 0, 19, 0, 0, 39, 0, 15, 45, 6, 0, 0, 0, 50, 35, 0, 0, 38, 40, 21
|11, 0, 0, 52, 0, 54, 32, 0, 0, 44, 0, 29, 18, 56, 51, 0, 39, 46, 0, 47, 22, 15, 0, 0, 0, 14, 0, 0, 16, 36, 63, 0, 0, 0, 0, 19, 58, 0, 0, 0, 7, 0, 0, 37, 0, 40, 0, 0, 35, 0, 0, 9, 0, 0, 5, 62, 0, 0, 57, 0, 0, 45, 13, 25
|45, 0, 64, 19, 0, 34, 0, 15, 0, 0, 42, 2, 0, 36, 0, 0, 18, 0, 60, 0, 62, 44, 11, 48, 46, 12, 0, 0, 0, 30, 40, 0, 53, 0, 56, 10, 43, 0, 22, 21, 54, 0, 13, 0, 27, 0, 0, 20, 0, 0, 50, 0, 1, 7, 0, 49, 32, 0, 0, 0, 47, 0, 0, 37
|22, 0, 18, 0, 0, 0, 4, 0, 0, 3, 0, 0, 12, 27, 0, 0, 0, 59, 0, 0, 0, 21, 0, 24, 0, 0, 20, 0, 0, 64, 49, 0, 0, 0, 0, 35, 14, 0, 0, 36, 0, 46, 39, 0, 5, 44, 0, 43, 0, 37, 0, 0, 60, 47, 0, 54, 41, 48, 17, 0, 0, 34, 42, 0
|63, 49, 0, 0, 0, 0, 0, 32, 0, 0, 60, 1, 0, 0, 20, 13, 0, 14, 0, 62, 37, 0, 39, 23, 0, 0, 0, 0, 0, 53, 29, 0, 55, 0, 0, 0, 8, 58, 11, 26, 0, 0, 43, 42, 38, 18, 54, 0, 0, 52, 0, 57, 0, 50, 0, 0, 0, 34, 31, 0, 0, 22, 0, 0
|57, 60, 0, 40, 52, 0, 26, 0, 29, 11, 0, 45, 0, 21, 27, 0, 58, 63, 0, 16, 5, 56, 0, 25, 0, 0, 0, 43, 15, 39, 0, 24, 33, 18, 0, 37, 23, 46, 0, 1, 6, 0, 0, 0, 0, 0, 2, 0, 0, 61, 0, 51, 20, 0, 14, 38, 3, 0, 28, 54, 0, 0, 64, 0
|8, 21, 0, 59, 0, 0, 13, 58, 49, 62, 0, 0, 0, 48, 0, 0, 0, 0, 0, 0, 41, 0, 0, 29, 0, 27, 0, 0, 0, 19, 20, 46, 15, 16, 57, 0, 0, 0, 32, 39, 0, 0, 30, 52, 51, 0, 0, 0, 0, 40, 0, 0, 0, 25, 53, 0, 0, 44, 11, 5, 14, 0, 50, 0
|0, 0, 35, 50, 41, 36, 30, 0, 54, 26, 0, 0, 15, 0, 14, 0, 0, 0, 40, 0, 46, 32, 53, 0, 0, 7, 0, 0, 0, 60, 31, 51, 0, 64, 0, 0, 0, 0, 0, 0, 58, 56, 20, 16, 34, 0, 0, 0, 29, 0, 17, 4, 0, 44, 0, 27, 0, 0, 19, 0, 0, 59, 0, 0
|0, 31, 45, 0, 62, 0, 12, 0, 44, 39, 51, 63, 52, 0, 0, 32, 0, 50, 59, 27, 38, 0, 0, 0, 0, 0, 0, 3, 14, 22, 0, 6, 0, 40, 0, 29, 0, 0, 0, 54, 13, 0, 46, 4, 0, 0, 35, 24, 0, 26, 0, 43, 33, 11, 18, 0, 60, 0, 36, 23, 0, 0, 58, 0
|0, 0, 33, 0, 0, 0, 27, 0, 0, 0, 0, 46, 31, 0, 17, 12, 44, 0, 57, 22, 10, 6, 30, 47, 0, 5, 18, 0, 42, 0, 41, 0, 0, 0, 34, 38, 0, 0, 62, 53, 19, 0, 15, 23, 0, 0, 0, 37, 8, 0, 0, 55, 0, 0, 0, 63, 40, 0, 0, 20, 0, 0, 25, 32
|0, 17, 0, 1, 10, 0, 0, 23, 0, 0, 0, 0, 43, 8, 0, 0, 0, 2, 0, 13, 26, 28, 0, 4, 0, 52, 37, 33, 0, 38, 0, 55, 14, 63, 0, 60, 20, 49, 0, 0, 0, 27, 57, 0, 0, 3, 11, 22, 48, 15, 59, 5, 54, 0, 62, 0, 39, 0, 53, 0, 0, 0, 46, 0
|20, 0, 2, 44, 0, 5, 0, 0, 58, 23, 0, 0, 37, 0, 0, 4, 0, 43, 0, 42, 33, 0, 0, 60, 26, 21, 50, 0, 11, 49, 0, 0, 0, 27, 0, 0, 25, 0, 10, 52, 0, 0, 7, 0, 0, 8, 0, 28, 0, 0, 0, 36, 46, 34, 31, 1, 0, 62, 41, 6, 0, 0, 51, 0
|0, 48, 0, 0, 0, 18, 60, 49, 0, 53, 0, 3, 0, 0, 0, 45, 46, 21, 37, 55, 0, 63, 0, 33, 14, 0, 39, 16, 24, 0, 5, 0, 0, 20, 26, 40, 0, 61, 29, 64, 0, 11, 56, 30, 0, 2, 52, 0, 59, 0, 43, 28, 0, 0, 19, 0, 10, 47, 0, 8, 50, 32, 38, 0
|0, 0, 0, 24, 0, 44, 36, 8, 64, 0, 0, 25, 0, 40, 61, 0, 0, 11, 0, 49, 0, 0, 42, 34, 38, 28, 0, 51, 46, 0, 0, 0, 0, 0, 0, 0, 0, 0, 63, 57, 5, 0, 33, 60, 0, 0, 50, 4, 62, 0, 0, 0, 0, 0, 0, 0, 0, 16, 0, 0, 23, 6, 0, 52
|0, 0, 0, 28, 0, 0, 62, 0, 1, 34, 22, 43, 8, 46, 0, 36, 29, 0, 6, 0, 0, 0, 57, 0, 40, 0, 49, 21, 0, 0, 54, 0, 0, 0, 0, 2, 12, 0, 0, 0, 18, 0, 0, 7, 39, 42, 0, 0, 0, 0, 26, 0, 0, 0, 9, 0, 53, 55, 20, 37, 0, 0, 0, 5
|0, 10, 54, 0, 45, 0, 37, 22, 0, 0, 0, 0, 0, 42, 57, 0, 47, 30, 32, 0, 20, 35, 0, 51, 0, 0, 0, 44, 0, 23, 11, 62, 28, 5, 0, 34, 13, 0, 0, 0, 43, 14, 58, 49, 0, 0, 0, 0, 27, 33, 16, 56, 3, 0, 61, 0, 0, 0, 0, 36, 15, 60, 24, 4
|61, 0, 0, 16, 30, 26, 57, 0, 50, 0, 0, 0, 11, 20, 4, 60, 43, 56, 27, 0, 53, 0, 22, 0, 0, 29, 0, 18, 47, 0, 0, 64, 24, 36, 0, 0, 55, 0, 51, 25, 34, 0, 0, 35, 8, 0, 0, 0, 0, 0, 12, 0, 7, 21, 37, 0, 48, 31, 40, 46, 0, 0, 0, 0
|0, 0, 29, 17, 40, 0, 23, 0, 31, 2, 55, 0, 0, 0, 30, 0, 12, 5, 25, 0, 7, 0, 0, 58, 0, 0, 0, 0, 0, 10, 0, 13, 0, 0, 0, 0, 22, 0, 0, 0, 0, 0, 41, 0, 64, 1, 0, 0, 45, 18, 46, 8, 0, 0, 0, 44, 0, 51, 0, 21, 63, 0, 0, 0
|5, 0, 0, 0, 0, 38, 63, 11, 13, 0, 0, 39, 0, 0, 0, 16, 0, 24, 28, 15, 40, 0, 2, 0, 17, 19, 0, 45, 0, 8, 37, 7, 52, 49, 0, 0, 18, 59, 60, 27, 0, 0, 0, 0, 46, 20, 61, 0, 0, 0, 0, 0, 48, 0, 36, 0, 0, 54, 0, 25, 0, 3, 35, 0
|19, 0, 14, 9, 35, 50, 0, 0, 27, 29, 0, 5, 0, 26, 56, 37, 0, 0, 0, 18, 0, 1, 0, 62, 3, 0, 53, 0, 0, 0, 32, 0, 0, 0, 47, 33, 0, 0, 0, 0, 17, 0, 6, 0, 63, 36, 0, 0, 0, 0, 0, 40, 0, 0, 0, 11, 0, 22, 0, 34, 0, 0, 30, 57
|0, 29, 0, 22, 0, 0, 55, 0, 33, 0, 0, 9, 0, 3, 0, 26, 0, 0, 0, 46, 48, 61, 27, 0, 20, 41, 63, 0, 0, 0, 53, 32, 0, 0, 21, 36, 0, 0, 59, 40, 11, 0, 16, 13, 0, 0, 0, 51, 0, 0, 0, 0, 0, 0, 28, 42, 0, 0, 30, 49, 19, 50, 0, 0
|0, 0, 0, 0, 0, 0, 0, 28, 15, 0, 0, 0, 0, 0, 12, 29, 19, 8, 2, 38, 55, 0, 54, 0, 0, 0, 36, 0, 0, 25, 62, 11, 5, 0, 0, 0, 0, 22, 57, 0, 42, 63, 0, 0, 0, 0, 39, 61, 49, 0, 14, 26, 0, 46, 0, 43, 44, 0, 0, 58, 34, 0, 0, 3
|34, 63, 15, 0, 0, 0, 0, 0, 0, 0, 16, 0, 19, 0, 0, 64, 49, 41, 20, 57, 0, 52, 44, 0, 0, 0, 0, 0, 54, 9, 60, 0, 0, 0, 0, 50, 1, 8, 43, 0, 0, 17, 0, 0, 0, 0, 0, 48, 0, 3, 22, 39, 11, 37, 0, 45, 0, 0, 46, 62, 61, 28, 0, 0
|0, 12, 57, 0, 36, 4, 0, 0, 42, 8, 0, 0, 0, 22, 0, 0, 34, 0, 0, 0, 0, 0, 0, 0, 0, 0, 17, 0, 0, 58, 7, 0, 3, 0, 0, 20, 0, 15, 26, 16, 0, 0, 29, 0, 52, 0, 44, 27, 0, 0, 0, 0, 55, 13, 32, 0, 0, 0, 21, 0, 0, 0, 5, 0
|0, 41, 0, 0, 21, 19, 0, 61, 62, 0, 0, 0, 25, 53, 1, 0, 0, 29, 16, 3, 0, 18, 0, 0, 0, 46, 42, 64, 26, 12, 0, 0, 11, 0, 32, 0, 0, 0, 0, 0, 40, 0, 0, 9, 15, 0, 47, 31, 52, 20, 23, 0, 0, 10, 35, 0, 13, 14, 63, 39, 0, 0, 57, 54
|62, 8, 0, 27, 47, 60, 0, 51, 32, 40, 0, 31, 57, 0, 49, 39, 26, 0, 53, 11, 43, 0, 15, 0, 0, 59, 10, 0, 19, 14, 0, 18, 13, 9, 23, 17, 48, 28, 24, 0, 64, 0, 0, 0, 0, 56, 37, 30, 0, 21, 0, 29, 0, 5, 0, 0, 6, 0, 4, 0, 0, 0, 36, 0
|0, 54, 11, 32, 59, 40, 0, 0, 23, 20, 0, 14, 17, 0, 0, 0, 0, 0, 0, 0, 0, 0, 21, 63, 51, 4, 0, 0, 1, 57, 0, 0, 0, 0, 0, 0, 0, 39, 0, 0, 0, 0, 34, 0, 49, 33, 0, 53, 0, 0, 0, 31, 0, 16, 25, 36, 37, 0, 0, 64, 10, 0, 0, 0
|39, 0, 0, 35, 44, 1, 42, 0, 28, 0, 10, 0, 0, 0, 0, 46, 9, 0, 0, 56, 0, 0, 4, 0, 16, 6, 0, 61, 49, 0, 0, 0, 0, 29, 0, 0, 0, 0, 38, 0, 32, 25, 54, 0, 19, 5, 0, 36, 0, 0, 18, 0, 24, 0, 0, 0, 0, 0, 0, 53, 0, 0, 0, 26
|44, 34, 0, 0, 8, 0, 20, 36, 0, 0, 0, 0, 0, 0, 64, 35, 31, 0, 7, 0, 21, 0, 0, 0, 0, 0, 0, 42, 37, 29, 39, 0, 0, 0, 22, 0, 61, 0, 0, 38, 55, 0, 24, 0, 60, 25, 5, 0, 1, 12, 0, 18, 15, 0, 0, 0, 0, 0, 0, 40, 0, 14, 41, 43
|0, 0, 56, 47, 46, 0, 3, 0, 19, 0, 0, 44, 29, 0, 28, 51, 17, 0, 42, 35, 0, 0, 26, 55, 23, 45, 0, 7, 0, 20, 0, 0, 0, 0, 0, 63, 52, 27, 53, 41, 0, 0, 0, 38, 0, 21, 43, 0, 30, 58, 64, 0, 6, 9, 0, 59, 4, 0, 0, 12, 0, 2, 0, 0
|12, 45, 28, 58, 0, 2, 35, 0, 17, 0, 0, 0, 59, 0, 9, 49, 0, 0, 0, 0, 0, 0, 10, 0, 60, 0, 0, 15, 0, 16, 0, 0, 0, 6, 55, 39, 46, 0, 0, 4, 0, 0, 0, 0, 32, 61, 0, 0, 0, 0, 19, 0, 36, 56, 3, 5, 34, 0, 64, 0, 0, 53, 0, 38
|17, 0, 0, 13, 26, 23, 0, 0, 0, 0, 24, 0, 0, 15, 0, 0, 0, 3, 51, 0, 4, 25, 40, 9, 0, 54, 0, 2, 56, 59, 0, 5, 49, 8, 0, 0, 45, 30, 18, 29, 0, 0, 14, 0, 0, 0, 33, 0, 0, 41, 27, 0, 0, 28, 0, 61, 0, 0, 0, 0, 35, 31, 0, 44
|0, 37, 38, 64, 0, 0, 6, 5, 46, 18, 0, 11, 40, 32, 0, 25, 0, 13, 14, 24, 0, 53, 0, 27, 41, 49, 0, 28, 0, 0, 0, 9, 42, 48, 33, 0, 36, 0, 0, 20, 0, 0, 0, 0, 0, 30, 51, 0, 0, 0, 0, 62, 0, 54, 45, 0, 0, 3, 0, 0, 58, 0, 0, 0
|0, 59, 32, 63, 0, 14, 31, 41, 0, 0, 2, 0, 55, 23, 38, 0, 0, 0, 64, 33, 15, 0, 0, 0, 0, 53, 13, 0, 0, 6, 0, 0, 51, 19, 37, 12, 3, 0, 0, 0, 0, 0, 48, 0, 0, 0, 0, 56, 42, 0, 40, 44, 29, 43, 49, 35, 62, 20, 0, 0, 25, 0, 18, 45
|55, 0, 50, 4, 0, 51, 18, 7, 0, 0, 0, 0, 0, 0, 0, 0, 6, 44, 23, 0, 57, 45, 56, 37, 8, 33, 43, 30, 62, 32, 0, 0, 0, 34, 10, 58, 40, 9, 1, 0, 0, 54, 63, 64, 0, 0, 3, 12, 0, 2, 48, 0, 31, 38, 0, 13, 46, 0, 0, 17, 0, 42, 49, 0
|49, 0, 24, 39, 53, 0, 0, 0, 0, 45, 56, 0, 0, 34, 0, 8, 0, 22, 38, 0, 2, 60, 18, 61, 0, 64, 0, 0, 3, 0, 51, 0, 0, 7, 0, 0, 0, 0, 54, 0, 0, 44, 0, 15, 0, 0, 0, 23, 0, 0, 0, 0, 0, 0, 0, 55, 30, 6, 0, 0, 0, 0, 0, 0
|60, 0, 52, 0, 13, 43, 40, 0, 0, 25, 0, 32, 0, 50, 0, 10, 41, 0, 0, 0, 0, 57, 58, 0, 0, 0, 7, 0, 0, 33, 0, 29, 0, 14, 0, 9, 5, 11, 0, 59, 28, 36, 42, 61, 0, 34, 23, 0, 0, 44, 0, 0, 0, 0, 48, 19, 0, 0, 0, 0, 0, 0, 53, 64
|0, 62, 42, 7, 61, 0, 45, 0, 18, 57, 0, 48, 49, 6, 0, 30, 35, 0, 0, 19, 34, 0, 0, 0, 54, 11, 14, 0, 0, 0, 47, 25, 0, 0, 0, 28, 53, 0, 0, 0, 0, 0, 64, 12, 59, 22, 40, 0, 0, 0, 36, 3, 21, 0, 4, 0, 0, 23, 29, 0, 0, 5, 37, 0
|1, 0, 0, 14, 20, 0, 0, 0, 0, 15, 0, 64, 24, 0, 0, 0, 13, 0, 52, 0, 42, 0, 59, 26, 39, 61, 0, 0, 0, 0, 19, 0, 41, 12, 25, 62, 0, 0, 0, 0, 0, 43, 55, 5, 21, 0, 48, 18, 51, 0, 0, 0, 0, 0, 0, 0, 7, 28, 6, 4, 0, 0, 0, 0
|0, 0, 0, 57, 0, 28, 0, 0, 0, 0, 0, 35, 0, 0, 0, 11, 0, 49, 0, 12, 45, 64, 0, 43, 5, 40, 26, 0, 0, 62, 10, 44, 36, 0, 0, 0, 0, 55, 8, 34, 20, 0, 0, 33, 24, 50, 60, 0, 0, 0, 0, 0, 0, 0, 1, 0, 0, 2, 54, 59, 0, 48, 0, 0
|0, 26, 41, 5, 0, 48, 11, 0, 0, 59, 0, 22, 56, 2, 0, 0, 10, 28, 21, 0, 0, 40, 0, 0, 18, 0, 0, 0, 0, 51, 15, 45, 0, 61, 0, 44, 0, 60, 0, 33, 53, 0, 37, 25, 0, 38, 0, 58, 7, 0, 0, 0, 0, 57, 30, 14, 0, 49, 0, 0, 0, 0, 0, 55
|36, 0, 63, 56, 0, 47, 0, 18, 0, 55, 0, 0, 44, 33, 60, 58, 0, 27, 22, 31, 9, 0, 37, 54, 1, 0, 0, 0, 0, 0, 0, 0, 10, 42, 52, 0, 0, 0, 2, 0, 0, 19, 49, 0, 0, 16, 46, 32, 5, 13, 25, 0, 0, 29, 0, 0, 57, 39, 0, 0, 0, 0, 14, 0
|0, 0, 3, 0, 38, 8, 24, 53, 0, 0, 34, 62, 27, 1, 19, 0, 20, 25, 48, 0, 0, 0, 0, 36, 49, 22, 59, 0, 0, 46, 0, 21, 0, 0, 0, 0, 0, 0, 0, 0, 56, 0, 0, 0, 0, 0, 15, 0, 61, 28, 11, 10, 26, 0, 16, 52, 9, 45, 12, 0, 42, 0, 0, 0
|35, 0, 0, 21, 15, 0, 0, 0, 0, 0, 0, 4, 0, 0, 52, 0, 33, 7, 0, 30, 63, 0, 0, 2, 0, 0, 34, 20, 0, 0, 58, 16, 0, 0, 24, 54, 37, 0, 64, 0, 0, 0, 0, 0, 0, 0, 0, 9, 18, 0, 0, 60, 40, 12, 43, 0, 0, 0, 44, 0, 27, 0, 0, 17
|0, 20, 53, 31, 0, 64, 0, 12, 26, 0, 14, 6, 22, 0, 59, 0, 30, 0, 0, 32, 0, 0, 7, 0, 35, 62, 56, 0, 51, 24, 0, 0, 40, 0, 0, 23, 34, 0, 41, 0, 3, 0, 0, 0, 43, 0, 21, 0, 54, 60, 0, 0, 0, 45, 0, 0, 61, 0, 27, 47, 39, 15, 33, 46
|59, 13, 21, 10, 0, 0, 0, 27, 34, 0, 0, 60, 23, 12, 0, 62, 42, 0, 26, 0, 0, 0, 0, 0, 0, 15, 19, 0, 7, 50, 45, 22, 61, 0, 0, 0, 57, 0, 0, 30, 38, 0, 0, 63, 0, 0, 8, 0, 28, 0, 0, 11, 0, 0, 0, 0, 0, 53, 0, 16, 56, 0, 9, 40
|46, 0, 30, 0, 57, 0, 0, 1, 7, 0, 5, 0, 0, 0, 0, 55, 0, 9, 41, 0, 0, 0, 51, 11, 64, 0, 21, 4, 39, 0, 0, 47, 43, 0, 17, 0, 63, 0, 0, 48, 35, 18, 22, 36, 14, 0, 6, 0, 10, 8, 62, 0, 25, 40, 26, 0, 0, 0, 42, 0, 44, 0, 54, 24
|50, 18, 39, 61, 0, 0, 0, 0, 9, 64, 0, 51, 0, 47, 24, 44, 57, 0, 0, 21, 0, 62, 25, 0, 0, 0, 0, 0, 33, 0, 30, 3, 38, 54, 0, 22, 32, 0, 28, 37, 0, 0, 0, 2, 0, 0, 17, 0, 20, 36, 0, 14, 43, 4, 29, 0, 0, 0, 0, 10, 60, 0, 0, 6
|0, 0, 0, 0, 37, 22, 0, 0, 38, 35, 0, 0, 16, 0, 0, 33, 28, 0, 0, 40, 0, 0, 13, 0, 31, 60, 0, 0, 32, 0, 0, 0, 1, 47, 8, 25, 0, 0, 0, 0, 0, 57, 0, 0, 48, 46, 30, 50, 0, 0, 0, 64, 56, 0, 0, 0, 2, 0, 0, 14, 11, 0, 0, 20
|43, 0, 55, 0, 0, 0, 14, 3, 0, 0, 28, 36, 30, 18, 40, 0, 27, 0, 47, 60, 0, 59, 0, 0, 0, 0, 0, 0, 25, 37, 0, 42, 39, 0, 0, 0, 26, 45, 0, 62, 24, 0, 5, 54, 61, 53, 32, 16, 58, 57, 21, 0, 22, 2, 63, 0, 0, 0, 0, 41, 17, 19, 4, 34
|0, 38, 0, 36, 4, 0, 52, 2, 0, 48, 11, 0, 0, 29, 0, 0, 0, 6, 58, 37, 35, 50, 0, 14, 28, 44, 54, 49, 17, 40, 18, 63, 46, 55, 64, 53, 0, 7, 0, 0, 0, 0, 26, 56, 25, 60, 0, 47, 16, 0, 61, 0, 19, 0, 0, 33, 59, 0, 22, 0, 32, 0, 0, 12
|0, 25, 0, 0, 0, 9, 41, 62, 8, 0, 4, 0, 0, 0, 0, 0, 0, 0, 0, 43, 0, 2, 20, 0, 0, 0, 0, 0, 36, 52, 55, 0, 35, 0, 0, 0, 16, 0, 0, 19, 15, 0, 0, 0, 23, 29, 0, 0, 0, 0, 39, 46, 27, 0, 24, 6, 63, 0, 49, 26, 64, 7, 31, 0
|0, 0, 6, 0, 18, 0, 0, 0, 0, 50, 27, 13, 0, 0, 0, 56, 0, 19, 0, 0, 0, 0, 0, 15, 0, 0, 0, 0, 0, 0, 46, 0, 0, 0, 9, 57, 0, 23, 0, 49, 0, 0, 38, 43, 33, 0, 0, 0, 0, 55, 0, 0, 0, 0, 0, 48, 20, 0, 5, 28, 0, 0, 0, 10
|0, 64, 31, 38, 0, 41, 0, 60, 0, 0, 0, 16, 0, 63, 37, 42, 32, 48, 55, 0, 0, 0, 5, 0, 29, 18, 15, 0, 0, 61, 0, 0, 12, 17, 54, 45, 24, 0, 44, 7, 52, 0, 0, 0, 0, 51, 49, 0, 0, 25, 0, 0, 14, 0, 13, 28, 0, 56, 2, 0, 57, 0, 0, 0
|13, 0, 0, 0, 0, 0, 0, 0, 0, 33, 0, 18, 64, 0, 48, 7, 25, 0, 0, 54, 11, 34, 62, 57, 4, 0, 0, 0, 5, 45, 8, 0, 37, 0, 0, 0, 38, 0, 52, 0, 0, 35, 28, 59, 0, 27, 0, 0, 39, 10, 0, 47, 30, 26, 46, 60, 0, 0, 0, 0, 55, 0, 3, 23
|30, 5, 26, 0, 0, 12, 0, 0, 52, 0, 0, 34, 38, 31, 0, 6, 0, 60, 8, 0, 0, 0, 0, 22, 59, 0, 32, 40, 44, 43, 0, 0, 20, 15, 3, 0, 0, 0, 27, 0, 10, 0, 0, 29, 50, 0, 18, 0, 53, 0, 2, 0, 49, 0, 54, 0, 0, 0, 0, 0, 0, 0, 19, 14
|0, 36, 0, 62, 25, 0, 8, 48, 0, 24, 0, 0, 0, 0, 22, 0, 37, 42, 0, 0, 13, 27, 28, 0, 50, 23, 51, 63, 34, 0, 0, 49, 60, 26, 0, 0, 0, 0, 46, 5, 30, 7, 2, 0, 17, 32, 0, 15, 64, 19, 52, 0, 0, 31, 11, 18, 35, 12, 43, 29, 0, 0, 0, 0
|0, 40, 0, 0, 7, 0, 17, 63, 47, 30, 1, 58, 35, 59, 0, 0, 53, 38, 39, 64, 0, 49, 23, 0, 24, 3, 60, 19, 12, 0, 0, 0, 0, 0, 0, 8, 51, 0, 50, 43, 0, 0, 0, 0, 0, 0, 62, 0, 36, 0, 0, 0, 37, 15, 27, 0, 54, 46, 0, 42, 0, 0, 61, 0
|0, 0, 0, 55, 16, 0, 0, 0, 0, 12, 41, 49, 0, 0, 32, 28, 2, 20, 0, 0, 0, 4, 0, 21, 36, 58, 30, 0, 0, 0, 25, 0, 31, 0, 0, 42, 0, 10, 0, 13, 37, 6, 61, 53, 54, 47, 0, 0, 56, 50, 5, 0, 0, 23, 0, 0, 52, 7, 0, 0, 0, 8, 0, 0
|0, 57, 51, 29, 0, 37, 54, 24, 2, 0, 0, 0, 0, 55, 23, 0, 0, 0, 0, 61, 0, 0, 43, 0, 0, 0, 0, 0, 35, 28, 42, 0, 19, 30, 14, 59, 33, 41, 16, 0, 0, 0, 25, 11, 0, 12, 13, 44, 0, 0, 20, 0, 38, 0, 40, 0, 0, 0, 32, 9, 0, 63, 22, 36|];