order = 8;
grid = [|20, 0, 63, 0, 46, 0, 0, 23, 0, 0, 49, 62, 13, 7, 4, 15, 0, 0, 58, 8, 33, 31, 0, 0, 40, 0, 0, 0, 43, 0, 0, 0, 3, 0, 39, 0, 0, 0, 0, 38, 53, 0, 22, 0, 5, 12, 48, 0, 27, 47, 0, 50, 0, 17, 1, 0, 0, 0, 0, 6, 59, 55, 0, 0
|0, 0, 51, 30, 0, 32, 15, 60, 0, 0, 0, 0, 0, 0, 16, 0, 52, 0, 46, 0, 0, 54, 0, 0, 0, 21, 0, 1, 20, 58, 0, 0, 63, 0, 0, 0, 0, 0, 0, 0, 56, 57, 4, 0, 0, 7, 0, 26, 0, 0, 29, 0, 0, 0, 0, 0, 47, 39, 0, 38, 0, 61, 0, 0
|9, 61, 37, 4, 0, 0, 0, 0, 40, 0, 51, 26, 0, 23, 56, 0, 0, 0, 24, 0, 53, 0, 17, 0, 38, 0, 0, 0, 12, 33, 0, 11, 13, 32, 30, 0, 0, 0, 0, 45, 28, 36, 29, 46, 19, 50, 0, 0, 0, 0, 0, 15, 0, 22, 0, 0, 48, 10, 0, 1, 5, 0, 54, 43
|31, 0, 3, 57, 64, 0, 8, 0, 0, 0, 0, 48, 0, 25, 34, 0, 13, 0, 0, 0, 15, 45, 0, 9, 4, 16, 54, 52, 59, 0, 17, 61, 62, 0, 0, 0, 0, 0, 29, 0, 24, 1, 0, 43, 0, 0, 0, 0, 55, 58, 0, 53, 18, 26, 21, 63, 0, 0, 42, 0, 23, 0, 0, 0
|47, 33, 1, 0, 58, 16, 19, 40, 0, 0, 2, 21, 54, 0, 0, 31, 0, 0, 0, 0, 0, 22, 34, 7, 0, 32, 0, 0, 27, 48, 30, 64, 52, 12, 0, 46, 0, 0, 0, 10, 0, 0, 45, 3, 14, 62, 0, 59, 0, 8, 0, 36, 41, 0, 42, 0, 13, 9, 15, 20, 37, 51, 57, 0
|0, 62, 42, 59, 34, 0, 50, 0, 37, 53, 5, 0, 44, 0, 0, 0, 27, 40, 0, 10, 21, 43, 20, 0, 0, 26, 0, 13, 0, 31, 0, 23, 0, 0, 57, 0, 19, 4, 0, 0, 0, 0, 18, 0, 0, 16, 55, 0, 0, 25, 61, 54, 51, 9, 0, 33, 12, 0, 29, 11, 60, 0, 49, 0
|26, 0, 0, 0, 7, 44, 25, 0, 0, 0, 42, 3, 9, 0, 0, 20, 0, 0, 0, 0, 0, 30, 0, 32, 0, 0, 62, 0, 0, 0, 39, 37, 0, 0, 0, 0, 0, 0, 15, 64, 52, 0, 0, 0, 0, 10, 47, 13, 0, 0, 0, 0, 0, 0, 0, 0, 36, 0, 8, 0, 0, 63, 0, 31
|0, 36, 0, 11, 0, 49, 0, 18, 0, 1, 29, 46, 59, 52, 0, 61, 0, 41, 0, 0, 0, 23, 19, 5, 0, 7, 28, 0, 0, 0, 0, 0, 55, 16, 0, 14, 0, 0, 0, 0, 0, 0, 0, 58, 27, 42, 44, 32, 37, 0, 0, 20, 0, 0, 40, 0, 21, 4, 24, 0, 0, 17, 2, 0
|15, 7, 54, 31, 0, 8, 27, 57, 3, 32, 35, 58, 6, 29, 12, 24, 49, 10, 0, 20, 19, 0, 38, 53, 0, 0, 61, 0, 45, 42, 64, 0, 17, 0, 0, 52, 40, 60, 22, 50, 44, 0, 28, 4, 16, 0, 0, 9, 0, 13, 0, 0, 0, 48, 0, 0, 0, 0, 11, 37, 26, 0, 30, 0
|16, 0, 0, 48, 0, 25, 23, 64, 0, 0, 0, 51, 56, 40, 44, 0, 0, 0, 47, 0, 59, 5, 18, 0, 0, 8, 0, 38, 58, 0, 0, 22, 0, 0, 0, 53, 0, 0, 28, 37, 57, 41, 54, 0, 52, 19, 49, 0, 7, 0, 27, 0, 0, 0, 0, 50, 60, 13, 0, 45, 1, 31, 0, 0
|0, 3, 0, 26, 10, 20, 14, 9, 60, 0, 0, 0, 8, 0, 0, 59, 22, 51, 0, 0, 0, 56, 57, 0, 0, 0, 23, 0, 0, 0, 6, 0, 0, 0, 0, 0, 29, 42, 0, 0, 0, 0, 7, 0, 33, 5, 0, 0, 28, 0, 35, 0, 19, 0, 52, 0, 44, 0, 40, 0, 53, 43, 58, 0
|41, 0, 0, 0, 0, 53, 44, 0, 54, 0, 38, 5, 0, 17, 0, 0, 15, 7, 0, 0, 36, 0, 0, 34, 56, 0, 57, 48, 0, 3, 63, 0, 49, 0, 2, 6, 64, 0, 0, 47, 0, 50, 23, 42, 0, 0, 32, 27, 0, 0, 46, 58, 12, 0, 24, 0, 22, 35, 19, 0, 0, 8, 0, 0
|39, 56, 11, 2, 0, 0, 32, 29, 0, 0, 0, 45, 42, 0, 0, 0, 40, 0, 0, 0, 0, 0, 33, 0, 18, 0, 0, 28, 0, 0, 0, 0, 0, 0, 23, 21, 57, 58, 0, 14, 0, 60, 25, 61, 62, 0, 0, 15, 63, 0, 3, 0, 49, 0, 0, 0, 4, 52, 12, 0, 27, 5, 48, 0
|0, 49, 0, 0, 0, 0, 0, 36, 48, 0, 41, 31, 39, 28, 0, 0, 0, 0, 0, 0, 32, 50, 2, 43, 0, 0, 0, 0, 0, 37, 1, 27, 0, 56, 3, 61, 0, 0, 0, 0, 0, 29, 0, 20, 24, 58, 0, 0, 0, 21, 0, 33, 0, 30, 23, 10, 0, 42, 0, 14, 64, 6, 0, 0
|0, 0, 30, 0, 0, 0, 45, 0, 0, 13, 0, 0, 53, 22, 0, 11, 0, 46, 54, 14, 42, 0, 0, 0, 31, 0, 0, 0, 49, 60, 51, 35, 12, 36, 8, 0, 0, 44, 43, 26, 6, 0, 64, 0, 0, 0, 3, 0, 0, 29, 0, 0, 0, 37, 0, 5, 10, 24, 0, 15, 0, 0, 0, 0
|51, 0, 6, 0, 50, 28, 0, 0, 0, 0, 0, 19, 63, 0, 0, 0, 11, 0, 0, 0, 44, 3, 58, 0, 0, 0, 26, 59, 5, 17, 0, 41, 0, 15, 1, 0, 10, 32, 0, 27, 0, 30, 0, 12, 0, 43, 21, 0, 47, 0, 0, 18, 31, 0, 0, 0, 54, 0, 0, 29, 0, 0, 0, 20
|0, 0, 7, 36, 0, 0, 0, 0, 0, 0, 0, 0, 1, 0, 52, 40, 9, 0, 20, 33, 30, 0, 0, 0, 0, 0, 0, 0, 51, 39, 47, 0, 0, 37, 0, 0, 0, 0, 34, 0, 29, 0, 43, 25, 35, 21, 60, 5, 53, 16, 0, 0, 57, 23, 15, 41, 0, 0, 31, 0, 0, 0, 55, 0
|0, 16, 0, 0, 5, 19, 0, 0, 51, 0, 0, 0, 0, 33, 0, 0, 58, 59, 0, 0, 0, 28, 29, 13, 64, 0, 1, 0, 24, 0, 48, 53, 0, 62, 0, 45, 46, 7, 40, 0, 0, 9, 36, 54, 31, 27, 63, 3, 26, 0, 0, 0, 25, 52, 60, 14, 49, 0, 0, 8, 6, 11, 43, 23
|24, 0, 0, 60, 55, 13, 29, 0, 53, 30, 16, 6, 31, 34, 0, 5, 0, 0, 3, 0, 63, 0, 48, 0, 62, 0, 45, 20, 26, 43, 23, 2, 47, 0, 0, 27, 50, 0, 0, 32, 0, 0, 0, 52, 11, 0, 7, 0, 4, 0, 0, 64, 37, 0, 0, 54, 59, 0, 0, 0, 33, 57, 0, 42
|18, 27, 0, 51, 0, 35, 0, 0, 4, 0, 0, 42, 37, 0, 20, 23, 16, 8, 0, 0, 0, 44, 0, 50, 7, 34, 0, 0, 33, 28, 0, 0, 22, 48, 52, 54, 0, 9, 0, 0, 0, 58, 0, 0, 0, 64, 0, 46, 0, 38, 0, 0, 0, 0, 0, 24, 0, 0, 0, 5, 0, 0, 0, 0
|0, 40, 0, 10, 0, 0, 52, 0, 0, 0, 43, 18, 29, 45, 0, 0, 24, 0, 0, 11, 0, 26, 64, 60, 25, 0, 37, 56, 32, 13, 41, 12, 0, 0, 0, 23, 21, 0, 0, 0, 0, 0, 19, 0, 0, 53, 0, 8, 58, 27, 47, 49, 0, 36, 0, 0, 0, 3, 4, 51, 0, 46, 61, 0
|23, 0, 33, 61, 0, 0, 21, 4, 0, 0, 0, 22, 0, 0, 49, 7, 0, 42, 37, 0, 62, 0, 5, 25, 16, 40, 0, 0, 55, 52, 15, 18, 0, 20, 0, 0, 36, 51, 0, 8, 0, 0, 2, 47, 28, 0, 0, 44, 46, 0, 0, 59, 0, 0, 0, 0, 0, 0, 14, 13, 0, 27, 0, 0
|0, 0, 9, 6, 0, 0, 58, 0, 0, 11, 0, 8, 0, 19, 64, 0, 7, 0, 61, 0, 0, 57, 0, 41, 46, 0, 0, 36, 42, 14, 3, 0, 0, 5, 0, 15, 25, 0, 0, 0, 34, 0, 51, 0, 1, 32, 0, 24, 44, 0, 13, 0, 62, 0, 28, 40, 20, 0, 35, 21, 0, 0, 18, 38
|0, 0, 0, 47, 0, 30, 38, 0, 0, 12, 0, 0, 0, 0, 0, 57, 17, 27, 0, 0, 0, 18, 0, 0, 0, 0, 58, 0, 0, 21, 35, 54, 31, 0, 0, 0, 0, 0, 0, 42, 59, 0, 48, 0, 22, 0, 0, 0, 0, 45, 0, 8, 20, 0, 61, 29, 64, 36, 0, 0, 7, 0, 37, 39
|29, 55, 59, 28, 0, 0, 54, 0, 25, 0, 0, 7, 60, 42, 0, 3, 0, 0, 36, 38, 13, 64, 32, 0, 41, 0, 0, 2, 21, 0, 0, 0, 0, 0, 9, 0, 8, 0, 63, 0, 58, 0, 39, 19, 23, 0, 43, 0, 35, 0, 0, 0, 17, 0, 4, 47, 27, 0, 57, 0, 31, 0, 0, 52
|0, 25, 0, 32, 40, 56, 0, 0, 10, 0, 0, 47, 0, 37, 0, 13, 12, 35, 0, 42, 0, 0, 23, 0, 0, 6, 49, 0, 60, 30, 19, 0, 0, 2, 0, 31, 34, 0, 52, 62, 54, 18, 59, 0, 0, 44, 17, 0, 51, 0, 0, 0, 0, 0, 0, 39, 55, 45, 58, 64, 41, 50, 46, 0
|0, 0, 50, 0, 35, 0, 17, 44, 5, 58, 9, 0, 0, 54, 0, 0, 62, 24, 0, 0, 14, 49, 0, 52, 42, 56, 0, 40, 18, 0, 0, 0, 0, 47, 0, 0, 38, 0, 20, 3, 36, 37, 6, 0, 0, 29, 64, 25, 0, 22, 8, 0, 60, 0, 41, 0, 0, 0, 0, 4, 0, 0, 12, 15
|0, 0, 0, 37, 0, 23, 49, 0, 59, 0, 0, 0, 0, 4, 51, 36, 0, 58, 0, 41, 16, 0, 0, 6, 0, 0, 38, 5, 39, 22, 0, 47, 26, 29, 0, 0, 32, 15, 50, 0, 40, 0, 52, 0, 53, 3, 0, 2, 0, 30, 0, 12, 44, 0, 0, 64, 42, 18, 60, 0, 0, 0, 8, 0
|8, 63, 0, 0, 0, 38, 31, 0, 0, 56, 18, 0, 21, 0, 27, 0, 53, 0, 28, 50, 3, 0, 37, 40, 52, 46, 0, 0, 48, 35, 9, 33, 0, 54, 0, 0, 13, 0, 42, 6, 12, 22, 55, 49, 0, 60, 41, 0, 0, 1, 34, 7, 0, 58, 25, 0, 30, 2, 5, 0, 0, 44, 0, 0
|21, 0, 0, 18, 0, 9, 0, 0, 20, 0, 0, 53, 40, 0, 0, 35, 57, 0, 30, 0, 0, 48, 44, 22, 0, 36, 0, 16, 29, 0, 0, 0, 39, 0, 0, 0, 0, 64, 0, 0, 51, 0, 0, 62, 0, 0, 15, 0, 49, 33, 31, 43, 0, 13, 32, 19, 0, 0, 0, 59, 0, 23, 0, 0
|0, 11, 0, 13, 0, 14, 0, 0, 0, 41, 30, 52, 0, 0, 0, 49, 0, 15, 17, 0, 46, 25, 0, 56, 3, 0, 0, 0, 0, 0, 0, 44, 0, 19, 0, 51, 12, 40, 23, 22, 0, 24, 33, 28, 0, 31, 27, 0, 54, 53, 21, 0, 0, 45, 0, 62, 35, 7, 0, 16, 47, 0, 38, 1
|0, 0, 0, 58, 0, 0, 7, 51, 43, 14, 55, 0, 12, 2, 0, 26, 0, 0, 0, 27, 0, 29, 45, 0, 0, 64, 0, 0, 0, 25, 61, 17, 0, 0, 0, 16, 0, 0, 0, 35, 0, 0, 9, 0, 0, 0, 5, 0, 15, 0, 0, 0, 52, 50, 0, 18, 63, 0, 0, 62, 0, 0, 10, 21
|0, 0, 0, 12, 19, 0, 0, 0, 0, 0, 0, 38, 18, 0, 0, 0, 0, 0, 10, 0, 0, 4, 42, 27, 0, 0, 64, 6, 0, 55, 0, 14, 28, 21, 51, 48, 7, 0, 53, 0, 0, 0, 0, 0, 46, 0, 2, 58, 41, 43, 22, 40, 0, 33, 39, 15, 0, 5, 36, 50, 0, 0, 0, 0
|0, 32, 0, 15, 0, 0, 0, 22, 21, 40, 0, 2, 7, 0, 53, 0, 51, 33, 0, 0, 47, 0, 0, 62, 0, 59, 12, 0, 16, 18, 42, 0, 64, 0, 0, 39, 23, 43, 37, 29, 0, 5, 0, 0, 0, 0, 24, 35, 19, 0, 60, 10, 0, 0, 6, 27, 0, 0, 0, 0, 0, 0, 0, 4
|6, 60, 14, 0, 0, 50, 0, 42, 22, 49, 0, 37, 64, 24, 30, 28, 61, 53, 39, 57, 0, 0, 0, 0, 0, 0, 11, 41, 56, 0, 0, 0, 10, 0, 27, 0, 0, 2, 54, 0, 9, 62, 0, 0, 47, 0, 23, 21, 0, 32, 0, 0, 38, 44, 8, 0, 0, 48, 63, 7, 58, 0, 0, 40
|0, 23, 43, 0, 0, 64, 5, 0, 13, 0, 0, 59, 0, 0, 0, 46, 44, 0, 0, 35, 41, 60, 0, 15, 45, 0, 50, 26, 63, 51, 0, 7, 56, 0, 0, 0, 0, 0, 0, 61, 0, 0, 17, 14, 0, 0, 0, 0, 0, 0, 9, 29, 0, 0, 58, 0, 0, 0, 10, 0, 0, 0, 0, 0
|0, 0, 0, 0, 0, 0, 0, 13, 11, 0, 0, 54, 0, 32, 5, 45, 0, 30, 0, 0, 0, 0, 24, 17, 58, 23, 27, 0, 62, 40, 52, 0, 0, 0, 22, 0, 44, 0, 0, 0, 0, 43, 0, 59, 0, 0, 0, 0, 16, 31, 64, 0, 53, 0, 56, 61, 41, 0, 39, 55, 57, 21, 47, 18
|11, 0, 0, 0, 28, 0, 0, 25, 12, 27, 0, 0, 41, 3, 0, 33, 0, 0, 64, 0, 0, 37, 21, 0, 57, 43, 9, 61, 0, 10, 38, 0, 0, 0, 0, 40, 0, 0, 4, 0, 7, 0, 0, 0, 54, 13, 53, 0, 18, 5, 62, 0, 0, 0, 46, 0, 0, 32, 51, 42, 0, 20, 0, 0
|4, 18, 0, 0, 51, 55, 0, 0, 56, 47, 39, 0, 10, 35, 0, 0, 0, 19, 11, 0, 20, 0, 8, 31, 0, 3, 60, 54, 0, 0, 0, 0, 5, 0, 17, 59, 0, 0, 0, 0, 0, 44, 0, 6, 0, 26, 0, 28, 36, 0, 0, 0, 42, 0, 0, 2, 0, 0, 43, 12, 0, 38, 0, 37
|35, 44, 0, 0, 0, 0, 30, 0, 0, 23, 0, 34, 43, 51, 15, 0, 14, 38, 0, 5, 0, 58, 25, 0, 0, 0, 0, 37, 0, 0, 0, 0, 36, 42, 46, 1, 0, 0, 0, 60, 0, 3, 40, 32, 0, 0, 0, 0, 0, 57, 0, 45, 21, 0, 0, 4, 6, 61, 13, 52, 24, 0, 0, 0
|0, 0, 0, 0, 22, 51, 0, 16, 0, 34, 45, 35, 0, 61, 0, 0, 0, 18, 33, 0, 7, 0, 0, 11, 63, 0, 13, 24, 31, 46, 0, 28, 0, 10, 0, 58, 0, 3, 32, 0, 4, 59, 0, 1, 0, 0, 0, 23, 25, 0, 0, 62, 0, 41, 0, 0, 37, 53, 0, 0, 0, 29, 0, 26
|0, 1, 0, 27, 0, 0, 0, 46, 0, 52, 31, 60, 14, 43, 26, 62, 0, 0, 23, 63, 4, 21, 0, 35, 0, 0, 53, 0, 0, 0, 22, 0, 38, 61, 41, 0, 0, 0, 0, 0, 0, 0, 44, 0, 25, 24, 13, 0, 0, 6, 40, 16, 29, 18, 0, 0, 0, 0, 33, 9, 39, 30, 34, 55
|0, 19, 0, 23, 0, 52, 53, 0, 44, 22, 0, 41, 36, 21, 33, 64, 0, 48, 27, 0, 39, 0, 51, 0, 55, 0, 0, 11, 47, 61, 0, 0, 30, 0, 34, 0, 0, 16, 0, 2, 0, 31, 62, 17, 0, 35, 0, 12, 0, 0, 0, 0, 7, 20, 0, 38, 0, 43, 0, 0, 0, 10, 4, 0
|0, 14, 0, 0, 8, 47, 0, 7, 0, 0, 24, 63, 20, 0, 54, 18, 0, 0, 0, 37, 0, 0, 0, 3, 0, 44, 25, 29, 0, 56, 21, 9, 0, 33, 12, 50, 48, 0, 62, 0, 0, 42, 11, 0, 58, 6, 34, 0, 0, 52, 4, 0, 28, 61, 43, 45, 0, 59, 0, 31, 0, 0, 0, 51
|0, 0, 45, 33, 0, 4, 59, 50, 0, 0, 0, 0, 0, 0, 8, 0, 0, 43, 44, 61, 0, 17, 0, 47, 2, 54, 39, 0, 37, 0, 12, 0, 0, 60, 0, 22, 0, 0, 18, 24, 0, 28, 0, 53, 9, 0, 0, 0, 42, 0, 11, 0, 3, 0, 0, 0, 0, 6, 48, 0, 35, 0, 41, 0
|10, 0, 0, 0, 0, 6, 0, 54, 58, 51, 12, 0, 19, 5, 59, 0, 64, 1, 25, 53, 0, 15, 0, 45, 30, 4, 7, 17, 40, 23, 0, 0, 0, 0, 0, 0, 0, 13, 0, 20, 0, 32, 0, 0, 50, 0, 26, 43, 34, 0, 0, 63, 0, 0, 48, 8, 0, 21, 47, 0, 42, 62, 0, 24
|0, 42, 0, 39, 24, 0, 0, 5, 17, 37, 0, 0, 4, 13, 0, 27, 0, 31, 50, 0, 52, 0, 0, 0, 0, 58, 35, 0, 38, 0, 62, 32, 29, 0, 25, 43, 45, 46, 49, 0, 41, 21, 8, 0, 63, 55, 0, 7, 0, 26, 59, 0, 30, 47, 33, 0, 28, 12, 0, 0, 3, 0, 0, 16
|0, 13, 2, 0, 0, 0, 0, 0, 16, 0, 0, 0, 0, 0, 3, 0, 0, 29, 0, 46, 24, 0, 12, 0, 43, 0, 33, 0, 10, 0, 0, 0, 0, 7, 4, 42, 0, 55, 26, 0, 0, 19, 0, 0, 0, 30, 52, 0, 31, 56, 0, 35, 0, 0, 44, 53, 0, 11, 49, 23, 0, 0, 0, 14
|0, 4, 0, 0, 30, 63, 26, 0, 19, 29, 0, 56, 0, 39, 0, 0, 33, 6, 42, 23, 0, 55, 15, 49, 37, 0, 0, 0, 0, 34, 31, 62, 0, 0, 0, 0, 0, 0, 36, 21, 0, 0, 5, 0, 61, 0, 0, 0, 0, 0, 0, 41, 50, 0, 0, 51, 32, 44, 16, 0, 20, 7, 0, 0
|0, 0, 62, 0, 36, 0, 0, 32, 0, 0, 0, 0, 11, 41, 1, 25, 29, 44, 35, 58, 0, 47, 0, 0, 33, 18, 0, 39, 0, 0, 56, 42, 0, 40, 0, 17, 15, 0, 5, 57, 23, 27, 0, 0, 43, 59, 0, 0, 20, 2, 0, 0, 61, 0, 0, 13, 0, 64, 0, 30, 45, 0, 0, 0
|2, 21, 64, 45, 0, 42, 24, 59, 18, 20, 0, 0, 17, 0, 48, 0, 28, 32, 0, 0, 0, 0, 0, 0, 54, 55, 46, 0, 7, 0, 0, 60, 9, 0, 0, 0, 0, 25, 61, 0, 3, 0, 0, 13, 0, 0, 1, 0, 0, 0, 63, 0, 0, 0, 62, 0, 58, 33, 0, 47, 50, 40, 0, 36
|0, 50, 0, 49, 16, 0, 18, 0, 0, 0, 61, 4, 5, 9, 0, 54, 0, 0, 0, 0, 0, 53, 0, 36, 0, 2, 3, 0, 41, 0, 0, 0, 0, 0, 7, 62, 1, 27, 35, 0, 0, 0, 10, 37, 0, 0, 0, 0, 0, 0, 23, 0, 0, 34, 29, 0, 24, 26, 22, 0, 11, 0, 15, 56
|13, 0, 0, 0, 0, 0, 56, 0, 62, 57, 60, 43, 38, 0, 0, 0, 45, 22, 19, 0, 50, 0, 46, 18, 0, 17, 36, 0, 0, 47, 26, 10, 0, 0, 0, 0, 0, 0, 0, 0, 16, 35, 41, 2, 7, 0, 58, 54, 30, 0, 33, 52, 9, 21, 27, 44, 0, 0, 0, 39, 0, 53, 31, 0
|0, 0, 34, 43, 0, 0, 61, 58, 0, 33, 0, 0, 0, 0, 0, 0, 38, 0, 0, 12, 0, 2, 0, 63, 0, 11, 0, 23, 25, 0, 0, 19, 0, 0, 18, 0, 39, 31, 60, 0, 48, 0, 0, 55, 44, 56, 0, 0, 40, 0, 28, 3, 0, 0, 0, 0, 0, 41, 0, 57, 0, 42, 13, 0
|7, 0, 12, 20, 0, 39, 0, 35, 2, 0, 52, 0, 0, 63, 31, 8, 60, 62, 56, 24, 0, 0, 0, 0, 0, 29, 5, 14, 0, 27, 0, 0, 0, 0, 0, 0, 0, 33, 0, 46, 0, 0, 47, 0, 0, 0, 0, 36, 0, 0, 25, 0, 22, 42, 0, 58, 43, 0, 0, 0, 4, 59, 0, 0
|55, 15, 0, 14, 0, 41, 6, 52, 0, 44, 40, 36, 0, 0, 0, 0, 37, 0, 48, 0, 0, 0, 0, 59, 0, 22, 4, 0, 0, 0, 0, 0, 0, 26, 0, 64, 30, 0, 13, 0, 60, 38, 31, 29, 0, 0, 0, 33, 56, 0, 0, 32, 0, 0, 19, 43, 8, 46, 27, 0, 0, 0, 1, 35
|46, 26, 13, 53, 42, 0, 0, 6, 31, 21, 37, 0, 0, 0, 0, 0, 0, 0, 0, 29, 28, 0, 0, 12, 47, 0, 16, 0, 0, 5, 0, 0, 61, 52, 40, 0, 35, 56, 0, 23, 62, 0, 0, 0, 2, 0, 25, 0, 43, 19, 0, 0, 0, 39, 55, 0, 15, 17, 20, 0, 0, 3, 22, 7
|45, 0, 22, 19, 0, 0, 0, 21, 63, 17, 0, 29, 0, 56, 38, 0, 0, 0, 26, 0, 8, 24, 59, 61, 0, 0, 42, 0, 0, 32, 0, 0, 44, 46, 10, 0, 0, 0, 0, 25, 0, 47, 0, 36, 55, 9, 18, 51, 0, 0, 0, 0, 0, 40, 57, 16, 0, 0, 2, 60, 0, 0, 0, 0
|40, 10, 0, 0, 0, 0, 33, 0, 0, 2, 0, 20, 46, 0, 41, 0, 42, 0, 0, 25, 48, 0, 1, 38, 17, 12, 56, 18, 34, 44, 0, 51, 0, 14, 36, 11, 0, 0, 0, 0, 0, 0, 0, 15, 0, 0, 29, 0, 62, 0, 0, 61, 8, 24, 0, 0, 50, 63, 0, 0, 55, 0, 0, 0
|49, 0, 60, 56, 15, 0, 0, 0, 0, 26, 3, 40, 0, 48, 0, 12, 0, 0, 6, 64, 0, 0, 0, 19, 0, 0, 0, 9, 35, 29, 8, 0, 16, 22, 62, 0, 0, 50, 1, 58, 45, 0, 63, 0, 0, 61, 0, 0, 0, 0, 0, 0, 0, 31, 0, 23, 0, 25, 0, 44, 38, 32, 0, 0
|0, 0, 16, 3, 17, 0, 0, 28, 36, 4, 0, 0, 25, 8, 45, 53, 43, 0, 0, 0, 27, 52, 0, 0, 23, 62, 0, 0, 0, 41, 60, 30, 15, 0, 0, 63, 2, 29, 33, 9, 32, 12, 46, 35, 59, 0, 19, 0, 0, 0, 5, 48, 0, 6, 0, 0, 0, 0, 0, 0, 0, 0, 0, 0
|25, 38, 0, 8, 0, 61, 0, 0, 0, 50, 58, 33, 0, 30, 0, 9, 47, 55, 32, 0, 22, 62, 0, 0, 0, 45, 52, 0, 0, 0, 2, 0, 37, 13, 43, 0, 53, 0, 64, 59, 0, 0, 26, 44, 0, 54, 4, 0, 3, 28, 0, 0, 56, 7, 63, 46, 5, 0, 0, 0, 0, 0, 0, 0
|0, 0, 0, 0, 32, 0, 0, 0, 52, 0, 59, 39, 51, 1, 0, 55, 0, 0, 0, 0, 0, 16, 0, 0, 0, 0, 0, 33, 46, 26, 0, 0, 0, 27, 0, 38, 17, 18, 0, 7, 43, 0, 13, 40, 56, 57, 0, 0, 0, 0, 44, 21, 0, 54, 35, 42, 0, 0, 0, 0, 0, 37, 0, 64
|0, 2, 55, 0, 11, 36, 0, 63, 0, 5, 0, 0, 62, 0, 47, 43, 0, 0, 0, 51, 0, 0, 0, 39, 6, 50, 40, 58, 19, 38, 37, 0, 42, 0, 26, 32, 0, 0, 0, 0, 0, 33, 24, 7, 0, 0, 16, 0, 29, 0, 41, 0, 10, 0, 12, 0, 0, 27, 0, 0, 13, 4, 9, 0|];