order = 8;
grid = [|6, 14, 12, 0, 0, 23, 0, 0, 0, 0, 0, 0, 0, 28, 0, 49, 0, 0, 3, 20, 0, 10, 0, 0, 59, 30, 0, 51, 35, 0, 17, 57, 31, 0, 58, 0, 0, 0, 0, 0, 62, 40, 21, 24, 22, 0, 0, 37, 42, 25, 56, 0, 0, 54, 0, 0, 4, 0, 0, 26, 45, 8, 0, 0
|0, 0, 0, 52, 30, 62, 0, 0, 0, 0, 0, 37, 2, 0, 8, 0, 13, 19, 0, 0, 56, 64, 63, 0, 0, 32, 0, 0, 0, 47, 25, 0, 49, 0, 0, 22, 34, 43, 0, 45, 0, 7, 0, 28, 12, 0, 0, 17, 0, 36, 11, 1, 0, 40, 10, 0, 33, 51, 0, 0, 0, 0, 18, 0
|0, 15, 0, 4, 37, 63, 0, 43, 60, 0, 18, 0, 22, 6, 0, 11, 0, 0, 17, 54, 0, 55, 0, 0, 48, 0, 0, 0, 23, 49, 34, 0, 36, 41, 61, 0, 0, 9, 0, 7, 25, 57, 42, 0, 0, 14, 56, 0, 0, 0, 0, 0, 58, 0, 51, 31, 2, 30, 40, 27, 20, 0, 62, 0
|0, 58, 50, 57, 0, 0, 0, 0, 43, 34, 7, 0, 10, 0, 38, 36, 8, 0, 42, 47, 45, 0, 0, 31, 0, 0, 20, 41, 29, 0, 0, 3, 0, 0, 0, 26, 48, 0, 25, 0, 11, 54, 60, 4, 55, 64, 33, 63, 0, 0, 49, 0, 2, 0, 0, 23, 0, 9, 1, 0, 0, 0, 0, 0
|0, 0, 16, 9, 0, 11, 36, 0, 0, 0, 0, 0, 0, 0, 0, 0, 26, 21, 30, 0, 0, 23, 0, 0, 0, 0, 13, 58, 0, 7, 4, 28, 0, 8, 59, 0, 14, 0, 0, 12, 31, 0, 0, 0, 0, 52, 0, 0, 33, 0, 38, 22, 57, 0, 0, 0, 47, 5, 0, 0, 60, 35, 0, 42
|2, 0, 0, 0, 34, 45, 0, 56, 0, 9, 41, 0, 47, 0, 40, 0, 38, 51, 49, 43, 0, 0, 0, 0, 0, 0, 55, 52, 0, 0, 5, 0, 21, 0, 50, 53, 0, 0, 0, 0, 0, 58, 1, 13, 48, 59, 0, 20, 46, 0, 0, 0, 0, 35, 0, 26, 0, 0, 0, 63, 25, 0, 39, 0
|8, 22, 0, 42, 48, 59, 0, 0, 0, 20, 0, 0, 29, 0, 0, 0, 0, 0, 52, 12, 0, 0, 39, 6, 50, 36, 0, 0, 0, 0, 56, 0, 23, 33, 0, 0, 18, 0, 46, 54, 0, 9, 0, 49, 0, 0, 0, 5, 0, 17, 63, 0, 0, 0, 4, 3, 55, 0, 0, 10, 0, 0, 0, 41
|0, 0, 18, 0, 0, 0, 0, 0, 0, 13, 0, 0, 0, 51, 58, 0, 37, 33, 57, 28, 0, 25, 0, 0, 0, 43, 0, 0, 0, 0, 0, 45, 56, 1, 0, 0, 0, 40, 6, 0, 36, 0, 39, 27, 16, 0, 0, 46, 0, 0, 0, 21, 0, 0, 15, 41, 50, 0, 0, 0, 49, 31, 38, 0
|5, 0, 40, 32, 61, 15, 0, 0, 30, 16, 51, 0, 0, 56, 0, 41, 0, 0, 8, 27, 0, 13, 0, 0, 0, 0, 39, 26, 58, 45, 0, 49, 6, 60, 1, 28, 4, 0, 0, 18, 0, 43, 47, 3, 24, 0, 19, 0, 0, 50, 35, 12, 0, 0, 0, 0, 34, 0, 0, 9, 2, 0, 0, 17
|0, 0, 9, 0, 45, 50, 8, 51, 0, 0, 21, 0, 0, 0, 0, 0, 16, 0, 43, 0, 0, 0, 24, 0, 0, 20, 2, 0, 40, 0, 0, 48, 38, 0, 0, 13, 31, 0, 0, 0, 0, 0, 4, 25, 0, 0, 0, 0, 30, 1, 26, 0, 0, 5, 0, 6, 3, 0, 55, 0, 33, 0, 36, 64
|0, 10, 0, 0, 0, 42, 4, 33, 61, 48, 59, 29, 63, 7, 54, 20, 49, 25, 32, 38, 31, 0, 0, 0, 16, 0, 36, 0, 60, 0, 0, 0, 0, 0, 14, 17, 0, 58, 0, 0, 50, 26, 53, 8, 51, 6, 39, 2, 15, 0, 24, 0, 47, 0, 41, 55, 35, 0, 18, 62, 1, 0, 0, 0
|60, 0, 31, 30, 0, 25, 0, 0, 49, 0, 0, 62, 34, 1, 0, 44, 0, 0, 22, 0, 0, 0, 0, 26, 0, 0, 28, 7, 4, 8, 0, 0, 0, 0, 0, 23, 5, 12, 0, 0, 55, 0, 0, 59, 0, 45, 0, 0, 21, 0, 14, 0, 18, 10, 63, 17, 0, 24, 0, 50, 32, 0, 61, 0
|55, 0, 62, 26, 12, 0, 0, 0, 28, 38, 0, 0, 0, 0, 0, 0, 59, 0, 0, 36, 2, 0, 33, 0, 47, 0, 53, 22, 14, 11, 44, 41, 39, 0, 29, 19, 15, 8, 0, 21, 10, 0, 54, 0, 13, 0, 1, 16, 0, 49, 20, 0, 0, 42, 0, 0, 45, 0, 31, 58, 0, 0, 0, 63
|28, 23, 1, 49, 2, 35, 0, 21, 0, 0, 0, 0, 31, 13, 0, 0, 42, 7, 19, 6, 0, 0, 0, 0, 0, 5, 17, 0, 0, 0, 37, 0, 0, 26, 32, 0, 0, 0, 24, 10, 41, 0, 0, 60, 9, 0, 36, 15, 0, 0, 0, 0, 61, 0, 38, 0, 0, 46, 44, 16, 0, 0, 57, 0
|44, 3, 0, 36, 0, 7, 48, 0, 50, 18, 55, 11, 0, 40, 0, 0, 0, 0, 41, 45, 4, 30, 14, 0, 1, 59, 35, 57, 0, 23, 0, 0, 0, 27, 47, 49, 0, 0, 0, 20, 0, 0, 52, 12, 61, 0, 0, 56, 0, 19, 0, 0, 64, 0, 0, 0, 0, 0, 0, 0, 26, 0, 43, 0
|13, 47, 0, 17, 41, 0, 19, 0, 0, 58, 0, 0, 46, 0, 0, 0, 0, 9, 50, 1, 0, 0, 28, 11, 0, 10, 25, 0, 54, 18, 0, 51, 0, 0, 35, 0, 43, 48, 55, 0, 44, 42, 49, 0, 0, 0, 20, 0, 0, 27, 3, 0, 8, 0, 0, 0, 40, 0, 0, 6, 0, 0, 12, 0
|58, 13, 30, 28, 0, 48, 0, 0, 39, 0, 4, 31, 0, 25, 0, 0, 0, 10, 16, 0, 29, 0, 0, 27, 0, 19, 6, 0, 0, 37, 14, 0, 0, 0, 0, 44, 0, 41, 0, 15, 18, 20, 0, 0, 17, 47, 51, 0, 32, 11, 40, 0, 23, 0, 0, 2, 0, 0, 0, 0, 9, 61, 0, 0
|0, 55, 0, 0, 0, 26, 0, 0, 15, 57, 0, 51, 45, 0, 0, 0, 39, 28, 5, 0, 0, 1, 0, 0, 21, 0, 44, 35, 0, 0, 0, 0, 13, 0, 16, 0, 0, 0, 62, 9, 0, 0, 46, 10, 0, 50, 11, 0, 48, 33, 27, 0, 0, 29, 0, 0, 38, 0, 0, 37, 0, 0, 0, 0
|0, 0, 44, 0, 1, 0, 0, 7, 58, 17, 3, 9, 0, 41, 0, 0, 20, 31, 0, 0, 0, 54, 64, 0, 25, 12, 0, 8, 26, 28, 47, 32, 0, 57, 0, 0, 38, 0, 0, 52, 56, 0, 35, 0, 0, 0, 30, 59, 0, 0, 46, 0, 15, 0, 45, 53, 0, 0, 0, 0, 0, 27, 0, 0
|0, 0, 33, 0, 0, 0, 22, 0, 0, 1, 12, 56, 27, 63, 0, 6, 32, 0, 21, 61, 49, 0, 47, 0, 10, 0, 46, 4, 5, 34, 0, 59, 58, 50, 0, 64, 0, 19, 54, 14, 0, 8, 0, 0, 39, 44, 0, 0, 7, 30, 18, 3, 0, 38, 0, 57, 43, 36, 0, 25, 17, 53, 24, 2
|47, 0, 0, 31, 57, 0, 0, 0, 0, 61, 46, 24, 0, 34, 0, 52, 23, 15, 0, 0, 0, 43, 26, 0, 0, 13, 56, 0, 0, 20, 0, 16, 0, 0, 63, 0, 60, 18, 0, 0, 27, 0, 0, 0, 0, 0, 2, 55, 28, 0, 0, 58, 59, 0, 0, 0, 29, 0, 0, 44, 0, 40, 45, 11
|0, 0, 0, 0, 0, 18, 27, 0, 11, 0, 0, 54, 30, 0, 2, 0, 41, 34, 0, 0, 25, 6, 3, 0, 0, 0, 0, 17, 51, 29, 48, 40, 0, 35, 0, 21, 59, 47, 26, 0, 0, 0, 24, 1, 57, 0, 58, 0, 0, 0, 36, 10, 60, 37, 5, 39, 7, 0, 49, 0, 28, 0, 0, 56
|0, 61, 0, 0, 56, 0, 52, 59, 14, 0, 50, 0, 36, 53, 22, 0, 57, 0, 46, 35, 38, 60, 58, 0, 0, 55, 0, 1, 30, 0, 41, 0, 0, 31, 48, 32, 0, 0, 20, 17, 23, 0, 0, 0, 0, 28, 0, 62, 0, 0, 13, 0, 9, 0, 64, 0, 0, 18, 12, 0, 4, 0, 8, 47
|0, 9, 34, 45, 0, 0, 3, 39, 37, 0, 10, 35, 26, 42, 28, 0, 30, 56, 7, 0, 0, 11, 55, 0, 58, 23, 49, 0, 0, 57, 0, 38, 0, 0, 0, 0, 0, 0, 0, 0, 0, 0, 0, 0, 31, 0, 12, 21, 44, 4, 0, 0, 54, 0, 25, 16, 59, 64, 0, 33, 41, 15, 0, 0
|56, 38, 35, 0, 3, 27, 60, 0, 0, 22, 58, 0, 9, 24, 23, 25, 50, 0, 63, 16, 0, 26, 0, 43, 0, 7, 12, 0, 46, 0, 0, 19, 44, 48, 4, 0, 28, 53, 32, 0, 0, 62, 0, 0, 64, 0, 0, 8, 0, 15, 0, 47, 17, 21, 30, 0, 42, 61, 0, 0, 11, 33, 0, 0
|0, 0, 0, 0, 32, 12, 51, 0, 0, 56, 17, 0, 0, 35, 27, 42, 48, 0, 44, 57, 46, 31, 4, 3, 45, 0, 0, 25, 15, 0, 33, 0, 50, 0, 43, 0, 0, 0, 22, 58, 0, 0, 14, 2, 0, 20, 60, 23, 26, 38, 0, 59, 36, 62, 0, 0, 0, 53, 0, 52, 0, 0, 10, 0
|16, 0, 4, 20, 13, 0, 0, 2, 21, 0, 0, 26, 0, 0, 0, 37, 0, 39, 0, 33, 11, 28, 0, 45, 36, 56, 5, 0, 0, 52, 0, 55, 62, 7, 0, 54, 0, 38, 0, 0, 0, 59, 18, 0, 0, 0, 27, 19, 41, 58, 44, 32, 49, 0, 60, 12, 22, 63, 50, 0, 0, 0, 48, 0
|0, 0, 0, 55, 11, 47, 59, 0, 31, 60, 33, 0, 13, 62, 0, 7, 0, 38, 35, 42, 18, 0, 32, 30, 37, 6, 26, 0, 57, 3, 0, 0, 17, 5, 40, 16, 19, 63, 0, 0, 0, 50, 51, 0, 0, 49, 0, 53, 24, 2, 29, 0, 1, 0, 0, 45, 54, 0, 0, 20, 0, 0, 28, 0
|0, 0, 8, 7, 0, 19, 0, 0, 0, 0, 0, 10, 55, 30, 0, 0, 0, 0, 0, 0, 0, 36, 56, 0, 0, 28, 31, 0, 0, 14, 0, 58, 0, 0, 9, 0, 0, 45, 23, 49, 0, 0, 38, 46, 42, 0, 35, 0, 0, 22, 0, 0, 0, 4, 0, 0, 18, 0, 13, 0, 0, 0, 0, 0
|41, 33, 42, 46, 31, 61, 39, 0, 0, 4, 0, 43, 0, 12, 6, 0, 0, 27, 10, 49, 60, 0, 0, 19, 0, 0, 0, 23, 0, 0, 40, 0, 0, 18, 3, 0, 1, 36, 0, 11, 48, 0, 0, 54, 0, 0, 0, 9, 25, 20, 0, 53, 7, 28, 55, 0, 56, 0, 0, 0, 44, 0, 0, 57
|0, 0, 0, 15, 14, 0, 0, 9, 0, 54, 0, 0, 0, 0, 0, 0, 0, 55, 23, 0, 0, 22, 21, 0, 44, 48, 0, 0, 0, 0, 0, 0, 59, 0, 0, 35, 25, 0, 0, 33, 0, 45, 0, 11, 0, 0, 29, 0, 0, 51, 5, 0, 0, 0, 37, 0, 0, 8, 0, 0, 0, 0, 46, 0
|36, 50, 26, 53, 0, 0, 0, 0, 0, 44, 0, 0, 0, 59, 19, 15, 52, 0, 0, 0, 24, 34, 0, 14, 43, 49, 0, 9, 0, 32, 0, 29, 61, 51, 39, 10, 0, 0, 0, 0, 1, 0, 55, 0, 33, 0, 40, 0, 63, 35, 0, 0, 11, 0, 0, 0, 0, 0, 0, 0, 31, 0, 0, 0
|30, 54, 0, 56, 35, 9, 0, 5, 19, 41, 0, 0, 0, 0, 0, 22, 0, 57, 0, 0, 0, 4, 0, 0, 0, 3, 18, 28, 0, 0, 0, 25, 0, 64, 34, 0, 42, 0, 0, 0, 0, 0, 50, 0, 59, 10, 0, 0, 40, 31, 0, 13, 0, 36, 0, 0, 0, 0, 0, 32, 0, 45, 11, 0
|0, 29, 64, 0, 43, 1, 34, 0, 0, 0, 62, 8, 0, 0, 0, 0, 0, 0, 0, 0, 50, 53, 0, 0, 24, 17, 0, 63, 0, 0, 23, 36, 7, 0, 0, 58, 27, 0, 19, 0, 54, 47, 0, 0, 40, 35, 0, 61, 3, 37, 45, 25, 0, 14, 0, 38, 0, 0, 56, 13, 0, 0, 42, 0
|62, 42, 0, 47, 0, 0, 0, 24, 16, 51, 43, 15, 0, 0, 36, 0, 19, 0, 0, 58, 0, 20, 0, 0, 0, 0, 61, 0, 34, 9, 57, 37, 55, 0, 18, 45, 0, 0, 0, 0, 30, 0, 44, 0, 41, 27, 0, 0, 0, 10, 0, 0, 0, 32, 46, 0, 0, 0, 3, 0, 29, 0, 0, 0
|0, 19, 0, 0, 39, 4, 0, 10, 0, 0, 13, 28, 0, 18, 0, 40, 0, 0, 0, 11, 0, 7, 0, 56, 53, 0, 43, 33, 0, 0, 0, 12, 0, 32, 37, 0, 0, 61, 9, 0, 16, 38, 0, 0, 2, 0, 0, 58, 23, 6, 57, 0, 0, 27, 44, 0, 0, 31, 34, 54, 0, 0, 0, 0
|12, 0, 0, 0, 15, 0, 7, 13, 0, 6, 0, 17, 0, 38, 14, 0, 43, 0, 0, 0, 0, 0, 0, 10, 0, 0, 0, 0, 11, 62, 0, 52, 48, 3, 30, 40, 0, 0, 0, 26, 0, 55, 31, 20, 19, 42, 0, 0, 0, 64, 4, 41, 34, 56, 47, 8, 0, 35, 0, 0, 18, 0, 25, 27
|0, 45, 0, 63, 0, 0, 16, 50, 27, 29, 0, 7, 0, 0, 0, 56, 0, 42, 0, 0, 22, 0, 51, 0, 0, 0, 0, 19, 41, 0, 0, 0, 2, 23, 0, 57, 0, 0, 0, 0, 53, 14, 13, 0, 0, 0, 0, 0, 52, 9, 39, 30, 12, 20, 24, 59, 28, 10, 36, 48, 0, 0, 0, 46
|0, 48, 22, 0, 28, 0, 0, 36, 0, 0, 45, 0, 0, 47, 53, 0, 27, 8, 54, 0, 0, 0, 0, 0, 4, 39, 0, 42, 10, 0, 7, 0, 0, 0, 0, 0, 17, 0, 15, 38, 33, 21, 0, 9, 3, 0, 0, 12, 19, 60, 0, 0, 0, 0, 35, 49, 16, 43, 57, 24, 0, 2, 1, 0
|0, 0, 0, 0, 8, 0, 41, 0, 0, 0, 0, 3, 32, 39, 52, 57, 0, 46, 1, 25, 33, 0, 23, 47, 0, 58, 30, 0, 13, 38, 49, 0, 0, 21, 0, 14, 53, 0, 0, 0, 43, 34, 0, 29, 0, 62, 0, 36, 2, 0, 15, 50, 63, 18, 28, 54, 61, 17, 0, 0, 19, 0, 20, 40
|29, 56, 37, 39, 0, 46, 0, 0, 53, 0, 44, 0, 0, 0, 62, 0, 45, 30, 0, 0, 0, 0, 0, 0, 5, 31, 0, 0, 0, 0, 0, 0, 0, 17, 0, 0, 61, 0, 51, 55, 28, 0, 33, 0, 0, 23, 42, 0, 38, 12, 48, 0, 25, 0, 0, 0, 0, 0, 63, 0, 10, 24, 3, 49
|19, 16, 0, 38, 0, 0, 0, 0, 0, 0, 0, 50, 0, 11, 0, 0, 4, 3, 0, 0, 0, 0, 54, 0, 49, 62, 9, 0, 28, 42, 0, 56, 20, 45, 53, 0, 13, 0, 0, 0, 63, 46, 0, 0, 29, 17, 0, 30, 10, 0, 37, 51, 0, 39, 0, 0, 58, 44, 47, 0, 0, 0, 0, 0
|23, 52, 41, 22, 47, 0, 0, 32, 0, 42, 8, 0, 28, 0, 45, 0, 44, 11, 0, 24, 51, 33, 0, 0, 0, 0, 40, 29, 0, 25, 0, 34, 0, 16, 31, 0, 0, 0, 27, 59, 0, 49, 12, 55, 20, 36, 0, 43, 64, 56, 58, 6, 0, 2, 0, 0, 0, 54, 38, 0, 46, 0, 0, 0
|42, 0, 0, 0, 0, 0, 54, 0, 0, 0, 0, 0, 0, 0, 30, 0, 46, 0, 0, 31, 12, 0, 10, 15, 0, 2, 0, 48, 38, 33, 55, 20, 34, 0, 0, 0, 9, 0, 0, 32, 0, 1, 61, 6, 0, 11, 0, 0, 0, 0, 23, 28, 40, 45, 52, 24, 0, 37, 0, 0, 0, 56, 35, 25
|0, 0, 25, 0, 0, 5, 62, 58, 0, 63, 37, 60, 14, 27, 18, 32, 28, 13, 20, 50, 0, 0, 0, 48, 0, 0, 23, 15, 19, 46, 11, 0, 0, 36, 0, 12, 0, 0, 49, 24, 0, 0, 0, 0, 0, 0, 0, 0, 35, 0, 61, 0, 26, 0, 0, 22, 39, 0, 0, 0, 0, 29, 0, 45
|43, 7, 55, 24, 0, 0, 11, 0, 26, 49, 6, 0, 0, 0, 0, 46, 0, 18, 0, 34, 0, 38, 61, 63, 64, 0, 0, 12, 0, 0, 0, 0, 0, 29, 0, 0, 0, 0, 58, 0, 0, 39, 0, 0, 15, 51, 25, 0, 62, 47, 59, 44, 42, 13, 19, 50, 0, 60, 0, 17, 22, 0, 0, 31
|0, 28, 0, 60, 20, 0, 35, 0, 0, 0, 0, 2, 48, 52, 0, 55, 0, 0, 59, 21, 0, 0, 0, 39, 0, 1, 37, 10, 0, 58, 54, 50, 33, 0, 0, 0, 0, 0, 0, 47, 0, 0, 0, 0, 0, 38, 0, 0, 11, 46, 17, 0, 0, 0, 49, 29, 0, 13, 26, 7, 23, 0, 51, 0
|45, 0, 13, 0, 0, 3, 0, 34, 64, 43, 0, 38, 0, 0, 15, 0, 0, 23, 0, 0, 0, 0, 1, 49, 0, 27, 22, 44, 0, 35, 0, 17, 63, 0, 0, 0, 0, 46, 0, 25, 0, 31, 5, 58, 0, 37, 0, 0, 20, 57, 32, 0, 53, 55, 16, 30, 0, 33, 61, 4, 0, 0, 0, 0
|37, 0, 7, 12, 16, 0, 1, 0, 10, 0, 0, 0, 41, 45, 0, 28, 6, 0, 18, 0, 42, 39, 0, 0, 57, 26, 8, 0, 0, 0, 58, 0, 15, 54, 17, 0, 11, 23, 52, 63, 40, 0, 22, 51, 32, 0, 0, 33, 0, 0, 0, 0, 13, 49, 0, 25, 19, 0, 0, 29, 43, 46, 0, 0
|50, 0, 0, 62, 9, 0, 0, 19, 0, 46, 64, 0, 0, 60, 0, 14, 0, 47, 0, 0, 0, 17, 2, 53, 61, 0, 10, 30, 0, 16, 15, 24, 0, 0, 0, 0, 8, 1, 39, 0, 0, 0, 7, 0, 25, 0, 0, 11, 12, 0, 0, 52, 22, 0, 29, 44, 0, 0, 20, 0, 0, 18, 23, 55
|0, 43, 10, 0, 0, 13, 0, 0, 0, 39, 24, 44, 18, 49, 63, 62, 0, 41, 0, 0, 1, 56, 0, 0, 0, 35, 48, 59, 21, 0, 0, 46, 0, 0, 20, 0, 0, 0, 0, 51, 0, 52, 58, 0, 5, 12, 0, 14, 27, 34, 0, 2, 37, 61, 36, 40, 0, 3, 15, 42, 38, 0, 16, 0
|33, 41, 3, 40, 0, 0, 14, 0, 0, 55, 5, 0, 0, 0, 0, 16, 22, 62, 38, 0, 0, 0, 0, 35, 0, 0, 54, 0, 0, 56, 51, 64, 0, 46, 0, 9, 58, 27, 0, 0, 0, 0, 63, 53, 0, 0, 6, 0, 1, 0, 0, 0, 43, 48, 50, 0, 0, 12, 52, 0, 61, 39, 7, 0
|0, 27, 0, 0, 44, 0, 56, 0, 0, 0, 52, 61, 8, 33, 50, 2, 9, 0, 14, 32, 0, 40, 0, 57, 18, 0, 0, 49, 47, 0, 3, 1, 16, 4, 0, 43, 0, 24, 7, 62, 0, 19, 0, 0, 0, 0, 31, 0, 39, 63, 0, 38, 46, 53, 59, 5, 0, 11, 0, 28, 34, 0, 54, 30
|0, 46, 0, 0, 42, 0, 29, 0, 0, 0, 0, 0, 38, 0, 56, 0, 0, 0, 0, 0, 0, 0, 0, 0, 23, 14, 0, 43, 12, 0, 28, 0, 0, 0, 0, 0, 10, 0, 0, 61, 8, 37, 20, 16, 0, 21, 9, 0, 0, 0, 19, 24, 6, 33, 0, 7, 62, 59, 35, 2, 0, 0, 41, 0
|54, 0, 0, 0, 5, 30, 6, 28, 36, 0, 0, 22, 59, 0, 9, 0, 0, 43, 51, 0, 61, 0, 49, 0, 0, 0, 45, 0, 39, 0, 52, 60, 0, 42, 0, 0, 35, 32, 41, 0, 64, 0, 3, 50, 0, 0, 38, 18, 55, 0, 47, 0, 10, 17, 11, 15, 0, 0, 0, 0, 56, 21, 33, 13
|49, 63, 0, 23, 52, 0, 61, 18, 0, 0, 0, 25, 0, 43, 0, 0, 55, 0, 0, 10, 0, 46, 0, 37, 0, 38, 4, 13, 33, 36, 2, 7, 28, 0, 0, 31, 3, 0, 0, 56, 39, 44, 0, 17, 62, 15, 59, 0, 0, 0, 0, 35, 0, 16, 0, 51, 5, 0, 58, 0, 24, 26, 0, 9
|0, 26, 0, 19, 0, 38, 0, 12, 48, 0, 9, 0, 0, 17, 21, 0, 0, 37, 0, 52, 30, 0, 13, 32, 39, 63, 0, 45, 0, 0, 0, 42, 41, 2, 0, 0, 46, 0, 0, 0, 0, 0, 10, 0, 0, 0, 16, 0, 47, 0, 0, 49, 24, 0, 0, 0, 0, 0, 0, 0, 57, 0, 0, 58
|7, 62, 0, 37, 36, 49, 32, 0, 40, 50, 0, 4, 0, 0, 0, 47, 0, 0, 24, 0, 0, 0, 0, 0, 17, 0, 52, 20, 0, 48, 35, 26, 9, 0, 0, 0, 29, 0, 28, 53, 0, 0, 0, 0, 11, 54, 0, 0, 60, 0, 0, 14, 0, 64, 0, 10, 0, 0, 33, 0, 0, 0, 0, 0
|9, 2, 47, 0, 58, 0, 0, 8, 46, 0, 0, 0, 0, 32, 25, 10, 40, 4, 31, 0, 64, 41, 0, 0, 0, 57, 0, 0, 0, 43, 0, 33, 0, 55, 0, 61, 0, 30, 16, 0, 0, 0, 0, 21, 37, 24, 0, 1, 0, 45, 0, 11, 0, 23, 62, 0, 20, 0, 0, 18, 48, 17, 0, 0
|53, 0, 0, 0, 0, 0, 33, 35, 52, 0, 0, 58, 0, 37, 12, 0, 54, 0, 0, 0, 20, 63, 0, 8, 7, 0, 34, 55, 62, 10, 0, 23, 0, 0, 6, 27, 26, 0, 0, 0, 0, 17, 15, 22, 30, 48, 32, 41, 50, 3, 25, 4, 39, 0, 0, 43, 44, 1, 24, 0, 59, 36, 49, 0
|0, 0, 24, 59, 0, 0, 0, 25, 33, 0, 0, 45, 1, 0, 13, 0, 0, 0, 0, 0, 62, 27, 0, 0, 28, 0, 0, 37, 16, 30, 18, 0, 8, 0, 0, 0, 0, 0, 48, 0, 52, 0, 2, 0, 56, 58, 0, 39, 0, 0, 0, 0, 32, 0, 20, 9, 0, 22, 0, 0, 55, 0, 40, 5
|0, 30, 5, 14, 0, 28, 45, 0, 0, 7, 34, 63, 19, 0, 41, 43, 0, 0, 0, 0, 0, 50, 0, 21, 0, 24, 0, 56, 49, 2, 46, 0, 18, 44, 25, 0, 32, 64, 57, 0, 4, 29, 0, 0, 35, 0, 13, 0, 0, 0, 0, 17, 48, 0, 0, 0, 0, 0, 0, 0, 0, 62, 0, 0
|20, 0, 63, 0, 21, 41, 15, 0, 0, 24, 27, 0, 54, 22, 3, 39, 17, 0, 0, 60, 0, 61, 44, 29, 0, 25, 1, 50, 36, 0, 59, 0, 0, 0, 51, 0, 0, 49, 10, 4, 0, 0, 19, 0, 0, 40, 0, 0, 58, 52, 55, 5, 30, 0, 0, 0, 11, 45, 32, 35, 8, 0, 0, 0
|3, 0, 6, 0, 50, 51, 31, 0, 0, 28, 30, 57, 42, 29, 44, 53, 58, 0, 0, 9, 0, 16, 7, 0, 0, 47, 64, 60, 0, 0, 61, 0, 0, 0, 0, 11, 56, 20, 0, 0, 5, 25, 59, 0, 43, 55, 46, 45, 8, 0, 0, 0, 35, 0, 0, 0, 15, 34, 0, 0, 0, 19, 0, 0|];