order = 8;
grid = [|0, 0, 0, 0, 0, 0, 0, 64, 0, 18, 47, 13, 0, 10, 62, 0, 0, 0, 0, 0, 56, 0, 39, 0, 0, 16, 49, 0, 27, 53, 60, 1, 42, 14, 0, 0, 0, 20, 3, 50, 44, 0, 0, 0, 30, 0, 0, 0, 0, 26, 0, 0, 0, 0, 2, 36, 0, 5, 19, 31, 0, 38, 4, 0
|11, 0, 27, 0, 0, 34, 10, 4, 23, 0, 63, 1, 0, 0, 32, 5, 0, 0, 0, 0, 0, 61, 54, 48, 56, 36, 19, 8, 9, 43, 0, 14, 0, 0, 0, 0, 0, 0, 0, 59, 31, 0, 21, 17, 13, 35, 0, 38, 0, 0, 0, 39, 0, 0, 0, 51, 0, 0, 18, 0, 45, 0, 0, 0
|51, 22, 0, 38, 0, 35, 0, 53, 0, 21, 8, 29, 16, 0, 64, 19, 0, 0, 0, 20, 7, 60, 0, 0, 0, 0, 39, 25, 50, 61, 0, 52, 32, 0, 1, 0, 0, 12, 4, 0, 57, 26, 0, 0, 41, 56, 0, 0, 0, 42, 0, 18, 23, 0, 0, 28, 48, 6, 30, 63, 24, 2, 0, 44
|0, 18, 58, 13, 29, 0, 7, 0, 51, 35, 0, 49, 0, 0, 0, 0, 0, 0, 0, 55, 0, 0, 38, 14, 0, 0, 0, 0, 0, 20, 0, 11, 2, 0, 0, 63, 53, 27, 0, 24, 23, 0, 1, 40, 48, 0, 0, 15, 47, 54, 30, 9, 0, 56, 19, 43, 0, 0, 0, 0, 0, 0, 62, 61
|0, 0, 54, 16, 0, 19, 49, 0, 52, 0, 43, 4, 53, 20, 37, 0, 0, 11, 45, 0, 0, 0, 0, 57, 46, 13, 0, 0, 0, 0, 0, 0, 0, 61, 0, 0, 0, 30, 35, 0, 0, 2, 63, 0, 0, 12, 27, 0, 0, 0, 0, 32, 60, 0, 0, 59, 0, 22, 15, 0, 8, 36, 21, 0
|60, 0, 32, 0, 0, 0, 0, 36, 39, 0, 55, 0, 56, 12, 17, 38, 33, 13, 0, 19, 0, 52, 46, 0, 0, 0, 15, 30, 26, 0, 28, 0, 54, 44, 0, 34, 0, 21, 10, 48, 50, 0, 0, 0, 20, 18, 49, 16, 35, 0, 0, 5, 0, 45, 6, 3, 27, 1, 0, 0, 0, 0, 0, 0
|50, 5, 0, 26, 0, 30, 39, 0, 0, 0, 0, 0, 27, 0, 0, 11, 0, 18, 0, 0, 51, 0, 34, 0, 29, 0, 0, 0, 0, 0, 63, 0, 0, 23, 28, 0, 0, 64, 0, 62, 32, 8, 0, 0, 24, 0, 19, 0, 12, 37, 0, 46, 0, 0, 0, 0, 13, 0, 58, 0, 0, 0, 0, 0
|0, 0, 0, 55, 0, 2, 12, 0, 61, 60, 0, 25, 58, 0, 15, 0, 0, 0, 41, 35, 42, 26, 0, 29, 0, 0, 47, 37, 44, 0, 23, 32, 0, 0, 0, 11, 0, 9, 0, 0, 34, 4, 51, 5, 36, 64, 46, 52, 0, 63, 49, 0, 20, 17, 33, 0, 40, 43, 54, 50, 3, 53, 0, 0
|30, 25, 0, 35, 0, 0, 0, 37, 44, 0, 64, 60, 0, 8, 36, 0, 0, 0, 7, 0, 0, 63, 0, 0, 0, 0, 59, 0, 49, 62, 42, 31, 50, 2, 5, 9, 0, 29, 12, 0, 0, 56, 0, 0, 0, 26, 33, 41, 0, 34, 3, 10, 0, 0, 57, 52, 20, 0, 0, 4, 21, 0, 0, 0
|0, 0, 0, 0, 0, 27, 15, 0, 0, 0, 29, 16, 41, 0, 57, 0, 0, 28, 0, 50, 0, 0, 0, 49, 0, 46, 63, 51, 47, 0, 19, 0, 0, 0, 26, 58, 0, 38, 18, 0, 20, 64, 0, 0, 0, 0, 23, 0, 22, 13, 0, 4, 17, 0, 0, 25, 0, 3, 44, 0, 0, 48, 1, 0
|3, 31, 0, 46, 9, 0, 38, 49, 0, 0, 20, 0, 0, 56, 18, 0, 0, 25, 0, 11, 26, 0, 0, 0, 0, 12, 24, 0, 39, 0, 0, 0, 0, 0, 0, 15, 61, 0, 14, 52, 0, 1, 0, 8, 0, 0, 30, 0, 0, 0, 0, 0, 33, 41, 0, 0, 0, 27, 40, 0, 0, 51, 13, 0
|0, 0, 0, 57, 19, 13, 5, 59, 0, 0, 3, 9, 38, 61, 0, 0, 0, 22, 56, 0, 58, 15, 0, 42, 52, 0, 0, 0, 0, 26, 27, 0, 0, 0, 46, 32, 0, 28, 0, 44, 2, 0, 0, 45, 0, 24, 0, 0, 0, 64, 14, 50, 39, 0, 0, 0, 0, 0, 7, 62, 0, 0, 0, 0
|0, 0, 36, 0, 56, 0, 45, 0, 37, 24, 0, 6, 0, 22, 0, 10, 0, 0, 44, 0, 0, 0, 32, 31, 0, 0, 5, 50, 2, 8, 1, 17, 33, 11, 0, 39, 0, 47, 0, 0, 0, 52, 0, 0, 0, 16, 0, 19, 21, 0, 42, 0, 0, 40, 28, 15, 63, 29, 23, 0, 60, 9, 0, 55
|63, 29, 0, 0, 54, 0, 0, 16, 0, 7, 0, 40, 0, 0, 26, 0, 39, 0, 0, 34, 0, 35, 6, 0, 0, 56, 0, 4, 0, 0, 45, 0, 0, 41, 62, 48, 0, 0, 0, 42, 0, 0, 0, 49, 22, 58, 0, 0, 0, 20, 0, 0, 0, 0, 0, 8, 37, 0, 2, 0, 0, 0, 18, 0
|0, 28, 0, 0, 0, 11, 50, 0, 0, 34, 0, 0, 52, 0, 46, 21, 0, 0, 0, 23, 17, 10, 0, 0, 0, 0, 33, 0, 0, 9, 38, 40, 0, 37, 0, 0, 63, 8, 43, 56, 29, 55, 0, 32, 0, 0, 42, 0, 0, 1, 0, 24, 26, 2, 61, 7, 12, 35, 0, 0, 39, 0, 54, 0
|0, 6, 4, 53, 39, 8, 17, 61, 0, 0, 42, 2, 0, 50, 0, 32, 21, 0, 0, 64, 0, 20, 33, 51, 15, 14, 18, 0, 0, 35, 34, 0, 55, 0, 0, 0, 1, 0, 0, 0, 59, 0, 0, 0, 57, 0, 0, 48, 62, 0, 0, 37, 0, 0, 49, 58, 52, 41, 0, 22, 38, 26, 0, 0
|0, 55, 18, 0, 0, 0, 33, 24, 36, 2, 32, 0, 0, 21, 0, 0, 0, 6, 0, 0, 35, 0, 0, 7, 43, 19, 62, 0, 41, 0, 8, 0, 0, 0, 34, 0, 3, 0, 27, 0, 37, 0, 17, 0, 56, 0, 0, 29, 51, 48, 0, 49, 57, 25, 0, 0, 44, 0, 0, 64, 0, 22, 14, 0
|38, 40, 1, 14, 60, 0, 61, 32, 22, 0, 17, 19, 7, 0, 0, 0, 3, 33, 11, 49, 0, 0, 0, 28, 63, 0, 0, 0, 0, 27, 55, 0, 0, 15, 20, 25, 0, 4, 9, 0, 0, 0, 52, 0, 43, 0, 2, 42, 0, 8, 0, 0, 50, 54, 0, 26, 0, 12, 0, 0, 18, 0, 37, 13
|15, 3, 53, 52, 0, 44, 0, 39, 0, 0, 26, 43, 0, 18, 35, 37, 0, 0, 0, 0, 0, 56, 0, 40, 47, 0, 0, 0, 0, 0, 0, 0, 13, 0, 0, 0, 16, 58, 0, 23, 36, 0, 41, 0, 49, 0, 0, 62, 42, 12, 0, 0, 0, 27, 55, 0, 25, 0, 33, 60, 0, 0, 0, 0
|0, 8, 26, 0, 0, 0, 0, 0, 0, 33, 0, 0, 0, 24, 0, 0, 0, 0, 0, 25, 0, 0, 61, 0, 0, 0, 48, 0, 42, 7, 31, 0, 0, 0, 0, 22, 17, 0, 56, 0, 0, 0, 0, 46, 1, 51, 53, 58, 0, 0, 15, 0, 0, 21, 0, 64, 0, 2, 4, 59, 63, 0, 16, 54
|46, 0, 48, 45, 17, 0, 22, 0, 60, 0, 49, 0, 42, 0, 0, 4, 12, 63, 62, 14, 57, 0, 47, 15, 37, 18, 25, 34, 0, 11, 3, 0, 53, 28, 36, 0, 0, 2, 0, 0, 0, 0, 0, 0, 26, 39, 61, 0, 1, 30, 19, 6, 0, 0, 0, 0, 41, 7, 0, 0, 0, 52, 0, 0
|54, 0, 34, 0, 0, 25, 0, 0, 0, 64, 0, 0, 39, 13, 38, 16, 32, 0, 0, 36, 0, 46, 0, 0, 44, 0, 52, 0, 0, 0, 0, 4, 24, 0, 0, 47, 0, 0, 0, 57, 0, 14, 3, 27, 0, 0, 0, 12, 0, 17, 35, 43, 0, 0, 0, 2, 0, 0, 0, 10, 0, 29, 5, 26
|0, 0, 9, 56, 11, 0, 0, 10, 48, 0, 0, 0, 45, 57, 0, 1, 0, 0, 13, 39, 0, 0, 23, 58, 0, 0, 64, 59, 29, 0, 51, 0, 12, 54, 32, 0, 55, 31, 0, 14, 0, 0, 0, 0, 0, 19, 60, 4, 28, 0, 0, 0, 24, 3, 36, 0, 6, 30, 0, 0, 0, 50, 0, 46
|4, 0, 0, 43, 0, 0, 37, 0, 50, 25, 0, 0, 5, 0, 14, 51, 2, 0, 21, 0, 0, 0, 52, 16, 60, 22, 9, 0, 35, 0, 0, 0, 40, 0, 6, 46, 62, 48, 33, 0, 0, 0, 8, 0, 0, 47, 34, 0, 0, 58, 61, 41, 0, 0, 0, 31, 0, 0, 0, 36, 0, 0, 0, 24
|10, 0, 0, 0, 52, 0, 64, 0, 0, 0, 45, 8, 51, 1, 0, 0, 0, 15, 17, 13, 0, 0, 29, 0, 0, 0, 16, 0, 0, 0, 0, 47, 0, 0, 43, 0, 6, 0, 0, 12, 42, 32, 55, 50, 0, 36, 11, 35, 26, 46, 60, 23, 0, 61, 0, 0, 54, 0, 31, 19, 0, 0, 38, 63
|48, 0, 5, 0, 25, 54, 0, 55, 0, 0, 61, 15, 34, 23, 49, 0, 59, 0, 0, 56, 0, 0, 0, 50, 30, 7, 46, 60, 0, 0, 0, 45, 19, 0, 0, 0, 0, 44, 0, 1, 38, 0, 0, 28, 31, 0, 0, 0, 29, 22, 0, 57, 0, 0, 9, 47, 0, 0, 62, 0, 0, 0, 2, 0
|45, 49, 46, 0, 0, 0, 23, 0, 0, 0, 0, 63, 0, 0, 0, 17, 0, 0, 28, 0, 37, 22, 0, 26, 9, 0, 40, 0, 55, 0, 0, 54, 34, 0, 56, 61, 0, 39, 57, 0, 10, 0, 0, 0, 0, 5, 0, 0, 0, 0, 64, 15, 42, 0, 0, 33, 14, 53, 35, 0, 16, 0, 0, 60
|0, 27, 0, 40, 41, 63, 0, 31, 24, 0, 58, 0, 0, 0, 47, 0, 0, 16, 0, 57, 0, 0, 35, 2, 0, 38, 0, 0, 0, 0, 0, 61, 0, 32, 51, 0, 0, 45, 60, 37, 0, 22, 0, 0, 21, 33, 56, 0, 52, 0, 0, 19, 10, 4, 34, 0, 49, 0, 48, 6, 30, 5, 46, 0
|12, 0, 0, 0, 37, 14, 0, 0, 57, 0, 54, 0, 0, 27, 0, 0, 7, 61, 0, 51, 46, 11, 0, 64, 18, 52, 8, 43, 0, 0, 41, 19, 4, 40, 0, 53, 13, 0, 20, 0, 39, 16, 15, 0, 0, 0, 0, 0, 0, 35, 0, 0, 0, 0, 0, 24, 47, 33, 0, 1, 0, 45, 0, 17
|2, 0, 22, 61, 35, 16, 3, 38, 0, 32, 7, 64, 0, 0, 0, 60, 62, 0, 25, 44, 0, 0, 0, 24, 0, 39, 12, 0, 1, 13, 0, 27, 0, 0, 0, 17, 52, 0, 0, 0, 0, 40, 26, 0, 29, 57, 0, 9, 31, 0, 28, 0, 0, 0, 41, 50, 0, 56, 34, 0, 23, 0, 43, 10
|0, 0, 47, 0, 13, 0, 0, 0, 14, 0, 9, 46, 0, 59, 0, 0, 0, 60, 38, 0, 0, 34, 43, 0, 0, 28, 35, 0, 0, 36, 0, 50, 31, 22, 0, 16, 0, 0, 0, 0, 0, 49, 0, 0, 27, 0, 6, 44, 0, 0, 0, 17, 45, 0, 0, 0, 0, 18, 0, 0, 0, 0, 52, 25
|0, 0, 6, 17, 0, 4, 0, 0, 40, 43, 0, 0, 0, 35, 0, 13, 0, 0, 0, 0, 54, 0, 9, 52, 0, 0, 0, 42, 22, 0, 48, 0, 0, 0, 0, 24, 0, 23, 2, 0, 0, 3, 45, 61, 0, 0, 59, 51, 14, 55, 0, 0, 0, 12, 0, 62, 0, 0, 57, 41, 58, 0, 0, 32
|22, 0, 10, 24, 63, 0, 20, 3, 0, 62, 0, 38, 29, 32, 0, 6, 41, 54, 34, 0, 0, 0, 31, 5, 12, 0, 0, 0, 19, 0, 0, 0, 26, 4, 0, 0, 0, 42, 53, 64, 8, 0, 0, 0, 0, 23, 0, 0, 0, 0, 0, 58, 0, 0, 0, 0, 11, 37, 0, 33, 0, 17, 0, 0
|36, 16, 0, 0, 0, 0, 8, 41, 0, 0, 0, 22, 0, 25, 34, 18, 1, 0, 63, 0, 47, 0, 37, 13, 0, 0, 0, 32, 0, 42, 5, 6, 0, 0, 0, 44, 0, 0, 24, 10, 12, 57, 33, 9, 19, 17, 0, 0, 0, 0, 4, 31, 62, 59, 0, 53, 38, 55, 0, 52, 14, 0, 48, 0
|1, 0, 0, 0, 64, 0, 42, 0, 0, 0, 0, 59, 0, 41, 0, 0, 0, 0, 0, 60, 32, 53, 0, 10, 16, 29, 37, 62, 0, 52, 0, 0, 9, 0, 23, 6, 36, 0, 0, 25, 26, 0, 13, 0, 0, 43, 0, 0, 0, 14, 0, 12, 44, 0, 0, 11, 0, 0, 21, 20, 0, 30, 0, 0
|0, 15, 59, 12, 0, 58, 26, 0, 0, 0, 51, 3, 0, 17, 0, 0, 30, 20, 0, 52, 19, 14, 36, 35, 0, 0, 56, 0, 0, 38, 0, 0, 18, 0, 22, 0, 47, 0, 0, 0, 4, 21, 27, 6, 37, 0, 0, 55, 57, 0, 1, 8, 41, 0, 42, 0, 50, 0, 0, 13, 0, 0, 40, 43
|9, 0, 33, 27, 0, 0, 0, 0, 0, 0, 0, 0, 0, 0, 0, 0, 23, 51, 26, 6, 0, 2, 62, 0, 0, 3, 58, 0, 0, 63, 0, 0, 52, 0, 12, 19, 43, 17, 41, 13, 48, 0, 0, 0, 42, 0, 0, 0, 0, 0, 0, 61, 0, 34, 0, 0, 0, 0, 60, 46, 0, 0, 24, 15
|47, 53, 0, 0, 62, 0, 0, 14, 54, 63, 31, 0, 64, 0, 0, 0, 44, 0, 0, 7, 0, 42, 0, 0, 4, 0, 0, 26, 0, 0, 40, 0, 0, 0, 8, 0, 48, 61, 37, 20, 0, 36, 0, 0, 0, 0, 10, 5, 56, 0, 27, 13, 0, 35, 18, 0, 0, 9, 0, 49, 0, 0, 58, 0
|18, 30, 37, 4, 38, 0, 0, 0, 0, 20, 33, 11, 60, 43, 53, 55, 0, 0, 57, 0, 12, 0, 28, 56, 0, 9, 0, 10, 0, 0, 0, 0, 16, 46, 31, 0, 0, 0, 34, 58, 0, 62, 49, 0, 0, 0, 14, 3, 19, 5, 0, 0, 32, 22, 0, 0, 8, 23, 42, 0, 2, 0, 0, 35
|29, 0, 0, 0, 49, 40, 0, 0, 0, 37, 12, 21, 0, 42, 13, 0, 0, 4, 8, 0, 27, 38, 22, 18, 51, 0, 14, 0, 17, 0, 64, 43, 62, 0, 0, 0, 0, 0, 50, 55, 0, 0, 0, 53, 0, 0, 52, 0, 0, 60, 36, 0, 30, 0, 0, 0, 28, 0, 10, 44, 0, 1, 0, 0
|31, 0, 51, 0, 15, 17, 11, 0, 43, 0, 0, 0, 0, 0, 29, 41, 46, 0, 4, 5, 38, 0, 0, 33, 0, 47, 0, 20, 0, 40, 25, 0, 0, 55, 57, 0, 0, 0, 7, 0, 0, 58, 0, 52, 2, 13, 64, 49, 0, 0, 59, 0, 0, 30, 35, 32, 60, 0, 0, 0, 0, 0, 23, 0
|0, 0, 2, 0, 47, 3, 46, 0, 0, 0, 56, 33, 0, 36, 51, 57, 0, 0, 60, 53, 0, 19, 0, 0, 0, 6, 10, 0, 0, 0, 43, 0, 28, 0, 25, 64, 0, 26, 39, 32, 40, 29, 0, 14, 0, 63, 35, 17, 0, 24, 0, 42, 0, 15, 0, 0, 18, 38, 16, 54, 0, 0, 0, 0
|43, 0, 50, 19, 18, 5, 27, 12, 28, 0, 4, 0, 61, 0, 7, 0, 0, 0, 0, 24, 0, 21, 0, 3, 32, 17, 0, 29, 0, 0, 9, 0, 48, 0, 0, 0, 0, 52, 45, 6, 0, 34, 37, 20, 0, 1, 0, 0, 0, 56, 0, 0, 49, 0, 47, 0, 0, 51, 0, 53, 25, 41, 64, 0
|0, 62, 64, 20, 48, 26, 41, 0, 0, 13, 0, 0, 24, 6, 30, 0, 55, 7, 16, 0, 0, 0, 44, 37, 59, 0, 0, 19, 46, 3, 15, 0, 1, 9, 0, 0, 0, 35, 0, 4, 5, 0, 0, 0, 0, 0, 39, 47, 25, 0, 0, 0, 58, 18, 31, 29, 34, 52, 61, 11, 10, 0, 0, 2
|35, 0, 14, 0, 0, 0, 4, 0, 38, 0, 34, 0, 0, 0, 0, 0, 42, 0, 18, 63, 0, 0, 0, 0, 0, 0, 0, 0, 24, 0, 0, 0, 0, 0, 17, 0, 0, 16, 47, 0, 30, 44, 19, 0, 0, 3, 57, 0, 0, 10, 21, 51, 0, 0, 0, 60, 43, 0, 0, 0, 15, 0, 29, 0
|7, 0, 60, 0, 0, 0, 24, 30, 16, 0, 0, 20, 0, 0, 0, 0, 40, 0, 0, 0, 45, 23, 15, 0, 0, 0, 34, 0, 0, 0, 0, 0, 46, 0, 0, 41, 10, 19, 5, 0, 0, 0, 62, 0, 0, 4, 28, 0, 0, 0, 38, 2, 1, 0, 0, 0, 0, 0, 0, 12, 57, 63, 0, 37
|55, 0, 49, 0, 0, 10, 0, 22, 0, 15, 2, 0, 32, 64, 0, 0, 51, 31, 0, 8, 52, 0, 57, 9, 36, 0, 23, 41, 13, 48, 0, 0, 58, 0, 0, 0, 11, 43, 21, 30, 27, 60, 12, 18, 0, 42, 16, 0, 0, 61, 0, 0, 19, 0, 0, 0, 0, 44, 0, 40, 0, 0, 35, 0
|8, 0, 0, 54, 16, 0, 13, 40, 21, 0, 0, 0, 0, 0, 11, 3, 0, 50, 0, 12, 0, 0, 0, 0, 38, 62, 26, 0, 0, 14, 44, 0, 51, 20, 60, 2, 0, 24, 0, 18, 0, 45, 0, 0, 10, 41, 32, 0, 17, 0, 0, 52, 0, 37, 0, 0, 30, 0, 5, 9, 0, 0, 0, 33
|0, 0, 55, 0, 61, 0, 0, 9, 2, 22, 0, 53, 0, 0, 0, 29, 0, 34, 0, 0, 36, 1, 18, 38, 3, 0, 28, 54, 14, 45, 58, 30, 0, 12, 0, 0, 19, 13, 0, 31, 0, 0, 0, 44, 6, 32, 0, 57, 0, 15, 0, 0, 52, 0, 16, 56, 5, 26, 51, 0, 41, 49, 0, 0
|0, 50, 0, 15, 0, 0, 0, 33, 41, 0, 0, 0, 20, 52, 0, 0, 64, 0, 10, 40, 0, 0, 0, 0, 27, 0, 2, 61, 53, 12, 35, 0, 44, 0, 0, 0, 28, 36, 1, 0, 58, 0, 23, 0, 0, 14, 8, 0, 32, 57, 47, 0, 29, 0, 0, 49, 0, 0, 0, 0, 0, 0, 0, 0
|41, 0, 0, 0, 44, 28, 30, 11, 0, 0, 0, 0, 0, 0, 0, 0, 0, 0, 33, 17, 0, 0, 60, 12, 0, 0, 51, 18, 38, 0, 39, 0, 3, 0, 0, 0, 0, 22, 6, 43, 0, 37, 0, 4, 5, 46, 47, 27, 23, 0, 0, 0, 21, 19, 26, 0, 0, 0, 0, 2, 53, 0, 0, 0
|21, 0, 0, 8, 0, 0, 34, 46, 26, 19, 6, 44, 40, 0, 0, 0, 0, 0, 51, 54, 50, 30, 0, 0, 11, 0, 0, 0, 5, 0, 16, 0, 20, 0, 0, 0, 0, 0, 0, 35, 0, 18, 29, 36, 0, 49, 0, 0, 45, 3, 0, 22, 61, 0, 0, 37, 62, 0, 28, 38, 48, 14, 0, 57
|0, 14, 0, 1, 23, 0, 0, 0, 0, 57, 0, 0, 11, 55, 3, 45, 24, 0, 0, 29, 6, 47, 0, 22, 0, 0, 43, 33, 36, 25, 52, 0, 0, 18, 0, 59, 0, 0, 32, 0, 0, 0, 10, 0, 34, 0, 20, 40, 4, 0, 0, 64, 5, 7, 48, 35, 58, 13, 17, 30, 0, 44, 0, 0
|57, 0, 16, 31, 5, 39, 0, 0, 15, 59, 0, 48, 0, 0, 12, 0, 0, 32, 23, 0, 0, 4, 0, 46, 0, 0, 0, 0, 0, 0, 0, 20, 0, 50, 49, 0, 25, 0, 0, 0, 61, 28, 30, 0, 33, 11, 26, 21, 0, 2, 0, 0, 55, 60, 0, 0, 0, 0, 0, 0, 40, 43, 0, 0
|0, 0, 0, 2, 0, 37, 58, 0, 0, 0, 0, 10, 0, 0, 1, 0, 13, 0, 48, 61, 0, 0, 14, 0, 19, 0, 0, 0, 0, 55, 59, 62, 60, 0, 54, 0, 21, 40, 0, 0, 0, 0, 7, 0, 0, 0, 9, 0, 0, 0, 17, 0, 36, 0, 0, 18, 0, 15, 0, 24, 11, 0, 33, 0
|0, 12, 3, 0, 0, 0, 0, 0, 0, 0, 25, 27, 0, 49, 21, 14, 0, 0, 37, 28, 0, 0, 58, 44, 0, 64, 7, 17, 0, 0, 0, 34, 57, 0, 55, 0, 0, 33, 51, 61, 0, 15, 38, 24, 0, 50, 0, 63, 20, 0, 6, 30, 54, 0, 39, 0, 0, 0, 0, 32, 9, 18, 0, 42
|58, 63, 0, 0, 0, 0, 0, 0, 0, 11, 0, 14, 0, 5, 0, 0, 47, 0, 0, 16, 44, 33, 50, 34, 0, 0, 38, 0, 0, 29, 0, 0, 17, 0, 0, 0, 64, 0, 0, 9, 35, 48, 18, 0, 0, 0, 0, 0, 0, 0, 25, 0, 37, 0, 0, 54, 57, 60, 0, 42, 62, 0, 30, 52
|17, 32, 45, 0, 40, 0, 0, 0, 49, 0, 0, 0, 22, 0, 16, 0, 26, 5, 52, 0, 30, 7, 0, 39, 62, 0, 31, 1, 43, 56, 0, 0, 0, 0, 3, 0, 0, 0, 0, 54, 63, 23, 57, 19, 0, 10, 0, 61, 0, 18, 2, 0, 13, 0, 38, 0, 9, 0, 0, 0, 27, 0, 50, 0
|19, 34, 30, 0, 0, 59, 9, 0, 58, 26, 60, 0, 0, 0, 48, 63, 61, 27, 40, 0, 0, 13, 11, 53, 0, 24, 0, 0, 0, 0, 12, 0, 15, 0, 0, 28, 0, 0, 0, 0, 16, 31, 0, 0, 0, 29, 0, 0, 5, 0, 0, 0, 35, 0, 0, 10, 0, 0, 0, 3, 0, 0, 0, 0
|0, 0, 13, 3, 50, 0, 0, 29, 0, 0, 0, 0, 0, 0, 61, 0, 0, 0, 14, 0, 24, 18, 0, 0, 35, 53, 0, 0, 33, 0, 0, 0, 45, 0, 27, 0, 44, 51, 0, 0, 0, 0, 47, 0, 52, 0, 12, 39, 8, 0, 0, 0, 46, 31, 17, 57, 0, 49, 0, 0, 0, 0, 0, 21
|27, 0, 0, 23, 31, 18, 51, 0, 6, 46, 0, 32, 10, 4, 24, 33, 35, 0, 0, 37, 55, 48, 49, 0, 26, 44, 0, 39, 0, 17, 50, 0, 0, 0, 0, 52, 59, 62, 0, 8, 14, 0, 34, 11, 0, 28, 0, 0, 61, 0, 0, 7, 0, 0, 30, 0, 0, 0, 43, 15, 0, 12, 0, 38
|0, 0, 0, 36, 0, 60, 52, 0, 0, 8, 19, 0, 0, 0, 2, 20, 4, 0, 31, 0, 23, 57, 0, 54, 0, 0, 22, 9, 0, 5, 0, 0, 0, 56, 0, 0, 0, 0, 61, 40, 6, 0, 0, 0, 3, 0, 0, 0, 15, 49, 58, 0, 47, 0, 0, 0, 16, 14, 29, 51, 17, 0, 0, 59
|0, 46, 0, 22, 0, 0, 0, 47, 0, 39, 0, 0, 0, 0, 44, 53, 0, 12, 0, 0, 62, 0, 20, 8, 0, 42, 0, 45, 52, 57, 7, 0, 37, 0, 16, 26, 0, 0, 55, 0, 0, 0, 0, 1, 38, 0, 54, 36, 11, 41, 0, 60, 0, 0, 0, 0, 0, 63, 0, 0, 13, 0, 0, 23
|37, 0, 62, 0, 2, 0, 0, 44, 0, 51, 41, 7, 0, 0, 52, 0, 0, 0, 0, 0, 29, 6, 0, 17, 21, 0, 3, 16, 34, 0, 0, 10, 0, 0, 13, 14, 0, 0, 31, 63, 0, 53, 0, 42, 60, 59, 5, 0, 48, 0, 0, 0, 0, 28, 0, 55, 0, 58, 8, 0, 0, 24, 0, 56|];