order = 8;
grid = [|60, 13, 49, 0, 17, 0, 16, 0, 0, 0, 64, 0, 1, 26, 21, 52, 0, 24, 0, 0, 0, 0, 18, 7, 34, 0, 50, 58, 0, 56, 0, 29, 44, 0, 0, 2, 0, 0, 0, 0, 4, 8, 6, 0, 9, 0, 0, 0, 47, 38, 5, 40, 48, 3, 0, 36, 37, 0, 0, 62, 0, 39, 0, 0
|58, 0, 0, 0, 42, 0, 52, 32, 0, 0, 56, 0, 29, 0, 44, 0, 5, 0, 0, 62, 21, 19, 0, 0, 0, 20, 0, 41, 43, 0, 0, 16, 28, 0, 34, 59, 55, 0, 0, 47, 37, 30, 0, 3, 0, 1, 38, 0, 0, 0, 0, 0, 61, 22, 35, 0, 36, 49, 13, 0, 11, 0, 53, 63
|55, 1, 0, 0, 0, 35, 24, 0, 27, 0, 18, 50, 0, 42, 0, 11, 0, 61, 0, 13, 0, 40, 0, 58, 3, 0, 0, 21, 0, 0, 2, 0, 0, 5, 63, 54, 0, 19, 0, 0, 36, 0, 0, 45, 0, 52, 41, 0, 0, 20, 0, 53, 59, 0, 34, 39, 38, 0, 0, 0, 0, 44, 56, 29
|48, 3, 36, 0, 0, 61, 38, 6, 0, 0, 28, 0, 33, 60, 7, 10, 0, 52, 0, 0, 57, 0, 30, 0, 46, 0, 17, 55, 23, 0, 63, 0, 39, 24, 14, 0, 58, 21, 0, 0, 47, 0, 0, 12, 29, 34, 50, 0, 37, 0, 43, 4, 9, 26, 1, 0, 0, 40, 0, 32, 2, 0, 54, 8
|0, 39, 47, 0, 29, 0, 21, 31, 0, 37, 16, 0, 38, 23, 0, 62, 49, 50, 0, 0, 0, 0, 35, 36, 40, 53, 0, 8, 0, 0, 10, 5, 0, 60, 0, 0, 0, 0, 52, 17, 0, 0, 33, 0, 63, 44, 0, 2, 46, 25, 0, 0, 0, 18, 15, 0, 0, 0, 19, 9, 0, 51, 0, 4
|0, 9, 63, 27, 0, 0, 0, 0, 0, 58, 24, 61, 12, 40, 13, 0, 53, 0, 38, 6, 0, 51, 34, 0, 0, 42, 0, 30, 0, 62, 0, 19, 64, 0, 36, 4, 0, 26, 0, 48, 0, 15, 17, 0, 59, 32, 18, 0, 28, 52, 0, 0, 21, 44, 60, 16, 46, 55, 3, 0, 0, 1, 0, 41
|0, 0, 0, 0, 4, 37, 15, 0, 14, 47, 49, 0, 0, 53, 43, 0, 2, 9, 0, 0, 11, 0, 0, 25, 39, 52, 0, 0, 0, 59, 0, 1, 56, 61, 41, 10, 0, 46, 0, 35, 0, 40, 0, 31, 60, 58, 0, 0, 51, 62, 54, 30, 17, 0, 32, 55, 0, 0, 0, 0, 24, 0, 16, 18
|5, 12, 50, 0, 0, 62, 0, 30, 48, 54, 8, 51, 3, 25, 45, 57, 29, 0, 43, 39, 0, 17, 60, 59, 26, 4, 49, 32, 0, 35, 24, 0, 9, 1, 40, 16, 15, 37, 38, 22, 46, 0, 0, 0, 0, 13, 23, 55, 0, 42, 41, 56, 0, 33, 0, 58, 34, 0, 6, 21, 61, 52, 31, 0
|0, 0, 28, 49, 0, 0, 54, 21, 31, 50, 0, 63, 30, 0, 6, 29, 38, 43, 23, 0, 0, 0, 0, 61, 58, 0, 42, 0, 0, 5, 46, 10, 0, 0, 0, 56, 9, 0, 51, 0, 44, 52, 0, 24, 0, 0, 0, 0, 41, 0, 27, 34, 3, 0, 45, 0, 1, 48, 15, 20, 0, 64, 0, 26
|0, 0, 0, 6, 0, 0, 0, 0, 0, 56, 54, 0, 17, 7, 60, 12, 41, 0, 30, 49, 62, 55, 0, 0, 0, 0, 0, 31, 45, 51, 0, 0, 0, 47, 0, 0, 0, 48, 28, 0, 1, 61, 26, 0, 37, 0, 0, 0, 2, 23, 0, 5, 0, 57, 0, 9, 24, 0, 0, 63, 0, 0, 22, 58
|0, 0, 0, 0, 0, 2, 0, 0, 61, 25, 0, 44, 0, 49, 0, 0, 42, 0, 40, 0, 0, 50, 0, 1, 0, 38, 22, 37, 14, 0, 0, 54, 5, 0, 0, 0, 0, 58, 0, 29, 0, 0, 0, 43, 45, 0, 31, 9, 0, 47, 17, 0, 0, 0, 0, 0, 51, 13, 0, 7, 0, 0, 0, 35
|31, 0, 0, 0, 0, 17, 41, 62, 24, 0, 14, 57, 27, 16, 1, 0, 0, 11, 6, 58, 4, 45, 0, 5, 8, 0, 0, 0, 12, 48, 21, 50, 0, 34, 0, 13, 52, 0, 0, 55, 40, 0, 0, 0, 49, 0, 32, 0, 0, 0, 7, 0, 0, 38, 43, 0, 0, 0, 0, 0, 59, 0, 0, 0
|0, 0, 1, 0, 9, 0, 55, 0, 35, 0, 39, 0, 5, 0, 15, 33, 16, 0, 34, 0, 0, 14, 0, 27, 0, 23, 0, 24, 0, 0, 0, 40, 0, 0, 22, 53, 0, 0, 63, 61, 59, 2, 51, 0, 10, 0, 0, 50, 42, 0, 0, 0, 0, 0, 48, 0, 0, 57, 0, 4, 37, 0, 0, 0
|59, 0, 0, 0, 12, 0, 0, 0, 26, 0, 51, 34, 0, 37, 4, 43, 0, 22, 28, 25, 0, 35, 47, 53, 29, 0, 0, 1, 20, 9, 55, 18, 42, 38, 44, 7, 0, 0, 0, 0, 0, 41, 0, 56, 0, 3, 48, 0, 32, 24, 0, 0, 46, 0, 52, 21, 17, 16, 23, 5, 8, 0, 0, 50
|0, 0, 0, 0, 50, 0, 48, 0, 0, 41, 0, 0, 59, 0, 0, 22, 51, 0, 9, 0, 37, 2, 29, 0, 57, 43, 7, 56, 0, 19, 0, 11, 0, 25, 0, 0, 12, 0, 0, 0, 0, 14, 0, 0, 4, 0, 0, 42, 0, 0, 8, 0, 0, 61, 0, 0, 27, 0, 0, 0, 0, 0, 0, 0
|0, 24, 34, 0, 61, 0, 11, 0, 42, 0, 0, 55, 0, 47, 3, 9, 0, 0, 44, 31, 0, 0, 52, 0, 0, 0, 0, 0, 26, 49, 0, 4, 0, 41, 0, 0, 16, 2, 0, 43, 38, 0, 21, 0, 57, 0, 0, 0, 60, 54, 12, 1, 0, 50, 0, 6, 33, 53, 0, 0, 10, 0, 0, 0
|0, 0, 0, 0, 0, 64, 0, 0, 0, 43, 37, 15, 6, 63, 0, 16, 0, 0, 39, 0, 40, 0, 0, 0, 38, 45, 53, 0, 19, 28, 0, 0, 0, 12, 0, 44, 17, 33, 0, 0, 0, 0, 0, 0, 0, 0, 0, 0, 0, 9, 29, 0, 0, 10, 36, 0, 22, 0, 0, 23, 46, 3, 41, 13
|2, 0, 42, 5, 54, 52, 12, 0, 0, 0, 23, 0, 0, 55, 27, 21, 14, 0, 0, 61, 0, 10, 33, 0, 16, 36, 41, 0, 63, 15, 0, 47, 0, 56, 0, 28, 0, 0, 59, 49, 0, 43, 50, 8, 51, 9, 37, 40, 0, 0, 0, 46, 0, 62, 39, 44, 0, 58, 0, 53, 35, 0, 48, 57
|20, 47, 37, 58, 0, 0, 0, 29, 0, 0, 50, 22, 0, 44, 0, 0, 17, 25, 0, 0, 0, 7, 15, 34, 49, 0, 35, 0, 3, 0, 0, 0, 0, 46, 0, 27, 40, 16, 0, 18, 0, 0, 56, 53, 0, 0, 0, 63, 0, 0, 32, 52, 0, 45, 0, 8, 0, 1, 0, 0, 0, 38, 36, 0
|0, 53, 0, 13, 3, 51, 19, 24, 0, 52, 12, 0, 47, 46, 10, 54, 0, 63, 59, 21, 45, 0, 22, 0, 0, 48, 0, 0, 0, 23, 1, 6, 50, 0, 35, 0, 36, 57, 2, 37, 0, 0, 38, 0, 0, 0, 0, 15, 25, 0, 0, 61, 0, 0, 0, 0, 9, 0, 40, 0, 0, 5, 0, 43
|33, 0, 0, 15, 46, 0, 28, 0, 0, 51, 31, 36, 18, 35, 0, 7, 0, 1, 0, 0, 0, 58, 12, 24, 0, 34, 0, 0, 0, 26, 0, 0, 20, 39, 8, 0, 63, 45, 6, 0, 0, 0, 57, 49, 0, 29, 54, 0, 27, 0, 16, 43, 47, 42, 64, 0, 0, 0, 52, 0, 25, 61, 37, 44
|36, 32, 0, 0, 0, 56, 6, 44, 0, 49, 0, 2, 45, 59, 14, 0, 0, 13, 0, 0, 0, 0, 0, 41, 30, 40, 0, 5, 46, 0, 0, 8, 25, 0, 0, 0, 0, 0, 61, 0, 0, 0, 58, 10, 0, 7, 0, 19, 50, 0, 31, 0, 63, 0, 0, 37, 0, 21, 29, 0, 0, 0, 0, 33
|63, 0, 0, 57, 0, 0, 27, 16, 0, 0, 0, 53, 0, 0, 0, 0, 0, 49, 0, 0, 36, 46, 0, 0, 0, 61, 32, 14, 0, 55, 39, 59, 0, 0, 0, 29, 0, 0, 19, 10, 24, 44, 45, 0, 1, 0, 0, 23, 15, 0, 11, 12, 0, 0, 0, 33, 0, 0, 0, 0, 0, 20, 62, 56
|0, 0, 30, 0, 0, 0, 0, 0, 0, 20, 0, 24, 0, 0, 29, 0, 48, 37, 0, 0, 26, 18, 23, 0, 44, 0, 25, 0, 0, 10, 64, 0, 58, 0, 0, 0, 7, 53, 0, 9, 42, 36, 52, 0, 5, 0, 22, 34, 56, 59, 0, 13, 38, 0, 0, 2, 0, 45, 63, 0, 16, 28, 50, 19
|0, 28, 0, 10, 39, 40, 53, 43, 0, 35, 42, 0, 15, 0, 47, 38, 0, 23, 54, 0, 41, 22, 0, 0, 1, 0, 6, 0, 58, 0, 0, 0, 8, 0, 0, 0, 4, 0, 45, 0, 0, 21, 2, 0, 0, 31, 29, 60, 0, 50, 0, 0, 0, 0, 25, 0, 11, 30, 46, 0, 5, 0, 9, 0
|0, 30, 54, 0, 19, 0, 0, 0, 0, 0, 0, 31, 56, 0, 25, 0, 21, 33, 47, 0, 0, 8, 9, 20, 60, 0, 52, 0, 0, 38, 0, 62, 0, 0, 0, 0, 37, 0, 0, 0, 0, 53, 63, 0, 39, 0, 0, 35, 0, 32, 0, 7, 11, 48, 26, 0, 0, 0, 4, 0, 0, 0, 0, 0
|0, 58, 0, 48, 0, 34, 0, 47, 0, 7, 0, 10, 0, 0, 46, 26, 0, 16, 56, 0, 5, 0, 64, 51, 24, 41, 31, 0, 22, 0, 0, 0, 61, 59, 0, 36, 29, 0, 9, 0, 23, 55, 40, 0, 0, 0, 12, 54, 0, 0, 0, 45, 2, 0, 38, 42, 44, 0, 8, 49, 0, 0, 28, 60
|21, 0, 9, 46, 0, 33, 29, 0, 0, 19, 4, 37, 0, 0, 41, 0, 0, 17, 61, 53, 0, 44, 27, 39, 0, 10, 40, 0, 0, 42, 8, 0, 0, 52, 55, 0, 22, 50, 13, 0, 0, 0, 16, 0, 7, 20, 57, 0, 5, 28, 0, 60, 6, 0, 30, 0, 54, 34, 26, 0, 0, 0, 0, 2
|0, 0, 0, 56, 0, 49, 0, 59, 0, 0, 0, 0, 40, 0, 0, 2, 0, 0, 58, 0, 63, 0, 0, 19, 18, 0, 30, 16, 0, 0, 0, 0, 38, 0, 0, 0, 0, 60, 0, 0, 50, 24, 28, 42, 0, 0, 34, 27, 0, 0, 22, 0, 20, 0, 53, 46, 0, 37, 0, 52, 0, 0, 0, 0
|24, 50, 27, 26, 44, 0, 42, 61, 33, 0, 58, 0, 0, 0, 34, 3, 6, 45, 0, 0, 0, 0, 0, 0, 0, 0, 0, 63, 11, 2, 0, 57, 51, 54, 28, 0, 0, 0, 17, 0, 0, 0, 59, 46, 15, 8, 5, 37, 0, 0, 39, 9, 0, 0, 0, 56, 0, 23, 0, 0, 12, 0, 0, 0
|0, 25, 41, 0, 7, 60, 0, 11, 0, 0, 0, 8, 52, 0, 0, 0, 26, 0, 0, 0, 24, 0, 13, 0, 0, 64, 46, 19, 0, 37, 0, 0, 0, 42, 0, 5, 6, 23, 0, 0, 56, 17, 14, 33, 0, 49, 0, 0, 0, 0, 0, 58, 4, 0, 62, 54, 0, 0, 39, 0, 0, 48, 57, 0
|64, 0, 16, 0, 0, 0, 4, 0, 28, 32, 0, 0, 54, 0, 0, 60, 0, 40, 49, 0, 52, 15, 37, 0, 0, 50, 59, 34, 0, 0, 26, 0, 35, 11, 39, 46, 2, 0, 58, 53, 0, 0, 62, 25, 0, 0, 13, 43, 0, 8, 0, 0, 41, 0, 3, 0, 19, 0, 0, 0, 21, 0, 0, 0
|62, 0, 0, 30, 53, 0, 0, 2, 0, 0, 35, 46, 0, 0, 56, 42, 0, 58, 0, 34, 0, 59, 0, 0, 0, 60, 0, 0, 21, 3, 9, 64, 23, 19, 37, 8, 14, 6, 47, 0, 18, 0, 5, 4, 11, 0, 0, 0, 0, 0, 0, 55, 31, 13, 22, 0, 0, 0, 0, 0, 32, 54, 0, 28
|42, 17, 38, 29, 11, 0, 60, 12, 0, 33, 0, 0, 0, 0, 0, 25, 19, 54, 0, 43, 0, 0, 41, 31, 0, 0, 39, 0, 0, 0, 0, 0, 0, 0, 10, 63, 0, 36, 0, 27, 61, 22, 0, 7, 0, 24, 0, 1, 0, 34, 0, 0, 30, 0, 58, 0, 50, 14, 0, 0, 0, 45, 0, 0
|0, 0, 43, 0, 18, 0, 0, 0, 44, 14, 0, 47, 0, 58, 64, 0, 13, 0, 63, 22, 0, 30, 0, 0, 12, 17, 0, 6, 28, 8, 0, 0, 62, 50, 0, 9, 0, 34, 0, 0, 55, 46, 0, 0, 40, 0, 0, 45, 0, 0, 53, 32, 56, 0, 0, 60, 0, 0, 16, 11, 0, 57, 0, 27
|15, 40, 20, 0, 10, 0, 50, 0, 52, 27, 0, 43, 23, 0, 0, 0, 0, 0, 0, 0, 0, 62, 0, 55, 35, 18, 1, 0, 0, 53, 0, 0, 57, 64, 0, 0, 48, 61, 5, 3, 16, 0, 0, 2, 0, 51, 0, 6, 33, 12, 0, 44, 0, 0, 0, 0, 0, 31, 0, 0, 60, 0, 4, 39
|0, 0, 46, 9, 0, 6, 13, 37, 0, 0, 57, 41, 22, 0, 24, 34, 0, 36, 0, 0, 53, 11, 51, 38, 50, 0, 43, 44, 52, 0, 0, 0, 0, 0, 0, 0, 0, 20, 0, 0, 0, 48, 0, 0, 0, 42, 0, 0, 3, 4, 40, 49, 0, 0, 54, 0, 23, 0, 12, 35, 29, 0, 2, 0
|0, 5, 22, 0, 0, 0, 57, 0, 51, 0, 32, 0, 0, 11, 0, 50, 20, 0, 42, 0, 17, 21, 0, 18, 0, 0, 16, 62, 0, 0, 0, 30, 0, 40, 0, 38, 0, 0, 60, 0, 0, 34, 0, 28, 23, 53, 0, 0, 0, 0, 0, 0, 45, 36, 0, 27, 15, 33, 0, 0, 0, 0, 63, 48
|0, 54, 0, 31, 0, 16, 0, 34, 0, 3, 0, 21, 0, 62, 0, 53, 23, 47, 0, 26, 0, 0, 45, 0, 20, 11, 24, 0, 0, 0, 0, 55, 0, 0, 0, 12, 0, 15, 0, 51, 0, 27, 29, 41, 0, 25, 0, 0, 63, 37, 0, 0, 1, 17, 0, 0, 49, 6, 0, 0, 0, 0, 30, 0
|0, 0, 51, 0, 55, 0, 58, 64, 60, 38, 15, 0, 0, 0, 2, 0, 3, 32, 0, 52, 56, 28, 6, 0, 22, 0, 34, 0, 40, 13, 0, 41, 1, 0, 49, 31, 0, 0, 16, 0, 21, 50, 9, 0, 30, 0, 17, 20, 10, 57, 61, 35, 43, 24, 0, 25, 18, 0, 0, 47, 62, 46, 0, 42
|6, 0, 10, 17, 13, 1, 0, 0, 0, 26, 47, 0, 0, 32, 0, 55, 35, 31, 45, 0, 51, 12, 0, 50, 19, 0, 0, 40, 4, 22, 0, 0, 0, 49, 2, 23, 0, 38, 0, 11, 5, 0, 61, 29, 20, 0, 42, 18, 0, 48, 0, 0, 33, 0, 56, 41, 0, 0, 0, 0, 0, 34, 52, 0
|9, 0, 0, 0, 0, 46, 0, 0, 0, 0, 0, 0, 0, 0, 51, 59, 0, 30, 14, 15, 0, 13, 0, 40, 21, 3, 0, 0, 0, 16, 23, 0, 0, 43, 0, 33, 56, 0, 0, 63, 0, 64, 10, 62, 24, 37, 25, 0, 4, 39, 42, 54, 0, 0, 57, 0, 20, 44, 17, 0, 26, 0, 0, 0
|0, 64, 0, 54, 26, 0, 2, 0, 37, 10, 0, 35, 50, 45, 0, 0, 32, 39, 22, 38, 0, 0, 0, 0, 0, 1, 0, 0, 0, 17, 0, 0, 0, 8, 0, 0, 18, 25, 12, 24, 49, 60, 4, 0, 34, 16, 0, 0, 0, 0, 0, 0, 36, 5, 0, 0, 0, 15, 56, 48, 19, 41, 11, 59
|0, 0, 0, 0, 0, 25, 32, 22, 8, 0, 27, 16, 43, 0, 0, 61, 18, 0, 17, 11, 0, 0, 0, 6, 62, 46, 0, 54, 5, 0, 34, 0, 0, 36, 19, 0, 28, 0, 14, 0, 57, 0, 0, 0, 0, 0, 3, 0, 9, 2, 59, 21, 23, 60, 24, 0, 40, 42, 50, 0, 38, 0, 0, 0
|0, 0, 5, 0, 62, 0, 59, 0, 0, 44, 0, 0, 0, 0, 0, 39, 0, 19, 48, 0, 0, 0, 0, 47, 0, 37, 0, 0, 0, 64, 20, 32, 0, 0, 57, 61, 10, 0, 34, 0, 0, 0, 0, 0, 12, 0, 15, 0, 14, 11, 0, 18, 16, 27, 0, 0, 30, 0, 51, 0, 0, 0, 49, 0
|61, 15, 11, 41, 60, 0, 35, 0, 0, 0, 0, 0, 49, 0, 0, 0, 62, 0, 37, 0, 0, 0, 0, 23, 52, 0, 0, 42, 0, 6, 31, 0, 0, 4, 54, 0, 0, 64, 0, 0, 43, 47, 0, 59, 27, 39, 63, 0, 38, 45, 0, 0, 0, 32, 0, 7, 3, 0, 5, 0, 0, 16, 0, 21
|0, 0, 19, 0, 0, 24, 34, 0, 0, 0, 1, 29, 31, 56, 38, 13, 58, 42, 0, 20, 54, 0, 0, 0, 61, 0, 28, 47, 15, 0, 59, 0, 37, 6, 0, 17, 0, 0, 32, 40, 0, 0, 11, 0, 0, 0, 26, 53, 0, 0, 0, 0, 64, 0, 0, 0, 0, 0, 2, 0, 33, 0, 0, 0
|0, 56, 4, 39, 52, 3, 14, 0, 0, 0, 63, 0, 24, 5, 0, 0, 55, 21, 0, 57, 0, 64, 0, 46, 0, 33, 51, 11, 0, 12, 0, 0, 0, 20, 59, 0, 42, 1, 48, 0, 9, 54, 19, 40, 0, 38, 0, 0, 17, 0, 62, 0, 0, 0, 61, 26, 13, 0, 0, 0, 0, 0, 0, 0
|38, 0, 44, 0, 33, 36, 5, 3, 0, 0, 61, 25, 0, 27, 0, 0, 0, 18, 0, 47, 0, 37, 48, 11, 0, 6, 0, 0, 35, 0, 41, 0, 22, 14, 53, 55, 0, 32, 0, 13, 63, 1, 49, 0, 43, 4, 0, 0, 54, 16, 52, 51, 24, 0, 7, 0, 0, 46, 60, 12, 0, 59, 0, 0
|0, 55, 45, 12, 37, 21, 0, 0, 19, 0, 52, 17, 0, 0, 0, 0, 59, 41, 13, 40, 43, 49, 28, 0, 0, 9, 0, 48, 0, 0, 0, 0, 33, 0, 23, 0, 51, 54, 18, 8, 0, 42, 0, 0, 35, 11, 0, 38, 0, 0, 0, 0, 0, 0, 10, 3, 64, 27, 31, 0, 0, 0, 0, 24
|0, 0, 0, 0, 0, 57, 64, 0, 0, 0, 20, 0, 0, 0, 49, 0, 27, 51, 55, 1, 0, 0, 0, 0, 0, 21, 0, 0, 0, 61, 0, 26, 0, 0, 0, 0, 0, 0, 36, 58, 15, 0, 12, 44, 0, 5, 0, 62, 40, 0, 47, 41, 0, 0, 37, 43, 0, 0, 0, 16, 48, 8, 0, 38
|28, 10, 0, 0, 0, 27, 0, 4, 0, 0, 48, 0, 0, 0, 0, 56, 0, 0, 0, 5, 0, 0, 50, 0, 14, 0, 0, 0, 49, 33, 0, 0, 21, 37, 6, 45, 0, 24, 46, 2, 0, 20, 3, 0, 36, 41, 0, 0, 35, 55, 0, 0, 0, 0, 8, 53, 0, 19, 0, 15, 40, 11, 44, 0
|0, 0, 2, 7, 0, 18, 43, 54, 0, 57, 0, 0, 0, 28, 8, 0, 0, 44, 19, 16, 0, 0, 20, 52, 0, 0, 64, 53, 0, 0, 0, 27, 34, 0, 61, 0, 5, 0, 0, 0, 0, 37, 47, 0, 0, 0, 14, 0, 59, 0, 0, 0, 29, 46, 42, 0, 0, 9, 0, 0, 0, 0, 3, 0
|0, 60, 0, 0, 0, 11, 61, 0, 0, 0, 38, 0, 62, 6, 36, 47, 0, 0, 24, 0, 0, 0, 17, 0, 0, 13, 54, 0, 0, 58, 42, 51, 12, 48, 0, 39, 64, 59, 0, 50, 0, 0, 0, 0, 0, 0, 27, 46, 0, 0, 0, 26, 44, 63, 19, 15, 53, 52, 0, 41, 0, 0, 0, 0
|0, 20, 48, 42, 0, 0, 63, 17, 45, 53, 41, 0, 9, 0, 37, 0, 61, 0, 4, 0, 2, 6, 0, 0, 0, 57, 0, 29, 0, 24, 44, 0, 43, 7, 0, 52, 0, 28, 40, 0, 0, 32, 0, 0, 50, 0, 10, 30, 0, 64, 49, 38, 0, 0, 0, 18, 0, 39, 22, 33, 51, 0, 35, 0
|32, 0, 0, 34, 15, 0, 49, 0, 29, 55, 43, 42, 64, 0, 0, 0, 39, 62, 0, 0, 7, 57, 0, 0, 0, 8, 0, 46, 36, 0, 0, 0, 0, 9, 0, 0, 0, 0, 20, 0, 26, 0, 0, 61, 21, 48, 40, 0, 0, 1, 0, 22, 0, 23, 6, 4, 0, 0, 28, 2, 0, 0, 0, 17
|19, 0, 0, 0, 25, 38, 51, 48, 0, 11, 0, 0, 21, 52, 0, 0, 22, 2, 50, 0, 18, 29, 1, 0, 0, 62, 58, 0, 8, 36, 0, 7, 0, 0, 0, 0, 0, 12, 39, 46, 60, 0, 0, 0, 0, 63, 53, 0, 64, 0, 37, 42, 35, 28, 49, 40, 0, 0, 0, 0, 0, 4, 0, 61
|27, 0, 0, 60, 43, 0, 26, 0, 0, 0, 29, 6, 0, 0, 0, 14, 0, 53, 0, 0, 0, 0, 0, 15, 0, 47, 0, 35, 16, 30, 18, 0, 0, 0, 0, 21, 0, 0, 3, 59, 20, 45, 55, 50, 33, 0, 0, 0, 19, 63, 0, 0, 8, 25, 0, 5, 7, 11, 57, 0, 0, 56, 0, 0
|56, 42, 39, 0, 5, 54, 0, 52, 47, 0, 53, 1, 0, 0, 28, 0, 0, 0, 7, 0, 0, 0, 14, 43, 48, 55, 0, 25, 0, 21, 32, 0, 0, 35, 50, 0, 19, 0, 0, 0, 29, 58, 13, 0, 0, 23, 4, 0, 22, 0, 24, 0, 0, 30, 0, 0, 0, 0, 49, 46, 64, 27, 18, 0
|1, 11, 17, 47, 0, 0, 0, 0, 57, 0, 0, 27, 35, 18, 0, 44, 0, 10, 0, 0, 0, 0, 0, 45, 41, 0, 0, 64, 0, 0, 49, 46, 0, 31, 5, 6, 61, 55, 23, 0, 0, 0, 0, 37, 0, 56, 19, 7, 0, 13, 38, 20, 0, 21, 9, 48, 0, 3, 0, 0, 0, 15, 0, 62
|0, 0, 0, 0, 0, 0, 0, 0, 0, 42, 0, 33, 0, 31, 0, 45, 24, 6, 8, 0, 0, 41, 0, 49, 0, 0, 0, 43, 0, 40, 51, 0, 0, 0, 4, 0, 0, 0, 54, 7, 0, 5, 0, 57, 46, 0, 0, 12, 0, 0, 60, 11, 39, 56, 0, 0, 0, 38, 0, 0, 0, 0, 0, 52
|0, 16, 0, 21, 20, 0, 0, 41, 0, 24, 0, 0, 0, 3, 0, 0, 0, 0, 62, 4, 0, 0, 0, 17, 0, 19, 0, 52, 0, 0, 0, 0, 14, 18, 0, 0, 25, 22, 0, 0, 0, 49, 34, 47, 42, 35, 44, 61, 0, 29, 26, 0, 0, 0, 0, 0, 0, 0, 0, 0, 0, 0, 59, 1
|0, 0, 6, 0, 24, 30, 9, 0, 5, 0, 0, 0, 0, 51, 0, 0, 47, 27, 32, 0, 0, 38, 56, 0, 0, 31, 45, 0, 0, 1, 0, 61, 63, 28, 0, 42, 60, 29, 0, 44, 8, 0, 41, 0, 0, 0, 0, 0, 0, 0, 0, 0, 0, 7, 0, 59, 35, 0, 0, 0, 36, 0, 34, 23
|0, 2, 0, 0, 64, 0, 0, 55, 30, 0, 0, 4, 0, 19, 0, 0, 0, 0, 21, 0, 0, 34, 0, 0, 0, 39, 0, 0, 0, 14, 29, 23, 0, 0, 38, 0, 20, 0, 0, 0, 0, 0, 0, 0, 0, 40, 36, 0, 0, 0, 46, 3, 0, 0, 0, 61, 41, 51, 33, 0, 0, 24, 43, 22|];