order = 8;
grid = [|0, 42, 20, 45, 39, 59, 0, 0, 0, 0, 1, 6, 22, 0, 62, 0, 0, 0, 0, 0, 0, 64, 0, 0, 3, 0, 0, 0, 0, 0, 58, 23, 21, 54, 0, 29, 17, 24, 0, 18, 49, 0, 0, 15, 10, 0, 0, 4, 30, 19, 57, 0, 0, 28, 0, 0, 0, 25, 0, 0, 32, 0, 0, 14
|43, 11, 58, 0, 0, 0, 0, 0, 24, 33, 0, 0, 0, 0, 0, 18, 0, 0, 49, 62, 15, 0, 61, 1, 0, 0, 0, 0, 0, 0, 0, 0, 0, 0, 40, 0, 14, 0, 48, 0, 19, 50, 12, 0, 0, 25, 0, 53, 0, 0, 0, 10, 0, 0, 44, 34, 0, 0, 47, 52, 60, 42, 0, 0
|0, 0, 0, 37, 0, 0, 0, 0, 0, 27, 49, 52, 48, 20, 0, 45, 18, 4, 39, 0, 38, 14, 50, 0, 0, 10, 16, 0, 26, 0, 0, 0, 0, 56, 9, 3, 19, 0, 0, 58, 0, 0, 64, 36, 0, 42, 0, 0, 0, 43, 0, 0, 2, 29, 0, 59, 0, 0, 0, 0, 0, 0, 0, 21
|0, 26, 0, 46, 50, 18, 28, 34, 0, 47, 44, 0, 21, 0, 41, 0, 29, 53, 0, 19, 35, 5, 63, 0, 61, 0, 64, 0, 62, 0, 0, 42, 33, 2, 0, 43, 37, 0, 20, 0, 16, 52, 0, 0, 59, 9, 24, 40, 0, 0, 38, 39, 54, 36, 0, 15, 0, 22, 0, 0, 4, 0, 30, 51
|0, 0, 3, 63, 0, 0, 0, 0, 59, 34, 35, 29, 0, 58, 0, 39, 9, 0, 33, 0, 0, 12, 0, 0, 0, 55, 0, 0, 0, 41, 0, 6, 32, 64, 52, 0, 0, 49, 25, 0, 0, 0, 2, 22, 0, 0, 31, 44, 0, 0, 0, 53, 0, 27, 60, 0, 45, 17, 13, 0, 0, 0, 36, 0
|0, 6, 0, 53, 62, 25, 2, 0, 55, 0, 0, 17, 10, 0, 19, 0, 0, 0, 0, 0, 51, 0, 60, 44, 57, 63, 24, 13, 0, 50, 20, 22, 11, 0, 0, 41, 0, 0, 0, 0, 56, 26, 0, 0, 33, 38, 8, 18, 0, 0, 0, 4, 0, 0, 37, 23, 0, 29, 0, 0, 49, 0, 0, 61
|33, 49, 0, 0, 14, 19, 0, 0, 0, 53, 46, 26, 0, 40, 5, 0, 52, 0, 0, 0, 59, 0, 0, 11, 47, 0, 0, 15, 2, 18, 0, 0, 0, 0, 0, 0, 35, 28, 0, 0, 0, 0, 0, 23, 20, 0, 0, 51, 0, 1, 0, 0, 32, 0, 0, 58, 63, 0, 3, 0, 0, 0, 0, 6
|0, 5, 47, 0, 0, 0, 0, 21, 2, 12, 0, 23, 37, 13, 3, 36, 10, 6, 0, 0, 0, 0, 0, 22, 43, 28, 49, 0, 0, 0, 0, 0, 46, 15, 0, 0, 0, 57, 53, 55, 0, 0, 62, 61, 0, 60, 34, 41, 48, 0, 0, 42, 0, 51, 18, 0, 35, 16, 0, 9, 0, 56, 0, 31
|1, 22, 0, 58, 32, 0, 15, 0, 0, 45, 0, 0, 28, 0, 0, 0, 0, 0, 16, 63, 0, 24, 0, 34, 0, 62, 11, 0, 0, 0, 0, 30, 55, 0, 31, 18, 0, 50, 23, 27, 51, 0, 0, 0, 38, 0, 14, 0, 9, 0, 0, 13, 0, 0, 25, 2, 0, 0, 48, 29, 0, 0, 7, 0
|35, 18, 0, 0, 55, 0, 23, 24, 21, 0, 0, 12, 60, 27, 58, 1, 0, 0, 43, 0, 61, 0, 53, 0, 34, 3, 31, 0, 0, 4, 46, 0, 25, 11, 0, 51, 0, 0, 0, 14, 40, 0, 17, 47, 0, 56, 0, 0, 49, 0, 50, 16, 44, 0, 42, 0, 0, 0, 36, 5, 30, 45, 39, 54
|46, 0, 0, 0, 12, 17, 0, 0, 0, 63, 0, 50, 0, 56, 4, 0, 27, 0, 0, 15, 0, 0, 0, 6, 0, 0, 0, 0, 0, 0, 2, 0, 0, 0, 0, 9, 58, 0, 0, 0, 0, 49, 30, 60, 0, 41, 0, 0, 0, 20, 31, 59, 43, 0, 0, 48, 19, 53, 34, 11, 3, 10, 25, 0
|30, 0, 0, 29, 48, 0, 0, 0, 26, 0, 0, 0, 0, 15, 0, 0, 0, 0, 0, 0, 0, 0, 54, 0, 9, 0, 63, 38, 58, 0, 5, 59, 53, 57, 21, 0, 0, 0, 0, 0, 0, 0, 27, 0, 0, 19, 46, 36, 0, 23, 11, 60, 0, 0, 0, 0, 0, 0, 44, 0, 0, 0, 0, 13
|0, 0, 0, 7, 0, 0, 57, 52, 20, 19, 0, 0, 24, 25, 0, 0, 12, 0, 0, 0, 0, 0, 0, 0, 35, 39, 8, 51, 0, 36, 55, 50, 40, 0, 10, 0, 0, 56, 0, 16, 0, 0, 53, 42, 0, 0, 0, 0, 0, 46, 28, 26, 27, 0, 34, 54, 0, 23, 17, 43, 58, 0, 32, 9
|63, 0, 5, 0, 11, 0, 60, 0, 0, 17, 0, 57, 0, 37, 0, 0, 0, 35, 38, 0, 0, 0, 56, 0, 25, 19, 0, 0, 0, 44, 12, 33, 0, 39, 0, 0, 46, 13, 6, 0, 58, 0, 0, 8, 0, 0, 0, 0, 40, 0, 53, 55, 14, 64, 24, 0, 0, 27, 28, 49, 2, 0, 0, 0
|0, 3, 8, 0, 9, 0, 42, 50, 41, 36, 16, 51, 0, 0, 0, 29, 39, 40, 44, 0, 58, 0, 20, 0, 10, 43, 23, 57, 0, 0, 27, 48, 0, 0, 2, 0, 59, 0, 19, 0, 0, 0, 0, 0, 64, 4, 0, 25, 18, 0, 0, 0, 22, 0, 33, 0, 15, 21, 0, 0, 0, 47, 60, 0
|0, 0, 0, 16, 10, 0, 0, 0, 3, 13, 0, 11, 0, 59, 0, 7, 0, 0, 0, 5, 1, 0, 0, 0, 54, 0, 0, 0, 0, 0, 0, 0, 24, 0, 0, 0, 44, 64, 43, 0, 6, 0, 33, 52, 0, 0, 0, 0, 0, 4, 0, 62, 29, 0, 0, 47, 38, 51, 14, 46, 63, 0, 20, 42
|0, 0, 0, 25, 0, 13, 0, 39, 0, 0, 20, 2, 0, 16, 27, 37, 11, 0, 8, 12, 64, 41, 0, 0, 63, 0, 0, 0, 0, 0, 56, 24, 15, 49, 32, 36, 0, 0, 0, 0, 0, 0, 28, 26, 19, 0, 53, 50, 0, 0, 0, 30, 0, 33, 0, 0, 59, 0, 0, 0, 45, 0, 0, 0
|0, 0, 29, 0, 0, 0, 20, 47, 0, 22, 0, 0, 18, 1, 28, 19, 0, 0, 0, 10, 60, 63, 27, 24, 0, 0, 5, 40, 0, 0, 0, 0, 0, 0, 0, 0, 57, 0, 34, 25, 44, 58, 0, 3, 32, 0, 49, 2, 0, 52, 62, 0, 31, 56, 0, 61, 11, 48, 12, 37, 50, 0, 0, 0
|64, 0, 0, 0, 46, 0, 0, 63, 0, 0, 0, 30, 15, 0, 31, 0, 61, 0, 37, 0, 47, 33, 0, 26, 29, 0, 0, 23, 1, 0, 0, 0, 0, 20, 8, 39, 0, 0, 13, 0, 57, 0, 24, 38, 0, 40, 52, 0, 0, 44, 45, 0, 0, 0, 32, 0, 0, 0, 0, 0, 9, 0, 16, 2
|34, 0, 19, 0, 18, 56, 0, 0, 4, 0, 0, 0, 0, 0, 64, 50, 0, 13, 25, 0, 44, 53, 38, 0, 0, 2, 36, 10, 0, 0, 57, 0, 16, 51, 0, 0, 0, 46, 1, 0, 37, 0, 63, 0, 62, 0, 59, 54, 12, 11, 21, 0, 0, 39, 26, 8, 42, 0, 0, 0, 40, 0, 0, 0
|0, 53, 38, 6, 0, 40, 0, 0, 48, 23, 0, 32, 0, 0, 0, 0, 43, 0, 0, 0, 0, 0, 18, 45, 44, 0, 0, 0, 11, 0, 42, 31, 63, 52, 0, 0, 0, 0, 0, 0, 0, 10, 1, 7, 39, 0, 0, 35, 29, 58, 19, 20, 0, 59, 9, 46, 27, 4, 0, 0, 0, 0, 0, 64
|37, 32, 48, 0, 0, 0, 0, 8, 33, 0, 59, 63, 58, 0, 0, 0, 0, 0, 0, 35, 36, 55, 15, 52, 12, 20, 9, 53, 0, 51, 43, 60, 22, 31, 0, 0, 47, 5, 0, 0, 0, 13, 21, 0, 0, 6, 29, 27, 0, 40, 0, 0, 28, 49, 0, 0, 56, 39, 0, 38, 25, 61, 62, 0
|0, 0, 0, 51, 22, 12, 59, 0, 39, 0, 0, 0, 0, 0, 6, 52, 1, 0, 0, 2, 0, 0, 9, 32, 45, 41, 0, 3, 16, 0, 0, 0, 0, 19, 58, 0, 27, 0, 0, 0, 18, 11, 25, 0, 0, 0, 64, 20, 10, 13, 48, 23, 0, 34, 54, 0, 60, 63, 0, 0, 28, 0, 0, 0
|0, 0, 0, 24, 61, 11, 0, 0, 57, 49, 40, 35, 0, 45, 44, 0, 56, 20, 17, 54, 0, 39, 0, 51, 0, 15, 0, 0, 0, 13, 28, 4, 0, 23, 0, 59, 18, 12, 0, 10, 8, 0, 9, 0, 0, 34, 0, 5, 63, 27, 0, 43, 50, 37, 2, 0, 0, 0, 0, 0, 29, 46, 6, 0
|0, 0, 64, 59, 0, 0, 33, 0, 36, 46, 0, 45, 12, 2, 48, 0, 34, 0, 0, 0, 43, 0, 0, 0, 7, 14, 51, 0, 4, 3, 19, 0, 0, 13, 0, 56, 0, 0, 21, 9, 0, 24, 61, 0, 22, 27, 0, 0, 11, 6, 47, 37, 0, 0, 20, 0, 10, 35, 30, 0, 0, 0, 17, 0
|0, 0, 54, 0, 0, 6, 0, 31, 56, 0, 58, 0, 0, 14, 59, 0, 32, 25, 0, 0, 0, 0, 0, 27, 18, 0, 0, 41, 55, 61, 0, 5, 43, 0, 0, 0, 0, 19, 0, 62, 0, 0, 0, 0, 45, 0, 50, 0, 46, 0, 36, 48, 0, 44, 40, 0, 0, 49, 0, 34, 33, 38, 37, 20
|0, 29, 57, 1, 51, 44, 0, 15, 10, 8, 0, 20, 40, 0, 0, 27, 0, 60, 22, 26, 0, 0, 0, 0, 0, 0, 13, 0, 42, 37, 0, 0, 30, 48, 12, 0, 31, 0, 0, 23, 0, 46, 38, 34, 18, 0, 41, 0, 0, 63, 0, 0, 0, 52, 0, 25, 16, 0, 62, 14, 0, 0, 0, 32
|0, 0, 0, 0, 0, 0, 0, 61, 52, 0, 51, 19, 0, 63, 0, 0, 0, 33, 30, 41, 0, 29, 0, 0, 0, 0, 0, 0, 48, 6, 0, 0, 54, 0, 18, 0, 5, 7, 0, 34, 26, 62, 11, 0, 14, 17, 0, 0, 0, 12, 0, 24, 23, 0, 3, 0, 0, 55, 0, 25, 47, 43, 15, 0
|0, 10, 55, 0, 0, 3, 0, 0, 0, 15, 0, 0, 47, 33, 50, 0, 54, 12, 45, 53, 0, 19, 21, 0, 36, 0, 0, 0, 0, 0, 9, 0, 64, 38, 63, 0, 2, 32, 22, 20, 23, 35, 0, 0, 8, 13, 56, 39, 0, 30, 14, 51, 0, 7, 0, 0, 0, 41, 57, 0, 0, 48, 31, 44
|38, 63, 0, 9, 0, 27, 12, 0, 54, 3, 0, 16, 0, 0, 0, 55, 28, 0, 56, 0, 46, 0, 36, 61, 49, 29, 0, 64, 59, 0, 10, 0, 1, 58, 25, 0, 0, 0, 0, 15, 0, 7, 6, 2, 0, 0, 0, 0, 0, 0, 41, 34, 0, 35, 19, 0, 0, 45, 0, 39, 0, 40, 0, 26
|5, 0, 0, 14, 21, 4, 30, 0, 37, 60, 25, 0, 34, 0, 26, 0, 0, 52, 0, 17, 0, 0, 0, 7, 0, 0, 20, 28, 12, 0, 0, 57, 41, 50, 6, 61, 10, 3, 39, 49, 0, 1, 0, 0, 47, 44, 0, 0, 0, 2, 0, 15, 42, 0, 0, 0, 0, 0, 56, 0, 0, 0, 18, 27
|0, 0, 24, 0, 0, 0, 0, 0, 0, 0, 6, 5, 0, 0, 0, 64, 63, 0, 0, 0, 23, 47, 0, 0, 8, 0, 0, 0, 27, 0, 0, 0, 45, 0, 46, 57, 0, 60, 0, 26, 0, 31, 40, 54, 0, 0, 0, 0, 61, 29, 0, 1, 17, 43, 50, 32, 4, 42, 22, 0, 0, 0, 13, 3
|0, 0, 39, 41, 0, 21, 10, 44, 34, 0, 0, 0, 0, 35, 0, 0, 38, 0, 4, 0, 0, 36, 45, 53, 55, 59, 0, 8, 0, 0, 31, 64, 23, 0, 0, 12, 0, 0, 3, 0, 9, 0, 13, 0, 37, 62, 0, 24, 0, 0, 49, 54, 0, 61, 29, 0, 58, 0, 0, 0, 0, 60, 56, 0
|17, 0, 0, 3, 1, 0, 0, 0, 0, 2, 0, 0, 20, 19, 0, 0, 0, 0, 32, 28, 0, 58, 10, 43, 22, 0, 0, 0, 0, 56, 0, 36, 0, 29, 50, 54, 0, 0, 0, 61, 0, 33, 8, 46, 57, 0, 44, 0, 0, 25, 0, 0, 0, 0, 0, 0, 18, 0, 0, 40, 0, 35, 0, 0
|49, 0, 0, 22, 0, 0, 11, 0, 0, 29, 0, 28, 54, 0, 0, 0, 14, 0, 0, 0, 9, 46, 30, 0, 0, 47, 0, 52, 41, 0, 48, 37, 0, 0, 20, 33, 56, 0, 0, 21, 27, 0, 43, 6, 23, 0, 35, 7, 0, 55, 0, 44, 12, 17, 0, 0, 36, 31, 39, 51, 16, 25, 0, 0
|9, 0, 0, 18, 0, 0, 29, 0, 53, 59, 10, 21, 0, 0, 0, 16, 50, 51, 26, 7, 0, 0, 19, 0, 58, 0, 60, 61, 0, 0, 0, 0, 0, 0, 0, 42, 6, 0, 15, 45, 0, 39, 0, 0, 0, 0, 40, 0, 0, 62, 23, 36, 30, 0, 52, 35, 46, 8, 38, 0, 0, 49, 33, 28
|0, 27, 0, 42, 43, 0, 40, 35, 0, 7, 0, 0, 45, 26, 0, 33, 37, 0, 2, 49, 0, 0, 0, 56, 0, 6, 54, 0, 44, 0, 0, 39, 0, 0, 62, 0, 30, 31, 47, 64, 50, 21, 0, 29, 0, 52, 0, 28, 38, 24, 0, 0, 0, 60, 8, 19, 0, 14, 0, 0, 23, 0, 0, 41
|0, 0, 33, 60, 0, 58, 0, 4, 0, 50, 11, 0, 0, 0, 55, 0, 0, 0, 52, 29, 0, 59, 6, 54, 62, 0, 0, 0, 21, 0, 0, 16, 17, 0, 0, 1, 39, 26, 0, 0, 47, 15, 5, 0, 0, 10, 0, 0, 0, 0, 0, 0, 34, 0, 0, 53, 0, 0, 0, 0, 48, 0, 9, 22
|0, 0, 6, 0, 0, 50, 13, 0, 22, 0, 60, 31, 17, 0, 0, 0, 0, 0, 0, 0, 62, 27, 0, 15, 5, 0, 46, 18, 51, 57, 0, 19, 0, 0, 0, 52, 0, 0, 0, 0, 38, 0, 59, 64, 0, 0, 4, 14, 21, 0, 0, 0, 0, 0, 0, 0, 34, 0, 0, 0, 0, 32, 0, 0
|0, 31, 0, 0, 0, 48, 0, 54, 6, 0, 23, 0, 0, 0, 0, 0, 0, 0, 60, 0, 21, 20, 0, 5, 26, 0, 2, 0, 0, 0, 38, 0, 0, 0, 0, 0, 0, 16, 0, 0, 0, 36, 22, 53, 0, 45, 0, 0, 28, 39, 40, 50, 0, 15, 0, 0, 0, 0, 4, 44, 19, 62, 42, 30
|0, 0, 0, 0, 47, 0, 61, 53, 0, 0, 27, 1, 6, 43, 0, 5, 0, 45, 64, 18, 40, 0, 0, 0, 60, 0, 10, 32, 30, 11, 0, 0, 0, 63, 56, 31, 0, 0, 52, 0, 34, 0, 0, 0, 0, 0, 37, 0, 0, 0, 0, 0, 0, 9, 0, 0, 25, 0, 50, 0, 0, 0, 0, 0
|0, 20, 0, 0, 0, 64, 62, 55, 19, 0, 0, 0, 53, 10, 29, 26, 0, 0, 0, 30, 0, 0, 0, 0, 48, 0, 0, 50, 45, 47, 0, 56, 0, 0, 0, 0, 49, 0, 0, 1, 3, 27, 0, 0, 6, 61, 0, 17, 0, 15, 51, 0, 0, 54, 13, 42, 39, 0, 2, 35, 5, 0, 23, 0
|0, 0, 16, 0, 25, 63, 0, 29, 49, 0, 0, 0, 0, 12, 0, 31, 0, 46, 0, 0, 24, 0, 0, 33, 0, 0, 0, 43, 0, 0, 0, 53, 2, 8, 0, 0, 50, 0, 0, 0, 0, 0, 41, 10, 0, 0, 0, 0, 0, 35, 4, 57, 36, 0, 21, 17, 0, 0, 45, 0, 62, 34, 0, 0
|0, 0, 31, 0, 0, 0, 22, 9, 17, 52, 48, 46, 0, 0, 36, 0, 47, 2, 0, 43, 27, 61, 0, 0, 0, 0, 0, 54, 0, 64, 0, 3, 6, 5, 0, 0, 26, 20, 0, 60, 62, 0, 0, 63, 0, 0, 15, 57, 34, 0, 0, 14, 0, 18, 0, 0, 0, 1, 0, 0, 0, 11, 0, 0
|15, 13, 2, 57, 33, 0, 0, 5, 23, 25, 37, 0, 62, 61, 22, 0, 53, 0, 20, 0, 28, 0, 49, 0, 24, 0, 0, 0, 38, 55, 7, 0, 0, 10, 0, 16, 48, 0, 29, 3, 0, 0, 39, 0, 1, 8, 0, 11, 50, 59, 0, 6, 0, 12, 46, 43, 0, 0, 0, 30, 56, 0, 0, 0
|11, 0, 0, 26, 24, 46, 32, 0, 0, 0, 0, 47, 57, 21, 0, 58, 5, 0, 0, 4, 0, 0, 37, 0, 0, 36, 0, 0, 0, 15, 6, 49, 19, 25, 51, 53, 23, 0, 41, 39, 52, 0, 0, 59, 50, 0, 30, 22, 0, 0, 0, 27, 61, 0, 16, 33, 0, 0, 31, 0, 43, 0, 0, 0
|0, 0, 0, 0, 3, 0, 0, 0, 32, 0, 0, 41, 11, 0, 20, 0, 48, 16, 55, 38, 0, 42, 8, 19, 27, 0, 59, 62, 0, 0, 0, 25, 0, 44, 17, 0, 0, 0, 9, 0, 43, 0, 0, 0, 24, 2, 0, 47, 45, 0, 0, 0, 0, 31, 5, 0, 0, 28, 21, 53, 0, 6, 40, 63
|27, 1, 0, 48, 54, 30, 0, 6, 0, 0, 3, 34, 16, 18, 45, 0, 41, 50, 0, 57, 0, 0, 0, 17, 0, 26, 61, 42, 5, 0, 22, 0, 62, 24, 0, 13, 40, 21, 58, 33, 0, 53, 44, 0, 0, 0, 0, 0, 0, 60, 0, 0, 25, 0, 28, 0, 0, 38, 0, 0, 37, 52, 55, 15
|20, 0, 21, 0, 0, 9, 0, 0, 0, 0, 19, 0, 39, 38, 0, 0, 0, 34, 54, 0, 0, 37, 2, 0, 0, 0, 12, 0, 0, 24, 0, 40, 26, 0, 0, 32, 52, 25, 0, 48, 0, 22, 0, 58, 53, 31, 51, 0, 0, 28, 27, 46, 0, 47, 0, 4, 62, 6, 0, 0, 0, 0, 3, 0
|47, 0, 0, 0, 0, 29, 0, 0, 64, 0, 0, 0, 0, 0, 57, 63, 58, 0, 0, 0, 0, 0, 0, 0, 0, 0, 7, 14, 54, 0, 0, 20, 56, 43, 19, 0, 0, 0, 59, 0, 4, 0, 49, 44, 0, 0, 48, 33, 1, 31, 0, 0, 0, 0, 0, 30, 17, 10, 5, 50, 0, 0, 0, 0
|25, 0, 43, 0, 0, 0, 0, 14, 0, 0, 26, 0, 0, 0, 2, 24, 0, 27, 0, 45, 0, 0, 12, 0, 6, 0, 62, 0, 0, 5, 0, 0, 0, 3, 37, 0, 0, 0, 10, 0, 0, 47, 0, 55, 56, 36, 32, 0, 57, 8, 0, 21, 19, 0, 22, 0, 0, 7, 0, 61, 18, 53, 52, 0
|22, 0, 0, 0, 13, 0, 0, 38, 0, 0, 0, 0, 0, 31, 0, 0, 57, 56, 0, 64, 0, 0, 26, 0, 0, 0, 35, 27, 3, 2, 0, 0, 0, 0, 0, 0, 4, 44, 0, 0, 0, 0, 14, 37, 0, 15, 43, 62, 58, 5, 12, 40, 0, 53, 0, 0, 47, 0, 1, 0, 39, 63, 45, 0
|0, 0, 62, 0, 0, 60, 53, 0, 0, 0, 0, 56, 5, 0, 47, 40, 19, 0, 15, 0, 0, 35, 0, 20, 0, 50, 0, 0, 0, 10, 0, 38, 14, 0, 0, 64, 0, 36, 0, 2, 28, 0, 0, 0, 0, 39, 42, 0, 0, 51, 32, 0, 41, 0, 0, 44, 0, 12, 27, 31, 13, 0, 48, 0
|51, 34, 0, 0, 59, 0, 45, 12, 7, 0, 50, 0, 0, 28, 46, 0, 25, 17, 0, 0, 5, 0, 0, 0, 0, 48, 39, 16, 0, 0, 0, 58, 0, 0, 27, 0, 38, 15, 0, 35, 2, 0, 19, 40, 0, 0, 0, 0, 23, 0, 0, 9, 63, 0, 56, 52, 0, 24, 42, 0, 0, 0, 0, 0
|2, 0, 0, 28, 0, 55, 0, 32, 0, 0, 53, 0, 44, 0, 60, 59, 30, 0, 31, 0, 39, 50, 0, 38, 37, 61, 0, 0, 43, 0, 0, 13, 42, 6, 22, 24, 1, 0, 51, 7, 10, 17, 0, 18, 52, 0, 27, 0, 0, 0, 20, 35, 0, 0, 0, 0, 26, 56, 9, 0, 15, 0, 0, 49
|24, 0, 15, 56, 42, 54, 0, 0, 0, 4, 0, 27, 14, 62, 0, 22, 0, 9, 0, 51, 16, 28, 0, 48, 0, 1, 0, 55, 47, 45, 0, 11, 0, 41, 0, 63, 0, 61, 0, 0, 0, 12, 57, 0, 0, 5, 0, 8, 33, 37, 39, 18, 6, 50, 0, 0, 0, 40, 60, 0, 44, 0, 0, 46
|13, 0, 18, 5, 0, 0, 44, 1, 58, 0, 21, 59, 61, 0, 0, 25, 0, 15, 0, 46, 56, 0, 0, 0, 0, 57, 37, 39, 22, 19, 45, 2, 0, 42, 36, 60, 62, 63, 0, 54, 12, 8, 0, 28, 40, 43, 0, 16, 7, 53, 17, 49, 0, 14, 10, 64, 30, 11, 32, 23, 0, 50, 41, 0
|0, 23, 59, 0, 0, 0, 0, 0, 29, 14, 0, 64, 33, 5, 39, 62, 0, 0, 0, 37, 0, 0, 0, 0, 31, 0, 0, 34, 0, 54, 47, 0, 58, 0, 7, 0, 25, 0, 0, 0, 0, 4, 0, 0, 0, 49, 0, 60, 0, 32, 0, 63, 0, 11, 41, 0, 28, 43, 35, 15, 6, 1, 0, 45
|48, 0, 63, 0, 53, 0, 36, 0, 38, 31, 2, 0, 19, 0, 0, 0, 0, 28, 0, 0, 0, 0, 43, 25, 0, 0, 14, 0, 35, 0, 61, 51, 52, 59, 0, 20, 32, 0, 0, 44, 0, 0, 15, 0, 27, 0, 0, 37, 60, 18, 0, 0, 40, 24, 45, 0, 13, 0, 0, 4, 42, 0, 54, 12
|21, 0, 11, 15, 30, 26, 0, 0, 0, 0, 0, 7, 0, 42, 37, 0, 0, 63, 0, 0, 0, 0, 0, 0, 0, 0, 0, 0, 24, 0, 33, 0, 13, 0, 38, 0, 0, 0, 0, 31, 20, 56, 36, 0, 0, 0, 0, 32, 0, 16, 54, 0, 1, 0, 61, 0, 49, 0, 0, 0, 59, 0, 47, 0
|61, 57, 49, 0, 29, 0, 9, 0, 0, 56, 12, 22, 0, 3, 11, 23, 26, 54, 0, 0, 0, 0, 33, 35, 0, 7, 0, 0, 0, 0, 1, 0, 4, 30, 0, 50, 0, 51, 0, 41, 0, 38, 18, 24, 25, 0, 0, 31, 0, 34, 0, 58, 20, 48, 6, 0, 37, 0, 53, 0, 0, 19, 0, 0
|16, 12, 42, 0, 0, 0, 0, 3, 0, 44, 47, 0, 0, 6, 1, 0, 0, 41, 48, 0, 2, 8, 7, 0, 30, 32, 0, 0, 63, 58, 0, 0, 37, 0, 0, 15, 55, 0, 0, 24, 0, 0, 0, 21, 61, 59, 54, 0, 39, 22, 0, 38, 0, 0, 62, 27, 9, 0, 51, 0, 31, 5, 0, 40
|50, 0, 45, 0, 0, 7, 0, 25, 0, 0, 0, 55, 0, 0, 0, 0, 20, 30, 1, 0, 52, 62, 24, 0, 0, 21, 0, 0, 0, 46, 11, 0, 57, 22, 47, 0, 34, 0, 0, 8, 29, 0, 48, 0, 42, 0, 19, 0, 44, 33, 59, 31, 0, 3, 36, 9, 61, 0, 16, 0, 0, 2, 63, 0
|55, 60, 32, 0, 0, 39, 0, 37, 0, 0, 0, 0, 0, 0, 17, 0, 42, 44, 0, 0, 0, 0, 29, 4, 38, 16, 0, 5, 0, 48, 0, 62, 0, 21, 0, 23, 64, 1, 2, 53, 0, 9, 0, 0, 0, 63, 10, 3, 0, 47, 43, 0, 35, 30, 0, 0, 0, 57, 0, 20, 14, 0, 8, 0|];