order = 8;
grid = [|17, 0, 0, 0, 0, 0, 51, 0, 0, 0, 0, 0, 0, 29, 41, 14, 0, 0, 0, 0, 0, 0, 0, 0, 0, 0, 63, 0, 13, 32, 48, 0, 0, 0, 0, 37, 0, 0, 0, 38, 0, 31, 24, 15, 0, 18, 40, 0, 0, 0, 60, 7, 6, 0, 11, 0, 0, 45, 42, 0, 28, 3, 0, 0
|23, 46, 0, 0, 0, 0, 44, 0, 0, 40, 0, 0, 21, 12, 47, 20, 0, 33, 34, 15, 52, 3, 0, 17, 45, 27, 0, 22, 0, 19, 64, 0, 35, 0, 0, 57, 0, 0, 0, 0, 0, 0, 30, 0, 0, 0, 63, 0, 55, 13, 0, 0, 0, 0, 0, 9, 0, 51, 16, 2, 0, 58, 32, 0
|58, 0, 0, 50, 45, 0, 0, 15, 54, 27, 4, 24, 0, 0, 0, 9, 43, 40, 0, 0, 0, 10, 0, 32, 0, 0, 0, 6, 11, 0, 0, 0, 18, 0, 0, 14, 36, 0, 34, 0, 28, 3, 0, 49, 55, 5, 52, 12, 31, 0, 0, 0, 33, 8, 57, 0, 1, 0, 0, 44, 19, 64, 17, 46
|32, 0, 0, 3, 30, 0, 0, 0, 38, 0, 0, 11, 0, 0, 0, 13, 0, 16, 28, 0, 37, 26, 0, 0, 49, 44, 0, 42, 0, 62, 52, 58, 0, 59, 0, 20, 0, 0, 0, 23, 29, 8, 47, 0, 41, 0, 0, 0, 15, 0, 0, 0, 24, 39, 40, 0, 0, 0, 0, 9, 0, 33, 56, 0
|56, 43, 0, 0, 0, 31, 0, 0, 19, 32, 0, 36, 0, 45, 26, 0, 14, 0, 13, 0, 1, 0, 0, 0, 41, 0, 0, 61, 0, 60, 0, 0, 11, 44, 0, 0, 30, 15, 0, 47, 21, 39, 0, 4, 57, 0, 0, 33, 17, 50, 27, 5, 0, 0, 0, 0, 7, 0, 0, 0, 6, 55, 0, 35
|0, 10, 0, 0, 16, 14, 0, 0, 37, 0, 0, 0, 0, 0, 28, 8, 64, 61, 20, 0, 4, 7, 0, 23, 56, 0, 12, 36, 0, 0, 15, 24, 0, 62, 0, 22, 0, 0, 0, 49, 9, 0, 0, 34, 60, 0, 0, 32, 30, 58, 0, 42, 0, 47, 0, 0, 13, 0, 57, 0, 0, 0, 0, 54
|0, 0, 6, 28, 0, 20, 9, 59, 0, 58, 15, 0, 0, 10, 44, 0, 62, 36, 0, 0, 0, 11, 63, 39, 0, 0, 5, 33, 0, 30, 0, 0, 0, 42, 3, 0, 43, 0, 12, 0, 0, 0, 0, 22, 0, 0, 53, 0, 0, 0, 0, 34, 19, 0, 0, 14, 4, 0, 18, 38, 0, 40, 0, 31
|57, 11, 26, 37, 0, 0, 0, 41, 5, 0, 55, 0, 34, 0, 0, 7, 9, 54, 19, 12, 0, 0, 51, 21, 47, 0, 46, 0, 0, 39, 4, 0, 40, 6, 0, 0, 0, 0, 0, 0, 1, 16, 0, 17, 0, 42, 14, 44, 0, 49, 10, 56, 63, 0, 32, 0, 53, 15, 0, 0, 50, 59, 24, 27
|0, 0, 0, 17, 34, 0, 0, 56, 0, 42, 26, 0, 0, 41, 0, 54, 0, 50, 0, 0, 0, 14, 39, 0, 36, 0, 0, 2, 15, 0, 0, 0, 0, 0, 0, 0, 59, 33, 0, 52, 0, 0, 0, 0, 47, 51, 0, 0, 61, 0, 20, 0, 0, 0, 0, 0, 8, 64, 46, 10, 0, 0, 28, 45
|27, 53, 0, 0, 0, 6, 0, 8, 50, 55, 0, 34, 20, 0, 0, 0, 13, 0, 0, 0, 0, 61, 38, 40, 60, 0, 0, 31, 19, 0, 46, 0, 0, 14, 43, 0, 57, 0, 0, 0, 0, 17, 0, 64, 63, 10, 0, 18, 59, 39, 12, 0, 0, 0, 4, 0, 9, 0, 29, 42, 37, 25, 30, 44
|64, 16, 0, 0, 26, 52, 49, 22, 0, 0, 10, 58, 9, 51, 0, 39, 0, 0, 0, 53, 29, 27, 0, 7, 4, 0, 0, 0, 56, 0, 3, 0, 50, 0, 6, 0, 0, 0, 0, 0, 0, 0, 14, 0, 20, 0, 0, 0, 63, 0, 57, 0, 0, 42, 0, 62, 0, 19, 0, 12, 43, 0, 0, 23
|38, 0, 0, 0, 0, 9, 32, 57, 11, 0, 17, 30, 47, 18, 8, 0, 0, 62, 51, 54, 0, 0, 2, 0, 10, 63, 0, 16, 0, 48, 0, 0, 13, 41, 0, 0, 7, 0, 0, 0, 60, 0, 0, 0, 0, 0, 26, 34, 0, 6, 0, 0, 0, 49, 56, 15, 27, 20, 59, 0, 24, 0, 0, 1
|0, 42, 0, 30, 0, 0, 0, 13, 33, 38, 48, 0, 0, 49, 59, 0, 4, 0, 58, 31, 28, 0, 55, 57, 0, 5, 23, 35, 0, 0, 0, 27, 0, 10, 61, 0, 0, 0, 0, 0, 36, 0, 0, 43, 0, 39, 0, 2, 0, 60, 0, 0, 0, 0, 19, 0, 0, 34, 50, 6, 0, 51, 0, 0
|20, 35, 31, 29, 33, 0, 0, 43, 0, 0, 21, 37, 0, 0, 0, 63, 0, 42, 56, 26, 0, 48, 41, 19, 18, 34, 0, 55, 9, 53, 0, 0, 28, 0, 0, 25, 49, 0, 3, 54, 16, 24, 40, 0, 0, 12, 38, 0, 46, 10, 13, 0, 47, 58, 0, 0, 0, 0, 0, 0, 0, 61, 0, 32
|55, 45, 11, 0, 28, 59, 0, 0, 0, 0, 0, 2, 0, 0, 0, 0, 15, 30, 52, 0, 23, 46, 10, 37, 0, 0, 0, 44, 1, 33, 58, 38, 60, 0, 0, 0, 8, 51, 39, 17, 0, 21, 0, 0, 0, 61, 29, 0, 26, 0, 0, 24, 0, 0, 14, 34, 0, 22, 0, 0, 0, 41, 0, 0
|0, 0, 0, 60, 0, 0, 0, 0, 62, 23, 40, 29, 22, 0, 0, 53, 18, 0, 0, 0, 0, 20, 21, 34, 0, 26, 24, 7, 6, 0, 0, 0, 64, 48, 2, 0, 38, 0, 27, 30, 45, 0, 57, 59, 31, 4, 0, 0, 0, 0, 3, 0, 0, 5, 0, 51, 0, 0, 47, 49, 55, 56, 0, 11
|50, 0, 0, 0, 0, 49, 31, 0, 0, 30, 33, 0, 0, 0, 34, 60, 36, 0, 0, 0, 27, 0, 25, 0, 51, 48, 0, 0, 3, 61, 0, 0, 46, 0, 58, 0, 56, 21, 11, 0, 41, 43, 0, 45, 0, 62, 42, 0, 0, 4, 0, 0, 0, 0, 15, 0, 0, 0, 1, 16, 57, 44, 0, 18
|0, 0, 0, 0, 0, 0, 0, 26, 0, 2, 52, 0, 0, 0, 49, 18, 29, 0, 0, 0, 50, 35, 0, 63, 0, 0, 14, 0, 0, 28, 0, 0, 0, 8, 51, 0, 48, 17, 0, 13, 30, 59, 0, 0, 0, 0, 0, 64, 0, 0, 0, 12, 10, 53, 24, 44, 32, 0, 0, 0, 0, 0, 45, 40
|0, 0, 25, 0, 0, 21, 0, 0, 12, 26, 0, 47, 27, 50, 40, 0, 0, 0, 0, 2, 46, 0, 0, 5, 0, 17, 0, 13, 0, 44, 0, 0, 0, 0, 0, 53, 0, 0, 14, 0, 0, 54, 0, 8, 56, 0, 0, 10, 43, 0, 41, 31, 57, 0, 55, 28, 42, 11, 33, 0, 7, 0, 51, 0
|5, 0, 40, 0, 37, 0, 38, 24, 0, 41, 39, 0, 0, 0, 0, 0, 0, 0, 62, 0, 0, 0, 0, 45, 0, 0, 43, 54, 0, 0, 63, 0, 12, 7, 18, 0, 0, 0, 0, 36, 0, 14, 0, 2, 0, 0, 3, 47, 0, 26, 6, 61, 0, 0, 0, 0, 0, 0, 0, 64, 13, 0, 0, 0
|12, 0, 17, 0, 0, 47, 56, 44, 0, 8, 31, 0, 0, 1, 29, 0, 40, 43, 16, 42, 15, 0, 60, 11, 58, 52, 2, 0, 7, 46, 38, 36, 5, 45, 0, 0, 4, 0, 0, 64, 0, 0, 20, 6, 0, 57, 61, 26, 0, 14, 0, 0, 0, 32, 0, 49, 22, 21, 0, 53, 34, 0, 25, 37
|13, 48, 0, 53, 0, 0, 58, 0, 14, 17, 0, 0, 0, 35, 36, 21, 30, 0, 0, 52, 0, 0, 3, 0, 0, 0, 55, 1, 0, 23, 26, 32, 0, 39, 0, 0, 0, 57, 54, 10, 24, 4, 51, 0, 34, 29, 0, 0, 0, 0, 0, 0, 27, 0, 42, 0, 0, 0, 0, 15, 0, 19, 0, 47
|3, 36, 0, 0, 14, 41, 62, 0, 63, 6, 11, 43, 24, 44, 0, 4, 0, 0, 0, 0, 10, 54, 0, 1, 0, 50, 56, 0, 42, 0, 0, 12, 47, 0, 0, 31, 0, 0, 0, 0, 0, 23, 21, 40, 37, 46, 60, 0, 0, 16, 64, 2, 7, 0, 0, 0, 49, 26, 35, 61, 0, 0, 0, 0
|0, 29, 0, 2, 4, 0, 46, 54, 0, 22, 53, 0, 42, 0, 3, 0, 0, 0, 0, 0, 0, 58, 37, 0, 0, 25, 0, 57, 64, 35, 34, 0, 0, 0, 32, 0, 0, 44, 0, 33, 18, 11, 0, 28, 0, 17, 27, 0, 47, 0, 63, 0, 8, 0, 60, 0, 0, 56, 0, 39, 59, 0, 0, 0
|0, 0, 0, 25, 0, 56, 50, 0, 34, 62, 57, 49, 0, 11, 0, 0, 0, 0, 21, 5, 19, 4, 0, 27, 44, 0, 0, 0, 8, 0, 12, 0, 33, 0, 0, 47, 22, 26, 2, 0, 54, 15, 0, 0, 35, 55, 0, 14, 32, 0, 7, 0, 45, 0, 63, 60, 0, 1, 40, 46, 0, 31, 0, 0
|36, 0, 0, 52, 40, 19, 29, 0, 51, 0, 0, 61, 45, 0, 23, 22, 0, 1, 0, 0, 0, 16, 31, 0, 62, 28, 0, 18, 24, 0, 0, 55, 0, 0, 56, 32, 0, 0, 0, 0, 0, 13, 63, 0, 38, 34, 57, 0, 0, 0, 14, 0, 0, 0, 6, 21, 0, 60, 2, 0, 0, 0, 26, 7
|51, 0, 0, 0, 5, 0, 34, 49, 0, 10, 0, 16, 0, 47, 0, 40, 0, 59, 0, 0, 0, 64, 0, 13, 23, 7, 42, 0, 0, 0, 25, 0, 17, 0, 62, 8, 35, 0, 1, 41, 27, 48, 37, 0, 0, 0, 0, 0, 38, 0, 44, 0, 0, 22, 3, 0, 21, 52, 0, 0, 0, 0, 0, 0
|0, 0, 48, 0, 0, 35, 0, 12, 27, 13, 0, 21, 0, 0, 1, 0, 6, 34, 0, 0, 0, 9, 0, 0, 0, 4, 47, 40, 0, 10, 0, 22, 0, 0, 31, 49, 3, 18, 0, 0, 64, 0, 0, 0, 0, 0, 0, 0, 62, 17, 0, 0, 0, 23, 54, 43, 55, 0, 19, 14, 0, 63, 38, 0
|0, 22, 63, 41, 27, 1, 0, 33, 0, 0, 44, 3, 0, 0, 0, 0, 0, 24, 40, 62, 14, 0, 48, 0, 0, 0, 0, 0, 0, 0, 32, 0, 38, 51, 0, 55, 37, 36, 0, 0, 0, 0, 16, 0, 0, 0, 8, 23, 49, 0, 39, 64, 0, 0, 0, 18, 12, 5, 58, 13, 20, 9, 29, 59
|0, 0, 0, 45, 7, 3, 54, 6, 53, 0, 0, 0, 0, 0, 0, 0, 41, 0, 63, 0, 60, 0, 52, 49, 34, 64, 0, 58, 38, 0, 0, 5, 0, 15, 57, 0, 21, 61, 0, 16, 62, 0, 0, 0, 0, 1, 31, 0, 0, 0, 0, 47, 9, 0, 50, 0, 0, 48, 0, 43, 0, 17, 44, 28
|42, 0, 0, 8, 0, 53, 0, 0, 28, 39, 7, 0, 37, 0, 33, 59, 3, 0, 10, 0, 54, 0, 26, 22, 0, 29, 49, 0, 63, 0, 0, 0, 23, 0, 0, 0, 0, 40, 45, 0, 0, 0, 0, 61, 11, 24, 9, 0, 0, 0, 0, 13, 58, 19, 27, 46, 34, 30, 0, 0, 0, 62, 16, 57
|60, 13, 0, 0, 44, 0, 0, 62, 0, 18, 0, 50, 38, 24, 0, 5, 0, 35, 29, 0, 56, 36, 0, 15, 0, 0, 0, 20, 31, 0, 19, 14, 0, 34, 0, 0, 6, 0, 0, 0, 12, 0, 0, 47, 0, 22, 51, 7, 0, 0, 28, 0, 0, 33, 0, 59, 41, 0, 0, 25, 0, 49, 3, 61
|24, 31, 27, 0, 0, 0, 0, 0, 0, 11, 43, 5, 54, 9, 0, 0, 26, 0, 1, 0, 0, 53, 0, 30, 61, 58, 0, 14, 32, 0, 0, 15, 57, 0, 0, 0, 0, 34, 0, 22, 46, 0, 0, 19, 3, 21, 49, 37, 0, 0, 0, 0, 0, 17, 0, 0, 18, 6, 7, 55, 52, 0, 62, 42
|0, 0, 0, 0, 56, 58, 0, 0, 59, 57, 3, 40, 41, 2, 55, 30, 0, 60, 45, 0, 18, 8, 17, 0, 13, 0, 0, 63, 0, 9, 0, 49, 21, 27, 0, 1, 0, 0, 0, 0, 26, 0, 0, 20, 0, 0, 0, 22, 0, 37, 0, 52, 5, 64, 0, 29, 15, 0, 0, 0, 38, 11, 0, 0
|0, 0, 0, 38, 59, 46, 22, 51, 0, 0, 0, 0, 64, 37, 39, 42, 0, 63, 0, 28, 62, 19, 0, 0, 12, 57, 8, 0, 0, 47, 0, 4, 0, 0, 0, 0, 0, 5, 26, 0, 23, 0, 50, 53, 25, 31, 0, 43, 20, 7, 0, 0, 61, 14, 49, 0, 0, 0, 9, 3, 44, 0, 35, 13
|16, 0, 0, 0, 52, 0, 6, 21, 20, 12, 0, 44, 58, 31, 25, 0, 10, 37, 33, 34, 0, 5, 0, 55, 0, 0, 59, 0, 0, 0, 0, 0, 0, 63, 0, 0, 0, 7, 0, 0, 14, 41, 64, 0, 32, 0, 13, 4, 0, 19, 0, 62, 15, 3, 23, 0, 24, 0, 27, 0, 61, 1, 53, 0
|33, 55, 49, 11, 13, 62, 4, 3, 0, 34, 0, 0, 0, 7, 16, 1, 56, 0, 0, 14, 35, 0, 0, 31, 5, 30, 0, 0, 45, 52, 44, 53, 41, 0, 0, 36, 0, 0, 0, 25, 0, 6, 12, 42, 40, 15, 0, 51, 0, 43, 18, 9, 0, 26, 0, 24, 19, 59, 20, 0, 0, 0, 0, 0
|35, 5, 23, 0, 0, 0, 60, 0, 46, 15, 36, 51, 14, 0, 0, 0, 0, 0, 6, 0, 3, 0, 7, 38, 1, 22, 0, 34, 0, 20, 56, 0, 0, 17, 24, 0, 0, 0, 0, 0, 0, 0, 0, 9, 44, 27, 16, 0, 0, 11, 2, 0, 54, 63, 10, 47, 43, 0, 64, 37, 12, 32, 40, 33
|45, 0, 29, 0, 50, 0, 0, 39, 49, 47, 27, 0, 6, 53, 0, 33, 0, 4, 0, 0, 9, 13, 0, 0, 0, 42, 0, 0, 37, 0, 10, 0, 44, 54, 14, 0, 19, 8, 0, 0, 0, 0, 59, 1, 5, 0, 48, 0, 0, 35, 58, 36, 55, 0, 0, 0, 0, 25, 0, 0, 0, 0, 31, 2
|0, 0, 37, 64, 0, 0, 0, 0, 0, 0, 0, 0, 0, 0, 24, 38, 0, 15, 49, 0, 0, 29, 0, 59, 0, 21, 0, 0, 25, 6, 31, 0, 0, 61, 0, 18, 0, 0, 0, 0, 35, 58, 33, 0, 7, 0, 34, 0, 0, 0, 0, 0, 0, 0, 0, 0, 0, 0, 5, 48, 0, 39, 0, 51
|0, 0, 0, 59, 32, 0, 8, 4, 0, 49, 12, 0, 0, 17, 0, 44, 7, 0, 0, 0, 24, 0, 9, 0, 35, 47, 0, 0, 0, 0, 60, 56, 16, 0, 0, 0, 0, 0, 0, 28, 0, 46, 34, 5, 0, 53, 0, 0, 0, 57, 52, 0, 0, 40, 61, 0, 0, 55, 0, 19, 0, 0, 0, 38
|0, 9, 0, 12, 0, 0, 26, 55, 0, 0, 0, 22, 0, 33, 0, 50, 0, 57, 0, 36, 58, 0, 35, 0, 40, 0, 11, 0, 41, 0, 0, 52, 0, 0, 29, 17, 51, 30, 0, 0, 0, 32, 0, 13, 48, 0, 37, 42, 0, 45, 0, 0, 0, 0, 0, 0, 61, 0, 28, 0, 39, 47, 0, 0
|0, 0, 60, 0, 0, 0, 15, 0, 0, 35, 59, 0, 0, 0, 51, 41, 0, 0, 0, 10, 22, 40, 61, 0, 0, 24, 39, 0, 30, 0, 0, 33, 45, 0, 0, 50, 2, 0, 0, 0, 52, 0, 0, 0, 28, 0, 21, 0, 11, 0, 0, 0, 46, 0, 36, 0, 64, 3, 0, 0, 32, 13, 0, 53
|0, 6, 19, 61, 36, 50, 35, 0, 40, 0, 5, 9, 32, 30, 0, 34, 63, 0, 0, 0, 0, 52, 0, 0, 28, 8, 18, 0, 26, 0, 0, 57, 0, 21, 0, 10, 31, 38, 0, 60, 56, 0, 41, 33, 0, 14, 0, 0, 0, 0, 0, 39, 0, 15, 58, 23, 0, 43, 0, 62, 54, 16, 0, 0
|0, 0, 5, 0, 31, 0, 17, 0, 2, 1, 0, 55, 0, 13, 46, 27, 0, 0, 0, 0, 39, 0, 0, 62, 0, 54, 34, 0, 0, 0, 0, 63, 0, 0, 53, 24, 44, 11, 0, 0, 0, 64, 0, 12, 0, 0, 0, 50, 7, 56, 0, 0, 0, 0, 0, 0, 0, 10, 15, 0, 0, 0, 36, 6
|40, 38, 46, 0, 0, 0, 23, 0, 36, 0, 0, 31, 62, 43, 0, 0, 1, 0, 48, 0, 51, 49, 19, 0, 25, 0, 0, 0, 22, 0, 14, 0, 6, 52, 20, 15, 12, 58, 0, 7, 0, 27, 18, 0, 10, 8, 0, 0, 29, 54, 5, 17, 32, 0, 47, 53, 60, 0, 21, 0, 0, 35, 59, 0
|0, 41, 0, 0, 51, 0, 0, 0, 0, 19, 0, 48, 60, 14, 0, 10, 5, 0, 0, 37, 16, 0, 0, 0, 42, 23, 31, 32, 46, 58, 0, 0, 34, 0, 0, 0, 39, 59, 0, 3, 40, 1, 38, 54, 0, 0, 0, 0, 2, 12, 22, 0, 0, 62, 21, 64, 0, 9, 52, 27, 63, 24, 0, 0
|0, 21, 39, 44, 0, 0, 64, 27, 0, 0, 20, 28, 3, 0, 52, 29, 0, 0, 38, 0, 59, 56, 0, 54, 6, 0, 53, 0, 0, 49, 13, 0, 0, 32, 35, 40, 0, 37, 0, 8, 0, 19, 0, 51, 0, 63, 47, 0, 0, 18, 55, 30, 0, 0, 26, 0, 57, 0, 45, 7, 0, 5, 42, 34
|8, 0, 53, 0, 35, 40, 11, 5, 0, 33, 18, 39, 44, 0, 0, 0, 21, 0, 0, 0, 55, 42, 0, 0, 0, 0, 0, 0, 23, 0, 0, 9, 48, 0, 12, 0, 16, 28, 0, 0, 17, 49, 0, 7, 0, 0, 62, 0, 54, 0, 47, 14, 0, 0, 0, 0, 51, 24, 60, 0, 0, 0, 0, 4
|0, 50, 36, 0, 60, 0, 0, 18, 6, 0, 0, 0, 5, 0, 53, 28, 0, 0, 0, 0, 61, 15, 1, 0, 0, 0, 17, 0, 48, 54, 47, 0, 10, 0, 0, 44, 0, 0, 0, 0, 0, 55, 0, 0, 46, 0, 12, 0, 0, 0, 9, 0, 49, 0, 43, 0, 0, 0, 0, 11, 0, 34, 23, 0
|41, 0, 0, 0, 12, 15, 0, 48, 0, 7, 23, 0, 49, 61, 27, 0, 0, 44, 4, 0, 2, 0, 33, 6, 38, 60, 35, 0, 59, 42, 0, 13, 22, 47, 34, 0, 0, 0, 0, 18, 63, 0, 0, 16, 0, 3, 0, 8, 58, 21, 53, 40, 0, 0, 5, 0, 0, 0, 0, 0, 0, 30, 0, 29
|0, 19, 0, 42, 0, 0, 45, 0, 41, 50, 62, 0, 10, 0, 54, 57, 0, 27, 0, 35, 53, 63, 0, 0, 0, 14, 61, 0, 4, 8, 0, 0, 31, 0, 0, 0, 0, 20, 0, 11, 6, 0, 58, 56, 0, 32, 0, 40, 0, 48, 30, 0, 0, 28, 59, 55, 47, 0, 0, 0, 0, 0, 7, 16
|0, 17, 16, 0, 38, 26, 0, 0, 0, 0, 0, 35, 1, 59, 0, 0, 0, 0, 0, 0, 0, 0, 0, 29, 20, 0, 62, 0, 55, 3, 40, 0, 42, 57, 0, 0, 0, 0, 13, 56, 50, 0, 0, 18, 51, 33, 41, 31, 0, 0, 0, 0, 0, 6, 12, 0, 0, 0, 44, 0, 21, 53, 0, 0
|0, 57, 51, 21, 0, 28, 3, 0, 25, 0, 58, 46, 0, 56, 14, 0, 48, 0, 0, 0, 40, 0, 5, 41, 0, 0, 22, 0, 0, 0, 0, 0, 0, 1, 0, 0, 0, 0, 64, 0, 0, 36, 0, 0, 0, 23, 59, 0, 13, 32, 42, 29, 0, 18, 0, 35, 38, 2, 49, 33, 0, 0, 0, 0
|49, 54, 33, 0, 29, 0, 27, 0, 0, 16, 24, 0, 40, 0, 20, 0, 0, 13, 0, 51, 7, 59, 0, 12, 0, 53, 15, 0, 0, 0, 21, 6, 4, 0, 0, 0, 25, 23, 0, 58, 48, 0, 0, 0, 0, 0, 0, 39, 60, 8, 36, 0, 0, 56, 0, 26, 45, 0, 0, 28, 0, 0, 55, 17
|0, 0, 13, 0, 0, 0, 0, 0, 0, 0, 51, 38, 0, 21, 17, 11, 16, 23, 0, 25, 43, 0, 49, 0, 30, 0, 0, 0, 0, 0, 18, 31, 0, 53, 0, 45, 9, 0, 5, 0, 34, 0, 0, 0, 0, 0, 1, 15, 0, 22, 46, 4, 0, 24, 0, 0, 48, 40, 10, 0, 3, 0, 27, 0
|0, 0, 44, 0, 0, 0, 1, 45, 10, 5, 0, 0, 0, 64, 0, 61, 46, 0, 26, 0, 0, 25, 11, 33, 0, 0, 0, 30, 12, 0, 0, 42, 7, 58, 0, 2, 0, 52, 50, 0, 37, 0, 0, 0, 0, 40, 4, 38, 48, 47, 23, 0, 0, 41, 0, 32, 6, 0, 24, 0, 8, 57, 0, 19
|9, 51, 42, 0, 0, 0, 0, 0, 18, 28, 34, 27, 0, 25, 6, 0, 58, 49, 0, 0, 0, 2, 15, 0, 0, 61, 0, 0, 50, 24, 33, 43, 0, 31, 46, 38, 0, 0, 0, 62, 22, 0, 13, 21, 0, 0, 0, 54, 19, 64, 0, 0, 0, 0, 0, 39, 0, 23, 0, 0, 36, 0, 0, 0
|31, 64, 0, 0, 41, 5, 0, 2, 0, 0, 49, 14, 0, 0, 38, 43, 0, 0, 23, 1, 48, 0, 0, 10, 0, 46, 0, 15, 0, 0, 0, 0, 0, 37, 16, 0, 33, 0, 0, 0, 0, 12, 29, 60, 0, 45, 0, 0, 0, 0, 50, 27, 40, 0, 0, 8, 0, 0, 0, 52, 0, 0, 61, 62
|0, 18, 34, 10, 39, 38, 0, 0, 3, 0, 0, 0, 0, 8, 50, 17, 0, 47, 30, 61, 0, 55, 62, 0, 7, 13, 0, 45, 0, 0, 0, 48, 63, 0, 23, 28, 0, 19, 0, 0, 0, 0, 0, 0, 9, 0, 0, 0, 6, 25, 33, 58, 35, 2, 53, 4, 44, 12, 0, 0, 5, 21, 43, 49
|11, 26, 0, 0, 0, 0, 0, 46, 29, 44, 0, 13, 0, 0, 62, 15, 0, 41, 22, 43, 34, 0, 0, 0, 0, 19, 38, 0, 0, 0, 0, 35, 0, 0, 0, 64, 0, 25, 0, 0, 2, 7, 52, 31, 1, 49, 10, 0, 0, 55, 45, 0, 0, 0, 9, 0, 33, 0, 0, 0, 16, 42, 0, 3
|62, 40, 61, 0, 0, 63, 0, 0, 21, 0, 0, 60, 7, 0, 42, 0, 57, 51, 37, 0, 45, 0, 13, 18, 0, 0, 0, 0, 53, 0, 0, 1, 0, 49, 0, 0, 54, 14, 22, 0, 19, 26, 0, 25, 0, 0, 0, 0, 34, 3, 0, 46, 11, 0, 31, 0, 0, 28, 0, 0, 0, 0, 0, 0
|0, 0, 0, 0, 6, 25, 33, 50, 0, 51, 19, 0, 55, 40, 0, 2, 35, 28, 31, 9, 32, 0, 8, 0, 0, 0, 27, 47, 21, 56, 0, 0, 3, 11, 26, 34, 41, 0, 17, 43, 5, 0, 0, 23, 0, 0, 0, 53, 0, 0, 49, 0, 13, 0, 0, 0, 0, 0, 63, 0, 45, 0, 37, 39
|0, 0, 57, 0, 0, 8, 43, 0, 0, 0, 0, 0, 33, 46, 0, 23, 42, 56, 0, 3, 0, 12, 40, 36, 39, 2, 60, 25, 0, 29, 49, 41, 1, 0, 44, 0, 18, 10, 0, 6, 47, 0, 0, 0, 0, 0, 0, 0, 0, 0, 0, 28, 16, 21, 0, 5, 31, 0, 48, 32, 17, 15, 54, 0|];