order = 6;
grid = [|0, 0, 4, 22, 5, 0, 10, 31, 0, 0, 0, 0, 36, 17, 0, 27, 0, 0, 0, 0, 6, 0, 0, 30, 0, 0, 0, 0, 35, 1, 32, 0, 0, 12, 0, 23
|0, 0, 32, 0, 13, 0, 7, 23, 0, 0, 17, 0, 0, 0, 18, 0, 9, 0, 0, 0, 0, 0, 0, 0, 0, 29, 0, 0, 0, 0, 0, 0, 0, 0, 0, 0
|0, 0, 0, 0, 0, 0, 0, 0, 0, 0, 28, 0, 23, 0, 0, 0, 0, 33, 0, 0, 12, 32, 17, 22, 0, 0, 0, 0, 9, 5, 0, 0, 0, 26, 0, 18
|0, 33, 0, 1, 0, 0, 3, 0, 12, 0, 0, 25, 0, 4, 0, 0, 0, 0, 0, 13, 0, 0, 0, 0, 0, 11, 0, 0, 0, 0, 0, 0, 0, 9, 0, 0
|0, 0, 0, 0, 0, 0, 0, 0, 0, 0, 13, 0, 0, 0, 0, 10, 0, 0, 0, 9, 0, 11, 0, 0, 0, 27, 30, 0, 8, 0, 0, 0, 0, 22, 0, 21
|9, 0, 0, 0, 0, 0, 0, 0, 11, 0, 0, 0, 0, 21, 0, 32, 0, 13, 0, 8, 2, 0, 0, 0, 0, 23, 22, 0, 10, 0, 0, 28, 0, 0, 17, 0
|0, 0, 26, 0, 0, 0, 15, 0, 7, 0, 0, 0, 0, 35, 0, 0, 14, 0, 0, 0, 0, 0, 0, 0, 0, 0, 0, 0, 0, 0, 0, 0, 16, 0, 34, 0
|0, 13, 3, 0, 0, 0, 0, 0, 0, 0, 12, 0, 0, 2, 0, 24, 32, 16, 0, 0, 0, 6, 0, 0, 0, 10, 36, 0, 0, 33, 15, 0, 22, 0, 30, 8
|0, 19, 0, 0, 0, 0, 13, 0, 0, 0, 0, 0, 0, 5, 29, 20, 27, 0, 0, 0, 33, 0, 0, 14, 0, 0, 0, 0, 0, 0, 0, 0, 0, 31, 0, 32
|0, 0, 0, 12, 10, 0, 19, 0, 0, 32, 0, 29, 0, 0, 15, 0, 0, 0, 0, 0, 0, 0, 0, 0, 18, 0, 0, 0, 0, 0, 35, 26, 0, 27, 1, 0
|0, 0, 0, 0, 0, 0, 0, 0, 0, 0, 0, 0, 0, 9, 33, 0, 0, 0, 0, 0, 0, 0, 0, 0, 0, 0, 0, 0, 0, 0, 0, 5, 29, 0, 0, 0
|2, 0, 0, 34, 24, 0, 0, 0, 8, 0, 26, 0, 13, 0, 0, 30, 0, 0, 0, 0, 0, 1, 0, 0, 0, 0, 0, 0, 0, 0, 21, 20, 0, 0, 0, 0
|0, 0, 0, 0, 0, 0, 14, 7, 0, 0, 32, 0, 0, 0, 0, 0, 0, 0, 0, 0, 0, 4, 26, 0, 0, 0, 0, 0, 0, 0, 0, 15, 0, 29, 0, 0
|0, 12, 14, 0, 0, 3, 0, 20, 0, 36, 0, 0, 10, 0, 0, 0, 0, 0, 24, 0, 0, 0, 0, 0, 0, 0, 0, 0, 0, 0, 0, 31, 0, 0, 5, 0
|20, 0, 0, 0, 31, 0, 0, 0, 0, 23, 0, 30, 0, 0, 0, 0, 19, 17, 6, 0, 0, 0, 9, 13, 0, 0, 0, 0, 0, 0, 33, 25, 0, 0, 0, 0
|21, 0, 13, 0, 0, 0, 0, 0, 0, 0, 0, 0, 0, 0, 0, 0, 0, 29, 0, 0, 0, 0, 0, 12, 7, 0, 0, 0, 0, 32, 0, 0, 0, 0, 0, 26
|0, 5, 0, 0, 0, 0, 34, 25, 26, 0, 0, 0, 0, 0, 0, 0, 0, 20, 0, 0, 32, 22, 21, 0, 29, 0, 35, 0, 0, 0, 0, 30, 0, 0, 0, 0
|0, 6, 9, 30, 0, 0, 0, 0, 16, 10, 0, 0, 1, 0, 0, 18, 0, 0, 0, 0, 14, 0, 35, 0, 0, 0, 0, 0, 27, 0, 0, 12, 0, 0, 11, 0
|15, 0, 18, 28, 0, 0, 0, 0, 30, 31, 0, 0, 0, 0, 0, 0, 0, 0, 0, 0, 0, 0, 0, 0, 16, 22, 0, 0, 0, 0, 7, 0, 26, 25, 0, 0
|0, 0, 0, 0, 0, 0, 0, 32, 0, 0, 0, 27, 0, 0, 25, 0, 0, 0, 0, 17, 0, 16, 0, 6, 0, 0, 0, 0, 0, 0, 0, 0, 0, 0, 0, 0
|17, 0, 0, 0, 0, 0, 0, 0, 10, 0, 0, 0, 0, 32, 0, 1, 23, 19, 0, 0, 9, 0, 0, 0, 15, 0, 12, 4, 0, 0, 5, 0, 31, 20, 33, 0
|0, 23, 0, 0, 0, 2, 0, 0, 13, 29, 0, 5, 16, 0, 0, 0, 0, 12, 0, 0, 0, 18, 22, 33, 0, 31, 0, 0, 11, 0, 24, 0, 0, 0, 0, 0
|0, 0, 0, 0, 0, 8, 0, 28, 0, 6, 0, 0, 0, 30, 0, 0, 18, 0, 0, 0, 0, 21, 14, 15, 0, 17, 0, 27, 0, 0, 0, 0, 35, 0, 13, 0
|0, 0, 0, 0, 0, 0, 0, 33, 15, 0, 0, 3, 0, 20, 0, 0, 0, 0, 0, 29, 0, 0, 28, 0, 0, 0, 10, 0, 0, 23, 36, 17, 1, 0, 0, 0
|0, 3, 0, 0, 11, 0, 0, 0, 0, 17, 0, 0, 0, 29, 19, 0, 0, 27, 0, 28, 5, 0, 25, 0, 0, 0, 0, 0, 7, 0, 0, 0, 0, 0, 0, 0
|10, 0, 0, 27, 28, 0, 30, 13, 0, 21, 0, 15, 0, 25, 20, 0, 0, 32, 22, 0, 0, 0, 0, 0, 0, 0, 0, 5, 0, 0, 0, 0, 0, 0, 0, 0
|8, 0, 0, 0, 0, 13, 0, 0, 0, 0, 0, 22, 31, 14, 0, 0, 0, 36, 0, 11, 29, 2, 16, 0, 0, 0, 0, 0, 28, 24, 0, 0, 0, 0, 15, 34
|0, 7, 1, 0, 0, 29, 0, 8, 0, 0, 0, 0, 0, 18, 0, 0, 26, 0, 0, 0, 15, 0, 0, 0, 0, 0, 0, 0, 0, 0, 17, 0, 0, 19, 0, 16
|0, 4, 0, 0, 0, 0, 0, 0, 29, 11, 0, 0, 0, 23, 0, 0, 0, 0, 0, 0, 20, 0, 0, 34, 0, 0, 31, 0, 0, 0, 0, 0, 0, 0, 0, 0
|0, 31, 0, 0, 30, 0, 0, 0, 0, 1, 0, 0, 0, 0, 0, 0, 0, 2, 0, 0, 26, 0, 36, 0, 22, 0, 0, 0, 0, 0, 4, 0, 0, 0, 3, 28
|0, 0, 0, 5, 0, 11, 17, 35, 0, 0, 0, 13, 0, 33, 0, 0, 0, 9, 23, 0, 0, 0, 0, 0, 0, 0, 0, 0, 16, 0, 0, 0, 0, 0, 0, 0
|0, 0, 15, 8, 32, 0, 0, 10, 0, 33, 0, 0, 0, 19, 1, 23, 0, 0, 26, 0, 0, 0, 0, 17, 0, 0, 0, 0, 0, 0, 0, 0, 0, 0, 0, 0
|0, 0, 0, 3, 0, 0, 0, 0, 0, 0, 0, 0, 0, 0, 0, 0, 0, 0, 0, 0, 0, 0, 0, 0, 33, 0, 0, 0, 0, 0, 14, 0, 24, 28, 0, 0
|0, 10, 6, 9, 0, 0, 0, 24, 0, 26, 0, 0, 0, 0, 36, 3, 0, 0, 0, 0, 35, 0, 0, 0, 0, 0, 8, 0, 0, 0, 0, 0, 0, 0, 0, 0
|4, 0, 0, 19, 26, 0, 0, 0, 0, 0, 0, 0, 0, 0, 0, 0, 28, 0, 0, 12, 22, 0, 0, 0, 0, 0, 0, 0, 0, 0, 0, 0, 0, 0, 0, 0
|22, 20, 28, 21, 35, 0, 0, 0, 0, 9, 27, 0, 0, 8, 0, 0, 2, 15, 0, 0, 0, 36, 0, 29, 10, 0, 0, 0, 17, 0, 1, 0, 0, 0, 0, 0|];