order = 6;
grid = [|0, 0, 0, 26, 0, 0, 0, 0, 0, 29, 0, 0, 3, 0, 0, 0, 14, 0, 0, 0, 0, 0, 0, 0, 24, 0, 8, 0, 0, 0, 0, 23, 0, 0, 33, 0
|11, 0, 20, 0, 12, 9, 0, 33, 0, 0, 18, 0, 0, 19, 4, 0, 0, 0, 0, 0, 29, 0, 0, 0, 15, 22, 0, 13, 0, 0, 0, 0, 0, 34, 0, 0
|30, 0, 0, 0, 0, 0, 0, 11, 0, 0, 0, 24, 0, 28, 0, 0, 0, 32, 0, 17, 3, 2, 8, 0, 0, 0, 0, 4, 26, 0, 0, 0, 0, 0, 0, 10
|16, 5, 0, 0, 0, 10, 0, 1, 28, 0, 0, 0, 0, 34, 0, 0, 35, 17, 0, 0, 26, 0, 4, 24, 0, 0, 0, 2, 14, 33, 36, 0, 6, 20, 3, 0
|4, 32, 0, 21, 0, 22, 2, 0, 0, 26, 0, 0, 11, 7, 10, 33, 0, 8, 0, 20, 0, 0, 0, 0, 0, 0, 19, 0, 0, 3, 0, 0, 13, 0, 9, 0
|0, 7, 36, 0, 0, 0, 0, 0, 0, 0, 0, 0, 0, 0, 0, 0, 0, 0, 0, 32, 0, 0, 0, 33, 0, 11, 10, 0, 0, 12, 0, 0, 0, 0, 0, 0
|28, 0, 0, 0, 0, 0, 0, 15, 34, 20, 0, 0, 0, 29, 0, 2, 0, 3, 22, 0, 4, 36, 0, 0, 0, 0, 0, 0, 0, 0, 7, 26, 32, 24, 0, 0
|32, 0, 0, 24, 0, 0, 0, 0, 25, 0, 0, 0, 0, 0, 11, 0, 21, 10, 0, 0, 8, 0, 30, 0, 18, 9, 0, 20, 0, 22, 0, 3, 0, 0, 14, 0
|0, 0, 0, 5, 22, 0, 0, 0, 0, 0, 35, 0, 0, 0, 25, 0, 0, 13, 0, 0, 16, 23, 0, 21, 0, 0, 3, 0, 0, 8, 2, 15, 0, 0, 34, 0
|0, 0, 0, 17, 0, 0, 0, 0, 29, 0, 0, 0, 8, 0, 0, 14, 0, 0, 0, 2, 0, 0, 0, 18, 0, 0, 0, 0, 0, 0, 13, 21, 1, 0, 30, 28
|0, 0, 0, 0, 0, 0, 12, 0, 0, 0, 0, 23, 0, 16, 1, 4, 18, 0, 29, 0, 0, 0, 0, 0, 0, 0, 0, 0, 0, 0, 0, 8, 0, 6, 0, 20
|0, 0, 0, 4, 0, 8, 14, 0, 10, 6, 0, 0, 0, 0, 30, 34, 33, 0, 0, 0, 0, 0, 0, 0, 13, 32, 12, 0, 29, 0, 0, 0, 11, 35, 25, 0
|6, 35, 22, 0, 0, 0, 0, 0, 0, 0, 0, 0, 0, 36, 0, 0, 4, 2, 33, 8, 7, 10, 0, 0, 0, 31, 0, 0, 24, 0, 0, 34, 0, 3, 0, 0
|0, 31, 26, 0, 0, 29, 0, 14, 16, 0, 0, 30, 0, 0, 0, 0, 0, 27, 0, 23, 0, 1, 0, 0, 0, 19, 0, 0, 0, 0, 25, 22, 0, 0, 0, 0
|0, 0, 0, 0, 0, 14, 0, 31, 0, 13, 0, 20, 0, 11, 5, 0, 26, 6, 21, 0, 22, 0, 27, 28, 0, 8, 0, 7, 0, 0, 0, 0, 16, 0, 35, 2
|0, 0, 18, 0, 15, 0, 0, 0, 0, 0, 17, 0, 0, 0, 0, 0, 0, 0, 31, 24, 0, 0, 0, 0, 26, 14, 0, 5, 0, 0, 9, 0, 7, 1, 28, 0
|0, 0, 0, 20, 7, 0, 0, 0, 23, 4, 0, 0, 0, 0, 0, 0, 0, 31, 0, 0, 30, 0, 0, 0, 35, 0, 18, 0, 2, 27, 0, 0, 0, 0, 0, 0
|2, 0, 0, 0, 0, 0, 0, 0, 7, 0, 0, 0, 0, 0, 33, 0, 0, 0, 17, 0, 0, 0, 13, 0, 0, 0, 4, 0, 6, 0, 0, 5, 31, 15, 27, 0
|0, 0, 27, 0, 33, 31, 0, 0, 12, 0, 0, 0, 0, 20, 16, 36, 0, 1, 0, 0, 23, 0, 0, 30, 0, 0, 0, 0, 13, 0, 0, 11, 34, 0, 0, 0
|8, 11, 7, 0, 0, 18, 0, 0, 30, 0, 0, 6, 10, 0, 22, 3, 0, 0, 0, 0, 24, 0, 0, 0, 33, 0, 0, 12, 0, 2, 35, 0, 5, 0, 0, 0
|0, 0, 0, 0, 28, 20, 0, 7, 0, 0, 0, 29, 0, 0, 0, 0, 5, 0, 0, 0, 0, 0, 0, 0, 0, 0, 0, 23, 0, 0, 0, 9, 33, 36, 0, 6
|0, 0, 0, 23, 0, 0, 0, 24, 8, 0, 0, 0, 0, 33, 0, 0, 0, 4, 0, 0, 0, 0, 0, 0, 0, 0, 0, 0, 0, 0, 0, 28, 0, 26, 0, 22
|0, 0, 10, 0, 0, 0, 0, 0, 0, 0, 0, 0, 27, 0, 18, 0, 0, 21, 3, 0, 0, 0, 0, 0, 0, 0, 0, 16, 0, 0, 17, 0, 0, 0, 0, 14
|0, 0, 0, 0, 0, 0, 1, 0, 0, 0, 0, 0, 0, 0, 0, 0, 23, 0, 0, 0, 0, 0, 0, 0, 0, 0, 21, 0, 11, 0, 0, 0, 19, 0, 0, 27
|0, 18, 0, 36, 0, 4, 0, 0, 0, 0, 0, 17, 0, 24, 0, 0, 0, 30, 0, 0, 0, 0, 0, 0, 5, 0, 0, 0, 33, 0, 8, 0, 0, 0, 7, 0
|19, 0, 0, 0, 0, 0, 0, 0, 0, 0, 0, 15, 0, 25, 0, 0, 0, 0, 0, 0, 0, 33, 0, 0, 0, 18, 11, 17, 0, 14, 0, 27, 0, 23, 0, 26
|0, 0, 6, 0, 0, 0, 9, 0, 0, 33, 0, 0, 0, 0, 36, 0, 0, 0, 0, 34, 21, 0, 23, 0, 0, 0, 0, 0, 1, 0, 30, 0, 28, 19, 0, 0
|0, 21, 25, 0, 0, 33, 28, 6, 27, 8, 0, 0, 16, 5, 0, 12, 0, 22, 0, 0, 0, 0, 0, 7, 30, 0, 0, 26, 0, 0, 0, 0, 0, 18, 1, 0
|24, 15, 8, 0, 34, 0, 23, 19, 0, 0, 1, 0, 0, 0, 0, 0, 0, 0, 0, 0, 0, 30, 0, 0, 0, 0, 0, 0, 0, 0, 0, 0, 2, 5, 0, 0
|0, 0, 0, 0, 0, 0, 26, 10, 18, 0, 0, 0, 9, 0, 0, 0, 0, 19, 0, 0, 0, 0, 0, 0, 21, 0, 22, 0, 0, 0, 0, 0, 0, 0, 0, 0
|0, 0, 0, 0, 0, 0, 0, 0, 0, 10, 36, 13, 0, 0, 0, 11, 0, 0, 0, 0, 0, 6, 24, 32, 0, 0, 0, 0, 0, 1, 20, 0, 0, 31, 0, 25
|0, 0, 0, 0, 0, 2, 0, 5, 1, 23, 33, 0, 30, 15, 0, 0, 6, 0, 0, 0, 0, 0, 26, 0, 17, 10, 31, 0, 3, 0, 0, 0, 0, 0, 0, 0
|0, 20, 0, 0, 24, 0, 0, 0, 0, 0, 6, 0, 0, 0, 0, 0, 0, 0, 10, 0, 0, 0, 0, 0, 0, 0, 0, 0, 0, 0, 22, 0, 0, 0, 0, 0
|0, 0, 0, 0, 0, 0, 0, 0, 0, 15, 0, 0, 0, 0, 0, 0, 0, 16, 0, 0, 0, 0, 0, 0, 14, 0, 20, 0, 0, 0, 18, 0, 26, 0, 0, 0
|0, 26, 1, 33, 36, 0, 7, 0, 0, 24, 0, 0, 0, 27, 0, 0, 0, 0, 11, 0, 35, 0, 0, 0, 6, 0, 23, 0, 8, 0, 16, 0, 3, 10, 0, 0
|0, 0, 11, 25, 0, 0, 0, 17, 0, 0, 0, 0, 0, 0, 7, 0, 0, 0, 0, 0, 0, 0, 0, 0, 0, 0, 0, 0, 0, 26, 0, 6, 0, 0, 0, 34|];