order = 6;
grid = [|36, 0, 0, 0, 0, 15, 0, 0, 0, 32, 0, 0, 0, 0, 12, 0, 0, 0, 22, 5, 0, 21, 0, 0, 0, 0, 0, 0, 0, 24, 19, 0, 0, 1, 0, 0
|12, 0, 0, 0, 0, 8, 33, 18, 0, 0, 7, 0, 0, 15, 0, 0, 27, 0, 0, 0, 0, 0, 0, 0, 11, 0, 0, 0, 0, 13, 0, 0, 0, 0, 0, 26
|0, 7, 0, 0, 32, 0, 0, 0, 0, 0, 0, 0, 0, 21, 0, 0, 24, 1, 0, 9, 0, 0, 0, 0, 0, 0, 0, 26, 0, 0, 35, 0, 0, 0, 0, 0
|30, 0, 0, 0, 21, 18, 0, 0, 24, 0, 0, 29, 0, 0, 0, 10, 0, 0, 0, 20, 0, 0, 0, 0, 0, 9, 1, 0, 0, 0, 0, 0, 2, 0, 32, 25
|0, 0, 0, 0, 0, 35, 2, 25, 0, 0, 15, 0, 0, 0, 0, 26, 0, 0, 0, 0, 0, 0, 0, 6, 4, 0, 0, 16, 0, 0, 33, 7, 0, 3, 0, 0
|19, 0, 10, 0, 34, 0, 0, 0, 11, 6, 0, 0, 9, 14, 0, 0, 0, 4, 27, 0, 0, 0, 0, 25, 0, 0, 15, 0, 0, 8, 0, 0, 13, 0, 0, 24
|15, 0, 0, 0, 0, 17, 0, 5, 0, 0, 0, 0, 36, 29, 0, 0, 0, 0, 0, 30, 0, 14, 0, 0, 25, 0, 3, 10, 24, 0, 0, 13, 16, 0, 27, 19
|0, 0, 2, 25, 7, 31, 0, 3, 17, 0, 36, 0, 0, 0, 21, 0, 0, 34, 0, 0, 0, 0, 0, 0, 0, 0, 26, 0, 22, 28, 0, 0, 0, 11, 8, 0
|0, 0, 0, 0, 0, 32, 0, 0, 0, 0, 16, 0, 5, 0, 0, 0, 0, 0, 0, 25, 0, 0, 0, 24, 36, 0, 35, 15, 0, 4, 0, 21, 0, 0, 0, 0
|0, 0, 14, 0, 16, 34, 24, 0, 0, 0, 0, 0, 0, 12, 0, 0, 0, 10, 0, 0, 21, 0, 0, 9, 31, 0, 27, 0, 0, 0, 0, 6, 15, 0, 0, 7
|0, 29, 0, 0, 0, 23, 0, 0, 0, 21, 0, 18, 0, 4, 0, 35, 2, 0, 0, 3, 20, 15, 0, 0, 0, 14, 0, 0, 0, 0, 17, 0, 0, 0, 0, 34
|0, 0, 0, 36, 0, 0, 0, 0, 10, 0, 0, 14, 16, 8, 0, 17, 7, 0, 0, 0, 0, 23, 0, 0, 0, 0, 9, 11, 0, 0, 24, 0, 25, 0, 28, 0
|0, 10, 0, 0, 0, 0, 18, 0, 0, 0, 0, 0, 0, 0, 0, 0, 0, 0, 9, 0, 0, 25, 0, 0, 0, 0, 0, 0, 0, 27, 1, 0, 0, 0, 19, 32
|0, 0, 0, 1, 0, 0, 29, 0, 0, 0, 0, 3, 0, 0, 0, 0, 0, 0, 17, 11, 0, 24, 23, 0, 18, 0, 20, 0, 0, 12, 0, 10, 6, 0, 0, 36
|0, 0, 0, 0, 36, 6, 0, 8, 0, 0, 0, 0, 12, 0, 0, 15, 0, 0, 10, 0, 16, 2, 0, 0, 24, 0, 0, 0, 5, 17, 0, 0, 0, 0, 0, 0
|0, 23, 0, 16, 0, 0, 0, 0, 0, 0, 0, 1, 28, 0, 0, 11, 0, 33, 0, 0, 14, 0, 3, 5, 0, 0, 0, 2, 0, 0, 0, 8, 0, 0, 0, 13
|32, 0, 0, 0, 0, 0, 0, 0, 9, 0, 0, 0, 0, 0, 0, 0, 8, 0, 0, 0, 0, 0, 0, 0, 0, 0, 36, 0, 0, 25, 0, 0, 0, 24, 0, 12
|0, 0, 0, 0, 0, 0, 0, 0, 0, 0, 0, 36, 0, 0, 0, 0, 0, 18, 0, 0, 32, 0, 0, 0, 0, 0, 0, 31, 0, 0, 3, 0, 0, 0, 0, 0
|0, 11, 0, 0, 31, 16, 0, 0, 27, 3, 0, 0, 0, 0, 0, 0, 17, 21, 0, 0, 0, 0, 0, 32, 26, 0, 0, 0, 23, 0, 0, 9, 0, 0, 0, 0
|0, 34, 0, 0, 15, 33, 0, 0, 0, 19, 0, 6, 0, 0, 0, 0, 0, 27, 0, 0, 0, 0, 30, 0, 0, 0, 0, 0, 0, 0, 0, 0, 0, 0, 0, 0
|0, 0, 8, 10, 0, 36, 25, 0, 0, 0, 0, 5, 0, 0, 0, 14, 0, 12, 0, 0, 0, 3, 4, 0, 0, 17, 0, 18, 0, 0, 0, 0, 0, 0, 0, 0
|0, 0, 19, 3, 0, 0, 13, 0, 36, 29, 0, 16, 4, 0, 0, 33, 0, 0, 23, 0, 0, 0, 0, 26, 27, 0, 0, 0, 1, 0, 0, 0, 0, 0, 7, 31
|20, 32, 23, 7, 30, 0, 0, 26, 4, 0, 0, 0, 0, 0, 0, 0, 6, 31, 0, 15, 0, 0, 22, 0, 10, 0, 0, 0, 0, 0, 0, 0, 0, 0, 0, 0
|0, 35, 0, 0, 12, 0, 9, 0, 0, 0, 20, 0, 0, 0, 0, 5, 26, 0, 0, 27, 0, 0, 0, 0, 0, 0, 30, 0, 21, 16, 15, 0, 0, 33, 0, 1
|27, 0, 32, 0, 2, 20, 26, 0, 0, 0, 0, 0, 0, 0, 0, 4, 0, 0, 0, 0, 0, 6, 0, 0, 15, 0, 0, 0, 8, 0, 0, 0, 1, 0, 0, 23
|0, 28, 0, 0, 0, 19, 0, 0, 0, 0, 24, 9, 0, 0, 15, 0, 0, 13, 26, 22, 0, 0, 0, 0, 32, 27, 34, 0, 0, 33, 10, 0, 12, 0, 0, 0
|0, 0, 0, 13, 23, 0, 14, 0, 0, 34, 0, 7, 19, 0, 0, 0, 10, 0, 0, 36, 0, 11, 0, 0, 17, 0, 0, 28, 30, 0, 0, 33, 22, 32, 15, 5
|0, 17, 0, 0, 0, 0, 0, 0, 31, 28, 6, 21, 0, 22, 0, 0, 0, 0, 35, 0, 0, 0, 0, 0, 0, 0, 0, 13, 19, 20, 7, 0, 0, 0, 18, 0
|6, 0, 0, 0, 8, 9, 0, 0, 0, 18, 0, 0, 0, 0, 0, 0, 0, 32, 0, 0, 30, 0, 0, 23, 0, 31, 0, 0, 0, 0, 2, 4, 0, 25, 0, 0
|3, 0, 0, 0, 11, 0, 0, 0, 20, 0, 0, 0, 0, 0, 0, 0, 0, 0, 0, 0, 0, 0, 0, 0, 6, 29, 0, 0, 4, 0, 21, 0, 0, 0, 0, 0
|0, 0, 0, 0, 0, 0, 0, 0, 7, 13, 25, 27, 0, 0, 0, 0, 0, 0, 0, 0, 0, 0, 0, 0, 0, 0, 0, 0, 18, 0, 0, 12, 0, 0, 0, 0
|0, 0, 35, 0, 0, 7, 0, 12, 16, 0, 10, 24, 2, 0, 0, 0, 11, 0, 1, 0, 5, 0, 0, 0, 0, 36, 0, 8, 0, 0, 0, 0, 0, 0, 0, 14
|0, 2, 24, 0, 0, 0, 0, 0, 0, 14, 5, 0, 0, 18, 0, 0, 0, 0, 31, 21, 0, 0, 11, 0, 0, 0, 0, 4, 0, 0, 0, 0, 0, 0, 0, 16
|16, 31, 0, 0, 0, 0, 0, 0, 0, 30, 0, 35, 0, 0, 34, 0, 0, 0, 0, 0, 0, 4, 0, 10, 0, 22, 0, 0, 0, 0, 0, 0, 0, 0, 0, 21
|0, 0, 0, 0, 0, 0, 0, 0, 0, 0, 0, 0, 0, 0, 0, 0, 31, 0, 0, 0, 0, 0, 0, 0, 30, 7, 0, 0, 0, 0, 0, 0, 34, 0, 0, 0
|0, 36, 0, 0, 0, 25, 0, 0, 0, 0, 2, 0, 0, 0, 0, 29, 0, 0, 30, 0, 0, 0, 0, 0, 0, 26, 0, 0, 0, 6, 0, 35, 0, 13, 0, 0|];