order = 6;
grid = [|25, 0, 0, 0, 0, 5, 14, 0, 0, 0, 33, 0, 0, 0, 0, 0, 0, 6, 26, 0, 0, 0, 0, 0, 0, 0, 0, 0, 1, 0, 8, 9, 0, 0, 0, 0
|30, 0, 20, 0, 9, 7, 0, 0, 0, 36, 0, 12, 0, 0, 0, 0, 0, 0, 0, 21, 0, 0, 0, 0, 13, 15, 0, 0, 0, 22, 6, 0, 0, 4, 23, 0
|0, 0, 0, 0, 0, 36, 0, 0, 0, 0, 0, 5, 0, 20, 2, 0, 0, 32, 0, 0, 13, 0, 0, 0, 35, 0, 0, 0, 0, 0, 0, 28, 0, 1, 30, 0
|31, 0, 0, 0, 0, 0, 0, 0, 0, 2, 20, 0, 5, 0, 8, 36, 0, 0, 6, 0, 0, 0, 34, 0, 7, 0, 0, 0, 0, 0, 0, 0, 0, 0, 3, 0
|18, 0, 0, 0, 0, 0, 0, 26, 0, 4, 0, 0, 0, 0, 11, 15, 21, 7, 0, 10, 0, 0, 0, 25, 0, 0, 0, 0, 24, 0, 13, 20, 0, 0, 0, 0
|0, 0, 0, 0, 0, 0, 34, 0, 6, 0, 3, 0, 23, 22, 0, 0, 14, 27, 0, 16, 0, 0, 0, 15, 0, 0, 33, 0, 4, 0, 0, 0, 21, 0, 17, 0
|26, 1, 0, 0, 0, 9, 0, 6, 0, 12, 0, 0, 30, 21, 0, 22, 0, 20, 31, 0, 0, 11, 0, 18, 0, 0, 0, 0, 0, 2, 27, 0, 8, 33, 5, 28
|0, 0, 0, 0, 0, 0, 0, 0, 0, 0, 0, 33, 3, 0, 12, 0, 0, 0, 0, 14, 6, 0, 0, 0, 0, 0, 0, 0, 0, 0, 0, 24, 18, 0, 34, 0
|0, 0, 0, 0, 0, 13, 0, 17, 0, 0, 19, 0, 16, 0, 0, 0, 0, 18, 36, 30, 0, 0, 0, 0, 0, 0, 0, 0, 33, 0, 0, 3, 10, 0, 0, 0
|0, 0, 0, 0, 0, 0, 2, 0, 0, 0, 9, 0, 0, 14, 0, 0, 29, 0, 1, 0, 20, 0, 0, 16, 0, 0, 13, 0, 0, 0, 0, 0, 0, 0, 0, 0
|8, 0, 0, 0, 0, 0, 0, 29, 4, 3, 0, 16, 0, 0, 0, 0, 0, 13, 0, 33, 0, 0, 0, 9, 0, 0, 0, 0, 0, 0, 0, 0, 0, 0, 0, 0
|0, 0, 32, 0, 0, 0, 0, 0, 0, 0, 1, 0, 0, 4, 0, 0, 0, 0, 0, 0, 0, 34, 0, 10, 0, 0, 0, 0, 0, 0, 0, 17, 0, 26, 0, 0
|0, 0, 22, 0, 34, 0, 33, 24, 21, 0, 0, 6, 20, 0, 0, 0, 0, 3, 0, 1, 0, 0, 0, 0, 30, 0, 0, 0, 0, 0, 0, 0, 0, 0, 0, 0
|0, 0, 0, 0, 0, 0, 0, 0, 0, 0, 0, 0, 0, 0, 0, 6, 1, 0, 0, 15, 0, 0, 0, 0, 0, 0, 0, 0, 0, 0, 0, 0, 32, 0, 11, 5
|0, 0, 0, 0, 0, 0, 13, 14, 0, 0, 0, 0, 0, 0, 32, 28, 23, 0, 0, 0, 0, 33, 0, 20, 0, 0, 3, 0, 0, 10, 0, 21, 0, 0, 0, 0
|0, 15, 0, 2, 0, 0, 0, 0, 0, 0, 0, 0, 0, 0, 14, 33, 0, 0, 25, 0, 0, 32, 0, 0, 9, 0, 0, 0, 28, 0, 23, 0, 0, 0, 0, 0
|11, 0, 0, 0, 0, 0, 0, 0, 0, 0, 12, 0, 0, 0, 0, 0, 0, 0, 0, 0, 0, 0, 0, 0, 0, 0, 0, 0, 0, 25, 0, 0, 0, 0, 6, 0
|0, 0, 0, 0, 0, 0, 32, 0, 29, 0, 0, 34, 0, 9, 0, 12, 0, 0, 0, 0, 27, 0, 2, 0, 0, 0, 0, 0, 16, 0, 0, 0, 0, 0, 0, 10
|3, 0, 0, 33, 0, 29, 0, 0, 0, 0, 0, 0, 0, 0, 30, 0, 22, 0, 0, 0, 0, 0, 23, 4, 0, 0, 0, 0, 25, 0, 0, 5, 28, 0, 2, 0
|0, 0, 8, 0, 0, 0, 18, 0, 0, 11, 29, 0, 17, 0, 10, 4, 0, 14, 33, 0, 0, 0, 3, 32, 0, 0, 0, 15, 7, 0, 0, 0, 0, 0, 0, 0
|0, 0, 28, 0, 31, 27, 1, 23, 0, 26, 32, 20, 29, 36, 0, 13, 0, 0, 2, 0, 0, 0, 0, 0, 0, 17, 10, 0, 0, 0, 0, 0, 0, 0, 0, 0
|0, 0, 23, 0, 0, 20, 0, 0, 0, 0, 0, 0, 0, 18, 0, 27, 0, 0, 0, 17, 1, 0, 0, 0, 0, 0, 0, 0, 30, 0, 0, 10, 31, 0, 0, 0
|0, 26, 0, 0, 0, 0, 0, 0, 0, 0, 31, 0, 0, 0, 0, 32, 0, 24, 0, 0, 0, 0, 0, 0, 0, 29, 0, 0, 0, 20, 0, 0, 33, 19, 35, 0
|0, 0, 0, 0, 0, 0, 17, 0, 0, 33, 0, 13, 15, 0, 3, 0, 0, 19, 0, 0, 26, 29, 0, 0, 11, 0, 0, 14, 0, 0, 32, 0, 0, 0, 0, 8
|32, 0, 0, 0, 0, 21, 0, 0, 0, 0, 0, 0, 0, 0, 0, 0, 0, 35, 4, 0, 0, 0, 1, 0, 26, 11, 0, 0, 0, 0, 0, 0, 16, 0, 0, 0
|0, 0, 0, 30, 0, 0, 0, 0, 0, 1, 0, 27, 0, 0, 23, 9, 0, 8, 0, 0, 19, 0, 0, 0, 31, 10, 0, 0, 0, 0, 0, 0, 0, 0, 0, 0
|0, 13, 0, 0, 6, 0, 16, 0, 0, 14, 0, 0, 0, 0, 25, 0, 2, 0, 7, 0, 0, 0, 0, 0, 0, 0, 15, 24, 0, 0, 0, 0, 0, 31, 0, 0
|0, 0, 0, 28, 16, 19, 0, 4, 0, 0, 0, 0, 0, 0, 22, 21, 7, 0, 0, 0, 0, 0, 0, 26, 0, 14, 30, 0, 0, 0, 33, 27, 0, 12, 32, 0
|1, 0, 0, 0, 0, 0, 0, 34, 0, 18, 17, 0, 0, 0, 0, 0, 0, 0, 27, 0, 0, 36, 32, 0, 0, 3, 25, 0, 0, 0, 19, 0, 14, 21, 7, 0
|0, 0, 0, 0, 0, 0, 7, 0, 33, 0, 0, 31, 0, 19, 1, 0, 13, 36, 0, 0, 0, 0, 0, 0, 17, 0, 22, 32, 0, 0, 0, 15, 0, 10, 0, 18
|0, 0, 0, 0, 0, 0, 0, 7, 0, 0, 0, 0, 0, 33, 35, 0, 0, 0, 12, 0, 0, 4, 0, 1, 0, 24, 2, 22, 0, 0, 16, 0, 23, 0, 0, 0
|0, 0, 0, 0, 29, 0, 0, 0, 0, 0, 0, 0, 0, 0, 18, 0, 0, 0, 0, 0, 28, 0, 0, 33, 0, 30, 27, 0, 0, 0, 0, 0, 24, 0, 0, 35
|6, 11, 27, 26, 33, 0, 0, 0, 0, 0, 0, 0, 13, 24, 0, 14, 0, 0, 0, 0, 0, 0, 0, 17, 34, 0, 0, 7, 0, 0, 2, 12, 0, 29, 10, 0
|19, 0, 0, 0, 0, 32, 0, 36, 0, 0, 0, 0, 28, 0, 0, 0, 26, 12, 20, 6, 0, 0, 31, 7, 0, 9, 35, 1, 23, 0, 0, 0, 0, 0, 0, 0
|0, 0, 0, 0, 0, 0, 4, 2, 3, 0, 14, 1, 0, 32, 0, 0, 0, 0, 23, 0, 0, 10, 0, 0, 25, 0, 0, 0, 0, 0, 0, 34, 0, 0, 9, 0
|0, 9, 0, 0, 0, 0, 0, 0, 0, 0, 0, 0, 22, 0, 0, 0, 0, 0, 24, 0, 0, 0, 0, 0, 0, 32, 0, 0, 0, 0, 31, 0, 0, 0, 0, 0|];