order = 6;
grid = [|0, 0, 26, 14, 0, 0, 20, 9, 0, 0, 16, 0, 0, 24, 0, 0, 0, 0, 0, 0, 1, 0, 0, 0, 0, 12, 0, 0, 17, 0, 0, 0, 2, 0, 0, 0
|23, 0, 28, 0, 0, 30, 0, 26, 0, 3, 29, 7, 0, 0, 0, 0, 36, 0, 11, 20, 0, 0, 0, 33, 0, 0, 0, 0, 24, 0, 0, 0, 0, 0, 0, 0
|0, 0, 5, 0, 0, 0, 1, 0, 11, 0, 0, 24, 27, 0, 16, 21, 0, 0, 0, 0, 8, 0, 0, 0, 0, 4, 0, 0, 0, 0, 0, 30, 0, 12, 26, 0
|0, 0, 0, 0, 0, 0, 0, 0, 4, 0, 0, 0, 0, 0, 0, 0, 0, 9, 0, 0, 12, 0, 36, 0, 0, 23, 0, 31, 35, 0, 0, 0, 0, 0, 0, 0
|0, 0, 12, 19, 35, 0, 0, 0, 0, 0, 0, 0, 0, 0, 20, 0, 1, 28, 27, 0, 16, 0, 0, 0, 8, 0, 7, 0, 0, 0, 0, 0, 18, 0, 0, 6
|25, 0, 0, 0, 0, 36, 0, 27, 0, 0, 0, 0, 0, 0, 22, 0, 15, 0, 0, 0, 21, 0, 0, 0, 20, 30, 0, 0, 0, 1, 0, 0, 0, 13, 0, 24
|0, 18, 33, 0, 0, 0, 0, 22, 0, 0, 20, 0, 0, 0, 0, 0, 14, 0, 0, 0, 0, 0, 0, 0, 0, 0, 0, 29, 0, 0, 0, 0, 0, 0, 0, 11
|11, 31, 16, 0, 0, 6, 12, 0, 0, 10, 0, 0, 0, 0, 0, 0, 20, 0, 0, 0, 26, 0, 32, 23, 0, 13, 0, 0, 0, 0, 0, 28, 0, 0, 0, 0
|0, 0, 0, 0, 0, 0, 0, 0, 0, 0, 0, 0, 6, 0, 0, 0, 0, 0, 0, 34, 0, 12, 5, 0, 0, 0, 0, 0, 30, 0, 4, 0, 0, 0, 17, 0
|0, 0, 0, 12, 0, 23, 26, 0, 30, 0, 0, 0, 0, 0, 0, 5, 0, 0, 0, 35, 3, 0, 0, 20, 0, 0, 21, 28, 0, 14, 0, 0, 29, 0, 16, 0
|0, 36, 14, 0, 0, 0, 0, 28, 8, 0, 0, 0, 34, 9, 0, 31, 0, 19, 0, 0, 0, 0, 0, 0, 32, 25, 0, 4, 0, 0, 0, 0, 0, 0, 0, 0
|0, 0, 0, 0, 0, 25, 36, 0, 0, 0, 0, 0, 0, 2, 13, 0, 28, 0, 4, 0, 0, 14, 0, 24, 0, 20, 0, 0, 0, 12, 10, 0, 0, 0, 32, 18
|0, 26, 0, 0, 0, 0, 0, 0, 0, 0, 28, 0, 0, 17, 0, 0, 6, 0, 0, 0, 0, 15, 0, 0, 0, 0, 0, 0, 0, 0, 0, 29, 0, 0, 0, 0
|6, 0, 31, 0, 0, 7, 3, 16, 33, 0, 0, 0, 0, 21, 0, 0, 0, 35, 0, 0, 9, 0, 20, 0, 0, 17, 0, 0, 0, 0, 0, 0, 0, 0, 0, 0
|18, 0, 0, 36, 0, 0, 0, 0, 0, 11, 0, 0, 0, 7, 0, 0, 2, 0, 0, 0, 0, 0, 0, 21, 16, 0, 0, 20, 0, 0, 0, 0, 0, 0, 0, 0
|0, 2, 29, 32, 8, 0, 5, 0, 0, 26, 0, 0, 0, 0, 0, 10, 13, 20, 17, 19, 0, 0, 0, 0, 0, 0, 33, 0, 0, 3, 35, 0, 9, 0, 0, 7
|0, 0, 0, 11, 12, 0, 0, 0, 35, 21, 0, 20, 19, 31, 9, 27, 0, 0, 0, 3, 30, 0, 0, 0, 0, 0, 0, 32, 0, 0, 0, 6, 0, 0, 0, 0
|0, 17, 0, 21, 0, 0, 6, 12, 25, 0, 24, 0, 36, 0, 0, 14, 0, 0, 28, 0, 0, 0, 0, 11, 0, 0, 0, 0, 0, 0, 0, 0, 0, 32, 0, 0
|0, 0, 0, 0, 23, 0, 0, 14, 0, 0, 3, 0, 0, 18, 6, 0, 0, 0, 0, 0, 0, 29, 0, 13, 0, 0, 0, 1, 0, 0, 0, 33, 0, 0, 0, 0
|0, 11, 0, 8, 0, 0, 17, 0, 7, 0, 12, 0, 0, 20, 3, 2, 22, 0, 0, 0, 10, 0, 16, 0, 0, 0, 0, 0, 0, 0, 0, 0, 0, 0, 28, 0
|0, 0, 32, 0, 0, 35, 24, 36, 0, 29, 26, 0, 0, 0, 19, 9, 0, 1, 0, 0, 0, 0, 0, 0, 0, 0, 0, 13, 0, 0, 0, 25, 7, 0, 0, 0
|0, 0, 0, 26, 25, 0, 0, 23, 0, 0, 11, 0, 0, 0, 0, 0, 0, 0, 0, 36, 7, 0, 0, 0, 24, 0, 0, 34, 0, 0, 0, 18, 0, 0, 0, 0
|0, 0, 0, 28, 0, 0, 34, 0, 0, 0, 13, 6, 0, 0, 0, 30, 23, 0, 0, 18, 0, 0, 0, 0, 0, 7, 20, 0, 0, 2, 0, 0, 11, 0, 0, 0
|0, 0, 0, 24, 0, 0, 0, 0, 1, 0, 0, 10, 0, 0, 0, 0, 34, 0, 0, 21, 0, 0, 0, 0, 0, 0, 0, 0, 0, 4, 13, 0, 0, 3, 0, 0
|0, 35, 0, 0, 0, 33, 7, 0, 0, 0, 32, 25, 29, 0, 0, 0, 30, 0, 0, 26, 0, 0, 0, 0, 0, 0, 17, 0, 20, 16, 0, 0, 6, 0, 0, 0
|0, 0, 1, 20, 28, 5, 19, 21, 0, 0, 0, 0, 0, 0, 0, 0, 25, 0, 0, 0, 0, 0, 0, 0, 0, 35, 4, 0, 0, 0, 0, 0, 0, 0, 10, 0
|0, 6, 0, 0, 0, 0, 0, 0, 23, 0, 0, 14, 13, 0, 0, 0, 27, 12, 0, 0, 34, 0, 0, 0, 0, 0, 0, 0, 32, 0, 0, 0, 0, 0, 0, 2
|36, 12, 0, 27, 0, 19, 2, 8, 0, 17, 0, 0, 9, 1, 0, 0, 0, 4, 20, 0, 0, 0, 0, 0, 0, 0, 0, 0, 0, 0, 11, 23, 0, 0, 30, 0
|0, 0, 18, 0, 11, 0, 0, 24, 16, 12, 0, 0, 0, 0, 0, 36, 0, 0, 0, 0, 0, 32, 0, 0, 0, 0, 0, 0, 0, 0, 0, 3, 25, 28, 0, 0
|0, 7, 0, 15, 16, 0, 0, 30, 0, 18, 0, 0, 0, 19, 32, 28, 0, 0, 0, 27, 0, 0, 0, 0, 0, 0, 0, 0, 0, 24, 0, 0, 35, 1, 0, 34
|0, 0, 0, 33, 0, 0, 0, 11, 0, 22, 7, 35, 0, 26, 14, 0, 0, 0, 0, 0, 19, 0, 0, 0, 0, 31, 32, 0, 5, 23, 2, 0, 15, 0, 25, 0
|15, 0, 0, 0, 0, 0, 0, 0, 19, 0, 0, 0, 0, 0, 0, 0, 0, 0, 36, 14, 0, 0, 0, 0, 10, 0, 0, 0, 13, 0, 0, 34, 1, 0, 0, 0
|0, 0, 0, 0, 0, 0, 18, 0, 24, 0, 6, 0, 28, 13, 0, 0, 16, 5, 0, 0, 0, 0, 0, 0, 21, 0, 0, 17, 27, 0, 0, 0, 0, 7, 0, 0
|35, 0, 3, 0, 0, 0, 0, 0, 0, 1, 0, 0, 25, 15, 0, 0, 0, 0, 0, 0, 0, 0, 0, 8, 0, 0, 0, 0, 29, 11, 31, 0, 0, 21, 0, 0
|0, 0, 17, 0, 0, 0, 28, 29, 0, 34, 9, 0, 31, 0, 1, 4, 33, 0, 0, 0, 0, 18, 0, 0, 15, 0, 30, 0, 2, 0, 8, 0, 27, 0, 0, 0
|0, 0, 0, 0, 0, 0, 0, 0, 32, 15, 36, 13, 0, 30, 0, 19, 21, 7, 0, 0, 20, 31, 29, 0, 0, 0, 0, 0, 3, 0, 26, 0, 33, 0, 0, 0|];