order = 6;
grid = [|0, 24, 0, 0, 0, 0, 0, 0, 0, 0, 25, 26, 1, 0, 0, 0, 16, 11, 0, 0, 0, 0, 33, 19, 0, 8, 0, 0, 0, 0, 0, 0, 0, 0, 5, 0
|1, 15, 0, 0, 0, 28, 0, 0, 0, 0, 29, 5, 0, 0, 0, 20, 0, 0, 9, 0, 0, 14, 11, 0, 0, 0, 0, 0, 0, 0, 2, 3, 0, 36, 0, 24
|9, 0, 0, 0, 0, 0, 15, 0, 0, 0, 0, 0, 10, 0, 0, 33, 0, 0, 0, 0, 0, 0, 16, 0, 13, 31, 0, 0, 36, 0, 0, 17, 18, 0, 20, 8
|0, 0, 32, 0, 0, 0, 0, 0, 0, 0, 0, 0, 0, 35, 7, 9, 0, 0, 0, 0, 0, 0, 0, 0, 23, 0, 2, 21, 5, 0, 0, 0, 0, 33, 0, 31
|0, 33, 0, 0, 0, 0, 0, 13, 0, 0, 31, 0, 0, 25, 14, 4, 0, 0, 0, 0, 0, 0, 0, 0, 0, 0, 0, 24, 0, 0, 19, 0, 0, 12, 30, 0
|0, 0, 0, 0, 0, 0, 0, 0, 0, 0, 0, 0, 0, 0, 0, 19, 34, 36, 26, 0, 0, 0, 0, 0, 20, 7, 0, 18, 12, 11, 0, 0, 0, 0, 0, 0
|11, 27, 26, 15, 4, 0, 0, 0, 21, 8, 0, 25, 19, 0, 0, 0, 36, 0, 6, 0, 0, 0, 0, 0, 33, 35, 0, 0, 24, 0, 1, 0, 0, 5, 0, 0
|0, 32, 0, 0, 3, 0, 0, 10, 0, 11, 0, 0, 0, 0, 0, 0, 0, 7, 15, 0, 0, 0, 35, 27, 19, 29, 0, 0, 28, 0, 0, 0, 20, 0, 0, 26
|0, 17, 14, 0, 0, 0, 0, 0, 0, 0, 4, 0, 33, 0, 26, 35, 0, 24, 18, 0, 30, 13, 0, 0, 32, 0, 36, 0, 1, 0, 0, 0, 0, 16, 34, 0
|0, 0, 0, 0, 0, 24, 27, 0, 0, 2, 0, 3, 0, 0, 20, 0, 0, 0, 0, 0, 16, 0, 0, 0, 30, 0, 6, 0, 0, 0, 0, 0, 0, 0, 0, 0
|0, 0, 12, 0, 0, 0, 0, 29, 6, 0, 0, 0, 0, 0, 0, 0, 32, 0, 17, 31, 0, 0, 0, 0, 0, 0, 26, 8, 0, 0, 0, 18, 24, 0, 0, 0
|34, 0, 0, 16, 0, 0, 0, 33, 0, 0, 20, 0, 0, 27, 0, 15, 0, 0, 0, 0, 0, 0, 0, 0, 0, 2, 0, 0, 0, 0, 0, 0, 32, 4, 0, 0
|0, 30, 0, 28, 0, 0, 0, 0, 0, 0, 0, 6, 14, 20, 0, 0, 0, 0, 19, 0, 0, 0, 23, 0, 22, 0, 32, 12, 0, 0, 0, 11, 0, 0, 0, 1
|3, 10, 0, 0, 0, 0, 0, 0, 0, 19, 22, 0, 6, 0, 0, 0, 0, 17, 1, 0, 0, 0, 0, 0, 0, 30, 8, 2, 0, 36, 32, 0, 25, 0, 18, 0
|0, 0, 0, 22, 34, 0, 0, 0, 36, 0, 0, 0, 24, 0, 0, 0, 0, 0, 0, 0, 9, 0, 0, 0, 0, 13, 20, 1, 0, 26, 0, 19, 28, 3, 0, 30
|0, 0, 0, 0, 8, 0, 0, 18, 2, 0, 0, 0, 0, 9, 0, 0, 0, 32, 31, 0, 28, 29, 0, 5, 0, 3, 0, 0, 15, 0, 0, 0, 0, 0, 12, 20
|33, 0, 0, 12, 0, 0, 0, 14, 15, 0, 0, 0, 11, 0, 0, 3, 0, 0, 2, 0, 35, 30, 0, 0, 0, 0, 0, 23, 9, 0, 0, 0, 6, 0, 0, 0
|0, 0, 0, 0, 0, 0, 26, 0, 3, 17, 13, 0, 36, 30, 0, 0, 25, 0, 0, 0, 0, 0, 0, 0, 0, 28, 0, 0, 0, 29, 0, 27, 5, 0, 0, 0
|0, 0, 0, 0, 0, 0, 16, 6, 0, 0, 0, 0, 8, 0, 0, 0, 14, 0, 13, 0, 0, 21, 31, 7, 0, 0, 0, 0, 0, 35, 11, 0, 0, 0, 0, 0
|0, 0, 0, 0, 0, 25, 0, 0, 0, 0, 3, 0, 0, 0, 5, 0, 0, 0, 36, 0, 4, 0, 9, 17, 0, 26, 0, 28, 19, 30, 0, 0, 0, 8, 27, 21
|28, 0, 19, 0, 0, 0, 9, 5, 0, 20, 0, 0, 0, 16, 33, 0, 0, 22, 0, 0, 0, 0, 0, 0, 0, 0, 0, 0, 0, 1, 36, 0, 0, 0, 29, 0
|0, 23, 0, 0, 0, 0, 0, 0, 0, 0, 0, 0, 34, 2, 0, 0, 0, 9, 28, 15, 0, 0, 18, 0, 0, 22, 0, 0, 0, 0, 25, 0, 0, 0, 6, 0
|0, 0, 0, 0, 0, 9, 0, 28, 1, 0, 0, 0, 7, 0, 0, 0, 0, 0, 0, 0, 22, 0, 19, 0, 2, 21, 15, 0, 0, 0, 0, 20, 0, 0, 0, 0
|0, 0, 6, 0, 0, 0, 0, 0, 22, 0, 0, 0, 21, 24, 35, 25, 0, 3, 0, 29, 10, 0, 0, 0, 36, 0, 0, 0, 0, 0, 5, 0, 9, 19, 0, 12
|0, 29, 0, 1, 0, 0, 0, 0, 0, 0, 0, 4, 31, 0, 0, 22, 0, 0, 0, 0, 0, 7, 0, 9, 0, 0, 0, 0, 0, 0, 0, 36, 0, 0, 0, 0
|0, 20, 0, 0, 13, 0, 24, 17, 0, 3, 21, 0, 30, 0, 0, 0, 0, 0, 0, 11, 0, 0, 0, 2, 0, 0, 0, 0, 0, 0, 0, 0, 8, 0, 28, 34
|0, 31, 21, 0, 25, 0, 0, 0, 0, 27, 0, 0, 0, 11, 15, 0, 2, 0, 0, 0, 0, 0, 0, 0, 3, 36, 0, 9, 0, 0, 4, 0, 0, 35, 17, 0
|14, 0, 0, 0, 0, 0, 28, 0, 0, 5, 19, 0, 0, 0, 0, 0, 0, 0, 0, 16, 6, 4, 22, 0, 0, 0, 0, 0, 0, 17, 9, 0, 0, 0, 0, 0
|0, 0, 8, 0, 30, 0, 11, 0, 0, 0, 0, 0, 0, 0, 0, 0, 0, 0, 0, 0, 0, 1, 0, 0, 0, 0, 35, 19, 0, 0, 0, 25, 0, 0, 0, 0
|0, 0, 0, 0, 0, 32, 23, 36, 0, 0, 0, 18, 4, 10, 0, 0, 0, 19, 0, 0, 0, 0, 0, 0, 26, 1, 0, 0, 0, 0, 0, 0, 0, 0, 0, 0
|13, 0, 0, 0, 0, 0, 0, 0, 0, 0, 0, 10, 2, 8, 0, 24, 0, 4, 0, 0, 18, 0, 0, 0, 0, 20, 3, 27, 0, 0, 0, 0, 0, 0, 21, 0
|8, 0, 0, 0, 0, 0, 0, 0, 0, 0, 0, 20, 0, 0, 0, 0, 0, 0, 35, 0, 0, 0, 0, 31, 0, 0, 0, 36, 11, 9, 0, 12, 0, 0, 23, 0
|0, 9, 31, 0, 0, 0, 0, 27, 0, 22, 0, 23, 0, 19, 0, 0, 1, 0, 4, 2, 8, 0, 0, 36, 0, 0, 12, 0, 13, 0, 0, 0, 0, 28, 3, 16
|0, 0, 20, 0, 0, 14, 0, 1, 8, 4, 0, 0, 0, 0, 0, 0, 0, 0, 0, 0, 33, 23, 0, 0, 0, 0, 25, 0, 0, 2, 0, 9, 0, 24, 0, 36
|30, 0, 0, 2, 0, 11, 0, 0, 0, 0, 0, 16, 0, 3, 0, 0, 31, 23, 29, 0, 0, 26, 0, 0, 1, 18, 0, 0, 0, 0, 0, 0, 19, 14, 0, 0
|24, 0, 27, 0, 0, 4, 0, 0, 17, 18, 0, 0, 32, 0, 0, 36, 0, 14, 0, 0, 21, 0, 7, 0, 0, 0, 0, 35, 22, 0, 0, 0, 0, 0, 0, 0|];