order = 6;
grid = [|0, 0, 0, 0, 0, 0, 0, 16, 0, 20, 0, 0, 0, 0, 21, 26, 32, 3, 0, 0, 0, 7, 0, 0, 0, 0, 0, 0, 0, 0, 5, 0, 0, 13, 0, 0
|0, 0, 17, 0, 24, 0, 26, 0, 0, 31, 0, 0, 8, 0, 0, 0, 0, 0, 14, 5, 0, 0, 0, 0, 0, 0, 0, 0, 0, 25, 0, 0, 3, 0, 0, 23
|0, 0, 0, 0, 0, 0, 0, 0, 0, 0, 0, 29, 0, 0, 20, 24, 0, 0, 12, 34, 35, 0, 0, 0, 0, 11, 33, 0, 0, 0, 0, 0, 0, 0, 0, 17
|0, 5, 0, 0, 25, 0, 0, 0, 24, 0, 0, 9, 12, 0, 33, 17, 0, 0, 3, 0, 13, 29, 20, 0, 31, 0, 0, 0, 0, 23, 0, 0, 7, 0, 8, 4
|0, 0, 0, 0, 33, 0, 0, 0, 0, 0, 0, 0, 0, 0, 19, 0, 0, 18, 0, 0, 0, 2, 31, 30, 3, 0, 0, 36, 0, 0, 0, 0, 29, 0, 24, 0
|15, 0, 0, 0, 0, 36, 0, 0, 0, 0, 0, 0, 0, 35, 34, 13, 23, 0, 32, 27, 0, 0, 0, 24, 12, 0, 0, 0, 0, 0, 0, 0, 0, 30, 16, 6
|12, 0, 23, 0, 3, 0, 16, 0, 0, 0, 14, 0, 0, 25, 0, 0, 0, 0, 0, 20, 4, 0, 0, 0, 0, 0, 0, 18, 7, 0, 0, 24, 0, 0, 32, 0
|0, 0, 0, 28, 0, 5, 0, 0, 18, 0, 0, 11, 0, 0, 0, 0, 0, 0, 0, 9, 27, 0, 0, 0, 35, 3, 25, 0, 0, 0, 0, 31, 26, 0, 30, 0
|0, 0, 0, 0, 0, 9, 0, 0, 0, 0, 0, 0, 0, 28, 0, 0, 0, 0, 0, 0, 0, 0, 23, 25, 0, 20, 19, 0, 0, 12, 2, 0, 0, 16, 0, 34
|0, 15, 35, 0, 0, 11, 0, 31, 0, 0, 0, 0, 0, 19, 0, 0, 0, 0, 0, 0, 0, 0, 26, 22, 0, 1, 0, 21, 0, 0, 23, 0, 18, 27, 0, 0
|0, 6, 0, 0, 2, 0, 0, 0, 0, 22, 20, 28, 0, 0, 0, 0, 1, 26, 0, 0, 10, 32, 0, 0, 0, 0, 0, 0, 0, 0, 0, 13, 0, 0, 0, 0
|1, 0, 0, 0, 0, 0, 0, 3, 0, 0, 0, 0, 0, 0, 0, 0, 0, 0, 0, 31, 8, 0, 0, 0, 0, 0, 36, 0, 0, 0, 0, 22, 11, 12, 0, 0
|3, 0, 0, 0, 35, 0, 6, 0, 0, 0, 0, 0, 22, 0, 0, 33, 18, 0, 1, 0, 0, 16, 5, 0, 0, 0, 17, 0, 0, 0, 0, 0, 13, 0, 29, 0
|0, 8, 0, 14, 22, 4, 0, 0, 0, 0, 16, 0, 0, 13, 0, 12, 0, 0, 0, 28, 29, 0, 0, 0, 0, 7, 11, 0, 0, 18, 35, 0, 0, 0, 0, 21
|0, 27, 0, 9, 0, 34, 0, 29, 0, 0, 0, 0, 7, 0, 0, 36, 0, 0, 0, 35, 0, 0, 0, 0, 0, 0, 0, 12, 0, 0, 6, 0, 0, 23, 0, 0
|20, 1, 26, 0, 0, 0, 28, 0, 35, 0, 0, 0, 6, 0, 0, 0, 0, 0, 0, 2, 0, 0, 0, 0, 0, 0, 0, 0, 0, 0, 0, 0, 19, 0, 9, 0
|25, 0, 0, 0, 6, 2, 32, 0, 0, 0, 0, 0, 0, 0, 3, 0, 0, 0, 0, 0, 0, 0, 0, 18, 0, 35, 30, 0, 24, 10, 27, 0, 0, 26, 0, 0
|13, 0, 0, 0, 19, 0, 0, 36, 11, 0, 0, 0, 0, 20, 0, 29, 0, 0, 0, 0, 0, 0, 0, 0, 0, 0, 2, 14, 0, 0, 0, 30, 0, 0, 0, 0
|0, 34, 0, 0, 11, 0, 0, 25, 0, 0, 0, 0, 0, 0, 0, 22, 20, 0, 0, 0, 0, 33, 0, 3, 0, 24, 27, 0, 0, 0, 0, 23, 0, 18, 0, 0
|0, 0, 0, 25, 0, 0, 0, 0, 0, 0, 0, 0, 0, 0, 0, 0, 0, 32, 0, 0, 0, 0, 0, 0, 28, 0, 0, 2, 12, 0, 0, 0, 15, 22, 0, 0
|24, 2, 0, 0, 0, 32, 0, 0, 0, 4, 0, 0, 0, 0, 0, 0, 0, 0, 0, 8, 20, 27, 18, 0, 0, 0, 0, 0, 0, 0, 26, 0, 0, 9, 0, 0
|0, 23, 20, 3, 0, 0, 0, 0, 0, 0, 12, 0, 0, 0, 0, 0, 0, 0, 9, 0, 22, 0, 28, 0, 0, 5, 0, 25, 0, 0, 0, 0, 0, 0, 7, 35
|0, 0, 0, 0, 16, 0, 35, 0, 0, 28, 36, 0, 0, 3, 6, 0, 0, 0, 0, 0, 0, 0, 0, 0, 0, 0, 0, 0, 15, 0, 0, 0, 0, 0, 0, 30
|0, 0, 0, 0, 0, 0, 0, 22, 0, 0, 33, 0, 29, 0, 28, 0, 14, 0, 0, 0, 0, 23, 24, 0, 0, 0, 0, 0, 9, 20, 0, 0, 0, 19, 0, 31
|0, 19, 3, 0, 0, 16, 24, 2, 0, 9, 0, 0, 0, 34, 0, 0, 35, 0, 0, 0, 0, 0, 29, 0, 0, 0, 0, 27, 25, 0, 15, 0, 0, 21, 23, 0
|0, 32, 0, 0, 31, 29, 0, 0, 0, 0, 0, 0, 0, 27, 14, 0, 0, 24, 0, 0, 0, 34, 21, 0, 0, 17, 0, 0, 0, 0, 18, 0, 0, 0, 0, 0
|5, 14, 15, 0, 0, 17, 0, 28, 0, 0, 0, 0, 30, 0, 0, 0, 25, 0, 27, 32, 0, 0, 0, 20, 0, 0, 0, 3, 0, 21, 0, 0, 24, 0, 0, 0
|0, 0, 0, 0, 0, 0, 34, 0, 0, 0, 6, 0, 0, 12, 16, 15, 0, 0, 28, 3, 0, 0, 0, 0, 0, 0, 0, 0, 22, 0, 0, 0, 0, 4, 2, 0
|0, 0, 0, 4, 28, 0, 0, 0, 0, 0, 0, 18, 17, 0, 1, 0, 9, 0, 0, 0, 0, 14, 0, 0, 0, 0, 24, 33, 0, 6, 0, 27, 0, 0, 13, 0
|0, 0, 22, 0, 0, 0, 14, 0, 10, 0, 0, 36, 0, 0, 0, 21, 13, 0, 0, 0, 23, 0, 0, 0, 11, 0, 0, 0, 0, 0, 3, 0, 0, 0, 6, 0
|0, 29, 0, 0, 20, 14, 0, 0, 0, 0, 0, 0, 0, 11, 0, 0, 0, 15, 0, 0, 0, 25, 3, 0, 0, 0, 0, 0, 0, 0, 0, 32, 0, 0, 18, 0
|0, 0, 0, 0, 32, 0, 0, 7, 0, 0, 0, 14, 0, 31, 0, 0, 0, 0, 0, 0, 18, 5, 0, 0, 0, 25, 0, 0, 0, 0, 10, 17, 6, 0, 0, 0
|34, 24, 0, 0, 0, 22, 0, 0, 16, 0, 0, 32, 0, 0, 0, 0, 0, 0, 0, 0, 0, 8, 0, 0, 0, 19, 0, 0, 0, 0, 0, 0, 0, 25, 11, 1
|31, 0, 0, 19, 26, 0, 5, 0, 25, 0, 0, 0, 34, 0, 0, 14, 0, 0, 0, 24, 0, 0, 0, 0, 0, 4, 21, 0, 8, 0, 0, 0, 0, 35, 33, 0
|0, 28, 6, 0, 0, 0, 0, 23, 4, 18, 0, 0, 0, 0, 0, 0, 0, 13, 0, 0, 19, 0, 0, 26, 0, 0, 35, 11, 0, 0, 0, 20, 0, 0, 0, 0
|0, 18, 25, 0, 15, 1, 12, 17, 0, 0, 0, 6, 0, 0, 0, 19, 3, 0, 0, 0, 33, 0, 0, 0, 0, 14, 0, 7, 0, 0, 0, 21, 0, 0, 0, 26|];