order = 6;
grid = [|0, 0, 0, 0, 0, 0, 0, 0, 0, 6, 0, 0, 0, 0, 0, 0, 0, 0, 32, 0, 0, 0, 13, 0, 12, 0, 0, 0, 28, 0, 0, 0, 3, 7, 0, 0
|0, 0, 0, 36, 0, 0, 16, 0, 7, 0, 27, 0, 0, 8, 0, 0, 0, 0, 0, 0, 0, 0, 0, 0, 0, 30, 0, 0, 19, 0, 0, 6, 0, 0, 0, 35
|0, 0, 1, 20, 0, 15, 0, 0, 22, 0, 0, 0, 0, 0, 0, 16, 28, 0, 4, 0, 0, 0, 19, 0, 0, 0, 0, 0, 0, 0, 0, 0, 0, 0, 33, 0
|0, 0, 0, 0, 34, 0, 0, 0, 0, 15, 0, 23, 0, 0, 0, 0, 31, 0, 3, 0, 0, 0, 0, 0, 21, 0, 0, 7, 0, 0, 0, 30, 24, 0, 28, 20
|18, 0, 0, 0, 0, 0, 34, 0, 35, 0, 19, 0, 5, 15, 0, 0, 0, 0, 0, 0, 0, 0, 0, 0, 0, 0, 0, 0, 0, 0, 0, 0, 0, 22, 0, 2
|0, 0, 0, 3, 23, 0, 0, 21, 0, 0, 0, 0, 4, 20, 32, 0, 0, 13, 22, 15, 0, 36, 0, 0, 0, 0, 35, 33, 5, 0, 19, 17, 0, 0, 16, 0
|0, 0, 0, 19, 0, 0, 0, 0, 0, 0, 32, 11, 0, 0, 0, 5, 0, 0, 0, 2, 0, 0, 0, 1, 0, 18, 34, 0, 0, 0, 0, 28, 25, 26, 0, 0
|0, 0, 0, 0, 0, 0, 35, 9, 4, 0, 0, 0, 3, 0, 0, 32, 6, 0, 26, 0, 11, 0, 34, 17, 0, 0, 5, 12, 0, 0, 0, 0, 33, 0, 0, 0
|17, 0, 0, 9, 10, 3, 0, 0, 0, 0, 0, 0, 0, 0, 0, 0, 0, 0, 0, 0, 19, 0, 0, 0, 16, 0, 36, 15, 0, 0, 0, 0, 0, 0, 0, 0
|0, 36, 0, 0, 32, 24, 14, 20, 0, 0, 0, 19, 26, 7, 0, 12, 0, 18, 0, 0, 0, 0, 16, 23, 0, 0, 0, 10, 0, 21, 0, 0, 17, 0, 0, 0
|0, 0, 34, 0, 0, 0, 17, 8, 0, 0, 0, 0, 0, 0, 2, 0, 0, 22, 36, 0, 0, 0, 18, 9, 0, 0, 32, 0, 7, 0, 0, 0, 0, 0, 0, 0
|0, 11, 0, 0, 0, 0, 0, 0, 36, 0, 0, 0, 0, 0, 21, 0, 16, 9, 0, 0, 0, 0, 0, 0, 6, 19, 0, 0, 8, 0, 0, 18, 0, 0, 0, 0
|0, 17, 0, 0, 7, 0, 0, 19, 0, 0, 0, 0, 0, 24, 6, 0, 32, 0, 0, 33, 0, 0, 0, 10, 5, 0, 30, 0, 23, 0, 15, 0, 0, 0, 0, 0
|0, 0, 0, 27, 18, 31, 0, 0, 17, 0, 29, 35, 0, 5, 0, 0, 0, 21, 0, 28, 0, 0, 0, 0, 32, 0, 6, 0, 0, 24, 0, 0, 0, 33, 0, 0
|15, 0, 28, 0, 25, 11, 0, 0, 21, 0, 9, 0, 0, 0, 18, 14, 0, 0, 0, 0, 0, 0, 0, 26, 0, 0, 0, 16, 0, 0, 0, 0, 0, 0, 27, 0
|0, 0, 0, 0, 0, 0, 0, 0, 0, 0, 0, 13, 9, 4, 0, 1, 0, 16, 34, 0, 0, 29, 2, 0, 0, 0, 0, 28, 0, 0, 10, 8, 20, 0, 17, 7
|0, 0, 0, 13, 0, 8, 0, 0, 15, 1, 34, 0, 25, 30, 0, 27, 26, 29, 0, 0, 17, 6, 7, 12, 0, 22, 0, 0, 0, 0, 31, 0, 32, 0, 0, 0
|0, 3, 0, 0, 29, 0, 0, 0, 0, 0, 0, 0, 0, 19, 0, 0, 0, 0, 0, 0, 0, 8, 15, 27, 13, 1, 0, 0, 0, 7, 0, 0, 0, 36, 30, 0
|0, 0, 0, 0, 0, 0, 0, 26, 0, 0, 0, 0, 0, 0, 19, 0, 18, 0, 0, 0, 0, 0, 12, 35, 0, 0, 0, 17, 27, 0, 0, 0, 0, 0, 0, 0
|0, 0, 0, 26, 0, 0, 0, 0, 0, 0, 0, 3, 27, 0, 0, 0, 0, 0, 0, 0, 2, 0, 0, 14, 9, 0, 8, 32, 16, 18, 0, 0, 0, 0, 31, 10
|19, 4, 3, 16, 0, 0, 11, 12, 0, 0, 0, 0, 0, 0, 34, 0, 0, 0, 0, 0, 0, 0, 27, 0, 0, 0, 0, 0, 0, 0, 0, 0, 0, 0, 0, 17
|27, 0, 21, 0, 0, 0, 0, 32, 0, 36, 0, 33, 0, 0, 0, 0, 0, 0, 0, 20, 0, 0, 0, 7, 34, 0, 0, 0, 0, 15, 0, 14, 0, 0, 0, 0
|12, 24, 2, 0, 35, 0, 0, 0, 0, 0, 0, 0, 13, 32, 0, 0, 0, 8, 0, 30, 0, 0, 0, 0, 0, 0, 0, 0, 6, 19, 0, 0, 7, 15, 0, 11
|0, 22, 15, 0, 0, 0, 19, 0, 0, 7, 17, 0, 0, 16, 0, 0, 0, 4, 0, 0, 21, 0, 8, 5, 0, 0, 0, 0, 10, 0, 35, 23, 0, 27, 0, 0
|0, 0, 0, 0, 0, 0, 0, 0, 0, 0, 24, 0, 0, 0, 0, 0, 20, 0, 0, 9, 0, 12, 0, 0, 0, 0, 0, 31, 0, 0, 25, 0, 0, 0, 0, 32
|0, 0, 0, 0, 0, 0, 23, 31, 0, 0, 0, 0, 32, 0, 0, 0, 0, 5, 20, 14, 0, 0, 26, 0, 35, 0, 0, 0, 0, 0, 0, 16, 0, 10, 0, 0
|0, 0, 0, 0, 0, 0, 0, 0, 0, 0, 0, 0, 0, 0, 0, 0, 2, 31, 25, 22, 34, 11, 0, 0, 0, 0, 23, 14, 0, 5, 0, 0, 19, 0, 1, 0
|0, 26, 25, 11, 0, 0, 0, 0, 8, 0, 0, 0, 0, 0, 24, 0, 0, 0, 0, 0, 0, 31, 0, 0, 0, 32, 0, 29, 3, 0, 0, 0, 0, 0, 0, 9
|0, 0, 0, 0, 0, 0, 25, 0, 12, 27, 0, 2, 0, 0, 0, 0, 0, 0, 1, 0, 0, 7, 32, 0, 0, 0, 0, 0, 0, 0, 0, 0, 0, 0, 14, 0
|6, 29, 24, 32, 15, 0, 0, 0, 0, 0, 0, 1, 0, 0, 4, 0, 0, 0, 0, 3, 35, 5, 0, 0, 0, 0, 0, 0, 0, 0, 11, 0, 0, 31, 0, 12
|0, 15, 32, 35, 0, 0, 0, 0, 0, 0, 0, 0, 0, 0, 0, 0, 0, 0, 0, 0, 18, 17, 0, 0, 24, 0, 12, 19, 0, 0, 7, 0, 0, 3, 0, 0
|0, 0, 0, 1, 0, 33, 0, 5, 0, 0, 12, 0, 17, 0, 0, 0, 0, 0, 0, 0, 0, 0, 0, 0, 0, 3, 0, 0, 15, 8, 0, 0, 0, 0, 0, 18
|31, 0, 0, 0, 0, 18, 20, 0, 0, 0, 2, 0, 7, 0, 0, 0, 0, 25, 0, 0, 8, 0, 0, 28, 0, 0, 0, 0, 0, 0, 0, 0, 0, 0, 0, 0
|0, 0, 0, 0, 4, 0, 0, 0, 0, 0, 7, 31, 0, 0, 0, 0, 0, 0, 0, 0, 0, 0, 0, 0, 27, 0, 26, 0, 35, 0, 34, 29, 0, 0, 0, 0
|0, 0, 0, 0, 0, 0, 29, 0, 9, 0, 35, 10, 18, 33, 0, 0, 0, 0, 7, 13, 22, 2, 1, 0, 17, 4, 0, 0, 0, 0, 0, 36, 0, 0, 19, 8
|10, 16, 0, 0, 0, 0, 3, 0, 0, 19, 8, 15, 0, 31, 0, 0, 0, 0, 0, 0, 0, 0, 35, 0, 0, 0, 0, 18, 0, 0, 17, 0, 0, 0, 0, 25|];