order = 6;
grid = [|0, 0, 1, 32, 0, 0, 0, 0, 0, 0, 16, 0, 0, 0, 0, 0, 0, 0, 9, 28, 0, 0, 0, 0, 8, 0, 0, 35, 23, 0, 29, 0, 0, 2, 0, 17
|0, 0, 0, 8, 0, 0, 0, 0, 32, 23, 0, 0, 0, 0, 0, 0, 0, 0, 29, 0, 0, 0, 0, 0, 0, 0, 0, 0, 0, 0, 0, 15, 0, 9, 26, 0
|0, 0, 0, 33, 0, 0, 0, 0, 8, 0, 0, 0, 0, 27, 0, 7, 0, 17, 0, 0, 0, 0, 0, 0, 0, 3, 0, 0, 0, 0, 14, 0, 0, 0, 16, 0
|0, 0, 0, 0, 25, 0, 0, 7, 0, 0, 5, 0, 28, 0, 0, 0, 1, 0, 0, 0, 0, 0, 0, 17, 0, 0, 0, 0, 32, 0, 0, 0, 0, 36, 0, 0
|0, 29, 0, 0, 0, 0, 10, 0, 20, 0, 0, 0, 15, 13, 16, 0, 0, 0, 0, 34, 0, 0, 0, 3, 0, 6, 0, 0, 0, 9, 4, 0, 24, 0, 0, 5
|13, 0, 36, 19, 12, 20, 0, 0, 0, 0, 0, 0, 0, 0, 32, 0, 0, 9, 0, 21, 0, 0, 0, 15, 0, 0, 7, 0, 0, 0, 0, 0, 0, 0, 0, 0
|0, 0, 0, 0, 0, 0, 0, 6, 0, 0, 0, 2, 0, 0, 35, 0, 33, 0, 0, 0, 0, 0, 0, 0, 0, 0, 0, 0, 0, 0, 11, 0, 0, 0, 5, 8
|0, 0, 25, 4, 0, 1, 7, 12, 0, 36, 0, 0, 0, 11, 29, 0, 26, 0, 0, 0, 14, 0, 8, 0, 0, 13, 18, 9, 0, 2, 0, 0, 0, 31, 0, 0
|31, 0, 0, 0, 0, 28, 0, 0, 0, 0, 0, 0, 0, 0, 0, 0, 5, 0, 21, 0, 0, 18, 0, 0, 12, 0, 34, 1, 10, 0, 0, 19, 0, 0, 9, 0
|0, 0, 0, 6, 0, 0, 0, 0, 0, 0, 0, 0, 8, 0, 0, 0, 0, 27, 0, 17, 0, 0, 36, 0, 0, 0, 0, 0, 0, 0, 2, 0, 13, 0, 0, 32
|0, 11, 0, 0, 0, 0, 0, 0, 0, 0, 0, 18, 0, 0, 0, 0, 0, 0, 16, 0, 0, 0, 5, 0, 0, 0, 0, 0, 0, 0, 0, 36, 0, 26, 0, 3
|0, 21, 0, 24, 0, 33, 0, 0, 34, 0, 0, 0, 0, 0, 31, 28, 0, 0, 0, 15, 0, 0, 0, 0, 0, 0, 0, 0, 0, 7, 0, 0, 0, 27, 0, 12
|0, 0, 0, 0, 0, 17, 4, 0, 0, 5, 15, 6, 0, 0, 19, 0, 35, 0, 25, 0, 0, 0, 3, 0, 0, 0, 30, 0, 0, 0, 0, 18, 0, 0, 0, 33
|0, 0, 23, 35, 0, 34, 0, 13, 0, 0, 0, 0, 0, 0, 0, 0, 0, 0, 0, 0, 27, 0, 0, 0, 28, 0, 0, 0, 0, 11, 0, 0, 0, 0, 0, 0
|0, 0, 0, 0, 8, 0, 0, 0, 19, 0, 23, 0, 0, 0, 17, 0, 0, 0, 0, 0, 0, 0, 31, 21, 0, 0, 0, 2, 9, 0, 20, 0, 0, 0, 0, 0
|0, 0, 0, 0, 0, 0, 8, 0, 24, 10, 33, 36, 0, 0, 0, 0, 0, 0, 17, 18, 0, 0, 7, 0, 0, 0, 0, 34, 31, 0, 0, 0, 0, 6, 0, 1
|0, 0, 0, 0, 0, 0, 0, 0, 0, 0, 22, 30, 10, 0, 7, 0, 16, 0, 0, 0, 0, 0, 0, 0, 23, 0, 0, 0, 0, 0, 0, 21, 0, 0, 0, 27
|25, 16, 20, 0, 0, 0, 0, 0, 0, 0, 0, 0, 23, 0, 0, 0, 21, 32, 33, 0, 0, 0, 1, 0, 19, 0, 0, 0, 17, 22, 0, 0, 2, 0, 31, 0
|16, 0, 0, 0, 0, 0, 0, 0, 25, 0, 17, 0, 0, 0, 0, 0, 7, 0, 0, 0, 0, 0, 0, 0, 0, 0, 32, 0, 0, 31, 0, 2, 0, 0, 0, 0
|36, 27, 0, 0, 0, 23, 0, 0, 0, 0, 0, 0, 0, 0, 0, 0, 0, 0, 11, 0, 32, 0, 9, 0, 0, 0, 0, 0, 0, 3, 0, 0, 0, 0, 0, 4
|0, 0, 0, 13, 0, 7, 0, 0, 0, 29, 0, 33, 0, 19, 0, 0, 0, 0, 0, 0, 0, 0, 27, 25, 6, 0, 0, 0, 0, 0, 0, 0, 0, 0, 0, 0
|0, 33, 0, 0, 0, 0, 2, 0, 0, 0, 0, 19, 0, 0, 3, 0, 0, 23, 0, 0, 0, 17, 0, 18, 0, 10, 16, 21, 0, 28, 0, 24, 32, 0, 0, 34
|0, 4, 17, 0, 0, 0, 0, 0, 0, 0, 0, 10, 0, 0, 0, 26, 0, 0, 0, 35, 0, 0, 0, 23, 0, 0, 0, 0, 24, 0, 0, 12, 36, 0, 0, 0
|8, 0, 0, 0, 0, 0, 0, 0, 0, 0, 12, 23, 29, 0, 0, 0, 0, 0, 0, 19, 0, 0, 0, 0, 2, 26, 0, 0, 0, 0, 0, 0, 0, 0, 35, 25
|0, 0, 0, 0, 0, 0, 0, 5, 0, 0, 0, 22, 2, 0, 36, 0, 0, 0, 19, 0, 0, 0, 0, 0, 15, 1, 33, 0, 3, 17, 0, 0, 20, 0, 0, 28
|0, 36, 0, 0, 0, 11, 0, 0, 0, 0, 0, 0, 0, 0, 5, 35, 13, 0, 20, 2, 0, 14, 34, 6, 0, 27, 0, 0, 0, 0, 0, 17, 29, 21, 0, 0
|0, 0, 0, 0, 0, 8, 0, 0, 0, 34, 0, 0, 0, 0, 18, 0, 0, 15, 0, 0, 33, 0, 35, 0, 0, 0, 0, 29, 0, 0, 0, 9, 12, 30, 0, 0
|6, 0, 10, 0, 0, 0, 0, 29, 0, 0, 0, 0, 0, 0, 0, 0, 0, 0, 0, 0, 0, 24, 0, 27, 0, 16, 2, 8, 36, 19, 0, 0, 0, 0, 14, 0
|22, 0, 0, 0, 0, 2, 0, 0, 0, 0, 0, 8, 19, 31, 0, 0, 14, 21, 0, 0, 17, 0, 0, 0, 18, 0, 0, 0, 0, 24, 0, 0, 0, 3, 0, 6
|0, 0, 0, 0, 0, 0, 1, 24, 0, 0, 0, 0, 22, 0, 0, 16, 0, 0, 0, 0, 4, 0, 23, 0, 0, 0, 0, 30, 0, 0, 0, 32, 7, 0, 8, 13
|11, 18, 4, 0, 30, 0, 0, 8, 0, 33, 36, 0, 0, 24, 0, 0, 0, 0, 15, 0, 0, 0, 17, 0, 0, 34, 0, 0, 0, 0, 0, 0, 0, 0, 12, 0
|20, 0, 0, 0, 0, 16, 0, 0, 5, 30, 13, 12, 0, 7, 0, 0, 0, 10, 35, 0, 0, 0, 0, 0, 0, 0, 3, 0, 28, 18, 0, 29, 0, 0, 0, 0
|0, 0, 7, 2, 0, 22, 0, 25, 9, 0, 1, 0, 17, 34, 0, 20, 0, 0, 0, 0, 0, 0, 13, 0, 21, 0, 31, 16, 0, 0, 0, 6, 0, 0, 0, 0
|19, 0, 26, 0, 0, 0, 34, 31, 0, 0, 0, 0, 0, 25, 0, 0, 0, 0, 27, 0, 0, 3, 0, 0, 0, 0, 0, 0, 0, 0, 18, 0, 0, 5, 33, 30
|0, 0, 6, 0, 0, 0, 15, 0, 0, 0, 0, 0, 0, 0, 14, 0, 0, 31, 0, 0, 0, 0, 0, 11, 13, 0, 0, 0, 0, 0, 0, 0, 0, 0, 0, 0
|28, 0, 0, 34, 0, 0, 0, 11, 0, 0, 0, 0, 0, 0, 12, 0, 19, 0, 0, 16, 0, 0, 0, 0, 0, 0, 0, 0, 7, 29, 0, 0, 0, 23, 0, 2|];