order = 6;
grid = [|0, 0, 0, 0, 0, 0, 0, 29, 0, 36, 6, 0, 0, 0, 0, 0, 0, 0, 0, 3, 0, 0, 0, 19, 0, 0, 23, 0, 0, 0, 0, 0, 0, 20, 0, 28
|0, 16, 0, 18, 0, 0, 0, 12, 0, 13, 0, 0, 0, 0, 0, 0, 7, 0, 0, 0, 0, 2, 0, 0, 0, 0, 0, 0, 0, 0, 0, 0, 33, 0, 0, 0
|3, 0, 34, 0, 0, 23, 5, 0, 0, 0, 0, 0, 27, 0, 0, 35, 2, 0, 22, 0, 0, 0, 0, 0, 26, 0, 21, 29, 0, 0, 0, 0, 30, 0, 8, 0
|0, 20, 0, 0, 0, 11, 0, 0, 15, 0, 0, 0, 21, 10, 13, 33, 0, 0, 0, 0, 26, 0, 0, 0, 0, 34, 0, 0, 0, 28, 0, 0, 19, 0, 0, 0
|0, 0, 0, 1, 0, 0, 0, 0, 0, 0, 0, 0, 0, 19, 3, 0, 0, 0, 31, 7, 13, 6, 0, 0, 0, 0, 0, 0, 33, 0, 0, 0, 0, 0, 0, 18
|0, 36, 0, 0, 0, 0, 32, 0, 0, 0, 25, 21, 31, 14, 22, 26, 0, 0, 0, 12, 0, 35, 0, 4, 0, 8, 0, 2, 0, 7, 9, 3, 27, 0, 0, 0
|0, 2, 13, 0, 0, 9, 0, 0, 0, 0, 0, 0, 0, 5, 0, 0, 32, 0, 0, 0, 0, 21, 0, 0, 11, 0, 0, 0, 0, 0, 20, 6, 8, 30, 0, 0
|0, 0, 0, 0, 0, 15, 14, 25, 0, 0, 0, 0, 24, 36, 0, 0, 0, 0, 9, 10, 0, 0, 0, 0, 0, 0, 0, 0, 0, 0, 33, 2, 35, 29, 0, 0
|6, 24, 0, 0, 0, 0, 29, 0, 0, 22, 0, 0, 14, 2, 0, 0, 0, 0, 0, 0, 20, 36, 30, 0, 0, 33, 0, 0, 10, 0, 0, 12, 0, 9, 0, 27
|33, 0, 16, 0, 0, 34, 0, 0, 0, 0, 0, 6, 0, 21, 0, 9, 0, 0, 0, 0, 0, 0, 0, 0, 13, 0, 0, 0, 0, 20, 0, 0, 0, 0, 0, 0
|27, 22, 0, 0, 0, 0, 0, 0, 5, 16, 0, 0, 0, 31, 4, 0, 0, 0, 0, 0, 0, 0, 24, 0, 0, 1, 17, 14, 0, 0, 13, 0, 0, 0, 0, 11
|0, 0, 0, 0, 8, 0, 9, 0, 12, 0, 20, 0, 6, 0, 0, 0, 0, 33, 1, 0, 22, 17, 0, 0, 0, 0, 0, 0, 34, 15, 0, 0, 7, 0, 0, 10
|0, 0, 0, 0, 23, 0, 35, 0, 16, 10, 0, 28, 3, 0, 31, 0, 0, 0, 15, 0, 0, 0, 0, 0, 30, 12, 25, 20, 14, 19, 32, 21, 0, 0, 0, 26
|0, 15, 0, 0, 27, 0, 25, 0, 0, 23, 0, 33, 0, 0, 0, 6, 0, 0, 0, 0, 0, 28, 0, 16, 0, 0, 11, 0, 35, 22, 0, 20, 34, 3, 9, 31
|14, 34, 0, 0, 30, 0, 0, 7, 0, 0, 2, 9, 0, 0, 0, 0, 0, 0, 0, 0, 10, 0, 0, 5, 0, 0, 0, 0, 0, 0, 0, 0, 0, 15, 33, 0
|16, 0, 0, 0, 0, 0, 0, 0, 0, 0, 8, 32, 22, 0, 24, 10, 4, 0, 0, 0, 25, 0, 0, 0, 33, 15, 0, 0, 9, 0, 35, 27, 0, 0, 0, 0
|0, 0, 0, 25, 7, 0, 0, 0, 14, 0, 36, 0, 0, 0, 2, 0, 33, 0, 0, 0, 0, 0, 0, 0, 28, 0, 0, 23, 0, 3, 0, 0, 0, 0, 0, 0
|0, 18, 0, 0, 0, 0, 0, 20, 0, 0, 22, 4, 16, 0, 36, 0, 0, 0, 17, 0, 9, 0, 0, 0, 0, 0, 0, 6, 0, 34, 0, 25, 0, 0, 0, 0
|22, 0, 0, 0, 0, 0, 0, 0, 0, 25, 0, 0, 0, 0, 14, 4, 6, 0, 11, 0, 0, 0, 0, 3, 0, 20, 0, 0, 0, 0, 0, 0, 0, 35, 0, 32
|0, 0, 0, 6, 0, 32, 15, 0, 0, 5, 27, 0, 0, 26, 0, 0, 0, 8, 0, 0, 0, 23, 4, 18, 1, 0, 0, 0, 0, 0, 0, 0, 0, 34, 0, 0
|0, 0, 0, 36, 33, 0, 0, 0, 0, 20, 3, 0, 0, 11, 0, 0, 0, 0, 0, 0, 0, 10, 0, 24, 0, 26, 0, 15, 31, 0, 0, 0, 5, 0, 0, 4
|0, 27, 0, 0, 34, 0, 0, 0, 0, 0, 0, 0, 23, 15, 0, 0, 0, 0, 28, 0, 0, 0, 0, 9, 14, 21, 0, 0, 17, 13, 0, 0, 11, 0, 0, 6
|0, 0, 0, 0, 0, 10, 23, 18, 0, 0, 28, 0, 7, 0, 33, 36, 35, 1, 0, 0, 0, 0, 0, 0, 0, 0, 0, 0, 0, 0, 29, 0, 0, 0, 14, 0
|0, 0, 0, 8, 0, 0, 0, 4, 7, 0, 1, 0, 0, 29, 0, 5, 0, 2, 0, 14, 0, 0, 32, 0, 23, 36, 0, 0, 0, 0, 0, 0, 3, 33, 0, 24
|0, 4, 9, 0, 0, 0, 0, 0, 0, 6, 0, 0, 0, 0, 27, 0, 0, 20, 0, 0, 0, 1, 0, 22, 7, 31, 0, 0, 0, 23, 0, 35, 29, 0, 0, 0
|0, 10, 25, 23, 26, 0, 0, 0, 0, 7, 0, 27, 1, 22, 6, 0, 3, 0, 0, 21, 0, 0, 0, 0, 0, 9, 0, 0, 0, 0, 0, 0, 0, 0, 0, 0
|0, 0, 15, 0, 0, 0, 0, 0, 0, 0, 0, 0, 2, 25, 26, 0, 0, 0, 0, 0, 0, 0, 0, 0, 0, 10, 0, 27, 19, 0, 0, 8, 0, 0, 0, 0
|34, 0, 7, 28, 19, 29, 0, 0, 25, 26, 0, 15, 0, 0, 0, 0, 17, 13, 0, 0, 0, 0, 0, 10, 0, 24, 0, 0, 0, 0, 0, 0, 0, 0, 0, 0
|0, 0, 24, 0, 0, 35, 0, 0, 0, 0, 0, 0, 0, 0, 0, 31, 10, 0, 34, 0, 0, 0, 0, 7, 0, 0, 1, 0, 0, 0, 5, 0, 0, 0, 0, 0
|0, 11, 32, 0, 0, 0, 18, 0, 24, 0, 13, 14, 0, 0, 0, 0, 21, 0, 0, 0, 0, 0, 0, 28, 0, 0, 0, 0, 26, 0, 0, 0, 16, 0, 0, 0
|23, 0, 0, 34, 0, 33, 0, 0, 0, 0, 0, 0, 10, 3, 0, 0, 0, 0, 0, 0, 0, 0, 0, 0, 4, 0, 0, 25, 29, 0, 0, 28, 0, 0, 15, 17
|0, 21, 0, 0, 0, 36, 1, 0, 22, 0, 0, 11, 0, 33, 0, 19, 0, 26, 0, 0, 16, 0, 0, 0, 24, 0, 0, 0, 18, 0, 0, 0, 0, 0, 30, 0
|0, 19, 11, 0, 0, 0, 0, 0, 0, 0, 26, 0, 0, 0, 34, 28, 0, 0, 0, 31, 0, 0, 0, 0, 0, 0, 3, 9, 0, 21, 0, 0, 36, 0, 0, 0
|26, 0, 0, 0, 0, 13, 10, 0, 0, 12, 0, 0, 0, 0, 0, 2, 0, 0, 0, 35, 0, 0, 29, 6, 0, 0, 28, 0, 0, 0, 34, 33, 18, 4, 20, 0
|0, 25, 0, 0, 0, 0, 0, 0, 0, 0, 0, 19, 0, 18, 0, 0, 0, 29, 0, 0, 0, 22, 0, 0, 0, 0, 33, 0, 0, 0, 0, 0, 0, 0, 0, 0
|0, 28, 0, 0, 1, 0, 0, 5, 0, 0, 24, 29, 0, 0, 8, 0, 0, 0, 0, 33, 0, 0, 0, 25, 0, 0, 0, 36, 16, 26, 0, 0, 0, 0, 0, 0|];