order = 6;
grid = [|0, 0, 0, 0, 0, 33, 0, 13, 30, 0, 0, 0, 0, 0, 6, 0, 0, 0, 0, 11, 21, 23, 0, 0, 27, 0, 0, 0, 26, 0, 0, 0, 0, 19, 17, 0
|5, 0, 0, 0, 15, 27, 23, 0, 0, 0, 0, 19, 0, 0, 0, 0, 0, 0, 0, 0, 25, 35, 3, 0, 0, 0, 20, 0, 0, 31, 0, 0, 0, 0, 0, 0
|0, 32, 0, 0, 2, 11, 0, 0, 0, 36, 0, 0, 35, 23, 16, 30, 0, 27, 0, 17, 0, 0, 0, 0, 0, 0, 19, 0, 4, 1, 12, 0, 25, 7, 0, 24
|22, 0, 30, 0, 0, 0, 2, 0, 0, 26, 0, 31, 0, 10, 4, 0, 0, 0, 0, 28, 5, 0, 36, 18, 0, 7, 21, 14, 0, 0, 23, 16, 27, 9, 0, 0
|0, 36, 0, 17, 3, 19, 0, 0, 33, 0, 0, 0, 0, 7, 0, 0, 0, 0, 30, 0, 27, 32, 0, 14, 0, 0, 0, 0, 0, 0, 0, 5, 0, 0, 0, 0
|0, 0, 0, 0, 0, 0, 0, 0, 0, 21, 0, 0, 0, 0, 0, 14, 0, 0, 26, 1, 0, 0, 0, 0, 15, 10, 32, 0, 0, 0, 0, 0, 3, 0, 33, 0
|0, 0, 0, 0, 0, 25, 0, 0, 0, 0, 0, 34, 0, 0, 2, 0, 0, 0, 0, 0, 0, 0, 0, 0, 0, 0, 17, 0, 0, 0, 0, 0, 21, 0, 0, 0
|26, 0, 0, 0, 33, 10, 0, 0, 0, 0, 0, 0, 6, 0, 0, 35, 29, 0, 0, 0, 0, 0, 0, 0, 11, 0, 12, 13, 0, 0, 0, 0, 0, 8, 0, 0
|28, 16, 0, 14, 0, 3, 0, 0, 0, 7, 0, 0, 0, 0, 0, 0, 1, 0, 0, 33, 31, 0, 23, 0, 20, 0, 0, 0, 25, 10, 0, 0, 36, 0, 0, 0
|0, 0, 18, 0, 8, 34, 13, 0, 25, 0, 0, 0, 0, 24, 0, 0, 0, 0, 14, 0, 0, 0, 0, 0, 0, 0, 0, 0, 0, 26, 4, 0, 6, 0, 0, 20
|0, 0, 11, 0, 0, 0, 0, 0, 0, 28, 30, 4, 0, 25, 0, 0, 0, 0, 16, 24, 0, 0, 0, 0, 0, 0, 0, 7, 14, 0, 33, 0, 0, 34, 0, 29
|0, 0, 0, 0, 0, 17, 0, 0, 1, 0, 0, 0, 0, 0, 0, 0, 0, 0, 28, 0, 2, 0, 0, 26, 0, 0, 0, 0, 0, 0, 0, 0, 15, 0, 0, 0
|0, 0, 0, 0, 0, 35, 0, 28, 0, 1, 0, 0, 0, 3, 10, 0, 7, 0, 0, 0, 8, 0, 0, 2, 26, 0, 0, 6, 0, 0, 0, 0, 0, 0, 31, 13
|0, 0, 16, 0, 0, 0, 24, 29, 0, 0, 0, 0, 21, 0, 0, 0, 2, 0, 20, 26, 0, 7, 33, 0, 0, 0, 31, 0, 0, 0, 0, 0, 0, 0, 0, 0
|0, 33, 0, 19, 30, 26, 0, 0, 0, 0, 0, 0, 0, 0, 0, 0, 0, 0, 0, 0, 0, 0, 0, 0, 5, 0, 0, 0, 0, 0, 17, 0, 0, 0, 0, 0
|0, 34, 1, 0, 21, 0, 30, 0, 0, 0, 0, 0, 0, 0, 0, 0, 17, 16, 4, 10, 0, 0, 0, 29, 2, 0, 0, 0, 0, 0, 0, 0, 0, 35, 0, 0
|0, 25, 3, 29, 0, 0, 0, 0, 0, 2, 13, 0, 0, 18, 0, 0, 0, 0, 36, 0, 0, 0, 21, 0, 0, 0, 0, 0, 0, 0, 5, 0, 7, 20, 0, 0
|0, 0, 0, 10, 0, 0, 9, 0, 0, 0, 31, 3, 33, 19, 0, 0, 0, 0, 0, 5, 0, 0, 0, 0, 25, 0, 4, 0, 0, 0, 26, 0, 0, 0, 0, 0
|0, 0, 0, 0, 0, 0, 0, 0, 0, 0, 35, 0, 10, 0, 0, 17, 0, 0, 0, 0, 7, 0, 0, 0, 0, 31, 26, 0, 0, 0, 0, 0, 0, 0, 4, 0
|0, 0, 0, 0, 26, 20, 0, 0, 0, 4, 12, 0, 0, 0, 32, 0, 0, 35, 9, 0, 16, 28, 0, 0, 7, 0, 24, 0, 0, 19, 8, 33, 0, 31, 0, 0
|32, 0, 0, 0, 0, 0, 22, 0, 0, 0, 28, 0, 0, 4, 15, 0, 0, 0, 21, 0, 0, 8, 26, 35, 0, 16, 0, 0, 36, 33, 25, 24, 0, 0, 0, 0
|0, 0, 0, 7, 9, 0, 0, 0, 0, 0, 14, 13, 0, 0, 0, 0, 0, 0, 12, 0, 0, 0, 0, 0, 0, 0, 0, 0, 15, 28, 0, 0, 0, 18, 0, 0
|0, 0, 0, 0, 0, 0, 0, 26, 0, 25, 0, 0, 0, 0, 0, 0, 5, 0, 1, 0, 18, 0, 20, 0, 0, 0, 0, 0, 0, 0, 0, 0, 0, 0, 0, 3
|0, 0, 29, 31, 0, 30, 0, 0, 0, 0, 0, 0, 0, 0, 12, 0, 0, 0, 0, 3, 23, 0, 0, 17, 0, 35, 0, 0, 0, 0, 0, 0, 0, 0, 0, 26
|0, 0, 0, 0, 0, 0, 17, 0, 0, 0, 33, 0, 0, 0, 3, 16, 12, 0, 27, 0, 0, 0, 0, 0, 32, 0, 9, 0, 0, 0, 14, 6, 0, 0, 0, 0
|0, 0, 0, 0, 0, 0, 0, 0, 0, 0, 0, 32, 0, 0, 21, 13, 0, 0, 0, 0, 14, 0, 0, 0, 34, 0, 0, 0, 23, 0, 0, 0, 0, 22, 0, 16
|0, 24, 0, 8, 0, 0, 0, 0, 0, 23, 0, 12, 0, 0, 25, 0, 0, 0, 13, 0, 0, 0, 0, 0, 0, 5, 0, 0, 0, 4, 35, 0, 19, 26, 0, 0
|0, 0, 0, 20, 34, 0, 0, 0, 26, 0, 21, 0, 14, 27, 0, 0, 0, 0, 0, 18, 9, 0, 2, 0, 0, 36, 0, 0, 6, 0, 0, 0, 0, 0, 0, 0
|0, 0, 0, 0, 23, 0, 36, 25, 16, 0, 0, 0, 0, 0, 11, 0, 0, 5, 22, 12, 26, 29, 0, 3, 0, 0, 0, 35, 0, 0, 0, 0, 1, 15, 27, 4
|7, 0, 0, 32, 0, 0, 0, 0, 0, 0, 0, 0, 0, 8, 0, 28, 10, 0, 0, 0, 0, 17, 0, 0, 18, 26, 0, 31, 3, 0, 9, 0, 5, 33, 0, 0
|0, 0, 0, 0, 0, 0, 10, 0, 0, 0, 0, 24, 5, 0, 0, 1, 0, 0, 0, 0, 0, 26, 0, 0, 0, 4, 25, 0, 17, 0, 0, 0, 0, 0, 0, 19
|0, 6, 0, 0, 0, 0, 16, 0, 0, 31, 0, 0, 0, 17, 14, 25, 30, 10, 0, 29, 32, 0, 0, 1, 13, 0, 7, 0, 27, 12, 0, 0, 33, 0, 0, 0
|0, 0, 0, 0, 0, 0, 0, 14, 0, 0, 0, 0, 0, 0, 0, 0, 0, 0, 0, 0, 0, 0, 0, 0, 0, 23, 3, 0, 0, 0, 0, 0, 0, 0, 0, 25
|0, 0, 32, 0, 0, 0, 12, 0, 0, 3, 29, 0, 9, 0, 0, 0, 0, 15, 2, 0, 33, 10, 0, 0, 19, 0, 0, 0, 30, 36, 0, 0, 0, 0, 1, 0
|0, 0, 0, 0, 0, 18, 0, 0, 0, 11, 17, 0, 13, 0, 19, 0, 0, 2, 25, 0, 3, 0, 0, 36, 0, 0, 0, 34, 0, 22, 0, 0, 0, 14, 0, 9
|0, 0, 0, 11, 0, 0, 0, 0, 34, 0, 0, 0, 0, 26, 36, 0, 0, 0, 0, 0, 0, 0, 0, 0, 0, 0, 0, 0, 0, 0, 0, 17, 0, 10, 16, 0|];