order = 6;
grid = [|23, 0, 0, 0, 0, 0, 0, 0, 0, 0, 0, 2, 0, 16, 0, 0, 24, 0, 0, 0, 18, 29, 0, 0, 0, 0, 30, 0, 0, 0, 6, 0, 0, 0, 1, 0
|0, 0, 16, 0, 18, 2, 0, 0, 10, 0, 31, 0, 0, 0, 0, 0, 0, 0, 0, 26, 32, 0, 0, 0, 3, 0, 0, 0, 6, 0, 33, 0, 0, 0, 0, 0
|0, 11, 0, 0, 0, 0, 8, 0, 14, 4, 19, 0, 0, 0, 7, 0, 0, 36, 33, 0, 0, 0, 0, 0, 0, 0, 28, 0, 16, 0, 0, 0, 0, 31, 0, 0
|0, 0, 30, 0, 0, 0, 0, 0, 0, 5, 7, 0, 35, 0, 0, 0, 0, 0, 28, 0, 4, 0, 9, 20, 0, 0, 0, 0, 0, 24, 0, 0, 0, 0, 0, 18
|29, 0, 0, 0, 0, 24, 20, 0, 36, 0, 34, 15, 17, 5, 0, 30, 0, 0, 8, 0, 16, 0, 0, 0, 0, 33, 11, 0, 0, 0, 0, 0, 28, 2, 0, 0
|0, 0, 0, 0, 0, 17, 0, 0, 32, 0, 18, 0, 0, 34, 6, 0, 19, 0, 0, 0, 0, 0, 0, 0, 29, 0, 0, 0, 7, 0, 21, 5, 24, 13, 0, 15
|13, 0, 0, 0, 23, 0, 4, 0, 20, 0, 0, 9, 3, 0, 27, 35, 0, 0, 0, 0, 31, 0, 0, 0, 0, 0, 0, 0, 34, 14, 0, 18, 0, 21, 0, 0
|21, 0, 0, 29, 0, 0, 32, 33, 3, 12, 5, 0, 0, 0, 0, 0, 0, 0, 0, 4, 0, 17, 0, 0, 0, 11, 0, 0, 0, 0, 0, 0, 0, 0, 0, 0
|0, 0, 0, 0, 0, 0, 0, 35, 27, 17, 0, 0, 0, 0, 0, 0, 0, 0, 2, 0, 33, 8, 20, 0, 31, 5, 13, 0, 3, 0, 7, 0, 32, 6, 11, 0
|0, 0, 0, 0, 0, 0, 0, 11, 0, 25, 0, 8, 36, 0, 0, 22, 20, 0, 0, 23, 9, 0, 0, 0, 0, 0, 0, 0, 0, 0, 0, 0, 29, 0, 0, 5
|0, 0, 31, 0, 0, 0, 0, 0, 0, 28, 0, 0, 0, 11, 0, 0, 0, 29, 0, 15, 0, 0, 5, 18, 33, 0, 20, 0, 36, 26, 34, 0, 0, 0, 3, 0
|19, 0, 0, 0, 0, 32, 0, 0, 0, 36, 29, 34, 4, 0, 0, 0, 0, 0, 0, 0, 0, 0, 22, 0, 0, 0, 0, 0, 0, 0, 0, 0, 20, 17, 0, 0
|20, 5, 35, 0, 0, 27, 0, 0, 0, 0, 33, 0, 0, 0, 26, 0, 7, 16, 31, 0, 0, 0, 0, 24, 4, 12, 0, 3, 32, 0, 0, 0, 0, 0, 0, 6
|0, 0, 0, 0, 16, 0, 29, 0, 0, 0, 32, 0, 34, 0, 0, 0, 2, 0, 0, 5, 12, 0, 8, 0, 6, 0, 7, 0, 0, 0, 0, 3, 0, 0, 0, 0
|0, 22, 0, 0, 36, 0, 0, 0, 0, 0, 13, 5, 0, 0, 33, 0, 0, 12, 32, 0, 7, 0, 0, 0, 0, 29, 0, 35, 0, 0, 0, 0, 23, 0, 0, 34
|0, 0, 0, 0, 30, 0, 0, 0, 12, 0, 0, 0, 21, 0, 0, 25, 0, 0, 0, 6, 0, 0, 29, 27, 0, 9, 0, 0, 0, 31, 0, 7, 5, 11, 28, 35
|0, 0, 0, 0, 0, 0, 34, 0, 0, 6, 1, 26, 0, 0, 28, 0, 0, 17, 0, 0, 0, 0, 33, 0, 0, 0, 0, 21, 0, 0, 8, 0, 0, 0, 12, 24
|0, 0, 12, 0, 0, 34, 0, 0, 0, 0, 0, 19, 29, 0, 0, 0, 5, 0, 0, 36, 0, 0, 0, 0, 0, 0, 0, 0, 0, 23, 0, 0, 0, 0, 0, 13
|0, 30, 14, 0, 0, 0, 0, 0, 2, 0, 11, 0, 0, 0, 0, 6, 0, 32, 0, 20, 0, 0, 0, 34, 0, 16, 0, 0, 0, 7, 0, 0, 0, 0, 24, 0
|0, 29, 0, 0, 0, 0, 0, 32, 0, 10, 12, 0, 0, 0, 0, 19, 0, 0, 27, 0, 0, 0, 0, 7, 0, 0, 0, 0, 25, 0, 0, 0, 0, 23, 34, 36
|0, 25, 19, 11, 0, 0, 0, 0, 0, 0, 0, 0, 0, 0, 0, 0, 28, 9, 0, 30, 0, 32, 0, 0, 18, 3, 0, 0, 20, 27, 0, 0, 6, 7, 0, 0
|0, 0, 0, 0, 9, 1, 0, 30, 0, 0, 0, 6, 0, 0, 0, 0, 36, 0, 0, 35, 0, 0, 0, 0, 0, 0, 22, 0, 19, 13, 0, 0, 0, 0, 27, 0
|0, 0, 0, 0, 0, 0, 15, 0, 0, 19, 0, 0, 0, 14, 0, 0, 0, 0, 0, 0, 0, 0, 21, 0, 0, 0, 0, 0, 2, 0, 0, 0, 0, 0, 0, 0
|0, 16, 0, 28, 2, 0, 0, 0, 0, 34, 0, 0, 0, 0, 0, 0, 22, 0, 0, 0, 0, 0, 0, 0, 35, 0, 23, 0, 0, 5, 4, 0, 12, 0, 0, 30
|11, 0, 0, 0, 0, 0, 0, 34, 5, 20, 0, 0, 0, 0, 0, 36, 0, 31, 0, 0, 0, 0, 0, 0, 0, 0, 0, 0, 0, 0, 23, 0, 0, 0, 0, 10
|24, 0, 26, 22, 0, 0, 0, 25, 23, 29, 6, 0, 0, 0, 0, 5, 11, 0, 0, 0, 30, 15, 0, 0, 0, 0, 16, 0, 0, 0, 0, 0, 2, 0, 0, 0
|31, 21, 0, 0, 25, 0, 0, 0, 0, 18, 0, 0, 0, 3, 0, 0, 8, 0, 4, 0, 0, 0, 28, 0, 0, 0, 0, 0, 14, 1, 30, 0, 0, 0, 0, 16
|0, 15, 0, 0, 0, 0, 35, 0, 16, 26, 4, 7, 32, 20, 30, 0, 0, 24, 0, 0, 0, 0, 0, 0, 0, 0, 33, 0, 11, 0, 0, 0, 0, 9, 8, 0
|0, 34, 0, 0, 0, 0, 0, 10, 0, 2, 0, 0, 0, 33, 0, 28, 0, 0, 0, 0, 0, 0, 0, 0, 0, 0, 0, 30, 15, 0, 0, 17, 0, 0, 0, 0
|33, 0, 0, 0, 0, 0, 0, 0, 0, 0, 0, 0, 0, 0, 0, 0, 35, 0, 0, 0, 0, 0, 0, 10, 0, 32, 31, 0, 0, 0, 24, 0, 0, 5, 6, 4
|0, 0, 0, 8, 34, 0, 14, 0, 17, 0, 0, 0, 15, 7, 0, 3, 0, 0, 30, 24, 0, 0, 0, 33, 10, 0, 0, 0, 0, 0, 0, 0, 1, 0, 18, 27
|30, 0, 17, 16, 0, 0, 27, 0, 0, 0, 0, 0, 0, 0, 0, 0, 0, 0, 0, 13, 0, 6, 0, 19, 7, 0, 0, 23, 0, 0, 0, 2, 0, 0, 10, 32
|0, 24, 0, 0, 0, 23, 6, 22, 0, 0, 0, 0, 20, 4, 0, 17, 0, 0, 16, 9, 0, 0, 12, 0, 0, 0, 0, 0, 0, 0, 0, 0, 0, 35, 0, 25
|0, 4, 0, 20, 0, 0, 0, 0, 0, 0, 0, 36, 18, 0, 0, 0, 26, 0, 0, 0, 35, 21, 0, 0, 0, 0, 15, 0, 0, 34, 0, 9, 0, 0, 29, 0
|0, 0, 0, 0, 0, 0, 0, 0, 0, 0, 0, 0, 0, 31, 22, 33, 30, 0, 0, 0, 5, 0, 34, 15, 0, 0, 18, 0, 0, 6, 0, 0, 0, 0, 17, 0
|2, 0, 11, 0, 35, 0, 0, 0, 0, 0, 0, 0, 28, 0, 0, 0, 0, 0, 20, 0, 0, 23, 0, 0, 0, 0, 0, 5, 29, 0, 0, 33, 0, 0, 0, 0|];