order = 6;
grid = [|12, 0, 0, 0, 0, 0, 7, 0, 0, 0, 0, 9, 29, 0, 0, 0, 32, 10, 11, 0, 6, 0, 0, 0, 0, 0, 25, 31, 0, 0, 27, 0, 0, 0, 20, 0
|0, 28, 0, 0, 0, 0, 0, 0, 0, 0, 0, 13, 0, 0, 0, 0, 6, 0, 0, 0, 0, 0, 0, 1, 10, 0, 0, 0, 0, 7, 0, 0, 12, 0, 0, 0
|0, 27, 0, 0, 0, 0, 0, 0, 14, 33, 0, 0, 0, 0, 0, 35, 0, 0, 5, 0, 0, 10, 0, 36, 12, 0, 0, 0, 0, 3, 26, 0, 1, 0, 23, 0
|22, 0, 0, 0, 0, 0, 0, 0, 0, 36, 0, 0, 0, 0, 0, 12, 0, 0, 9, 3, 0, 0, 0, 0, 0, 6, 0, 0, 0, 0, 0, 28, 0, 7, 0, 0
|0, 0, 0, 35, 36, 0, 11, 0, 0, 0, 0, 29, 0, 0, 2, 25, 0, 0, 0, 31, 0, 0, 27, 17, 0, 0, 18, 0, 0, 0, 0, 0, 8, 0, 0, 0
|25, 0, 0, 0, 0, 32, 0, 0, 0, 0, 0, 5, 0, 24, 0, 0, 0, 0, 19, 0, 26, 0, 0, 0, 0, 0, 36, 0, 27, 29, 0, 0, 0, 10, 9, 0
|0, 0, 0, 0, 0, 26, 5, 0, 0, 0, 0, 16, 0, 0, 0, 0, 12, 0, 0, 0, 0, 0, 0, 28, 0, 0, 0, 23, 0, 0, 20, 30, 0, 0, 1, 0
|0, 35, 0, 0, 1, 27, 34, 0, 0, 24, 7, 0, 0, 0, 0, 0, 0, 19, 0, 15, 10, 16, 0, 0, 0, 0, 0, 0, 9, 0, 0, 13, 0, 29, 12, 0
|0, 0, 0, 13, 0, 0, 15, 0, 10, 0, 30, 0, 0, 0, 0, 0, 0, 0, 0, 0, 0, 27, 0, 0, 0, 12, 5, 36, 0, 24, 0, 0, 0, 0, 0, 0
|0, 0, 0, 0, 0, 0, 9, 8, 0, 32, 0, 25, 0, 20, 0, 31, 0, 0, 17, 0, 0, 35, 0, 22, 1, 0, 0, 0, 16, 0, 0, 0, 0, 0, 0, 26
|0, 0, 32, 6, 0, 0, 0, 0, 0, 22, 0, 0, 0, 7, 11, 0, 29, 0, 24, 0, 18, 0, 30, 3, 0, 0, 0, 26, 0, 0, 0, 0, 0, 8, 0, 0
|0, 10, 0, 0, 0, 0, 2, 11, 0, 0, 0, 1, 0, 0, 0, 34, 0, 0, 0, 0, 32, 0, 0, 0, 0, 0, 0, 0, 0, 0, 0, 0, 0, 0, 0, 0
|17, 6, 0, 0, 0, 0, 0, 22, 0, 0, 0, 0, 0, 0, 1, 0, 36, 4, 0, 0, 0, 0, 32, 0, 0, 0, 0, 0, 15, 0, 0, 29, 0, 0, 0, 8
|11, 0, 20, 0, 15, 0, 0, 0, 0, 8, 0, 0, 32, 22, 0, 0, 0, 0, 13, 18, 1, 0, 0, 0, 0, 0, 3, 19, 14, 0, 24, 21, 0, 23, 0, 0
|0, 0, 0, 0, 0, 0, 0, 0, 0, 0, 0, 0, 0, 14, 0, 21, 0, 0, 22, 0, 20, 26, 3, 31, 36, 0, 11, 0, 0, 0, 0, 25, 0, 0, 0, 13
|34, 0, 0, 0, 2, 0, 0, 0, 28, 0, 0, 0, 0, 0, 0, 0, 11, 0, 0, 33, 0, 0, 9, 0, 0, 25, 0, 0, 0, 17, 0, 0, 0, 0, 0, 0
|0, 0, 27, 0, 0, 0, 0, 0, 0, 0, 0, 0, 0, 0, 0, 7, 0, 0, 28, 0, 0, 0, 0, 0, 0, 29, 32, 18, 0, 0, 0, 0, 0, 0, 0, 0
|19, 0, 3, 0, 0, 7, 0, 32, 0, 23, 0, 24, 0, 0, 0, 0, 0, 0, 0, 0, 0, 0, 0, 16, 0, 20, 0, 27, 0, 9, 0, 0, 0, 0, 10, 0
|0, 33, 0, 5, 0, 0, 0, 19, 15, 0, 17, 18, 0, 0, 0, 0, 0, 0, 1, 0, 0, 0, 0, 23, 0, 0, 34, 0, 0, 35, 0, 10, 26, 0, 22, 0
|20, 8, 24, 0, 0, 34, 0, 0, 0, 0, 0, 10, 0, 0, 0, 29, 0, 0, 0, 0, 0, 0, 0, 13, 0, 0, 0, 0, 0, 0, 12, 0, 0, 0, 0, 0
|0, 0, 0, 0, 19, 0, 0, 0, 0, 25, 0, 12, 0, 0, 0, 0, 33, 17, 0, 0, 0, 24, 10, 0, 0, 27, 6, 0, 0, 0, 0, 0, 0, 0, 2, 0
|30, 0, 0, 0, 0, 0, 0, 6, 7, 0, 9, 11, 0, 0, 0, 0, 0, 0, 0, 28, 36, 20, 16, 0, 0, 0, 0, 17, 0, 0, 18, 0, 0, 0, 33, 0
|35, 0, 29, 0, 0, 0, 0, 0, 0, 0, 0, 0, 4, 0, 0, 0, 0, 0, 0, 0, 0, 0, 15, 0, 0, 0, 0, 0, 0, 0, 0, 0, 0, 0, 0, 0
|0, 0, 0, 0, 0, 0, 28, 3, 0, 0, 0, 0, 0, 34, 0, 0, 15, 0, 0, 0, 2, 0, 22, 19, 30, 0, 0, 0, 0, 0, 0, 0, 16, 0, 0, 0
|0, 0, 0, 1, 0, 0, 30, 0, 0, 0, 0, 0, 0, 31, 0, 0, 23, 12, 0, 4, 0, 0, 11, 25, 0, 0, 21, 0, 0, 0, 0, 15, 0, 0, 36, 0
|0, 7, 0, 20, 0, 0, 0, 0, 6, 31, 0, 0, 0, 0, 0, 27, 0, 0, 0, 0, 14, 0, 0, 2, 9, 0, 16, 30, 36, 32, 0, 0, 11, 0, 0, 12
|26, 17, 0, 0, 0, 0, 0, 10, 0, 0, 19, 0, 1, 0, 0, 32, 3, 36, 0, 0, 9, 0, 18, 0, 0, 0, 8, 0, 0, 6, 0, 27, 0, 33, 0, 0
|27, 0, 0, 0, 9, 0, 0, 0, 25, 0, 0, 14, 0, 0, 0, 0, 0, 0, 0, 0, 0, 17, 0, 0, 15, 0, 0, 0, 0, 2, 22, 0, 0, 0, 5, 0
|0, 0, 0, 0, 34, 0, 0, 0, 1, 0, 0, 32, 0, 0, 16, 4, 0, 0, 0, 0, 0, 0, 12, 0, 22, 35, 0, 3, 0, 0, 0, 14, 31, 0, 0, 19
|0, 3, 0, 0, 0, 0, 33, 29, 22, 12, 4, 0, 0, 0, 0, 5, 0, 0, 0, 0, 0, 0, 0, 0, 0, 0, 1, 0, 25, 0, 0, 20, 0, 17, 0, 23
|0, 0, 4, 0, 17, 10, 8, 0, 0, 5, 0, 0, 0, 0, 0, 33, 0, 30, 0, 0, 0, 0, 0, 0, 18, 0, 0, 0, 0, 0, 0, 22, 0, 0, 0, 0
|0, 0, 9, 0, 0, 3, 22, 0, 0, 0, 0, 26, 7, 4, 0, 0, 0, 0, 14, 0, 24, 0, 0, 0, 25, 0, 0, 0, 0, 0, 0, 5, 0, 0, 0, 0
|0, 0, 1, 0, 7, 0, 0, 0, 0, 15, 24, 0, 0, 5, 23, 0, 0, 35, 6, 0, 0, 28, 0, 0, 3, 4, 0, 14, 31, 0, 0, 0, 0, 27, 0, 10
|0, 0, 0, 30, 0, 0, 4, 7, 0, 9, 0, 0, 22, 0, 17, 0, 0, 0, 10, 0, 0, 0, 0, 21, 16, 11, 0, 0, 13, 34, 0, 0, 0, 31, 0, 0
|0, 0, 0, 29, 0, 18, 0, 2, 0, 0, 0, 30, 0, 0, 3, 16, 0, 0, 26, 0, 0, 13, 0, 0, 32, 0, 0, 0, 0, 0, 33, 9, 19, 0, 0, 34
|0, 0, 0, 0, 0, 0, 3, 0, 0, 29, 0, 28, 0, 0, 0, 1, 0, 24, 0, 0, 0, 0, 0, 30, 26, 0, 35, 15, 0, 0, 8, 0, 7, 16, 0, 0|];