order = 6;
grid = [|0, 10, 8, 0, 0, 16, 7, 0, 0, 0, 3, 0, 33, 11, 2, 0, 0, 12, 0, 0, 31, 0, 0, 0, 0, 26, 29, 5, 0, 0, 0, 14, 0, 0, 0, 0
|0, 0, 0, 15, 0, 0, 0, 0, 32, 0, 10, 0, 0, 0, 20, 0, 0, 0, 0, 0, 0, 0, 0, 0, 27, 18, 0, 0, 0, 9, 0, 0, 12, 0, 0, 0
|0, 0, 33, 29, 0, 2, 0, 0, 0, 14, 31, 0, 0, 0, 23, 0, 0, 0, 12, 0, 0, 0, 0, 34, 15, 0, 0, 0, 6, 28, 4, 0, 0, 36, 0, 0
|9, 0, 0, 0, 0, 22, 13, 0, 0, 0, 0, 5, 0, 0, 0, 0, 0, 36, 0, 4, 2, 0, 0, 28, 0, 30, 0, 0, 0, 33, 0, 0, 0, 0, 0, 11
|0, 0, 0, 1, 23, 34, 0, 33, 0, 17, 0, 0, 3, 28, 0, 0, 0, 0, 0, 27, 0, 11, 0, 0, 14, 0, 0, 0, 0, 24, 0, 29, 0, 18, 0, 22
|13, 0, 0, 0, 0, 0, 0, 0, 0, 29, 18, 4, 6, 0, 24, 0, 0, 0, 0, 0, 22, 20, 0, 0, 36, 0, 0, 11, 0, 0, 0, 0, 0, 0, 34, 31
|3, 0, 0, 0, 0, 0, 0, 0, 0, 0, 0, 0, 0, 0, 29, 0, 15, 16, 2, 17, 0, 0, 31, 0, 0, 35, 0, 0, 0, 0, 0, 0, 0, 0, 0, 28
|0, 28, 0, 0, 19, 35, 0, 0, 0, 0, 0, 12, 0, 23, 36, 5, 0, 0, 0, 18, 0, 0, 0, 25, 0, 0, 9, 0, 0, 0, 0, 20, 24, 16, 0, 0
|8, 0, 0, 0, 0, 27, 0, 0, 10, 30, 0, 0, 0, 35, 0, 0, 34, 0, 23, 6, 0, 9, 15, 0, 0, 0, 0, 0, 16, 0, 0, 0, 11, 0, 12, 25
|0, 11, 0, 0, 0, 0, 0, 4, 0, 0, 19, 0, 9, 0, 0, 0, 21, 0, 0, 0, 35, 30, 0, 0, 0, 0, 0, 34, 0, 0, 6, 0, 0, 17, 0, 0
|0, 16, 0, 0, 0, 0, 8, 0, 0, 0, 0, 0, 0, 10, 30, 0, 33, 0, 0, 20, 0, 0, 1, 29, 0, 6, 0, 28, 5, 0, 27, 0, 0, 0, 35, 21
|0, 0, 0, 2, 34, 0, 0, 0, 0, 27, 0, 36, 0, 0, 28, 11, 0, 1, 0, 22, 0, 0, 0, 0, 0, 0, 0, 0, 33, 0, 0, 0, 0, 31, 13, 0
|0, 13, 0, 0, 0, 20, 0, 0, 0, 0, 0, 0, 0, 9, 0, 0, 24, 11, 7, 0, 0, 0, 0, 0, 0, 0, 0, 0, 0, 0, 0, 3, 0, 0, 0, 0
|0, 0, 30, 0, 11, 29, 12, 0, 18, 0, 0, 33, 0, 0, 0, 7, 26, 0, 9, 0, 0, 0, 0, 16, 25, 0, 34, 0, 0, 0, 0, 0, 0, 0, 0, 0
|0, 2, 3, 19, 0, 0, 25, 8, 21, 5, 0, 0, 0, 0, 13, 16, 0, 0, 0, 29, 12, 0, 0, 0, 6, 17, 0, 0, 35, 0, 11, 0, 31, 9, 0, 0
|0, 0, 0, 0, 0, 0, 19, 11, 0, 32, 9, 0, 0, 0, 0, 23, 0, 6, 0, 0, 15, 24, 0, 31, 0, 4, 30, 0, 0, 0, 35, 8, 0, 20, 36, 0
|0, 34, 0, 0, 0, 0, 2, 14, 13, 0, 1, 0, 0, 0, 0, 36, 28, 0, 6, 3, 25, 35, 0, 0, 0, 0, 0, 0, 10, 0, 0, 0, 0, 26, 4, 0
|0, 0, 0, 0, 12, 0, 0, 30, 0, 20, 27, 0, 0, 25, 0, 0, 0, 0, 11, 10, 0, 0, 0, 0, 16, 0, 0, 0, 0, 0, 34, 0, 0, 1, 0, 6
|0, 0, 25, 0, 0, 33, 0, 0, 0, 0, 0, 0, 0, 0, 21, 0, 0, 0, 32, 0, 34, 0, 36, 0, 0, 0, 0, 7, 0, 0, 0, 0, 0, 0, 11, 30
|0, 0, 0, 0, 0, 3, 0, 0, 0, 0, 0, 0, 13, 36, 14, 0, 0, 0, 0, 0, 0, 0, 2, 0, 0, 1, 0, 0, 0, 0, 19, 0, 35, 4, 8, 0
|2, 0, 4, 0, 0, 0, 3, 17, 0, 7, 0, 18, 0, 0, 0, 0, 0, 0, 0, 0, 0, 0, 0, 0, 0, 0, 8, 0, 0, 29, 0, 0, 0, 0, 0, 0
|0, 0, 0, 0, 0, 19, 0, 6, 0, 0, 0, 13, 0, 0, 26, 25, 17, 0, 0, 0, 0, 0, 0, 30, 2, 0, 21, 0, 3, 0, 32, 0, 0, 0, 0, 36
|0, 0, 0, 0, 0, 0, 30, 36, 5, 0, 4, 0, 0, 0, 0, 1, 0, 0, 15, 0, 0, 27, 19, 14, 0, 24, 0, 0, 0, 34, 0, 0, 0, 29, 0, 0
|0, 0, 0, 7, 0, 0, 0, 0, 8, 0, 0, 0, 0, 30, 0, 0, 16, 0, 0, 0, 0, 1, 29, 0, 0, 12, 0, 0, 0, 4, 2, 22, 13, 0, 27, 0
|0, 0, 0, 0, 0, 8, 24, 0, 16, 0, 25, 29, 0, 0, 0, 0, 0, 0, 0, 0, 0, 15, 0, 0, 1, 0, 0, 0, 12, 35, 0, 11, 0, 32, 0, 27
|0, 24, 0, 0, 0, 0, 0, 0, 27, 0, 0, 0, 0, 14, 0, 17, 0, 31, 0, 34, 0, 0, 0, 0, 0, 0, 0, 2, 0, 0, 0, 0, 0, 0, 0, 0
|0, 35, 20, 0, 0, 0, 0, 0, 0, 0, 8, 0, 16, 0, 0, 0, 0, 0, 36, 9, 6, 2, 0, 0, 0, 0, 0, 24, 0, 23, 7, 31, 34, 0, 0, 0
|27, 9, 11, 0, 0, 23, 0, 34, 17, 0, 0, 0, 0, 0, 0, 0, 0, 29, 0, 0, 0, 19, 0, 0, 28, 0, 0, 15, 0, 22, 0, 35, 30, 0, 0, 2
|31, 0, 0, 10, 0, 0, 0, 0, 0, 0, 0, 3, 0, 0, 0, 0, 0, 0, 0, 0, 0, 0, 0, 0, 0, 0, 0, 0, 19, 0, 0, 0, 0, 0, 0, 0
|0, 0, 29, 18, 0, 0, 36, 21, 19, 0, 0, 0, 24, 0, 0, 0, 0, 34, 0, 14, 0, 26, 0, 0, 0, 7, 0, 0, 0, 0, 22, 0, 0, 5, 23, 0
|0, 27, 19, 34, 0, 0, 0, 0, 0, 0, 0, 31, 0, 12, 0, 0, 0, 0, 0, 0, 0, 3, 26, 0, 10, 14, 0, 29, 0, 0, 0, 0, 0, 0, 15, 35
|28, 17, 2, 0, 0, 0, 0, 0, 0, 0, 0, 0, 0, 26, 0, 10, 0, 0, 0, 0, 20, 0, 0, 0, 22, 11, 0, 0, 0, 0, 0, 0, 27, 0, 31, 0
|0, 0, 13, 0, 0, 0, 0, 0, 0, 21, 0, 0, 0, 0, 0, 0, 36, 17, 0, 12, 0, 28, 0, 0, 0, 0, 24, 0, 31, 15, 16, 0, 0, 0, 22, 0
|0, 0, 0, 0, 0, 36, 0, 0, 0, 0, 0, 0, 0, 0, 0, 0, 0, 27, 0, 15, 0, 0, 0, 0, 7, 28, 16, 0, 0, 2, 0, 0, 0, 0, 0, 34
|0, 22, 0, 35, 0, 7, 0, 0, 0, 0, 0, 0, 0, 0, 0, 32, 0, 0, 0, 0, 0, 0, 0, 27, 0, 0, 0, 21, 0, 0, 0, 18, 0, 11, 20, 0
|10, 30, 0, 0, 0, 0, 17, 1, 3, 0, 0, 0, 0, 0, 0, 21, 5, 0, 0, 0, 0, 34, 0, 0, 23, 27, 0, 0, 0, 0, 0, 0, 0, 28, 0, 0|];