order = 6;
grid = [|0, 0, 0, 0, 21, 0, 0, 0, 0, 0, 8, 14, 0, 0, 0, 32, 0, 0, 23, 0, 0, 11, 2, 0, 0, 0, 18, 0, 1, 27, 0, 0, 0, 0, 0, 0
|10, 0, 0, 36, 34, 0, 0, 0, 0, 0, 0, 0, 0, 0, 0, 0, 3, 0, 0, 0, 0, 0, 19, 0, 0, 14, 2, 0, 0, 0, 0, 0, 0, 0, 0, 0
|24, 30, 3, 0, 0, 0, 0, 0, 0, 27, 0, 0, 0, 1, 34, 16, 0, 0, 0, 0, 0, 31, 0, 18, 0, 13, 0, 12, 0, 19, 0, 0, 0, 0, 26, 0
|0, 0, 0, 7, 0, 0, 0, 0, 0, 0, 0, 0, 21, 0, 0, 0, 0, 0, 0, 24, 13, 36, 27, 0, 26, 0, 0, 0, 0, 0, 29, 0, 6, 0, 0, 0
|0, 0, 22, 27, 0, 0, 31, 30, 15, 0, 0, 0, 0, 13, 0, 4, 0, 0, 0, 0, 0, 0, 35, 0, 0, 0, 0, 0, 0, 24, 0, 0, 14, 0, 0, 3
|11, 0, 2, 31, 29, 0, 0, 22, 3, 0, 13, 4, 0, 0, 0, 18, 19, 0, 0, 30, 0, 0, 0, 0, 0, 5, 0, 32, 0, 0, 0, 0, 0, 0, 0, 0
|0, 0, 0, 0, 0, 0, 0, 0, 0, 22, 12, 0, 0, 0, 0, 0, 0, 0, 0, 0, 4, 0, 0, 0, 0, 30, 0, 0, 0, 0, 20, 14, 34, 0, 0, 0
|0, 0, 0, 28, 0, 0, 0, 0, 8, 0, 0, 0, 0, 0, 33, 13, 24, 0, 0, 0, 0, 0, 17, 30, 0, 0, 0, 19, 2, 0, 0, 0, 0, 0, 0, 0
|0, 0, 14, 0, 33, 0, 34, 20, 0, 25, 0, 0, 0, 17, 0, 0, 0, 0, 0, 0, 0, 22, 0, 0, 0, 0, 0, 0, 0, 0, 36, 0, 0, 26, 8, 0
|0, 6, 0, 17, 18, 0, 0, 0, 0, 0, 0, 0, 0, 0, 0, 0, 0, 0, 11, 0, 0, 0, 0, 0, 14, 0, 0, 0, 0, 0, 32, 0, 0, 0, 0, 0
|22, 0, 8, 0, 20, 25, 0, 0, 0, 0, 0, 0, 0, 0, 0, 0, 18, 0, 0, 36, 23, 0, 0, 0, 0, 0, 10, 26, 0, 0, 0, 0, 35, 0, 0, 31
|0, 16, 0, 0, 0, 0, 5, 26, 14, 0, 0, 28, 0, 21, 20, 0, 0, 0, 8, 0, 0, 0, 25, 10, 35, 0, 0, 0, 0, 18, 0, 0, 17, 0, 33, 9
|0, 22, 4, 0, 0, 0, 0, 31, 21, 0, 0, 32, 0, 0, 0, 0, 27, 0, 18, 0, 0, 0, 0, 0, 0, 0, 0, 0, 0, 0, 0, 0, 0, 0, 0, 0
|0, 0, 0, 0, 36, 0, 0, 0, 34, 0, 0, 1, 0, 0, 0, 7, 0, 29, 10, 25, 0, 5, 0, 0, 0, 0, 0, 4, 27, 0, 0, 0, 31, 18, 0, 0
|6, 0, 0, 24, 10, 0, 18, 0, 0, 0, 0, 0, 0, 0, 0, 0, 0, 0, 16, 2, 0, 0, 0, 0, 0, 21, 0, 0, 19, 14, 0, 29, 0, 32, 17, 0
|0, 7, 0, 20, 0, 0, 0, 0, 0, 0, 24, 30, 17, 0, 35, 0, 0, 0, 0, 0, 0, 0, 1, 0, 0, 0, 0, 0, 0, 0, 15, 25, 3, 28, 0, 0
|31, 21, 0, 0, 0, 0, 0, 9, 0, 0, 0, 0, 23, 0, 0, 0, 14, 0, 0, 0, 33, 0, 8, 0, 25, 7, 0, 24, 3, 0, 35, 0, 0, 0, 0, 19
|27, 17, 15, 0, 0, 0, 0, 0, 0, 36, 19, 0, 0, 0, 0, 0, 0, 0, 0, 0, 0, 0, 3, 21, 31, 0, 0, 0, 0, 32, 0, 0, 0, 13, 0, 0
|0, 0, 0, 26, 0, 0, 0, 25, 12, 0, 10, 0, 0, 2, 0, 27, 0, 0, 4, 0, 0, 0, 0, 0, 0, 9, 32, 0, 33, 0, 0, 5, 36, 0, 0, 0
|0, 34, 21, 0, 0, 0, 0, 0, 20, 15, 2, 0, 0, 0, 0, 33, 0, 0, 0, 0, 0, 0, 22, 0, 24, 8, 0, 23, 0, 5, 0, 35, 0, 0, 0, 0
|0, 0, 0, 0, 31, 0, 0, 0, 28, 0, 0, 0, 0, 34, 12, 0, 0, 11, 0, 0, 9, 0, 0, 0, 0, 0, 0, 2, 0, 0, 0, 0, 0, 21, 20, 0
|0, 0, 0, 0, 22, 1, 19, 7, 9, 0, 5, 0, 0, 3, 0, 0, 10, 0, 0, 0, 0, 0, 0, 6, 18, 0, 0, 0, 0, 31, 0, 11, 0, 0, 0, 2
|0, 0, 0, 0, 15, 0, 0, 0, 0, 0, 27, 0, 0, 0, 22, 20, 0, 0, 21, 0, 31, 0, 0, 0, 0, 25, 0, 0, 0, 0, 9, 0, 0, 0, 0, 0
|0, 36, 17, 25, 2, 0, 0, 33, 0, 0, 4, 0, 0, 32, 0, 0, 0, 0, 0, 0, 0, 35, 0, 0, 0, 0, 0, 0, 34, 26, 0, 0, 1, 0, 0, 0
|0, 0, 0, 0, 0, 0, 0, 0, 0, 0, 0, 0, 0, 0, 0, 14, 21, 3, 0, 0, 0, 0, 30, 0, 0, 0, 15, 16, 0, 28, 2, 0, 0, 0, 0, 0
|0, 0, 0, 0, 0, 7, 0, 0, 0, 0, 0, 0, 0, 0, 0, 0, 16, 0, 0, 33, 0, 0, 0, 0, 0, 1, 0, 35, 0, 0, 0, 0, 0, 0, 0, 0
|13, 0, 28, 29, 25, 0, 0, 0, 0, 0, 0, 0, 0, 0, 0, 0, 1, 35, 0, 0, 0, 26, 0, 0, 0, 0, 0, 0, 0, 0, 4, 0, 0, 0, 0, 0
|2, 31, 0, 0, 3, 11, 0, 0, 0, 20, 0, 0, 0, 33, 0, 36, 32, 12, 0, 0, 0, 17, 16, 14, 0, 0, 0, 6, 0, 0, 27, 23, 30, 0, 0, 15
|0, 20, 0, 35, 0, 0, 0, 0, 0, 28, 0, 0, 0, 29, 26, 11, 2, 0, 36, 0, 0, 0, 0, 0, 0, 0, 0, 0, 0, 0, 0, 0, 0, 33, 0, 1
|0, 0, 0, 0, 0, 4, 0, 29, 23, 35, 0, 17, 0, 18, 0, 30, 0, 19, 0, 0, 0, 0, 0, 0, 0, 12, 25, 31, 0, 0, 0, 0, 26, 0, 0, 0
|15, 35, 31, 0, 0, 0, 0, 0, 0, 0, 0, 0, 0, 26, 25, 0, 34, 0, 0, 6, 0, 29, 0, 0, 0, 0, 0, 0, 0, 3, 0, 0, 20, 0, 0, 0
|0, 14, 23, 10, 24, 27, 0, 0, 0, 0, 3, 0, 30, 31, 0, 0, 22, 16, 0, 0, 0, 20, 0, 36, 32, 26, 0, 0, 0, 15, 17, 1, 9, 4, 0, 6
|0, 0, 0, 0, 0, 36, 0, 0, 32, 0, 0, 20, 0, 0, 0, 24, 0, 9, 19, 0, 2, 0, 0, 5, 0, 16, 17, 7, 14, 0, 0, 0, 0, 0, 15, 0
|0, 0, 9, 0, 0, 28, 0, 0, 0, 10, 0, 34, 0, 0, 0, 0, 0, 0, 0, 0, 0, 0, 0, 31, 0, 0, 0, 29, 23, 0, 18, 0, 0, 19, 0, 14
|18, 0, 0, 0, 0, 0, 0, 0, 0, 0, 21, 0, 14, 0, 0, 0, 7, 13, 9, 0, 24, 0, 33, 8, 0, 2, 0, 0, 6, 36, 0, 0, 0, 0, 0, 0
|17, 0, 0, 0, 0, 0, 0, 0, 0, 0, 0, 0, 35, 15, 0, 0, 0, 0, 0, 0, 1, 30, 0, 12, 33, 0, 0, 0, 0, 0, 0, 0, 2, 8, 36, 0|];