order = 6;
grid = [|27, 0, 0, 0, 12, 0, 0, 0, 0, 15, 0, 0, 0, 0, 0, 0, 0, 0, 0, 0, 0, 0, 0, 0, 9, 0, 5, 0, 0, 0, 18, 0, 0, 0, 22, 0
|1, 0, 13, 0, 0, 0, 22, 6, 0, 26, 0, 10, 0, 0, 0, 25, 0, 0, 0, 0, 18, 0, 0, 0, 0, 0, 33, 0, 14, 0, 0, 0, 17, 0, 0, 0
|10, 14, 0, 0, 5, 0, 2, 8, 0, 0, 32, 7, 30, 0, 0, 0, 6, 0, 0, 0, 34, 0, 0, 25, 0, 1, 0, 0, 0, 36, 24, 0, 33, 0, 19, 16
|0, 30, 0, 0, 0, 0, 14, 0, 20, 0, 4, 27, 0, 33, 0, 0, 0, 0, 0, 0, 0, 0, 0, 7, 8, 0, 0, 0, 0, 0, 0, 13, 0, 10, 0, 0
|0, 0, 24, 0, 0, 0, 0, 0, 0, 3, 0, 0, 0, 4, 26, 31, 12, 0, 0, 16, 0, 0, 0, 0, 19, 0, 0, 10, 22, 27, 0, 0, 0, 0, 0, 1
|0, 0, 0, 28, 0, 0, 0, 0, 0, 25, 12, 0, 0, 36, 14, 0, 0, 0, 30, 10, 0, 0, 22, 0, 0, 0, 0, 0, 0, 0, 0, 0, 0, 9, 0, 0
|15, 0, 0, 0, 0, 0, 0, 0, 0, 0, 25, 0, 0, 6, 0, 0, 0, 0, 0, 0, 0, 0, 27, 0, 17, 0, 0, 0, 0, 26, 30, 0, 0, 0, 0, 0
|0, 0, 0, 0, 27, 0, 0, 0, 0, 0, 0, 0, 0, 0, 0, 0, 0, 0, 0, 0, 0, 0, 0, 0, 0, 0, 0, 0, 0, 0, 0, 0, 0, 0, 0, 33
|0, 19, 35, 5, 0, 0, 3, 0, 30, 0, 0, 0, 0, 0, 0, 0, 0, 0, 0, 4, 0, 0, 26, 0, 0, 0, 0, 0, 0, 25, 7, 18, 0, 1, 16, 0
|0, 10, 0, 0, 0, 0, 32, 0, 27, 0, 2, 0, 15, 0, 9, 0, 0, 0, 0, 1, 24, 0, 0, 0, 0, 0, 0, 0, 6, 0, 0, 0, 0, 0, 0, 0
|0, 0, 9, 0, 18, 25, 0, 15, 0, 21, 0, 28, 0, 0, 0, 0, 0, 0, 34, 0, 0, 0, 30, 0, 24, 0, 0, 0, 0, 0, 0, 0, 23, 0, 0, 6
|0, 0, 0, 0, 0, 24, 0, 1, 0, 0, 0, 0, 36, 0, 18, 0, 0, 11, 25, 21, 0, 0, 0, 0, 20, 0, 9, 0, 12, 0, 0, 0, 0, 0, 0, 0
|29, 0, 4, 0, 0, 0, 1, 19, 6, 18, 0, 0, 2, 0, 0, 0, 22, 0, 13, 0, 0, 0, 0, 0, 0, 0, 0, 0, 0, 0, 0, 0, 0, 30, 0, 0
|0, 0, 0, 0, 21, 3, 17, 0, 0, 2, 33, 0, 0, 30, 0, 12, 0, 25, 0, 11, 0, 0, 0, 0, 0, 0, 0, 34, 0, 0, 0, 4, 0, 28, 0, 0
|0, 0, 0, 0, 0, 0, 10, 21, 8, 0, 16, 0, 0, 9, 15, 0, 0, 0, 0, 0, 0, 0, 0, 0, 7, 3, 0, 0, 0, 0, 0, 29, 22, 0, 0, 0
|34, 0, 0, 9, 0, 0, 0, 27, 0, 0, 22, 20, 0, 0, 0, 4, 31, 0, 0, 2, 0, 0, 5, 17, 6, 0, 0, 18, 0, 29, 16, 0, 0, 0, 7, 0
|0, 0, 0, 7, 22, 0, 34, 0, 0, 35, 0, 0, 0, 0, 0, 0, 0, 0, 12, 6, 33, 29, 25, 0, 0, 30, 0, 16, 0, 8, 0, 26, 0, 0, 14, 0
|16, 0, 0, 0, 0, 0, 0, 12, 0, 29, 3, 0, 0, 18, 32, 0, 0, 0, 0, 0, 0, 7, 0, 0, 0, 19, 0, 14, 0, 0, 0, 0, 20, 5, 0, 0
|32, 0, 0, 0, 0, 0, 0, 0, 0, 0, 19, 11, 0, 0, 0, 0, 0, 6, 36, 0, 0, 0, 0, 0, 13, 0, 0, 35, 0, 24, 0, 0, 0, 0, 15, 0
|0, 0, 0, 4, 0, 29, 35, 0, 0, 0, 0, 0, 0, 0, 36, 19, 25, 0, 28, 13, 6, 0, 9, 0, 0, 0, 0, 0, 30, 0, 33, 0, 0, 0, 0, 21
|0, 0, 0, 24, 0, 0, 0, 13, 26, 0, 0, 0, 0, 0, 27, 0, 28, 0, 0, 0, 22, 30, 20, 0, 0, 0, 7, 0, 23, 0, 0, 9, 11, 32, 0, 0
|0, 0, 0, 0, 0, 10, 0, 4, 0, 9, 0, 0, 26, 12, 17, 0, 13, 0, 0, 0, 0, 0, 0, 0, 0, 0, 0, 0, 0, 0, 22, 0, 28, 0, 0, 0
|0, 0, 0, 0, 0, 0, 0, 0, 0, 0, 6, 0, 24, 34, 0, 0, 0, 0, 21, 0, 0, 0, 0, 3, 0, 32, 0, 0, 0, 0, 0, 0, 0, 26, 0, 0
|0, 0, 7, 0, 9, 26, 23, 0, 18, 0, 0, 0, 31, 0, 4, 0, 0, 0, 0, 0, 0, 10, 19, 0, 0, 0, 0, 22, 0, 21, 0, 0, 0, 0, 0, 0
|0, 0, 0, 0, 15, 0, 0, 0, 0, 0, 11, 0, 0, 0, 31, 8, 0, 27, 0, 0, 0, 0, 0, 0, 0, 34, 0, 29, 0, 0, 0, 24, 0, 0, 0, 0
|0, 22, 0, 0, 0, 0, 31, 0, 0, 24, 0, 0, 0, 0, 16, 0, 36, 0, 0, 0, 0, 0, 0, 5, 0, 4, 14, 0, 0, 0, 25, 0, 0, 0, 0, 0
|0, 17, 16, 29, 0, 0, 0, 0, 0, 0, 0, 0, 0, 0, 0, 0, 0, 0, 0, 0, 36, 0, 0, 10, 0, 0, 0, 0, 0, 0, 0, 0, 0, 0, 8, 0
|0, 0, 0, 0, 0, 0, 26, 0, 12, 0, 0, 0, 29, 22, 0, 0, 32, 0, 0, 0, 4, 0, 31, 28, 33, 24, 17, 0, 0, 9, 0, 16, 0, 0, 0, 30
|0, 0, 0, 0, 0, 5, 0, 0, 0, 0, 0, 16, 17, 0, 30, 9, 0, 10, 0, 0, 29, 0, 0, 0, 0, 0, 0, 2, 0, 1, 31, 12, 0, 33, 0, 26
|28, 27, 0, 0, 0, 0, 0, 0, 0, 0, 23, 0, 0, 0, 0, 0, 0, 0, 35, 0, 0, 0, 0, 30, 0, 0, 0, 0, 8, 16, 0, 0, 0, 0, 0, 20
|22, 0, 26, 0, 31, 0, 0, 0, 0, 8, 0, 0, 19, 0, 0, 0, 0, 30, 0, 18, 0, 0, 0, 0, 1, 0, 0, 0, 0, 0, 0, 0, 0, 21, 0, 0
|25, 3, 33, 0, 0, 0, 0, 26, 0, 23, 0, 0, 14, 21, 0, 0, 0, 0, 0, 22, 0, 0, 0, 15, 0, 29, 0, 0, 35, 0, 2, 36, 0, 18, 0, 32
|0, 16, 0, 14, 24, 0, 0, 0, 0, 0, 0, 0, 0, 0, 0, 0, 0, 0, 0, 0, 10, 0, 21, 2, 0, 13, 0, 32, 0, 0, 9, 6, 0, 4, 0, 11
|0, 0, 0, 0, 29, 0, 7, 2, 5, 0, 0, 0, 0, 0, 0, 0, 11, 0, 0, 0, 30, 0, 0, 34, 21, 16, 24, 6, 26, 28, 12, 0, 0, 0, 0, 0
|0, 12, 0, 0, 0, 0, 27, 32, 0, 0, 0, 0, 0, 0, 0, 0, 3, 20, 0, 29, 0, 0, 1, 0, 0, 10, 0, 0, 0, 0, 34, 0, 26, 8, 33, 0
|5, 11, 0, 0, 35, 0, 0, 0, 0, 0, 30, 0, 0, 0, 0, 34, 0, 0, 0, 9, 0, 26, 0, 0, 22, 15, 23, 7, 0, 20, 0, 31, 0, 13, 0, 0|];