order = 6;
grid = [|0, 0, 0, 0, 0, 0, 0, 0, 0, 34, 0, 0, 6, 14, 0, 31, 0, 0, 0, 0, 9, 0, 0, 0, 0, 0, 0, 0, 0, 0, 26, 4, 0, 0, 0, 0
|0, 0, 0, 19, 0, 26, 0, 0, 20, 0, 0, 0, 0, 0, 34, 0, 0, 0, 0, 6, 0, 0, 0, 25, 28, 0, 17, 0, 0, 0, 35, 0, 29, 0, 0, 0
|0, 0, 0, 0, 11, 27, 16, 0, 24, 1, 0, 0, 0, 29, 25, 28, 0, 32, 15, 4, 0, 33, 0, 12, 0, 0, 0, 0, 0, 3, 0, 0, 0, 17, 0, 0
|21, 0, 0, 0, 0, 0, 0, 0, 0, 10, 0, 29, 0, 0, 5, 0, 0, 0, 0, 23, 0, 0, 0, 0, 0, 9, 0, 12, 4, 34, 0, 0, 0, 0, 0, 0
|0, 0, 0, 0, 17, 0, 0, 28, 0, 0, 0, 8, 10, 0, 0, 0, 0, 23, 0, 0, 27, 11, 0, 3, 36, 0, 0, 2, 26, 35, 0, 20, 9, 15, 0, 21
|0, 0, 12, 0, 6, 34, 0, 0, 0, 32, 0, 0, 19, 0, 0, 9, 0, 0, 10, 0, 21, 0, 0, 0, 0, 0, 0, 0, 11, 0, 0, 0, 25, 23, 5, 0
|36, 0, 0, 0, 0, 0, 28, 0, 0, 5, 12, 0, 0, 8, 14, 0, 0, 0, 25, 30, 0, 0, 0, 0, 0, 0, 0, 16, 0, 0, 0, 24, 0, 20, 0, 9
|0, 0, 0, 0, 0, 0, 3, 31, 0, 4, 36, 0, 0, 12, 0, 0, 0, 0, 0, 13, 10, 0, 0, 0, 11, 0, 0, 0, 0, 29, 0, 33, 0, 14, 0, 0
|0, 0, 0, 0, 4, 0, 0, 0, 0, 0, 0, 0, 0, 0, 30, 0, 6, 3, 0, 0, 0, 0, 0, 0, 0, 20, 0, 35, 28, 0, 0, 0, 0, 18, 8, 0
|0, 0, 0, 0, 29, 0, 0, 8, 0, 0, 0, 0, 0, 0, 2, 0, 0, 0, 0, 5, 0, 0, 0, 0, 0, 0, 0, 9, 0, 0, 0, 1, 0, 0, 15, 0
|0, 0, 0, 6, 0, 0, 0, 22, 0, 0, 0, 0, 0, 0, 0, 0, 0, 20, 0, 0, 0, 28, 0, 0, 14, 36, 0, 0, 0, 0, 19, 0, 0, 0, 0, 0
|0, 0, 21, 0, 0, 0, 25, 32, 0, 0, 0, 0, 22, 19, 0, 0, 7, 13, 0, 12, 31, 1, 0, 17, 0, 0, 0, 0, 0, 6, 0, 16, 0, 0, 0, 0
|0, 29, 0, 0, 0, 0, 0, 15, 0, 28, 0, 0, 23, 0, 0, 11, 27, 0, 26, 0, 0, 0, 0, 0, 0, 0, 8, 0, 0, 0, 0, 0, 0, 31, 0, 0
|0, 0, 0, 0, 0, 2, 0, 0, 0, 0, 0, 26, 0, 0, 0, 16, 19, 5, 11, 0, 0, 31, 0, 1, 0, 0, 29, 7, 0, 0, 0, 0, 15, 27, 10, 0
|16, 26, 0, 0, 0, 0, 0, 0, 0, 0, 0, 4, 0, 0, 0, 0, 0, 0, 36, 0, 0, 0, 0, 0, 0, 0, 0, 32, 0, 31, 0, 23, 0, 0, 0, 0
|0, 0, 0, 0, 0, 11, 0, 0, 0, 3, 0, 31, 0, 0, 0, 0, 8, 0, 0, 25, 0, 0, 9, 14, 0, 0, 0, 0, 6, 0, 0, 0, 0, 21, 0, 19
|12, 15, 0, 0, 0, 0, 0, 0, 0, 0, 27, 0, 24, 0, 0, 4, 0, 31, 33, 3, 0, 0, 0, 29, 0, 0, 0, 0, 0, 0, 0, 0, 0, 0, 0, 0
|0, 0, 7, 0, 0, 0, 0, 25, 0, 24, 0, 12, 2, 0, 28, 0, 0, 1, 0, 0, 0, 0, 27, 0, 0, 0, 0, 13, 0, 21, 11, 0, 0, 26, 0, 29
|18, 10, 5, 23, 21, 0, 0, 0, 4, 0, 0, 0, 0, 0, 0, 0, 32, 25, 28, 0, 14, 0, 0, 0, 0, 0, 0, 6, 0, 15, 0, 0, 34, 0, 35, 30
|0, 0, 0, 0, 0, 35, 0, 24, 0, 0, 0, 0, 13, 0, 0, 12, 28, 0, 0, 0, 0, 10, 0, 0, 2, 27, 4, 23, 0, 30, 29, 21, 0, 0, 7, 0
|0, 0, 0, 0, 12, 0, 14, 9, 8, 0, 1, 0, 30, 0, 21, 0, 0, 7, 0, 0, 0, 0, 0, 0, 0, 0, 0, 0, 20, 0, 0, 0, 0, 0, 11, 3
|0, 0, 0, 0, 0, 33, 0, 0, 0, 0, 0, 0, 0, 34, 0, 0, 0, 0, 12, 0, 0, 0, 5, 0, 24, 0, 0, 1, 29, 0, 0, 0, 4, 0, 25, 0
|6, 0, 0, 0, 0, 0, 0, 0, 0, 0, 0, 0, 0, 0, 31, 2, 0, 0, 0, 0, 11, 13, 0, 0, 0, 0, 0, 0, 0, 7, 0, 0, 12, 0, 0, 0
|0, 0, 9, 0, 31, 0, 0, 0, 0, 0, 0, 0, 0, 0, 0, 33, 0, 19, 29, 0, 0, 32, 7, 4, 12, 0, 0, 17, 0, 10, 6, 0, 0, 0, 0, 26
|0, 36, 0, 0, 0, 0, 0, 0, 14, 8, 0, 0, 26, 0, 0, 27, 0, 0, 0, 0, 24, 30, 34, 0, 6, 2, 12, 0, 33, 20, 0, 19, 35, 0, 4, 0
|29, 35, 14, 4, 2, 0, 0, 0, 31, 22, 0, 0, 0, 0, 0, 15, 0, 0, 0, 33, 0, 0, 0, 32, 0, 0, 0, 0, 0, 5, 0, 0, 24, 0, 0, 0
|30, 0, 0, 0, 3, 23, 0, 0, 27, 12, 0, 0, 5, 0, 0, 0, 0, 0, 0, 0, 0, 0, 22, 0, 0, 0, 0, 0, 0, 16, 0, 0, 17, 0, 0, 2
|0, 0, 20, 0, 26, 0, 0, 0, 0, 0, 0, 0, 33, 31, 19, 0, 0, 0, 18, 27, 36, 0, 0, 5, 0, 0, 0, 0, 24, 0, 0, 0, 0, 0, 0, 0
|17, 0, 0, 0, 34, 0, 0, 0, 36, 0, 4, 0, 0, 0, 0, 0, 0, 0, 0, 0, 0, 2, 0, 0, 0, 0, 0, 0, 14, 0, 0, 0, 0, 0, 0, 0
|0, 24, 0, 0, 0, 0, 0, 0, 0, 2, 0, 0, 0, 0, 0, 0, 0, 0, 6, 0, 0, 0, 0, 0, 0, 0, 13, 0, 0, 0, 5, 0, 16, 0, 0, 0
|0, 0, 0, 0, 24, 0, 0, 0, 0, 25, 0, 0, 32, 0, 36, 0, 0, 0, 0, 31, 0, 0, 0, 13, 0, 0, 0, 0, 0, 23, 0, 11, 0, 16, 0, 0
|23, 0, 0, 0, 0, 6, 0, 0, 0, 0, 0, 0, 0, 13, 0, 19, 20, 0, 30, 0, 8, 0, 0, 9, 0, 0, 0, 0, 0, 0, 10, 0, 0, 0, 29, 31
|0, 0, 0, 12, 0, 0, 0, 19, 0, 0, 6, 0, 0, 27, 10, 0, 0, 0, 14, 0, 35, 0, 0, 0, 0, 25, 24, 0, 0, 36, 0, 0, 26, 0, 0, 0
|0, 0, 4, 30, 0, 31, 0, 0, 0, 0, 9, 5, 15, 0, 0, 25, 0, 0, 0, 0, 0, 36, 0, 22, 29, 26, 0, 11, 0, 0, 0, 6, 0, 0, 21, 0
|27, 0, 11, 25, 0, 0, 30, 0, 0, 0, 0, 0, 0, 0, 0, 29, 0, 8, 0, 0, 23, 0, 0, 0, 0, 0, 0, 0, 3, 0, 0, 17, 0, 24, 0, 0
|0, 0, 8, 15, 36, 0, 0, 0, 0, 26, 0, 0, 35, 0, 22, 1, 0, 0, 0, 29, 18, 0, 0, 0, 33, 0, 0, 0, 0, 0, 13, 0, 28, 0, 0, 5|];