order = 6;
grid = [|6, 12, 0, 23, 0, 0, 0, 29, 0, 0, 0, 0, 0, 26, 0, 0, 0, 2, 0, 0, 0, 0, 0, 0, 1, 5, 13, 0, 28, 14, 0, 30, 22, 0, 0, 8
|0, 0, 7, 20, 16, 0, 0, 0, 0, 0, 0, 0, 0, 0, 0, 1, 0, 29, 28, 0, 0, 0, 2, 0, 0, 0, 0, 0, 11, 0, 0, 0, 0, 0, 0, 0
|0, 0, 0, 32, 0, 10, 0, 0, 8, 0, 0, 0, 0, 0, 0, 0, 0, 0, 0, 36, 21, 0, 0, 23, 30, 27, 0, 0, 0, 0, 0, 0, 0, 0, 0, 0
|0, 22, 0, 0, 0, 0, 31, 0, 16, 0, 0, 0, 0, 8, 0, 13, 0, 18, 35, 0, 17, 0, 0, 0, 29, 0, 7, 0, 0, 0, 0, 0, 0, 0, 0, 23
|0, 13, 28, 0, 0, 8, 6, 5, 0, 0, 7, 0, 0, 0, 0, 0, 0, 19, 0, 0, 0, 0, 14, 11, 18, 0, 0, 0, 0, 0, 9, 0, 0, 21, 0, 0
|14, 0, 0, 0, 17, 9, 21, 0, 0, 0, 0, 0, 0, 0, 0, 5, 7, 0, 18, 0, 0, 0, 0, 0, 0, 0, 3, 22, 16, 0, 0, 0, 0, 0, 27, 6
|0, 8, 0, 21, 4, 36, 0, 0, 0, 17, 0, 0, 0, 0, 0, 0, 0, 15, 0, 0, 20, 0, 0, 0, 0, 0, 0, 0, 0, 0, 0, 0, 10, 18, 0, 31
|28, 0, 0, 0, 0, 0, 0, 4, 9, 0, 8, 0, 0, 32, 0, 0, 0, 35, 11, 33, 0, 7, 0, 0, 0, 0, 0, 0, 0, 0, 0, 0, 0, 0, 24, 25
|0, 1, 9, 24, 0, 0, 0, 0, 13, 0, 18, 32, 0, 12, 0, 0, 33, 0, 0, 10, 0, 0, 22, 0, 0, 0, 0, 0, 0, 0, 0, 0, 0, 0, 0, 0
|0, 16, 0, 0, 0, 0, 30, 7, 0, 0, 0, 10, 18, 0, 26, 0, 0, 25, 13, 1, 0, 0, 0, 27, 0, 0, 0, 0, 31, 0, 0, 0, 17, 0, 0, 0
|0, 30, 0, 0, 0, 0, 0, 0, 0, 0, 31, 0, 0, 0, 0, 10, 0, 0, 0, 0, 0, 5, 0, 0, 0, 32, 0, 0, 15, 0, 0, 0, 9, 33, 3, 7
|0, 0, 0, 27, 0, 0, 0, 1, 22, 0, 0, 0, 0, 0, 0, 0, 0, 20, 0, 0, 0, 0, 35, 0, 0, 0, 0, 0, 0, 0, 0, 19, 15, 0, 0, 0
|0, 19, 11, 0, 32, 0, 0, 14, 25, 29, 0, 0, 0, 0, 10, 28, 0, 8, 0, 0, 0, 26, 0, 0, 0, 0, 0, 0, 4, 0, 0, 0, 0, 0, 36, 9
|0, 0, 0, 0, 0, 0, 0, 0, 0, 0, 0, 8, 0, 0, 0, 0, 0, 0, 0, 0, 0, 0, 0, 0, 33, 0, 0, 35, 0, 0, 11, 17, 31, 0, 23, 0
|1, 0, 20, 0, 23, 5, 0, 0, 0, 19, 0, 0, 0, 27, 0, 0, 0, 0, 2, 0, 7, 0, 0, 0, 0, 0, 0, 0, 0, 36, 6, 0, 0, 0, 18, 0
|0, 0, 18, 0, 0, 0, 0, 31, 0, 27, 0, 0, 0, 0, 2, 0, 25, 0, 19, 0, 0, 12, 0, 0, 34, 0, 0, 0, 3, 0, 16, 0, 0, 0, 0, 0
|0, 35, 14, 0, 0, 0, 0, 6, 0, 20, 0, 0, 0, 15, 0, 0, 23, 1, 8, 13, 33, 0, 0, 16, 0, 0, 0, 0, 0, 0, 0, 0, 0, 0, 10, 0
|0, 29, 0, 0, 33, 0, 9, 0, 0, 0, 36, 0, 11, 4, 0, 0, 0, 13, 0, 21, 0, 35, 0, 0, 0, 0, 20, 0, 0, 26, 7, 25, 14, 0, 0, 0
|26, 0, 0, 0, 0, 0, 0, 0, 2, 0, 0, 0, 0, 30, 0, 0, 0, 0, 0, 25, 0, 0, 0, 8, 0, 0, 0, 0, 6, 0, 0, 0, 0, 0, 29, 0
|0, 15, 0, 0, 0, 0, 26, 0, 0, 0, 16, 14, 2, 17, 0, 0, 0, 23, 7, 0, 0, 33, 0, 0, 13, 0, 19, 0, 0, 28, 0, 0, 36, 0, 0, 32
|34, 0, 0, 0, 22, 0, 0, 17, 0, 21, 0, 0, 0, 0, 0, 0, 0, 0, 0, 18, 19, 0, 0, 29, 0, 0, 0, 0, 0, 5, 0, 0, 0, 0, 30, 20
|32, 0, 16, 0, 0, 14, 0, 0, 0, 0, 0, 0, 0, 0, 0, 0, 0, 0, 0, 0, 0, 4, 0, 0, 36, 21, 34, 11, 0, 0, 23, 0, 33, 26, 0, 19
|0, 7, 10, 5, 0, 0, 0, 0, 31, 0, 20, 36, 0, 0, 0, 0, 0, 0, 0, 17, 0, 0, 34, 24, 0, 22, 0, 4, 0, 0, 15, 0, 0, 8, 0, 0
|0, 0, 0, 0, 0, 0, 0, 0, 0, 22, 0, 5, 0, 33, 20, 0, 0, 0, 15, 0, 0, 0, 0, 0, 31, 0, 0, 0, 0, 0, 14, 4, 7, 0, 0, 0
|20, 0, 0, 12, 36, 0, 0, 0, 0, 0, 10, 0, 0, 0, 0, 34, 0, 0, 0, 29, 18, 32, 0, 0, 21, 0, 22, 27, 7, 0, 0, 16, 19, 0, 0, 26
|0, 0, 0, 0, 9, 0, 23, 0, 35, 36, 11, 0, 0, 16, 0, 0, 18, 27, 0, 12, 0, 0, 0, 0, 0, 0, 5, 0, 0, 0, 0, 22, 0, 24, 0, 0
|0, 0, 0, 0, 0, 0, 0, 30, 0, 26, 0, 0, 0, 0, 0, 4, 2, 0, 16, 0, 36, 0, 0, 0, 0, 12, 0, 0, 19, 0, 0, 7, 21, 0, 0, 0
|23, 32, 0, 0, 2, 35, 12, 0, 0, 0, 0, 0, 0, 22, 0, 20, 10, 6, 0, 11, 0, 25, 0, 19, 0, 30, 33, 0, 0, 0, 18, 0, 0, 0, 15, 0
|0, 3, 0, 0, 0, 0, 5, 0, 0, 0, 0, 0, 0, 31, 0, 0, 0, 0, 0, 4, 27, 0, 0, 0, 0, 0, 0, 0, 23, 0, 0, 0, 34, 0, 2, 0
|18, 0, 0, 0, 26, 0, 1, 0, 0, 0, 0, 0, 0, 0, 7, 0, 12, 0, 0, 0, 15, 0, 30, 0, 0, 0, 2, 20, 0, 3, 0, 0, 8, 4, 9, 0
|0, 0, 26, 0, 14, 0, 24, 0, 0, 0, 0, 27, 0, 6, 0, 0, 19, 34, 25, 0, 0, 0, 0, 0, 0, 0, 0, 0, 0, 0, 0, 0, 3, 0, 0, 0
|0, 0, 21, 0, 0, 0, 0, 0, 1, 0, 0, 35, 0, 0, 0, 0, 0, 0, 0, 0, 13, 17, 5, 0, 32, 0, 11, 29, 0, 0, 0, 23, 0, 0, 0, 0
|0, 0, 0, 0, 5, 33, 14, 20, 0, 8, 2, 0, 0, 0, 0, 0, 0, 0, 0, 0, 0, 0, 0, 34, 26, 25, 28, 0, 0, 12, 0, 32, 0, 0, 0, 0
|16, 0, 0, 0, 0, 0, 0, 0, 0, 0, 22, 25, 0, 3, 0, 0, 0, 7, 0, 23, 0, 0, 8, 18, 0, 0, 24, 10, 21, 0, 0, 9, 11, 0, 0, 0
|0, 11, 0, 0, 0, 0, 0, 12, 0, 0, 0, 0, 28, 0, 0, 0, 32, 0, 0, 0, 0, 0, 0, 0, 0, 0, 35, 0, 0, 0, 0, 24, 0, 0, 0, 33
|35, 0, 22, 0, 0, 0, 28, 11, 0, 0, 0, 0, 0, 20, 21, 0, 0, 0, 12, 0, 0, 1, 27, 0, 0, 0, 0, 0, 36, 2, 0, 0, 26, 0, 4, 0|];