order = 6;
grid = [|0, 24, 11, 0, 0, 0, 10, 7, 0, 0, 0, 36, 0, 0, 0, 0, 6, 0, 26, 0, 0, 0, 0, 0, 9, 0, 0, 0, 0, 0, 0, 0, 0, 0, 21, 3
|0, 0, 33, 0, 0, 1, 0, 0, 0, 26, 0, 0, 0, 0, 17, 29, 4, 0, 0, 0, 0, 0, 0, 0, 0, 0, 12, 31, 0, 0, 16, 0, 0, 0, 0, 20
|9, 0, 0, 0, 0, 17, 14, 20, 0, 16, 6, 0, 0, 0, 30, 0, 22, 28, 1, 0, 0, 36, 0, 19, 0, 0, 0, 24, 0, 35, 0, 0, 0, 0, 0, 5
|0, 0, 0, 0, 0, 0, 0, 0, 0, 0, 0, 0, 0, 0, 0, 2, 0, 11, 6, 0, 0, 0, 9, 24, 0, 25, 0, 0, 0, 3, 0, 0, 0, 0, 0, 0
|28, 0, 12, 0, 0, 0, 0, 0, 0, 0, 29, 35, 24, 0, 0, 0, 0, 0, 0, 0, 4, 0, 7, 0, 0, 20, 0, 0, 0, 0, 0, 0, 0, 0, 0, 0
|32, 0, 0, 0, 0, 0, 0, 0, 0, 0, 0, 9, 33, 0, 0, 18, 0, 0, 0, 12, 0, 0, 0, 8, 0, 27, 0, 6, 0, 0, 0, 0, 24, 0, 0, 0
|0, 0, 0, 0, 0, 0, 0, 0, 0, 0, 0, 0, 0, 0, 0, 6, 0, 26, 21, 0, 0, 27, 0, 34, 0, 0, 20, 0, 0, 0, 0, 0, 0, 0, 0, 0
|0, 0, 19, 0, 0, 6, 0, 0, 0, 0, 0, 17, 0, 0, 0, 0, 0, 36, 0, 0, 0, 0, 0, 0, 8, 0, 24, 0, 0, 13, 1, 0, 22, 30, 23, 0
|0, 0, 30, 0, 0, 0, 0, 0, 31, 10, 0, 7, 0, 29, 18, 0, 0, 8, 28, 20, 0, 15, 0, 0, 4, 0, 0, 0, 0, 0, 0, 0, 0, 0, 0, 24
|17, 0, 0, 0, 16, 36, 23, 0, 35, 21, 14, 26, 0, 0, 15, 0, 0, 0, 0, 0, 0, 0, 0, 0, 0, 19, 0, 0, 0, 0, 0, 0, 0, 0, 2, 0
|0, 2, 5, 0, 0, 0, 6, 0, 0, 0, 13, 0, 0, 35, 20, 0, 0, 0, 0, 9, 0, 0, 0, 0, 0, 0, 0, 22, 0, 0, 0, 33, 0, 19, 8, 0
|13, 8, 0, 0, 0, 0, 0, 0, 19, 0, 0, 0, 0, 0, 0, 31, 28, 0, 0, 6, 0, 0, 5, 0, 1, 36, 0, 30, 12, 0, 20, 9, 0, 0, 32, 0
|0, 0, 1, 0, 0, 0, 0, 0, 0, 0, 0, 0, 0, 0, 0, 0, 21, 0, 18, 0, 0, 0, 0, 0, 0, 0, 0, 0, 0, 0, 0, 26, 0, 0, 0, 0
|0, 9, 26, 0, 0, 0, 0, 17, 0, 0, 0, 0, 0, 0, 7, 0, 0, 0, 0, 16, 0, 0, 0, 0, 0, 8, 0, 0, 22, 0, 30, 0, 18, 0, 0, 0
|0, 0, 0, 0, 0, 0, 0, 0, 0, 0, 0, 0, 0, 0, 0, 0, 0, 6, 35, 0, 21, 22, 0, 20, 0, 0, 0, 0, 0, 0, 0, 0, 2, 0, 13, 0
|0, 0, 28, 0, 0, 0, 1, 0, 0, 0, 0, 0, 0, 12, 0, 0, 10, 0, 0, 0, 15, 26, 0, 0, 23, 0, 0, 25, 0, 32, 17, 0, 0, 6, 11, 0
|0, 23, 21, 0, 0, 0, 26, 0, 14, 0, 10, 32, 18, 17, 8, 28, 13, 0, 0, 19, 0, 0, 0, 6, 20, 0, 36, 0, 0, 1, 0, 0, 5, 0, 0, 22
|0, 0, 0, 0, 7, 0, 0, 35, 0, 0, 34, 0, 0, 0, 4, 26, 0, 0, 33, 0, 32, 11, 0, 0, 5, 0, 0, 2, 0, 0, 0, 0, 0, 0, 0, 0
|0, 30, 0, 36, 14, 0, 0, 0, 32, 24, 0, 0, 0, 0, 26, 0, 0, 0, 15, 0, 35, 16, 0, 1, 0, 0, 0, 4, 0, 10, 0, 20, 25, 0, 7, 17
|0, 0, 0, 0, 0, 8, 0, 1, 0, 0, 0, 0, 16, 0, 0, 35, 0, 13, 34, 0, 27, 0, 0, 0, 0, 0, 0, 0, 0, 0, 23, 5, 0, 0, 0, 32
|0, 35, 34, 0, 0, 0, 0, 0, 0, 9, 11, 0, 2, 10, 0, 0, 0, 0, 0, 21, 0, 0, 0, 0, 0, 0, 0, 0, 0, 0, 4, 0, 0, 14, 0, 0
|0, 26, 0, 0, 17, 22, 0, 0, 0, 5, 0, 0, 0, 0, 0, 0, 7, 0, 0, 0, 0, 0, 14, 0, 24, 0, 27, 1, 28, 0, 0, 2, 0, 11, 0, 0
|19, 7, 32, 5, 4, 0, 25, 0, 0, 2, 18, 0, 0, 0, 1, 21, 0, 20, 0, 0, 0, 0, 0, 9, 0, 0, 6, 36, 13, 0, 0, 30, 0, 31, 0, 0
|0, 0, 23, 0, 0, 9, 0, 26, 7, 0, 28, 12, 0, 0, 0, 0, 0, 34, 0, 18, 0, 0, 20, 0, 35, 0, 0, 0, 0, 17, 0, 0, 0, 21, 0, 16
|0, 0, 22, 13, 0, 28, 0, 3, 29, 19, 0, 0, 0, 0, 0, 0, 0, 0, 0, 0, 0, 0, 0, 0, 0, 0, 35, 0, 0, 24, 0, 1, 27, 0, 0, 0
|0, 0, 0, 0, 0, 0, 18, 23, 0, 0, 0, 0, 0, 0, 0, 15, 0, 0, 0, 0, 0, 0, 0, 0, 29, 28, 0, 0, 0, 7, 0, 0, 0, 22, 0, 0
|0, 31, 0, 3, 15, 0, 0, 0, 0, 12, 0, 0, 19, 20, 0, 0, 0, 0, 0, 0, 0, 35, 0, 11, 36, 26, 22, 13, 30, 0, 0, 0, 21, 0, 0, 0
|0, 0, 0, 0, 0, 0, 35, 25, 0, 0, 0, 0, 28, 32, 0, 0, 0, 17, 0, 0, 9, 0, 0, 29, 0, 14, 5, 0, 0, 0, 0, 8, 0, 0, 12, 13
|0, 32, 7, 0, 0, 10, 24, 0, 0, 0, 0, 0, 0, 6, 31, 9, 0, 0, 27, 0, 0, 19, 8, 28, 2, 0, 15, 11, 0, 0, 0, 29, 0, 0, 0, 33
|0, 0, 0, 9, 27, 25, 0, 0, 0, 0, 0, 5, 0, 0, 0, 0, 26, 0, 0, 0, 0, 0, 22, 0, 10, 0, 0, 0, 0, 0, 0, 36, 0, 17, 3, 11
|0, 0, 0, 0, 2, 0, 0, 15, 0, 0, 0, 0, 0, 0, 0, 0, 0, 0, 0, 0, 20, 0, 0, 0, 0, 33, 0, 0, 0, 0, 0, 0, 12, 0, 0, 0
|18, 20, 0, 0, 22, 16, 0, 0, 27, 17, 21, 0, 0, 0, 36, 0, 29, 0, 0, 0, 7, 0, 0, 0, 13, 0, 25, 0, 0, 0, 0, 0, 3, 0, 0, 4
|11, 0, 0, 21, 0, 0, 0, 2, 0, 0, 25, 0, 0, 0, 0, 0, 5, 0, 12, 0, 0, 34, 0, 16, 0, 0, 0, 0, 0, 0, 0, 22, 33, 20, 17, 0
|0, 0, 0, 35, 0, 0, 0, 36, 0, 0, 0, 3, 0, 0, 0, 11, 16, 0, 31, 26, 0, 0, 0, 0, 27, 0, 0, 21, 0, 20, 0, 7, 0, 25, 0, 1
|0, 15, 0, 0, 0, 33, 0, 0, 4, 0, 0, 0, 0, 0, 9, 0, 0, 1, 0, 0, 0, 32, 0, 0, 31, 2, 23, 0, 0, 0, 21, 0, 0, 0, 27, 0
|0, 0, 6, 0, 1, 3, 0, 18, 12, 0, 0, 0, 0, 0, 0, 13, 24, 0, 22, 28, 0, 4, 0, 0, 0, 0, 17, 29, 0, 0, 0, 0, 0, 0, 0, 0|];