order = 6;
grid = [|7, 13, 0, 0, 4, 0, 0, 0, 0, 0, 0, 17, 0, 0, 26, 0, 0, 27, 0, 0, 10, 24, 12, 0, 33, 0, 5, 0, 0, 0, 21, 0, 19, 0, 0, 0
|0, 0, 0, 0, 10, 12, 24, 0, 0, 0, 0, 0, 0, 0, 0, 0, 0, 0, 0, 0, 0, 0, 0, 36, 0, 0, 14, 0, 0, 3, 0, 0, 0, 25, 0, 31
|0, 0, 0, 0, 0, 21, 0, 0, 2, 0, 0, 0, 0, 0, 0, 0, 0, 22, 0, 0, 0, 0, 0, 17, 0, 0, 24, 0, 0, 0, 0, 12, 0, 0, 0, 0
|0, 0, 34, 0, 1, 0, 0, 0, 0, 0, 14, 0, 32, 0, 29, 11, 0, 0, 20, 0, 0, 8, 0, 3, 25, 0, 0, 0, 0, 0, 9, 0, 0, 5, 0, 30
|0, 0, 11, 0, 0, 0, 0, 0, 3, 0, 0, 6, 28, 0, 0, 0, 0, 1, 35, 0, 0, 0, 0, 0, 30, 0, 0, 0, 0, 0, 0, 0, 36, 0, 17, 0
|0, 0, 0, 0, 32, 14, 0, 8, 0, 0, 20, 0, 19, 2, 0, 0, 0, 0, 0, 0, 25, 0, 0, 0, 9, 0, 17, 11, 21, 1, 0, 0, 0, 26, 0, 0
|21, 0, 0, 0, 36, 0, 0, 23, 0, 0, 0, 0, 0, 24, 31, 0, 25, 0, 0, 0, 0, 0, 0, 0, 0, 0, 10, 0, 0, 0, 26, 0, 6, 0, 3, 0
|0, 0, 0, 0, 0, 33, 0, 18, 0, 0, 1, 0, 0, 0, 0, 0, 0, 13, 0, 30, 0, 0, 0, 16, 0, 0, 0, 0, 0, 0, 0, 25, 0, 0, 12, 0
|0, 0, 20, 0, 0, 0, 0, 15, 7, 16, 3, 0, 1, 0, 0, 0, 0, 0, 0, 2, 0, 0, 0, 23, 0, 0, 25, 0, 0, 4, 0, 30, 0, 0, 0, 0
|0, 3, 0, 0, 30, 0, 0, 17, 0, 0, 0, 34, 0, 0, 4, 0, 0, 0, 0, 0, 0, 21, 0, 0, 6, 7, 0, 0, 0, 23, 0, 33, 27, 0, 32, 29
|0, 26, 0, 0, 16, 4, 0, 0, 35, 0, 0, 0, 0, 23, 28, 2, 0, 12, 0, 0, 0, 19, 5, 0, 13, 21, 0, 3, 0, 0, 0, 0, 0, 0, 0, 0
|0, 9, 0, 0, 0, 0, 0, 28, 0, 0, 0, 25, 0, 0, 0, 0, 0, 0, 0, 0, 3, 35, 6, 0, 0, 0, 0, 0, 16, 0, 0, 0, 0, 0, 0, 0
|0, 0, 0, 4, 0, 34, 0, 30, 0, 2, 0, 0, 0, 0, 0, 29, 0, 15, 0, 0, 0, 0, 3, 0, 0, 0, 0, 0, 20, 0, 25, 0, 0, 0, 0, 36
|0, 8, 33, 22, 14, 0, 0, 0, 0, 0, 0, 0, 3, 0, 0, 0, 0, 0, 0, 0, 28, 4, 0, 12, 0, 0, 0, 13, 5, 26, 0, 0, 0, 0, 29, 0
|18, 0, 0, 0, 0, 0, 14, 0, 0, 17, 15, 0, 0, 0, 0, 0, 0, 2, 22, 16, 0, 0, 20, 8, 0, 0, 0, 36, 0, 0, 0, 0, 34, 0, 0, 0
|0, 0, 10, 0, 0, 9, 0, 0, 0, 22, 0, 21, 0, 0, 13, 12, 0, 0, 15, 33, 0, 0, 0, 0, 0, 18, 32, 0, 0, 0, 7, 0, 14, 0, 0, 0
|31, 0, 0, 0, 0, 25, 0, 0, 0, 12, 28, 0, 0, 22, 0, 1, 0, 0, 0, 5, 0, 0, 0, 0, 0, 0, 16, 0, 0, 0, 0, 0, 0, 32, 0, 15
|0, 30, 0, 0, 29, 0, 10, 0, 0, 0, 0, 4, 25, 0, 35, 18, 5, 0, 0, 9, 34, 0, 14, 0, 0, 0, 22, 24, 0, 0, 17, 0, 0, 0, 0, 0
|14, 0, 26, 0, 0, 0, 0, 0, 0, 0, 0, 0, 0, 0, 0, 0, 9, 0, 24, 0, 0, 0, 0, 18, 0, 0, 6, 1, 0, 0, 0, 0, 0, 0, 0, 0
|0, 21, 12, 0, 27, 0, 25, 0, 0, 0, 8, 14, 18, 0, 5, 0, 0, 0, 36, 19, 0, 7, 16, 0, 0, 0, 20, 17, 0, 0, 0, 0, 9, 2, 35, 10
|0, 4, 0, 0, 0, 0, 7, 0, 22, 26, 0, 0, 0, 0, 0, 20, 0, 0, 0, 0, 0, 0, 0, 0, 0, 14, 0, 0, 0, 0, 1, 0, 0, 0, 0, 19
|0, 0, 0, 0, 0, 24, 28, 0, 0, 0, 0, 0, 0, 0, 0, 0, 12, 0, 0, 0, 8, 14, 0, 0, 0, 0, 3, 29, 0, 0, 0, 7, 0, 16, 0, 0
|0, 0, 30, 0, 0, 0, 0, 4, 27, 0, 10, 0, 0, 0, 33, 0, 0, 0, 0, 6, 0, 0, 13, 0, 0, 0, 7, 26, 0, 0, 0, 0, 0, 0, 0, 0
|23, 32, 0, 0, 0, 0, 0, 2, 0, 0, 0, 0, 0, 36, 19, 10, 0, 0, 34, 4, 0, 3, 0, 0, 0, 35, 0, 0, 0, 0, 31, 0, 0, 0, 13, 0
|0, 0, 0, 0, 0, 0, 0, 0, 0, 0, 16, 0, 27, 13, 0, 24, 2, 14, 0, 25, 11, 15, 4, 0, 0, 3, 0, 0, 0, 0, 0, 0, 32, 0, 36, 0
|0, 0, 0, 0, 0, 0, 0, 0, 0, 8, 0, 0, 10, 7, 20, 0, 36, 0, 3, 0, 0, 0, 0, 0, 24, 0, 30, 14, 0, 34, 0, 29, 2, 13, 0, 0
|0, 14, 0, 10, 3, 5, 30, 32, 19, 25, 0, 2, 0, 0, 0, 0, 0, 0, 0, 0, 0, 0, 0, 0, 0, 28, 0, 0, 0, 0, 0, 0, 0, 0, 18, 0
|0, 12, 0, 7, 9, 0, 31, 13, 0, 5, 0, 0, 34, 0, 17, 0, 22, 0, 14, 1, 2, 0, 0, 0, 8, 0, 27, 0, 25, 32, 0, 3, 0, 0, 26, 0
|0, 0, 24, 0, 0, 32, 0, 0, 0, 34, 0, 0, 0, 0, 0, 0, 0, 0, 0, 0, 0, 6, 28, 0, 23, 1, 0, 0, 0, 0, 0, 27, 25, 0, 0, 0
|20, 0, 0, 0, 0, 0, 23, 7, 28, 0, 0, 0, 0, 0, 0, 0, 0, 30, 21, 0, 24, 0, 27, 0, 0, 0, 0, 0, 0, 0, 0, 0, 0, 0, 0, 0
|15, 7, 0, 16, 0, 0, 0, 0, 0, 0, 27, 0, 0, 14, 8, 0, 0, 0, 19, 0, 0, 0, 0, 0, 0, 0, 0, 0, 35, 0, 23, 2, 0, 0, 6, 0
|0, 0, 0, 0, 0, 30, 33, 31, 0, 0, 0, 0, 0, 0, 0, 0, 0, 0, 16, 0, 0, 0, 10, 0, 0, 0, 0, 6, 0, 21, 0, 13, 0, 0, 0, 0
|12, 0, 0, 31, 23, 0, 0, 0, 6, 0, 0, 0, 5, 0, 0, 0, 16, 0, 0, 0, 0, 0, 0, 0, 0, 2, 0, 0, 0, 0, 0, 0, 1, 0, 0, 4
|0, 0, 0, 0, 0, 0, 0, 0, 0, 32, 11, 0, 0, 0, 2, 0, 0, 0, 0, 0, 0, 1, 0, 6, 0, 34, 0, 0, 0, 0, 0, 10, 35, 0, 0, 0
|0, 5, 0, 0, 17, 0, 0, 0, 0, 0, 2, 1, 0, 0, 0, 6, 0, 0, 0, 26, 0, 22, 0, 0, 0, 0, 12, 0, 23, 0, 32, 11, 0, 33, 0, 0
|0, 6, 0, 0, 33, 2, 0, 0, 0, 0, 0, 0, 24, 0, 0, 0, 0, 0, 0, 13, 23, 0, 0, 30, 0, 0, 9, 0, 0, 0, 0, 0, 0, 0, 19, 0|];