order = 6;
grid = [|0, 13, 0, 0, 0, 0, 0, 4, 0, 25, 10, 0, 7, 30, 0, 35, 0, 0, 0, 0, 23, 0, 0, 0, 20, 0, 0, 0, 22, 0, 12, 19, 0, 0, 0, 0
|19, 0, 0, 23, 0, 0, 0, 0, 0, 14, 0, 0, 0, 0, 20, 0, 0, 0, 10, 0, 0, 12, 0, 0, 0, 0, 0, 0, 4, 0, 0, 26, 0, 21, 0, 0
|0, 0, 2, 0, 21, 0, 0, 0, 0, 34, 0, 0, 0, 0, 0, 29, 0, 0, 0, 0, 1, 0, 0, 17, 26, 0, 28, 19, 0, 0, 0, 0, 32, 0, 0, 0
|29, 0, 3, 7, 0, 0, 0, 17, 0, 32, 0, 0, 0, 0, 8, 0, 0, 0, 0, 0, 0, 9, 0, 25, 0, 36, 0, 0, 0, 0, 0, 0, 0, 0, 0, 0
|0, 0, 22, 0, 0, 0, 0, 35, 0, 0, 21, 2, 0, 17, 0, 0, 0, 27, 11, 0, 0, 0, 0, 0, 0, 0, 15, 0, 0, 0, 0, 0, 0, 0, 0, 0
|0, 0, 0, 0, 1, 0, 0, 0, 0, 0, 0, 0, 0, 0, 0, 0, 0, 0, 0, 0, 0, 0, 21, 0, 0, 0, 0, 0, 0, 25, 0, 20, 0, 0, 0, 0
|0, 0, 14, 19, 0, 0, 0, 0, 25, 0, 0, 0, 28, 0, 0, 0, 0, 6, 24, 35, 0, 0, 0, 9, 0, 1, 34, 36, 0, 0, 0, 0, 0, 0, 0, 4
|0, 3, 0, 0, 0, 0, 9, 0, 0, 0, 0, 0, 14, 0, 0, 0, 32, 0, 0, 33, 0, 0, 10, 4, 7, 0, 0, 0, 0, 0, 0, 0, 0, 0, 0, 19
|0, 0, 27, 2, 0, 0, 0, 0, 5, 0, 7, 0, 0, 0, 29, 18, 0, 1, 0, 0, 0, 36, 17, 22, 0, 0, 30, 4, 14, 0, 33, 9, 21, 0, 23, 0
|0, 0, 4, 0, 18, 29, 28, 0, 16, 0, 26, 0, 0, 0, 0, 0, 0, 0, 0, 0, 0, 0, 0, 0, 22, 0, 0, 6, 0, 0, 0, 31, 0, 0, 0, 0
|0, 0, 8, 0, 0, 13, 0, 0, 0, 0, 0, 0, 0, 0, 0, 17, 0, 4, 0, 26, 30, 7, 29, 0, 0, 0, 23, 33, 18, 0, 0, 6, 0, 0, 0, 0
|0, 0, 0, 0, 23, 0, 0, 0, 11, 0, 0, 12, 16, 0, 21, 0, 35, 8, 0, 0, 0, 0, 0, 1, 0, 25, 0, 0, 0, 0, 0, 7, 0, 0, 0, 36
|31, 24, 0, 0, 0, 0, 0, 0, 0, 0, 0, 0, 0, 0, 0, 25, 0, 0, 18, 0, 0, 0, 11, 0, 17, 0, 0, 22, 0, 0, 0, 0, 0, 0, 26, 0
|0, 0, 0, 16, 0, 0, 0, 0, 7, 0, 0, 22, 0, 1, 4, 9, 6, 0, 0, 19, 0, 0, 14, 0, 0, 35, 0, 0, 0, 0, 0, 0, 13, 0, 0, 12
|0, 0, 0, 0, 0, 0, 0, 24, 29, 17, 0, 0, 0, 12, 0, 2, 0, 0, 0, 16, 33, 0, 34, 27, 0, 0, 0, 15, 9, 11, 18, 0, 0, 0, 1, 0
|18, 0, 0, 10, 0, 0, 31, 16, 3, 1, 0, 0, 0, 23, 17, 0, 0, 26, 5, 20, 0, 0, 0, 0, 2, 0, 0, 0, 33, 34, 9, 15, 0, 0, 14, 0
|0, 8, 0, 0, 0, 0, 0, 0, 0, 0, 0, 4, 0, 0, 0, 0, 0, 0, 0, 0, 0, 25, 15, 26, 24, 20, 10, 0, 0, 0, 36, 30, 0, 0, 0, 0
|0, 0, 0, 11, 3, 0, 0, 0, 0, 0, 35, 0, 0, 0, 0, 0, 0, 0, 0, 0, 0, 22, 12, 36, 0, 32, 0, 0, 0, 0, 4, 0, 0, 0, 25, 0
|0, 0, 0, 0, 10, 1, 0, 0, 0, 31, 25, 20, 0, 0, 0, 13, 23, 16, 0, 0, 0, 0, 0, 0, 0, 0, 0, 0, 11, 0, 0, 0, 0, 15, 0, 34
|0, 20, 0, 0, 0, 0, 0, 0, 0, 0, 0, 0, 10, 0, 33, 0, 0, 24, 7, 0, 0, 0, 0, 0, 0, 0, 27, 29, 0, 0, 25, 1, 9, 0, 0, 16
|0, 0, 0, 0, 17, 0, 12, 0, 0, 26, 0, 0, 0, 0, 0, 0, 0, 0, 0, 0, 0, 0, 0, 8, 0, 24, 1, 35, 0, 0, 23, 0, 6, 0, 0, 11
|23, 0, 0, 0, 0, 0, 16, 0, 0, 0, 0, 0, 9, 0, 0, 0, 30, 0, 0, 0, 0, 0, 0, 0, 0, 0, 13, 0, 21, 0, 0, 33, 0, 0, 0, 18
|0, 0, 0, 14, 4, 0, 33, 0, 0, 0, 0, 0, 25, 8, 0, 0, 0, 31, 29, 9, 0, 13, 0, 16, 0, 0, 26, 30, 0, 0, 0, 0, 0, 7, 0, 0
|0, 0, 0, 18, 0, 0, 17, 0, 0, 0, 0, 0, 0, 0, 0, 0, 2, 22, 26, 36, 28, 19, 0, 34, 0, 0, 20, 0, 0, 0, 0, 0, 0, 0, 29, 0
|33, 16, 29, 0, 0, 0, 35, 10, 0, 12, 27, 0, 24, 0, 0, 26, 0, 36, 22, 0, 0, 0, 0, 15, 6, 0, 0, 0, 0, 3, 0, 0, 0, 0, 0, 0
|0, 0, 11, 30, 0, 0, 0, 0, 0, 0, 0, 16, 0, 22, 0, 0, 0, 7, 27, 0, 0, 34, 9, 0, 23, 0, 12, 0, 1, 0, 0, 18, 0, 20, 32, 0
|0, 23, 19, 0, 0, 0, 22, 32, 24, 0, 0, 0, 0, 31, 0, 0, 1, 0, 35, 0, 12, 0, 0, 29, 9, 0, 0, 0, 0, 0, 0, 0, 0, 0, 0, 0
|0, 4, 0, 0, 0, 0, 30, 0, 0, 0, 15, 0, 0, 27, 0, 0, 0, 34, 0, 0, 0, 0, 0, 33, 25, 5, 22, 0, 26, 0, 13, 0, 0, 0, 0, 0
|0, 0, 1, 27, 28, 2, 0, 0, 0, 6, 0, 0, 12, 9, 0, 0, 0, 32, 30, 0, 16, 0, 0, 23, 0, 14, 0, 7, 0, 21, 0, 0, 0, 0, 0, 0
|0, 22, 0, 0, 0, 0, 0, 0, 0, 21, 0, 34, 5, 25, 0, 20, 19, 0, 0, 0, 0, 3, 0, 0, 27, 0, 0, 0, 35, 0, 0, 0, 0, 0, 0, 0
|0, 2, 0, 8, 19, 26, 0, 0, 30, 0, 0, 0, 0, 0, 1, 0, 0, 0, 33, 0, 0, 0, 0, 35, 0, 0, 0, 0, 0, 10, 0, 0, 0, 0, 0, 0
|0, 0, 0, 0, 0, 6, 0, 25, 0, 0, 0, 17, 0, 0, 0, 0, 0, 0, 0, 24, 0, 0, 32, 13, 0, 0, 0, 31, 0, 0, 0, 0, 0, 26, 33, 30
|0, 0, 0, 0, 9, 0, 0, 0, 0, 18, 0, 0, 0, 24, 0, 0, 0, 0, 0, 0, 29, 0, 0, 0, 34, 4, 33, 0, 3, 36, 0, 0, 0, 10, 8, 13
|14, 0, 0, 0, 0, 15, 0, 0, 26, 0, 1, 35, 0, 0, 0, 0, 0, 0, 0, 0, 0, 0, 0, 0, 0, 29, 0, 5, 0, 0, 31, 34, 0, 0, 0, 0
|0, 0, 0, 0, 0, 0, 0, 0, 0, 0, 11, 0, 0, 0, 0, 10, 0, 0, 0, 30, 0, 0, 0, 31, 0, 0, 18, 0, 32, 0, 0, 0, 0, 0, 27, 6
|0, 0, 0, 0, 32, 0, 0, 0, 31, 0, 0, 27, 0, 14, 0, 0, 33, 0, 0, 0, 22, 0, 0, 12, 0, 0, 0, 26, 25, 0, 11, 0, 0, 0, 36, 0|];