order = 6;
grid = [|0, 0, 0, 17, 0, 0, 0, 0, 13, 8, 0, 0, 0, 5, 0, 0, 0, 0, 0, 0, 0, 0, 0, 0, 4, 0, 0, 0, 0, 0, 0, 0, 12, 30, 0, 0
|0, 0, 14, 0, 0, 0, 0, 0, 0, 0, 0, 0, 0, 17, 15, 0, 11, 0, 30, 16, 0, 0, 2, 0, 0, 0, 0, 8, 0, 0, 0, 22, 0, 0, 0, 0
|9, 0, 25, 30, 34, 8, 0, 0, 4, 0, 0, 35, 0, 0, 36, 0, 0, 0, 0, 0, 17, 0, 0, 0, 0, 12, 0, 0, 0, 15, 0, 21, 0, 0, 24, 0
|0, 0, 22, 0, 0, 28, 0, 30, 36, 0, 0, 0, 0, 0, 0, 4, 3, 10, 0, 0, 0, 0, 0, 0, 0, 18, 0, 23, 0, 0, 0, 17, 0, 0, 0, 0
|0, 23, 0, 0, 0, 7, 14, 0, 0, 21, 0, 0, 0, 0, 28, 0, 0, 0, 0, 9, 8, 19, 0, 0, 2, 25, 0, 0, 0, 0, 0, 6, 0, 0, 0, 29
|29, 24, 0, 0, 0, 36, 0, 23, 0, 0, 0, 26, 9, 0, 1, 25, 0, 0, 13, 0, 0, 0, 18, 0, 0, 0, 0, 0, 0, 0, 0, 7, 0, 0, 0, 15
|0, 0, 0, 31, 21, 23, 12, 0, 0, 0, 0, 0, 1, 0, 0, 0, 0, 0, 0, 0, 0, 20, 0, 28, 0, 27, 32, 0, 0, 0, 0, 0, 0, 18, 0, 0
|14, 0, 18, 0, 26, 0, 0, 13, 10, 0, 0, 0, 20, 0, 0, 0, 0, 0, 0, 7, 0, 17, 0, 0, 0, 0, 0, 0, 19, 12, 0, 27, 0, 0, 0, 0
|35, 0, 0, 27, 0, 0, 0, 0, 32, 0, 0, 0, 0, 0, 0, 13, 0, 0, 0, 0, 6, 4, 8, 0, 34, 0, 0, 21, 31, 0, 0, 0, 0, 0, 0, 0
|0, 0, 0, 0, 1, 0, 11, 0, 23, 0, 0, 0, 22, 0, 0, 0, 0, 34, 0, 0, 0, 0, 0, 0, 36, 0, 0, 0, 0, 26, 0, 33, 0, 12, 0, 0
|0, 0, 0, 0, 13, 0, 0, 17, 0, 26, 0, 0, 0, 0, 2, 0, 0, 19, 0, 0, 0, 0, 23, 0, 0, 1, 0, 0, 0, 18, 0, 0, 0, 0, 0, 0
|33, 0, 0, 0, 0, 0, 0, 0, 0, 0, 36, 0, 0, 0, 17, 0, 0, 0, 0, 0, 0, 0, 12, 0, 0, 0, 0, 0, 10, 0, 0, 0, 7, 0, 0, 0
|0, 0, 0, 0, 0, 0, 0, 0, 0, 0, 0, 0, 0, 0, 0, 0, 19, 0, 0, 0, 0, 0, 0, 22, 0, 0, 0, 0, 0, 0, 0, 15, 0, 36, 0, 0
|0, 9, 0, 0, 23, 0, 0, 6, 15, 0, 0, 36, 28, 0, 0, 3, 0, 12, 4, 0, 0, 0, 0, 0, 0, 16, 0, 0, 0, 0, 19, 0, 35, 10, 0, 32
|0, 0, 21, 0, 4, 0, 0, 0, 28, 0, 0, 33, 0, 0, 0, 0, 0, 7, 0, 0, 26, 0, 6, 0, 18, 9, 0, 2, 12, 0, 23, 0, 16, 0, 0, 22
|26, 0, 0, 0, 14, 0, 0, 0, 0, 0, 0, 0, 0, 24, 0, 30, 0, 0, 0, 0, 0, 2, 0, 0, 0, 0, 0, 0, 0, 6, 5, 0, 0, 0, 12, 0
|8, 0, 0, 0, 22, 0, 0, 20, 0, 0, 32, 0, 0, 0, 21, 34, 0, 0, 0, 0, 0, 11, 0, 0, 0, 0, 0, 19, 0, 0, 0, 0, 0, 0, 0, 0
|0, 0, 0, 12, 0, 31, 0, 0, 0, 0, 0, 0, 0, 0, 0, 9, 0, 20, 0, 15, 0, 0, 5, 0, 0, 0, 0, 0, 28, 0, 0, 0, 0, 0, 0, 0
|0, 0, 0, 0, 28, 15, 0, 0, 0, 7, 0, 0, 0, 0, 0, 0, 0, 0, 0, 0, 0, 0, 0, 11, 0, 0, 0, 0, 0, 0, 30, 0, 0, 0, 0, 0
|0, 2, 0, 26, 0, 0, 0, 0, 8, 0, 13, 0, 0, 0, 0, 0, 0, 0, 0, 0, 0, 0, 0, 0, 0, 0, 0, 18, 0, 32, 6, 0, 0, 5, 0, 7
|11, 0, 0, 4, 0, 0, 25, 0, 0, 0, 0, 6, 0, 0, 0, 0, 0, 0, 0, 0, 0, 0, 0, 0, 0, 0, 0, 0, 3, 0, 18, 32, 0, 0, 15, 27
|0, 17, 0, 7, 0, 0, 0, 0, 0, 0, 0, 0, 0, 0, 6, 0, 0, 0, 0, 0, 0, 29, 0, 0, 0, 0, 0, 0, 2, 0, 0, 0, 0, 0, 36, 0
|21, 35, 0, 0, 30, 0, 34, 0, 0, 33, 3, 0, 0, 0, 0, 32, 0, 0, 0, 2, 5, 7, 0, 0, 0, 0, 0, 0, 0, 0, 0, 0, 0, 29, 0, 0
|5, 12, 16, 0, 0, 0, 0, 0, 0, 0, 4, 27, 30, 0, 11, 7, 0, 0, 15, 0, 0, 0, 0, 0, 25, 24, 33, 0, 0, 29, 13, 0, 0, 0, 0, 0
|7, 0, 0, 0, 0, 0, 0, 0, 33, 0, 0, 0, 0, 0, 0, 0, 25, 16, 0, 28, 0, 0, 0, 0, 0, 0, 0, 0, 11, 2, 32, 9, 15, 0, 0, 34
|36, 0, 0, 0, 0, 17, 0, 0, 0, 0, 0, 0, 0, 0, 0, 1, 35, 6, 33, 0, 13, 0, 0, 20, 0, 0, 34, 0, 0, 0, 0, 0, 0, 0, 0, 0
|0, 0, 0, 0, 29, 0, 0, 0, 0, 17, 0, 0, 0, 0, 0, 2, 33, 0, 6, 4, 24, 0, 25, 0, 3, 0, 0, 0, 1, 0, 7, 0, 5, 0, 0, 12
|2, 0, 0, 0, 0, 4, 31, 0, 0, 0, 0, 0, 0, 21, 24, 0, 0, 0, 0, 0, 0, 0, 0, 0, 19, 0, 9, 0, 25, 27, 0, 0, 0, 16, 0, 0
|0, 0, 0, 0, 0, 0, 0, 0, 0, 6, 9, 0, 23, 34, 7, 0, 0, 11, 21, 0, 0, 16, 30, 0, 33, 0, 15, 10, 0, 0, 0, 36, 0, 0, 0, 0
|30, 21, 0, 0, 12, 0, 22, 0, 0, 28, 0, 11, 0, 20, 0, 0, 4, 0, 0, 0, 3, 0, 0, 0, 0, 0, 0, 0, 29, 0, 0, 10, 0, 0, 0, 0
|0, 0, 0, 0, 0, 0, 17, 0, 0, 0, 11, 0, 0, 0, 29, 0, 8, 0, 0, 19, 15, 0, 0, 0, 0, 2, 36, 13, 6, 0, 0, 0, 21, 0, 7, 0
|0, 0, 0, 23, 0, 0, 21, 0, 0, 0, 0, 12, 0, 11, 0, 0, 0, 0, 0, 0, 0, 32, 0, 0, 0, 0, 0, 0, 4, 0, 36, 0, 0, 0, 0, 0
|0, 0, 15, 6, 7, 0, 0, 0, 0, 0, 0, 32, 2, 0, 0, 0, 0, 0, 0, 10, 0, 0, 13, 0, 0, 20, 0, 0, 0, 0, 0, 0, 0, 23, 0, 0
|0, 0, 26, 1, 0, 0, 9, 0, 0, 0, 0, 0, 0, 0, 0, 0, 0, 0, 11, 5, 0, 0, 0, 0, 0, 0, 18, 0, 0, 0, 0, 35, 0, 0, 30, 0
|0, 0, 35, 0, 0, 0, 0, 0, 0, 0, 33, 0, 0, 32, 0, 0, 0, 3, 0, 21, 0, 0, 0, 0, 0, 19, 0, 0, 23, 0, 0, 0, 22, 17, 0, 31
|0, 0, 0, 36, 0, 0, 0, 0, 0, 0, 0, 0, 0, 0, 0, 16, 0, 0, 0, 23, 22, 0, 0, 17, 0, 32, 0, 0, 34, 10, 0, 4, 0, 0, 27, 26|];