order = 6;
grid = [|0, 0, 0, 0, 0, 0, 35, 0, 32, 0, 34, 0, 8, 18, 0, 0, 0, 0, 0, 9, 0, 0, 10, 3, 15, 0, 0, 0, 20, 0, 26, 0, 0, 0, 0, 0
|1, 0, 0, 35, 13, 0, 0, 0, 0, 0, 0, 0, 9, 0, 0, 0, 0, 0, 0, 0, 0, 0, 11, 0, 0, 36, 24, 0, 0, 0, 0, 0, 0, 0, 0, 0
|12, 0, 0, 33, 0, 0, 22, 0, 27, 0, 0, 0, 0, 0, 0, 0, 0, 0, 30, 0, 0, 35, 32, 0, 0, 11, 0, 0, 0, 3, 20, 0, 0, 23, 0, 0
|27, 0, 0, 26, 0, 0, 0, 8, 0, 0, 0, 0, 33, 0, 0, 36, 0, 0, 0, 0, 0, 0, 0, 4, 0, 0, 0, 0, 14, 30, 0, 9, 29, 10, 11, 0
|0, 0, 0, 0, 0, 30, 0, 0, 0, 11, 0, 0, 0, 0, 0, 0, 0, 0, 0, 0, 0, 36, 0, 0, 23, 0, 0, 2, 0, 0, 0, 0, 0, 3, 0, 0
|10, 0, 18, 0, 0, 0, 9, 15, 25, 0, 0, 0, 3, 0, 0, 0, 0, 0, 0, 0, 0, 0, 7, 0, 0, 0, 0, 0, 0, 21, 6, 0, 0, 0, 0, 24
|0, 0, 0, 0, 19, 0, 0, 0, 0, 35, 0, 23, 0, 0, 12, 0, 0, 0, 0, 0, 20, 0, 27, 0, 0, 6, 0, 34, 0, 0, 28, 0, 0, 0, 0, 0
|24, 1, 0, 0, 0, 0, 0, 0, 0, 0, 10, 0, 0, 15, 0, 0, 0, 0, 0, 30, 0, 0, 14, 0, 0, 27, 26, 28, 0, 0, 0, 0, 4, 0, 0, 0
|0, 0, 0, 0, 20, 0, 0, 0, 0, 12, 0, 2, 0, 10, 31, 0, 4, 30, 0, 0, 0, 15, 0, 28, 0, 0, 3, 0, 0, 0, 0, 0, 0, 0, 34, 0
|11, 0, 0, 0, 0, 7, 0, 0, 18, 0, 13, 0, 36, 23, 0, 0, 0, 0, 0, 0, 0, 0, 0, 0, 0, 0, 20, 0, 8, 0, 0, 35, 10, 0, 0, 0
|0, 0, 0, 27, 0, 0, 16, 0, 0, 0, 0, 26, 0, 3, 0, 0, 0, 0, 0, 0, 12, 0, 0, 19, 17, 29, 0, 7, 0, 4, 0, 0, 0, 6, 0, 0
|0, 0, 10, 9, 30, 0, 0, 0, 0, 0, 0, 0, 0, 0, 0, 0, 0, 0, 0, 0, 0, 23, 0, 32, 11, 0, 0, 0, 0, 0, 0, 12, 1, 0, 0, 0
|0, 0, 0, 0, 21, 0, 24, 0, 0, 0, 0, 0, 0, 36, 22, 1, 11, 0, 9, 0, 0, 7, 0, 0, 19, 13, 0, 15, 0, 20, 27, 8, 0, 0, 0, 29
|0, 0, 0, 7, 0, 22, 0, 25, 12, 0, 0, 0, 0, 0, 0, 24, 0, 0, 0, 0, 0, 14, 0, 0, 0, 0, 0, 10, 29, 0, 21, 34, 33, 0, 0, 0
|0, 17, 0, 0, 18, 0, 0, 0, 0, 13, 0, 36, 0, 0, 0, 0, 2, 0, 0, 0, 28, 0, 0, 0, 0, 0, 0, 35, 24, 0, 0, 0, 0, 0, 0, 0
|0, 27, 2, 0, 0, 0, 0, 0, 30, 0, 29, 0, 5, 0, 0, 0, 0, 19, 0, 0, 0, 6, 0, 0, 0, 0, 0, 0, 34, 8, 24, 0, 18, 12, 0, 35
|0, 13, 0, 0, 0, 0, 14, 0, 1, 0, 16, 20, 0, 0, 0, 12, 0, 0, 0, 31, 0, 0, 0, 0, 0, 0, 0, 0, 0, 0, 0, 0, 0, 30, 0, 0
|0, 0, 0, 0, 0, 23, 0, 0, 0, 32, 6, 28, 20, 0, 0, 0, 0, 10, 0, 0, 0, 2, 0, 0, 21, 0, 0, 0, 0, 0, 0, 0, 9, 0, 7, 0
|0, 0, 33, 0, 7, 0, 0, 0, 20, 26, 0, 0, 0, 17, 0, 0, 12, 0, 0, 0, 0, 0, 0, 0, 0, 9, 1, 0, 0, 0, 10, 0, 0, 13, 16, 0
|0, 0, 0, 0, 23, 0, 0, 0, 0, 0, 24, 0, 10, 0, 0, 20, 0, 0, 0, 21, 0, 13, 0, 0, 0, 0, 34, 19, 16, 18, 4, 0, 0, 0, 15, 0
|22, 2, 12, 0, 0, 28, 0, 18, 0, 34, 0, 35, 0, 0, 13, 0, 0, 0, 0, 26, 23, 20, 9, 0, 10, 32, 0, 0, 0, 0, 7, 0, 0, 36, 1, 14
|20, 0, 0, 0, 0, 0, 17, 4, 2, 6, 0, 0, 0, 0, 0, 26, 0, 0, 10, 0, 5, 0, 0, 0, 0, 0, 0, 0, 0, 0, 0, 19, 23, 0, 30, 0
|0, 0, 29, 0, 15, 0, 28, 7, 22, 0, 14, 0, 0, 0, 0, 0, 0, 0, 32, 24, 0, 0, 0, 0, 0, 0, 11, 0, 0, 0, 0, 0, 3, 0, 6, 0
|0, 0, 0, 5, 0, 0, 0, 0, 0, 0, 0, 1, 0, 0, 25, 0, 0, 0, 0, 18, 30, 0, 15, 0, 0, 0, 12, 17, 3, 14, 0, 0, 0, 0, 0, 0
|16, 21, 0, 0, 0, 0, 0, 0, 35, 0, 0, 0, 0, 33, 0, 0, 0, 0, 26, 0, 32, 9, 0, 0, 0, 30, 6, 0, 0, 0, 0, 0, 0, 0, 0, 0
|0, 0, 0, 0, 0, 0, 0, 0, 0, 28, 5, 15, 0, 0, 0, 0, 32, 0, 0, 0, 0, 31, 4, 0, 0, 0, 33, 0, 0, 0, 36, 23, 30, 0, 0, 0
|28, 7, 30, 0, 34, 20, 0, 0, 17, 0, 0, 32, 2, 0, 0, 0, 0, 0, 0, 0, 0, 0, 21, 0, 0, 16, 0, 0, 0, 0, 0, 6, 0, 0, 35, 0
|0, 0, 0, 0, 0, 0, 0, 33, 0, 16, 0, 0, 0, 20, 0, 0, 0, 0, 0, 0, 0, 30, 0, 0, 0, 12, 7, 0, 17, 32, 0, 4, 0, 0, 0, 0
|0, 0, 0, 0, 0, 15, 12, 0, 24, 0, 0, 0, 0, 1, 0, 0, 26, 0, 0, 0, 0, 0, 20, 0, 0, 0, 0, 31, 11, 0, 0, 0, 25, 16, 0, 0
|26, 0, 14, 18, 0, 0, 0, 10, 19, 23, 0, 0, 0, 28, 0, 0, 0, 0, 0, 0, 17, 5, 13, 0, 0, 0, 2, 0, 0, 0, 0, 0, 0, 0, 0, 27
|30, 0, 0, 0, 0, 19, 0, 5, 14, 31, 0, 0, 0, 0, 21, 0, 17, 23, 20, 0, 0, 25, 0, 26, 0, 18, 0, 9, 0, 0, 0, 0, 27, 0, 33, 0
|0, 0, 0, 0, 25, 12, 0, 0, 33, 0, 0, 9, 0, 0, 0, 0, 0, 0, 0, 0, 0, 28, 0, 10, 0, 0, 0, 0, 0, 1, 0, 0, 0, 4, 18, 0
|0, 0, 0, 0, 31, 29, 0, 0, 0, 1, 0, 0, 0, 0, 0, 0, 0, 0, 0, 0, 0, 0, 35, 0, 0, 0, 0, 0, 0, 33, 12, 0, 0, 0, 0, 0
|0, 23, 0, 0, 28, 24, 0, 0, 0, 0, 19, 0, 0, 0, 33, 14, 0, 0, 0, 27, 0, 34, 0, 0, 5, 0, 0, 0, 2, 11, 0, 0, 13, 0, 8, 26
|8, 0, 0, 0, 26, 0, 0, 0, 0, 0, 0, 24, 7, 0, 0, 0, 0, 0, 0, 3, 0, 0, 5, 0, 0, 0, 0, 0, 12, 0, 0, 20, 19, 0, 0, 34
|0, 0, 0, 14, 0, 0, 0, 0, 0, 0, 35, 0, 28, 0, 0, 0, 0, 0, 0, 0, 6, 0, 33, 22, 0, 0, 0, 0, 0, 0, 0, 0, 0, 32, 0, 30|];