order = 6;
grid = [|16, 14, 28, 0, 0, 31, 0, 12, 0, 0, 0, 0, 9, 0, 0, 0, 0, 0, 0, 34, 0, 0, 0, 0, 32, 0, 10, 19, 0, 0, 0, 3, 0, 0, 0, 0
|0, 0, 0, 0, 0, 8, 0, 0, 0, 0, 0, 1, 0, 20, 18, 4, 0, 0, 0, 0, 29, 0, 0, 0, 6, 21, 0, 0, 0, 0, 25, 0, 0, 0, 0, 0
|0, 0, 18, 1, 0, 0, 11, 0, 0, 8, 31, 0, 0, 0, 34, 0, 14, 19, 0, 35, 26, 30, 5, 0, 0, 0, 0, 0, 15, 0, 0, 0, 10, 2, 0, 0
|0, 0, 10, 0, 0, 26, 34, 0, 0, 17, 0, 0, 16, 12, 23, 5, 0, 7, 27, 8, 19, 0, 0, 0, 0, 0, 0, 0, 0, 0, 0, 14, 0, 0, 0, 0
|0, 0, 0, 0, 0, 0, 0, 0, 0, 0, 0, 14, 0, 0, 25, 0, 1, 0, 0, 20, 0, 0, 16, 0, 11, 0, 0, 0, 0, 8, 0, 0, 0, 0, 0, 0
|11, 19, 30, 0, 0, 0, 0, 22, 0, 0, 0, 0, 15, 0, 0, 0, 0, 32, 0, 0, 0, 4, 24, 0, 0, 0, 5, 0, 0, 25, 0, 0, 0, 0, 0, 0
|0, 0, 0, 0, 20, 0, 0, 0, 0, 0, 33, 0, 0, 0, 0, 15, 0, 0, 0, 27, 0, 0, 0, 0, 0, 0, 8, 0, 35, 0, 0, 0, 0, 21, 0, 7
|0, 0, 12, 0, 0, 0, 0, 4, 0, 0, 15, 0, 0, 0, 9, 0, 35, 0, 0, 0, 0, 0, 0, 0, 26, 0, 0, 28, 0, 0, 23, 0, 0, 0, 0, 34
|0, 31, 0, 28, 18, 35, 0, 0, 0, 0, 0, 0, 4, 0, 19, 0, 0, 16, 0, 15, 0, 0, 0, 0, 0, 0, 0, 33, 0, 20, 27, 5, 14, 29, 0, 24
|0, 0, 0, 0, 0, 33, 0, 0, 0, 0, 19, 0, 0, 0, 0, 0, 24, 0, 0, 0, 31, 32, 4, 0, 13, 11, 34, 0, 16, 0, 0, 9, 0, 0, 0, 0
|6, 0, 0, 0, 3, 0, 20, 0, 0, 0, 17, 0, 0, 0, 0, 0, 0, 0, 0, 0, 0, 0, 0, 0, 7, 0, 27, 0, 0, 0, 0, 0, 0, 0, 8, 0
|0, 22, 32, 21, 4, 0, 0, 0, 26, 28, 24, 35, 0, 0, 0, 0, 34, 3, 20, 0, 0, 9, 0, 16, 0, 15, 0, 0, 0, 0, 0, 0, 0, 0, 0, 0
|0, 0, 0, 0, 0, 0, 0, 0, 0, 0, 0, 36, 0, 0, 0, 0, 0, 0, 0, 0, 0, 12, 27, 31, 0, 0, 0, 0, 0, 3, 0, 0, 0, 0, 33, 0
|18, 0, 0, 0, 0, 0, 24, 11, 4, 0, 0, 0, 0, 0, 0, 22, 0, 0, 32, 0, 15, 0, 26, 0, 0, 0, 0, 29, 0, 0, 0, 0, 3, 17, 0, 0
|0, 0, 19, 0, 17, 0, 0, 0, 0, 0, 0, 0, 34, 4, 0, 33, 0, 9, 0, 0, 2, 20, 18, 0, 0, 0, 0, 0, 0, 27, 0, 30, 0, 24, 0, 0
|0, 13, 0, 12, 0, 0, 0, 33, 0, 0, 35, 0, 0, 0, 0, 0, 7, 0, 0, 0, 36, 0, 0, 0, 0, 0, 0, 0, 2, 0, 1, 0, 0, 0, 0, 22
|4, 33, 20, 0, 0, 30, 8, 32, 28, 0, 0, 5, 2, 0, 0, 16, 19, 0, 0, 0, 0, 0, 0, 0, 0, 0, 36, 0, 7, 0, 0, 0, 15, 0, 0, 0
|0, 0, 0, 7, 0, 0, 3, 0, 2, 0, 0, 0, 0, 0, 0, 0, 0, 17, 0, 0, 0, 35, 0, 0, 0, 8, 24, 0, 0, 0, 0, 0, 0, 27, 0, 14
|0, 0, 0, 0, 19, 0, 33, 0, 0, 12, 34, 27, 0, 0, 0, 0, 8, 0, 0, 0, 0, 0, 0, 30, 0, 0, 0, 3, 0, 0, 5, 15, 9, 32, 0, 6
|32, 34, 0, 0, 26, 0, 2, 0, 0, 0, 0, 0, 18, 33, 12, 0, 0, 0, 0, 7, 0, 0, 15, 27, 0, 28, 0, 0, 4, 0, 0, 35, 0, 0, 11, 0
|3, 15, 36, 0, 33, 0, 0, 30, 0, 0, 0, 10, 32, 0, 7, 0, 0, 0, 0, 0, 34, 19, 0, 0, 0, 9, 0, 0, 0, 0, 0, 0, 0, 0, 0, 0
|2, 8, 1, 0, 0, 0, 0, 0, 17, 0, 32, 0, 0, 26, 0, 0, 0, 0, 0, 0, 0, 0, 0, 0, 0, 23, 15, 0, 0, 0, 0, 0, 0, 0, 13, 3
|35, 0, 0, 6, 9, 13, 29, 0, 22, 0, 28, 0, 1, 0, 0, 0, 23, 0, 21, 0, 0, 0, 0, 0, 0, 0, 0, 0, 17, 0, 0, 0, 0, 34, 0, 0
|23, 0, 0, 10, 0, 18, 0, 8, 0, 0, 20, 0, 3, 0, 0, 36, 0, 34, 1, 0, 0, 25, 0, 13, 0, 33, 26, 0, 0, 0, 0, 0, 0, 0, 0, 0
|0, 0, 0, 0, 21, 0, 28, 17, 0, 0, 12, 25, 0, 0, 0, 11, 0, 0, 0, 0, 0, 0, 0, 0, 0, 24, 35, 0, 0, 0, 3, 0, 19, 0, 0, 29
|12, 0, 25, 0, 0, 0, 0, 14, 0, 0, 0, 0, 0, 0, 0, 0, 0, 18, 0, 0, 0, 0, 0, 0, 28, 0, 0, 23, 21, 0, 2, 0, 0, 1, 4, 0
|0, 0, 0, 0, 0, 19, 0, 0, 0, 13, 0, 0, 0, 23, 0, 0, 0, 0, 33, 0, 1, 0, 0, 0, 14, 0, 0, 18, 0, 0, 0, 0, 0, 0, 0, 0
|0, 0, 0, 22, 0, 0, 0, 0, 0, 0, 0, 0, 0, 0, 21, 0, 0, 0, 0, 0, 0, 0, 0, 12, 0, 0, 0, 0, 0, 0, 0, 0, 0, 0, 0, 0
|0, 0, 6, 33, 0, 0, 0, 3, 0, 20, 0, 0, 0, 0, 0, 24, 2, 26, 16, 21, 0, 0, 34, 0, 0, 0, 0, 13, 0, 30, 0, 8, 0, 0, 0, 0
|0, 0, 0, 0, 0, 0, 0, 36, 11, 27, 0, 0, 0, 0, 6, 12, 16, 1, 0, 0, 35, 18, 0, 0, 0, 0, 0, 4, 0, 0, 0, 0, 26, 9, 0, 0
|0, 0, 0, 0, 0, 7, 0, 0, 0, 0, 0, 0, 24, 0, 0, 2, 32, 15, 0, 0, 27, 0, 0, 0, 0, 22, 0, 0, 20, 0, 34, 0, 0, 0, 0, 0
|0, 0, 0, 4, 0, 21, 0, 0, 34, 0, 0, 28, 0, 0, 33, 0, 0, 0, 24, 0, 0, 5, 0, 0, 25, 0, 29, 0, 23, 0, 0, 17, 0, 0, 3, 0
|0, 0, 5, 0, 0, 0, 0, 0, 0, 0, 0, 0, 31, 34, 27, 0, 0, 0, 0, 0, 0, 28, 0, 29, 0, 0, 0, 1, 0, 9, 11, 24, 0, 0, 0, 13
|0, 24, 0, 0, 0, 14, 0, 0, 0, 0, 0, 0, 23, 0, 0, 0, 4, 0, 0, 17, 0, 0, 0, 0, 0, 0, 0, 0, 0, 0, 0, 0, 0, 0, 0, 0
|0, 25, 0, 18, 0, 0, 0, 0, 0, 0, 0, 0, 36, 0, 1, 7, 20, 0, 0, 0, 32, 0, 0, 34, 24, 0, 0, 0, 0, 0, 0, 29, 0, 0, 35, 0
|13, 0, 27, 0, 0, 0, 0, 0, 15, 24, 0, 3, 0, 6, 30, 0, 0, 0, 0, 0, 7, 0, 0, 0, 0, 0, 0, 0, 0, 0, 0, 0, 0, 4, 0, 0|];