order = 6;
grid = [|0, 0, 0, 0, 0, 0, 0, 1, 0, 0, 0, 30, 0, 10, 0, 0, 0, 22, 0, 32, 7, 23, 0, 24, 0, 0, 0, 0, 0, 0, 17, 27, 29, 0, 0, 0
|0, 17, 0, 0, 0, 0, 0, 18, 0, 27, 0, 0, 3, 19, 0, 4, 8, 0, 0, 0, 0, 0, 11, 0, 33, 6, 0, 5, 35, 0, 0, 0, 0, 16, 0, 0
|1, 0, 0, 0, 0, 20, 4, 0, 26, 0, 0, 33, 23, 13, 2, 0, 0, 5, 0, 0, 0, 0, 0, 0, 0, 36, 19, 11, 27, 0, 0, 0, 0, 0, 34, 0
|0, 0, 30, 0, 0, 0, 0, 0, 0, 0, 0, 0, 21, 15, 35, 0, 0, 0, 0, 8, 0, 0, 25, 0, 0, 0, 26, 0, 10, 0, 0, 0, 0, 0, 0, 4
|0, 3, 0, 0, 13, 0, 0, 9, 0, 0, 0, 0, 0, 0, 0, 36, 0, 14, 5, 0, 0, 0, 0, 0, 0, 15, 0, 1, 0, 8, 19, 0, 12, 25, 0, 23
|4, 0, 0, 0, 0, 0, 5, 0, 35, 11, 23, 31, 28, 0, 0, 0, 0, 0, 0, 19, 10, 0, 1, 0, 29, 0, 34, 0, 0, 0, 0, 0, 15, 0, 6, 0
|0, 0, 26, 34, 0, 30, 25, 0, 0, 0, 0, 19, 0, 17, 29, 28, 0, 0, 22, 0, 0, 0, 0, 0, 0, 0, 0, 0, 0, 32, 0, 0, 0, 0, 10, 18
|0, 36, 0, 28, 0, 0, 6, 14, 0, 0, 0, 0, 0, 1, 0, 27, 3, 0, 0, 0, 13, 0, 0, 0, 0, 10, 0, 24, 0, 33, 8, 0, 0, 0, 0, 0
|0, 0, 0, 24, 0, 0, 0, 0, 0, 29, 0, 0, 0, 0, 0, 0, 12, 0, 7, 0, 0, 0, 0, 8, 0, 0, 18, 0, 36, 0, 22, 25, 0, 0, 0, 28
|5, 0, 0, 0, 18, 0, 0, 0, 0, 0, 1, 0, 0, 0, 0, 8, 0, 0, 27, 0, 0, 0, 0, 0, 4, 28, 0, 0, 0, 0, 0, 0, 30, 0, 0, 33
|32, 1, 0, 0, 0, 6, 7, 0, 0, 0, 0, 0, 5, 0, 0, 0, 26, 0, 0, 29, 0, 0, 0, 0, 0, 0, 27, 0, 0, 0, 3, 0, 0, 0, 0, 0
|17, 0, 0, 0, 2, 12, 0, 5, 0, 0, 0, 0, 0, 0, 0, 24, 0, 4, 0, 0, 0, 0, 0, 0, 1, 0, 0, 0, 0, 0, 36, 0, 34, 0, 0, 19
|0, 0, 0, 0, 12, 13, 0, 0, 0, 5, 0, 25, 0, 35, 0, 15, 0, 0, 0, 0, 23, 0, 0, 0, 19, 30, 28, 34, 0, 0, 33, 0, 0, 0, 0, 0
|0, 0, 0, 17, 0, 0, 23, 0, 0, 0, 12, 0, 0, 0, 7, 0, 0, 31, 0, 0, 0, 0, 0, 0, 14, 33, 0, 0, 0, 0, 0, 19, 9, 0, 13, 0
|0, 0, 0, 0, 20, 0, 0, 0, 21, 0, 34, 0, 0, 0, 0, 33, 0, 0, 0, 0, 0, 0, 28, 3, 36, 0, 13, 31, 0, 10, 0, 0, 0, 0, 0, 0
|0, 22, 0, 0, 0, 25, 0, 0, 0, 0, 0, 0, 0, 24, 0, 0, 0, 0, 0, 0, 4, 0, 0, 0, 0, 0, 21, 0, 0, 0, 0, 0, 0, 0, 30, 0
|0, 0, 0, 31, 5, 28, 0, 33, 0, 0, 0, 0, 0, 32, 0, 0, 0, 17, 26, 0, 0, 0, 0, 30, 20, 0, 0, 29, 23, 0, 2, 0, 0, 18, 0, 0
|21, 19, 3, 0, 0, 0, 0, 8, 0, 0, 0, 0, 0, 0, 11, 23, 0, 0, 29, 0, 0, 0, 0, 0, 15, 25, 0, 7, 0, 0, 0, 0, 0, 0, 0, 0
|0, 0, 0, 8, 0, 36, 0, 6, 0, 20, 0, 0, 32, 0, 0, 0, 1, 0, 0, 0, 0, 0, 4, 13, 34, 0, 2, 0, 0, 0, 11, 0, 25, 0, 0, 0
|0, 0, 0, 0, 21, 0, 0, 12, 14, 0, 0, 5, 0, 0, 19, 3, 15, 18, 0, 0, 0, 0, 0, 7, 0, 32, 0, 27, 0, 0, 0, 0, 0, 26, 20, 34
|0, 31, 32, 19, 0, 0, 28, 0, 13, 0, 0, 8, 0, 34, 0, 0, 0, 0, 0, 5, 24, 22, 9, 0, 0, 0, 0, 0, 0, 0, 21, 0, 0, 0, 0, 0
|0, 0, 0, 0, 22, 0, 0, 0, 31, 23, 18, 0, 0, 0, 0, 0, 0, 0, 32, 0, 0, 0, 36, 0, 0, 26, 0, 0, 19, 13, 0, 9, 0, 0, 33, 0
|0, 12, 0, 0, 24, 0, 0, 0, 0, 0, 26, 0, 4, 0, 0, 22, 0, 0, 14, 17, 15, 0, 0, 20, 0, 9, 0, 0, 0, 0, 0, 0, 0, 0, 0, 0
|0, 0, 0, 6, 0, 0, 0, 0, 0, 0, 0, 0, 35, 0, 13, 31, 0, 0, 12, 30, 0, 0, 0, 0, 0, 24, 0, 17, 0, 36, 0, 4, 0, 22, 0, 0
|0, 32, 0, 0, 0, 0, 0, 0, 10, 7, 0, 0, 0, 3, 0, 0, 0, 16, 0, 0, 8, 0, 0, 31, 0, 0, 0, 0, 0, 0, 0, 0, 0, 0, 9, 0
|24, 0, 12, 23, 0, 7, 0, 0, 27, 0, 0, 0, 31, 0, 6, 0, 4, 0, 0, 0, 0, 0, 17, 0, 0, 21, 10, 0, 0, 0, 0, 0, 0, 34, 0, 35
|11, 25, 0, 5, 6, 1, 0, 21, 0, 17, 0, 0, 0, 27, 0, 0, 0, 0, 0, 16, 0, 0, 0, 10, 0, 0, 0, 0, 0, 0, 0, 0, 0, 36, 0, 0
|31, 0, 14, 30, 0, 0, 0, 0, 0, 0, 0, 20, 0, 22, 0, 0, 0, 0, 0, 0, 12, 0, 0, 0, 0, 0, 0, 0, 0, 0, 0, 0, 0, 0, 0, 27
|9, 0, 0, 0, 0, 27, 0, 36, 0, 32, 0, 0, 20, 0, 0, 21, 0, 0, 0, 0, 0, 7, 0, 0, 0, 0, 0, 14, 6, 18, 28, 23, 8, 0, 0, 0
|0, 0, 0, 0, 0, 0, 0, 0, 8, 0, 0, 24, 0, 12, 17, 0, 34, 0, 0, 0, 25, 0, 0, 1, 0, 0, 36, 0, 0, 0, 0, 0, 11, 0, 0, 0
|0, 0, 0, 0, 35, 0, 0, 0, 0, 0, 0, 0, 34, 0, 4, 11, 0, 0, 13, 0, 27, 32, 30, 0, 0, 1, 24, 10, 0, 0, 0, 0, 0, 20, 0, 0
|2, 4, 0, 0, 0, 0, 0, 7, 0, 1, 30, 0, 0, 28, 0, 0, 0, 0, 0, 0, 0, 0, 26, 0, 0, 20, 0, 0, 13, 0, 14, 21, 0, 31, 0, 0
|0, 0, 0, 25, 0, 0, 3, 0, 24, 0, 0, 0, 0, 0, 0, 7, 0, 0, 33, 0, 0, 0, 10, 21, 32, 0, 17, 0, 14, 0, 0, 0, 18, 23, 26, 0
|13, 20, 0, 26, 0, 0, 0, 27, 0, 0, 0, 0, 14, 0, 0, 10, 0, 6, 0, 0, 17, 1, 0, 0, 0, 0, 0, 0, 0, 0, 0, 0, 0, 0, 0, 12
|0, 0, 24, 18, 0, 0, 0, 10, 0, 0, 0, 0, 1, 0, 30, 35, 0, 13, 0, 0, 0, 0, 0, 29, 0, 0, 0, 28, 0, 0, 25, 32, 33, 27, 11, 0
|0, 0, 0, 0, 0, 0, 0, 0, 0, 31, 0, 0, 25, 0, 8, 0, 0, 2, 0, 0, 0, 0, 0, 0, 23, 0, 0, 30, 16, 0, 15, 0, 0, 0, 1, 0|];