order = 6;
grid = [|20, 19, 0, 0, 0, 0, 26, 18, 0, 24, 14, 0, 0, 0, 0, 0, 23, 32, 0, 0, 0, 30, 0, 0, 0, 0, 0, 15, 0, 0, 0, 0, 0, 0, 35, 0
|0, 26, 9, 0, 3, 7, 4, 0, 17, 0, 25, 0, 0, 0, 21, 33, 0, 0, 0, 0, 0, 0, 0, 18, 0, 0, 0, 0, 0, 0, 0, 0, 0, 0, 0, 2
|0, 0, 0, 0, 0, 0, 0, 12, 31, 0, 36, 0, 34, 0, 0, 0, 0, 0, 0, 0, 0, 17, 0, 0, 0, 0, 0, 0, 14, 0, 0, 0, 0, 0, 0, 0
|17, 29, 23, 24, 0, 32, 33, 0, 0, 0, 0, 0, 0, 3, 0, 0, 35, 12, 0, 25, 0, 0, 0, 0, 0, 0, 0, 0, 0, 0, 0, 27, 0, 0, 0, 0
|0, 0, 14, 0, 0, 0, 5, 0, 0, 0, 29, 0, 0, 13, 0, 0, 0, 4, 1, 0, 0, 0, 15, 0, 0, 0, 0, 17, 22, 0, 0, 0, 0, 0, 12, 0
|0, 18, 0, 31, 0, 10, 0, 0, 0, 9, 35, 0, 17, 0, 30, 15, 16, 11, 0, 0, 7, 0, 0, 19, 0, 0, 0, 0, 2, 0, 0, 0, 21, 0, 0, 0
|0, 0, 0, 0, 0, 0, 0, 0, 0, 0, 0, 0, 27, 0, 34, 28, 0, 0, 35, 0, 0, 0, 0, 0, 0, 0, 20, 0, 18, 15, 0, 0, 0, 9, 0, 0
|0, 0, 0, 0, 0, 23, 0, 0, 0, 0, 0, 0, 22, 0, 0, 0, 0, 0, 8, 1, 0, 27, 0, 0, 0, 0, 0, 0, 0, 0, 0, 19, 0, 2, 0, 0
|0, 34, 0, 20, 0, 19, 0, 0, 0, 0, 0, 10, 0, 18, 0, 0, 0, 5, 4, 0, 0, 13, 0, 0, 0, 29, 0, 30, 1, 0, 31, 0, 0, 0, 0, 11
|0, 5, 0, 30, 0, 22, 0, 25, 0, 0, 0, 0, 0, 0, 0, 0, 0, 36, 0, 0, 28, 0, 0, 0, 27, 0, 0, 0, 0, 0, 0, 0, 23, 0, 29, 0
|0, 0, 0, 0, 0, 0, 0, 0, 12, 0, 30, 0, 0, 16, 35, 0, 0, 0, 0, 0, 0, 0, 5, 36, 0, 0, 4, 14, 26, 22, 0, 0, 0, 0, 17, 0
|24, 0, 0, 0, 0, 2, 0, 4, 20, 29, 0, 0, 25, 11, 0, 0, 0, 0, 0, 0, 10, 26, 0, 30, 34, 0, 0, 0, 12, 0, 0, 0, 0, 0, 0, 0
|0, 0, 8, 0, 0, 0, 0, 0, 0, 0, 0, 0, 0, 7, 0, 16, 9, 0, 24, 6, 36, 0, 0, 23, 29, 0, 32, 0, 0, 0, 0, 25, 0, 0, 0, 0
|0, 0, 0, 0, 0, 0, 0, 0, 0, 0, 0, 0, 0, 22, 0, 0, 0, 0, 0, 0, 27, 0, 16, 0, 0, 0, 0, 0, 5, 7, 0, 0, 0, 0, 0, 0
|0, 0, 26, 0, 12, 33, 0, 0, 29, 6, 13, 0, 0, 17, 0, 0, 0, 0, 0, 0, 0, 20, 34, 0, 16, 0, 0, 0, 8, 0, 10, 14, 31, 23, 0, 0
|0, 0, 5, 0, 15, 0, 3, 0, 0, 0, 24, 27, 0, 20, 2, 0, 13, 0, 0, 0, 8, 7, 32, 29, 0, 14, 36, 0, 10, 0, 6, 0, 17, 21, 0, 4
|0, 0, 0, 0, 0, 0, 0, 0, 0, 0, 7, 0, 0, 0, 15, 14, 0, 6, 0, 0, 0, 0, 0, 0, 0, 0, 0, 0, 0, 0, 0, 0, 0, 0, 0, 0
|0, 0, 0, 14, 0, 4, 32, 0, 23, 21, 0, 0, 33, 34, 26, 0, 0, 24, 31, 2, 0, 5, 12, 0, 0, 0, 0, 25, 0, 20, 0, 0, 0, 11, 0, 0
|0, 0, 0, 33, 0, 20, 0, 0, 0, 36, 34, 0, 21, 30, 0, 0, 11, 0, 0, 0, 32, 25, 0, 4, 0, 0, 0, 29, 0, 0, 0, 0, 35, 14, 0, 0
|0, 0, 0, 0, 0, 0, 35, 0, 0, 0, 0, 0, 0, 36, 32, 0, 19, 0, 0, 0, 12, 0, 0, 0, 0, 0, 0, 0, 0, 0, 0, 24, 0, 0, 0, 31
|28, 0, 34, 0, 0, 0, 0, 0, 0, 0, 33, 0, 0, 0, 0, 27, 0, 0, 0, 14, 1, 0, 13, 0, 0, 0, 0, 20, 21, 8, 19, 0, 0, 36, 32, 22
|0, 0, 0, 0, 0, 0, 0, 0, 0, 13, 0, 0, 14, 35, 0, 24, 0, 33, 0, 0, 0, 0, 19, 0, 0, 0, 22, 34, 0, 17, 27, 0, 0, 0, 3, 18
|0, 0, 0, 0, 0, 0, 21, 5, 0, 0, 0, 31, 0, 8, 16, 12, 0, 9, 0, 0, 0, 0, 0, 0, 0, 0, 24, 0, 0, 1, 26, 11, 0, 0, 0, 0
|22, 0, 24, 5, 16, 0, 0, 0, 0, 0, 0, 0, 0, 0, 0, 13, 34, 28, 17, 31, 0, 15, 36, 9, 35, 19, 0, 0, 0, 18, 0, 0, 0, 0, 0, 0
|29, 4, 0, 0, 0, 8, 0, 21, 0, 0, 0, 0, 0, 15, 0, 0, 22, 0, 0, 35, 19, 9, 0, 12, 3, 0, 0, 0, 11, 0, 0, 33, 2, 5, 0, 0
|31, 0, 0, 0, 2, 27, 0, 30, 3, 17, 0, 0, 0, 0, 0, 34, 0, 0, 10, 0, 0, 0, 0, 0, 0, 0, 0, 0, 29, 5, 0, 0, 0, 24, 0, 0
|21, 24, 10, 3, 14, 0, 0, 13, 0, 12, 27, 0, 0, 2, 0, 0, 0, 0, 0, 5, 0, 4, 0, 0, 31, 15, 0, 0, 0, 0, 0, 0, 0, 0, 0, 34
|0, 17, 30, 0, 19, 6, 0, 34, 8, 0, 31, 0, 0, 0, 10, 25, 0, 0, 33, 23, 21, 1, 0, 0, 0, 0, 0, 0, 36, 0, 0, 0, 0, 0, 18, 0
|36, 0, 0, 0, 33, 0, 0, 0, 0, 0, 11, 0, 0, 5, 0, 26, 28, 30, 0, 0, 0, 8, 0, 0, 0, 0, 0, 0, 0, 34, 0, 0, 0, 0, 0, 0
|11, 0, 0, 0, 0, 0, 0, 2, 5, 7, 15, 29, 18, 0, 0, 0, 0, 8, 0, 34, 17, 0, 0, 0, 0, 0, 0, 4, 0, 0, 0, 0, 0, 27, 10, 0
|0, 0, 0, 0, 0, 0, 0, 0, 0, 0, 1, 0, 0, 0, 0, 0, 5, 22, 0, 0, 0, 0, 0, 11, 0, 0, 0, 0, 0, 0, 0, 0, 0, 0, 0, 0
|12, 1, 0, 0, 0, 0, 11, 36, 32, 0, 0, 25, 20, 21, 0, 0, 0, 0, 0, 18, 0, 0, 31, 0, 22, 0, 29, 0, 23, 0, 0, 28, 0, 4, 0, 24
|0, 0, 0, 0, 0, 30, 0, 0, 0, 22, 8, 0, 0, 0, 12, 0, 33, 35, 0, 0, 0, 0, 0, 0, 0, 0, 0, 0, 19, 0, 0, 0, 0, 31, 0, 0
|26, 0, 32, 0, 0, 15, 0, 6, 0, 0, 0, 0, 0, 0, 25, 11, 3, 0, 0, 20, 14, 21, 0, 22, 18, 0, 16, 0, 24, 0, 12, 36, 5, 8, 0, 0
|0, 0, 0, 2, 21, 24, 0, 0, 0, 0, 0, 0, 0, 10, 0, 0, 32, 0, 16, 3, 13, 12, 0, 0, 0, 0, 0, 0, 0, 0, 0, 0, 0, 22, 0, 0
|9, 0, 36, 0, 0, 0, 0, 27, 0, 18, 0, 0, 0, 4, 0, 0, 31, 15, 0, 0, 0, 34, 0, 8, 0, 20, 0, 0, 0, 0, 0, 0, 0, 0, 19, 0|];