order = 6;
grid = [|5, 0, 8, 31, 0, 0, 22, 0, 0, 0, 0, 13, 0, 2, 20, 0, 26, 23, 36, 0, 34, 1, 0, 0, 0, 0, 30, 0, 0, 0, 11, 0, 0, 0, 0, 0
|0, 0, 0, 0, 0, 0, 0, 35, 0, 0, 0, 23, 0, 0, 0, 32, 0, 0, 0, 13, 0, 6, 0, 0, 14, 0, 0, 0, 0, 0, 0, 0, 26, 0, 0, 0
|0, 20, 19, 26, 0, 34, 0, 0, 25, 11, 0, 0, 29, 30, 0, 22, 0, 8, 10, 23, 0, 0, 0, 7, 0, 1, 0, 0, 0, 0, 0, 28, 0, 0, 0, 0
|0, 0, 0, 0, 0, 0, 30, 0, 0, 0, 0, 19, 33, 0, 0, 0, 10, 6, 0, 0, 2, 0, 0, 0, 28, 0, 0, 0, 0, 0, 7, 0, 0, 18, 0, 0
|0, 0, 6, 0, 0, 0, 0, 0, 8, 0, 27, 0, 0, 0, 0, 0, 0, 0, 29, 0, 0, 0, 0, 0, 0, 0, 0, 0, 0, 19, 0, 0, 0, 0, 0, 0
|0, 33, 22, 17, 0, 10, 7, 0, 0, 0, 0, 1, 0, 4, 0, 0, 0, 36, 0, 0, 12, 18, 26, 0, 0, 0, 0, 0, 0, 13, 0, 0, 9, 2, 0, 0
|0, 0, 5, 0, 0, 33, 24, 36, 0, 0, 0, 0, 0, 0, 0, 34, 0, 0, 0, 0, 0, 13, 0, 18, 4, 0, 0, 0, 0, 0, 6, 0, 0, 7, 2, 0
|0, 9, 0, 0, 0, 0, 0, 0, 0, 0, 0, 10, 18, 27, 0, 0, 0, 0, 23, 0, 15, 0, 0, 0, 0, 0, 0, 0, 16, 2, 0, 3, 20, 0, 0, 0
|0, 22, 0, 0, 2, 0, 0, 0, 26, 0, 13, 0, 0, 31, 10, 0, 0, 1, 3, 11, 25, 33, 0, 0, 6, 0, 0, 0, 17, 0, 8, 4, 0, 0, 0, 0
|27, 30, 0, 10, 0, 0, 0, 14, 0, 0, 0, 0, 0, 16, 0, 0, 20, 0, 34, 0, 0, 0, 0, 0, 0, 0, 0, 0, 32, 0, 12, 1, 0, 13, 26, 9
|0, 0, 0, 0, 0, 20, 0, 0, 23, 16, 0, 25, 0, 0, 0, 0, 0, 28, 0, 0, 0, 0, 0, 12, 0, 0, 5, 0, 0, 1, 0, 0, 0, 0, 14, 0
|0, 0, 0, 0, 0, 1, 20, 0, 0, 0, 18, 32, 0, 0, 0, 0, 0, 0, 0, 22, 27, 0, 0, 0, 0, 0, 0, 0, 0, 0, 0, 19, 0, 0, 0, 0
|0, 0, 0, 23, 22, 0, 25, 0, 0, 31, 15, 0, 0, 0, 0, 0, 18, 0, 0, 0, 0, 0, 14, 33, 0, 6, 0, 0, 0, 21, 0, 35, 0, 0, 7, 12
|0, 31, 0, 0, 28, 0, 0, 0, 0, 0, 0, 0, 0, 10, 0, 0, 0, 27, 0, 0, 0, 0, 0, 0, 0, 0, 34, 0, 0, 26, 0, 0, 0, 0, 0, 0
|16, 0, 0, 0, 0, 0, 0, 0, 0, 0, 0, 0, 0, 0, 0, 0, 0, 0, 0, 0, 4, 7, 22, 0, 8, 0, 23, 0, 0, 24, 0, 25, 0, 0, 0, 19
|0, 6, 7, 18, 0, 35, 0, 0, 0, 0, 0, 5, 14, 0, 0, 0, 0, 0, 0, 0, 0, 0, 34, 0, 0, 0, 0, 0, 0, 15, 0, 8, 33, 0, 0, 0
|0, 5, 14, 15, 0, 24, 4, 23, 0, 0, 0, 16, 0, 6, 0, 0, 0, 0, 25, 0, 0, 0, 0, 0, 0, 30, 0, 0, 0, 0, 0, 26, 0, 0, 9, 0
|0, 0, 0, 9, 0, 0, 17, 0, 34, 0, 32, 0, 0, 5, 26, 11, 0, 0, 18, 0, 0, 0, 0, 0, 0, 7, 0, 0, 0, 0, 0, 0, 10, 20, 0, 0
|0, 0, 0, 0, 0, 0, 6, 0, 0, 0, 0, 0, 0, 17, 13, 30, 0, 0, 0, 0, 0, 0, 0, 0, 0, 0, 4, 0, 1, 0, 0, 0, 25, 0, 0, 0
|2, 0, 1, 0, 0, 0, 32, 0, 0, 0, 0, 0, 0, 18, 0, 0, 0, 10, 21, 36, 8, 0, 0, 4, 0, 0, 0, 0, 0, 9, 22, 0, 27, 0, 0, 26
|0, 0, 0, 0, 0, 26, 10, 0, 18, 0, 4, 0, 0, 33, 0, 28, 0, 3, 20, 27, 0, 0, 0, 13, 0, 0, 0, 0, 21, 6, 0, 12, 0, 0, 0, 7
|0, 0, 0, 8, 33, 0, 5, 19, 0, 0, 0, 0, 9, 0, 0, 0, 0, 0, 0, 0, 0, 0, 0, 0, 0, 27, 0, 34, 22, 3, 0, 18, 0, 28, 24, 10
|0, 0, 0, 0, 6, 0, 12, 1, 0, 0, 0, 22, 21, 0, 0, 0, 27, 0, 0, 0, 0, 0, 11, 0, 0, 0, 0, 23, 0, 0, 0, 0, 29, 0, 0, 31
|0, 0, 20, 0, 0, 0, 0, 0, 15, 0, 23, 11, 0, 19, 0, 0, 0, 0, 22, 0, 0, 2, 0, 0, 0, 0, 0, 0, 18, 0, 0, 14, 30, 0, 0, 0
|0, 29, 34, 0, 14, 0, 0, 0, 0, 0, 0, 0, 27, 0, 9, 12, 0, 0, 0, 10, 33, 0, 0, 0, 30, 0, 0, 17, 0, 0, 0, 0, 0, 4, 5, 0
|0, 0, 0, 0, 5, 0, 0, 0, 0, 0, 0, 0, 0, 1, 34, 0, 0, 2, 0, 17, 0, 32, 0, 36, 0, 0, 0, 29, 0, 10, 0, 0, 0, 0, 0, 0
|32, 0, 0, 0, 0, 0, 0, 0, 0, 0, 19, 0, 4, 0, 0, 0, 3, 17, 0, 0, 0, 0, 0, 0, 0, 0, 0, 5, 0, 0, 0, 11, 0, 0, 0, 28
|3, 0, 0, 0, 31, 0, 13, 0, 0, 0, 22, 0, 0, 0, 32, 24, 0, 0, 0, 0, 0, 0, 0, 0, 12, 25, 9, 0, 0, 0, 0, 0, 19, 0, 0, 0
|0, 0, 0, 25, 0, 0, 0, 0, 0, 0, 0, 0, 0, 29, 0, 0, 0, 0, 0, 0, 0, 0, 3, 21, 19, 22, 20, 0, 0, 0, 0, 0, 0, 0, 0, 0
|9, 0, 0, 0, 36, 0, 0, 0, 0, 0, 0, 17, 13, 0, 0, 0, 30, 0, 0, 25, 0, 0, 0, 0, 0, 0, 0, 0, 0, 28, 0, 10, 0, 22, 18, 0
|28, 36, 0, 32, 0, 30, 8, 0, 4, 0, 0, 26, 2, 0, 0, 0, 0, 22, 0, 0, 0, 0, 1, 34, 15, 0, 27, 0, 9, 0, 0, 6, 14, 0, 20, 0
|0, 3, 26, 24, 0, 0, 0, 0, 5, 0, 0, 36, 0, 20, 0, 10, 11, 0, 19, 12, 7, 23, 0, 2, 0, 17, 14, 0, 30, 18, 4, 0, 28, 1, 0, 0
|23, 0, 9, 22, 0, 0, 27, 21, 30, 0, 25, 24, 0, 28, 33, 0, 0, 31, 0, 0, 26, 0, 15, 20, 0, 4, 11, 0, 0, 0, 0, 0, 0, 0, 0, 0
|0, 0, 0, 0, 0, 0, 0, 0, 0, 0, 20, 0, 0, 0, 0, 0, 0, 0, 0, 24, 0, 5, 13, 32, 0, 0, 0, 0, 29, 35, 0, 0, 0, 12, 0, 0
|0, 0, 35, 2, 8, 6, 1, 0, 0, 0, 0, 0, 26, 0, 12, 27, 0, 0, 14, 28, 0, 0, 0, 0, 31, 0, 0, 13, 0, 0, 3, 0, 15, 10, 0, 0
|20, 0, 10, 0, 0, 0, 0, 0, 0, 0, 0, 2, 0, 0, 0, 0, 0, 30, 0, 0, 0, 0, 0, 27, 16, 0, 0, 0, 0, 12, 0, 34, 24, 0, 23, 0|];