order = 6;
grid = [|0, 0, 0, 32, 6, 0, 0, 0, 0, 0, 0, 0, 7, 0, 0, 0, 0, 30, 0, 36, 3, 0, 0, 9, 0, 0, 0, 0, 0, 33, 0, 0, 0, 0, 0, 0
|0, 15, 0, 0, 0, 13, 0, 0, 32, 8, 0, 34, 0, 23, 22, 0, 0, 31, 0, 21, 0, 0, 0, 28, 0, 0, 0, 16, 0, 0, 0, 0, 0, 0, 0, 25
|0, 16, 24, 0, 31, 0, 0, 0, 0, 0, 0, 0, 0, 26, 0, 0, 0, 8, 0, 6, 0, 0, 18, 0, 0, 0, 7, 0, 29, 0, 0, 0, 0, 0, 0, 0
|8, 0, 0, 0, 11, 0, 0, 24, 0, 0, 35, 0, 0, 0, 0, 0, 4, 0, 10, 0, 31, 0, 12, 0, 0, 0, 15, 0, 0, 0, 6, 0, 26, 23, 2, 0
|0, 29, 0, 22, 0, 34, 0, 27, 0, 0, 0, 0, 14, 0, 2, 0, 0, 20, 0, 33, 0, 0, 0, 26, 0, 0, 0, 0, 36, 0, 0, 0, 0, 17, 0, 0
|14, 0, 0, 0, 1, 17, 18, 4, 0, 30, 0, 16, 33, 19, 24, 0, 32, 0, 22, 0, 0, 0, 0, 0, 0, 2, 0, 0, 34, 23, 0, 0, 0, 0, 31, 0
|0, 18, 29, 0, 33, 0, 0, 25, 0, 0, 4, 0, 17, 24, 32, 0, 0, 0, 0, 0, 0, 0, 0, 0, 0, 11, 26, 0, 0, 14, 0, 20, 8, 0, 0, 2
|26, 0, 0, 0, 0, 0, 23, 0, 20, 15, 27, 0, 0, 0, 8, 19, 11, 0, 3, 0, 0, 0, 0, 18, 0, 0, 0, 0, 0, 0, 0, 0, 0, 0, 34, 0
|11, 0, 1, 0, 0, 15, 0, 5, 0, 24, 0, 35, 0, 0, 0, 0, 0, 0, 0, 19, 33, 21, 0, 0, 0, 23, 0, 0, 7, 29, 0, 0, 0, 13, 0, 0
|0, 0, 0, 0, 0, 31, 0, 0, 0, 0, 3, 0, 0, 29, 0, 0, 10, 0, 0, 15, 0, 0, 20, 0, 0, 24, 0, 0, 0, 21, 0, 0, 0, 30, 1, 0
|34, 0, 0, 0, 23, 30, 0, 33, 22, 21, 31, 0, 0, 0, 26, 0, 0, 1, 29, 11, 12, 0, 0, 0, 0, 20, 35, 0, 28, 0, 0, 15, 0, 0, 0, 0
|0, 0, 28, 0, 0, 27, 36, 6, 0, 0, 0, 10, 15, 0, 3, 0, 33, 0, 0, 0, 0, 0, 0, 0, 0, 0, 0, 0, 0, 0, 0, 0, 7, 11, 0, 0
|24, 31, 0, 0, 0, 0, 0, 0, 5, 0, 0, 0, 0, 0, 36, 8, 0, 9, 0, 0, 0, 0, 0, 0, 2, 12, 0, 23, 0, 0, 0, 0, 0, 0, 10, 0
|22, 0, 0, 0, 36, 12, 0, 0, 13, 19, 0, 0, 0, 0, 35, 6, 21, 34, 0, 28, 0, 18, 0, 0, 0, 31, 0, 0, 0, 0, 0, 0, 16, 0, 5, 0
|10, 19, 0, 0, 32, 0, 1, 0, 0, 4, 20, 11, 0, 0, 0, 0, 0, 0, 0, 0, 0, 7, 21, 25, 0, 0, 8, 18, 0, 13, 36, 2, 0, 34, 12, 17
|0, 0, 0, 0, 0, 25, 0, 8, 0, 0, 0, 0, 0, 16, 0, 13, 0, 0, 0, 0, 0, 0, 0, 0, 0, 0, 0, 0, 0, 0, 0, 0, 0, 0, 0, 31
|0, 6, 18, 1, 34, 8, 0, 0, 15, 16, 0, 31, 23, 5, 0, 0, 0, 32, 30, 0, 0, 0, 0, 0, 0, 21, 28, 26, 0, 0, 0, 0, 0, 0, 0, 0
|0, 13, 14, 0, 2, 0, 0, 0, 0, 36, 12, 0, 0, 0, 20, 26, 1, 0, 0, 32, 0, 0, 0, 0, 7, 0, 0, 19, 6, 5, 0, 0, 3, 0, 0, 0
|0, 34, 0, 0, 35, 28, 12, 0, 4, 32, 0, 15, 0, 9, 0, 3, 0, 0, 8, 23, 0, 0, 0, 0, 31, 0, 0, 24, 0, 0, 0, 22, 0, 0, 14, 27
|0, 27, 0, 0, 0, 0, 0, 0, 0, 29, 0, 33, 0, 0, 0, 2, 0, 4, 0, 0, 0, 34, 0, 0, 0, 6, 11, 0, 0, 26, 0, 8, 0, 19, 0, 0
|0, 26, 12, 0, 22, 4, 30, 0, 0, 0, 0, 0, 0, 0, 0, 0, 0, 0, 0, 7, 29, 0, 0, 0, 0, 0, 0, 0, 0, 0, 2, 23, 0, 0, 15, 0
|0, 10, 0, 0, 0, 0, 34, 0, 0, 0, 0, 0, 27, 0, 28, 36, 0, 0, 0, 0, 2, 0, 0, 0, 0, 0, 0, 3, 20, 0, 0, 0, 0, 33, 35, 4
|0, 20, 0, 0, 0, 0, 0, 0, 0, 10, 0, 0, 0, 0, 0, 0, 0, 26, 0, 0, 0, 0, 0, 0, 0, 27, 0, 0, 0, 0, 0, 0, 24, 0, 0, 0
|0, 8, 25, 0, 14, 0, 3, 0, 6, 0, 0, 0, 0, 18, 0, 0, 0, 0, 0, 0, 20, 9, 0, 0, 0, 10, 1, 0, 33, 0, 0, 0, 0, 0, 21, 0
|25, 4, 0, 26, 0, 0, 0, 7, 0, 11, 0, 0, 21, 0, 0, 33, 0, 0, 0, 20, 0, 0, 35, 0, 0, 0, 0, 0, 0, 0, 0, 0, 0, 2, 0, 0
|0, 0, 0, 0, 0, 0, 0, 0, 0, 0, 0, 0, 35, 20, 13, 28, 0, 11, 0, 0, 0, 0, 0, 0, 0, 33, 36, 4, 26, 0, 0, 0, 30, 0, 0, 0
|20, 0, 0, 0, 0, 22, 0, 0, 0, 0, 0, 0, 0, 36, 7, 0, 0, 0, 0, 2, 0, 0, 0, 0, 0, 15, 0, 30, 0, 0, 0, 0, 0, 12, 17, 0
|18, 0, 15, 0, 12, 0, 20, 3, 0, 5, 0, 0, 4, 27, 0, 30, 0, 0, 0, 0, 26, 33, 32, 0, 0, 35, 0, 17, 19, 0, 0, 28, 0, 0, 0, 0
|0, 0, 0, 28, 0, 0, 0, 0, 16, 2, 0, 0, 0, 8, 0, 0, 0, 0, 14, 0, 0, 0, 30, 0, 0, 0, 0, 5, 0, 20, 0, 0, 35, 25, 0, 0
|0, 0, 10, 0, 0, 0, 0, 36, 0, 0, 0, 9, 0, 32, 19, 1, 0, 12, 0, 25, 0, 0, 0, 0, 8, 0, 0, 0, 0, 0, 4, 0, 0, 20, 0, 13
|0, 0, 0, 0, 0, 9, 0, 2, 36, 0, 0, 0, 0, 33, 0, 0, 0, 6, 0, 0, 0, 0, 31, 0, 0, 4, 32, 0, 18, 0, 0, 0, 0, 0, 27, 14
|0, 0, 0, 17, 27, 0, 0, 12, 31, 0, 6, 0, 0, 15, 0, 32, 9, 0, 0, 18, 0, 0, 0, 2, 0, 0, 0, 0, 0, 19, 0, 0, 0, 26, 0, 0
|0, 0, 0, 0, 4, 0, 32, 0, 0, 0, 0, 0, 0, 0, 0, 0, 28, 0, 7, 0, 34, 14, 15, 0, 24, 25, 16, 0, 2, 0, 23, 33, 0, 1, 0, 0
|0, 0, 32, 0, 0, 0, 0, 34, 8, 0, 0, 7, 0, 0, 0, 0, 0, 5, 0, 0, 16, 0, 0, 0, 0, 0, 0, 15, 0, 6, 0, 11, 2, 0, 0, 0
|0, 30, 0, 0, 29, 24, 15, 0, 0, 0, 0, 0, 0, 0, 34, 4, 7, 0, 0, 0, 0, 0, 10, 0, 35, 0, 9, 11, 0, 0, 0, 0, 0, 0, 0, 0
|0, 0, 0, 0, 0, 0, 0, 0, 27, 25, 0, 0, 0, 17, 0, 29, 0, 0, 0, 4, 0, 0, 13, 21, 0, 0, 0, 7, 0, 8, 0, 16, 0, 35, 0, 0|];