order = 6;
grid = [|23, 35, 13, 0, 0, 0, 22, 7, 14, 1, 0, 2, 0, 0, 0, 0, 0, 0, 6, 11, 0, 0, 0, 0, 26, 36, 0, 0, 0, 0, 0, 0, 0, 0, 33, 0
|29, 32, 2, 18, 0, 0, 5, 0, 0, 0, 0, 35, 0, 0, 1, 33, 27, 0, 0, 23, 0, 0, 0, 28, 0, 0, 0, 0, 3, 0, 16, 24, 0, 30, 0, 6
|0, 0, 0, 6, 0, 0, 32, 0, 0, 0, 0, 0, 0, 0, 0, 0, 14, 3, 0, 0, 0, 35, 0, 0, 0, 0, 1, 30, 0, 0, 20, 0, 0, 0, 0, 15
|0, 0, 0, 0, 0, 0, 0, 0, 0, 18, 0, 0, 0, 2, 30, 0, 19, 31, 0, 0, 0, 0, 0, 0, 6, 0, 0, 0, 35, 0, 0, 0, 0, 8, 0, 0
|0, 0, 0, 0, 0, 0, 0, 0, 0, 10, 0, 11, 15, 4, 0, 23, 0, 0, 0, 0, 0, 20, 0, 0, 0, 0, 0, 0, 0, 0, 0, 22, 0, 35, 0, 0
|0, 0, 16, 0, 0, 0, 0, 0, 0, 0, 0, 0, 0, 0, 0, 0, 0, 0, 0, 0, 30, 25, 0, 0, 0, 34, 0, 0, 24, 28, 19, 12, 0, 7, 0, 14
|0, 12, 0, 0, 0, 0, 0, 0, 9, 27, 0, 0, 0, 0, 0, 24, 0, 0, 0, 0, 0, 0, 7, 0, 0, 22, 0, 0, 0, 0, 33, 6, 0, 0, 13, 29
|32, 14, 9, 0, 2, 5, 0, 0, 0, 34, 0, 33, 0, 0, 0, 0, 0, 0, 0, 36, 0, 11, 0, 0, 0, 0, 0, 0, 21, 18, 0, 0, 23, 24, 16, 0
|4, 0, 0, 0, 0, 0, 0, 0, 0, 0, 0, 0, 2, 21, 0, 20, 0, 15, 0, 0, 25, 0, 0, 12, 0, 0, 0, 0, 0, 0, 0, 0, 0, 0, 0, 5
|0, 0, 0, 17, 0, 6, 0, 0, 0, 23, 0, 0, 7, 0, 0, 14, 8, 18, 0, 0, 0, 0, 0, 0, 0, 35, 9, 0, 29, 0, 0, 0, 0, 0, 0, 21
|0, 0, 23, 0, 36, 0, 0, 0, 0, 30, 2, 19, 6, 10, 0, 0, 0, 0, 0, 20, 0, 0, 0, 9, 0, 11, 0, 3, 34, 0, 17, 0, 0, 0, 0, 0
|18, 7, 1, 0, 35, 29, 0, 21, 22, 5, 0, 0, 0, 0, 0, 0, 0, 0, 0, 0, 24, 4, 0, 0, 0, 0, 0, 23, 0, 0, 0, 0, 0, 28, 0, 2
|0, 0, 0, 14, 1, 9, 0, 0, 0, 0, 0, 13, 0, 0, 0, 0, 0, 0, 0, 0, 0, 0, 35, 4, 0, 0, 10, 0, 0, 0, 0, 0, 18, 0, 31, 0
|0, 0, 10, 0, 20, 0, 31, 0, 8, 0, 0, 0, 0, 7, 0, 0, 0, 0, 28, 0, 0, 36, 0, 0, 0, 0, 0, 0, 27, 23, 14, 0, 0, 0, 0, 0
|2, 0, 0, 0, 3, 32, 0, 0, 16, 0, 0, 27, 20, 0, 0, 0, 0, 0, 0, 13, 0, 15, 14, 0, 31, 30, 25, 0, 0, 0, 0, 0, 36, 0, 0, 26
|0, 0, 0, 0, 0, 0, 0, 22, 0, 0, 0, 1, 0, 0, 35, 0, 0, 10, 17, 0, 6, 0, 0, 0, 0, 3, 0, 24, 0, 0, 7, 0, 0, 0, 28, 0
|0, 0, 0, 0, 0, 0, 0, 0, 32, 0, 0, 0, 0, 0, 25, 0, 0, 0, 9, 0, 0, 0, 0, 0, 0, 0, 26, 0, 11, 0, 0, 0, 29, 0, 0, 20
|0, 0, 0, 0, 0, 18, 10, 0, 0, 7, 0, 34, 0, 0, 0, 28, 0, 0, 0, 26, 0, 29, 0, 0, 0, 0, 0, 0, 0, 0, 0, 0, 0, 0, 8, 25
|0, 0, 0, 0, 0, 21, 0, 23, 0, 0, 0, 31, 19, 16, 15, 0, 0, 0, 0, 0, 0, 0, 0, 22, 0, 0, 0, 0, 0, 9, 0, 0, 0, 0, 0, 0
|0, 31, 0, 22, 0, 8, 0, 0, 21, 15, 0, 0, 0, 0, 7, 0, 30, 0, 0, 0, 18, 33, 27, 0, 0, 0, 0, 0, 23, 0, 0, 0, 0, 0, 0, 0
|0, 30, 24, 0, 10, 0, 0, 0, 0, 11, 0, 0, 0, 0, 14, 0, 0, 0, 0, 4, 0, 0, 0, 0, 18, 8, 0, 0, 0, 0, 1, 0, 15, 3, 32, 31
|36, 15, 0, 0, 14, 35, 0, 0, 0, 3, 0, 0, 0, 17, 0, 0, 0, 0, 0, 0, 0, 0, 0, 0, 0, 0, 0, 0, 0, 30, 0, 0, 20, 0, 27, 23
|0, 0, 18, 0, 0, 0, 0, 16, 0, 14, 0, 6, 0, 0, 9, 31, 0, 0, 0, 0, 17, 0, 0, 23, 0, 5, 0, 0, 0, 0, 0, 0, 4, 0, 12, 11
|0, 0, 0, 9, 0, 0, 33, 0, 30, 0, 0, 0, 8, 0, 0, 35, 0, 0, 0, 0, 0, 0, 0, 0, 25, 0, 22, 0, 0, 15, 0, 21, 0, 0, 7, 0
|0, 0, 0, 0, 0, 13, 0, 0, 0, 0, 0, 0, 0, 3, 0, 30, 0, 12, 0, 0, 35, 0, 0, 0, 0, 23, 0, 34, 0, 0, 32, 1, 0, 0, 0, 0
|0, 0, 0, 0, 0, 0, 0, 0, 4, 0, 0, 7, 0, 27, 0, 0, 0, 25, 0, 30, 23, 0, 0, 0, 0, 0, 0, 0, 18, 0, 0, 0, 13, 0, 20, 35
|0, 0, 0, 1, 0, 30, 21, 0, 20, 24, 8, 0, 16, 0, 0, 0, 11, 33, 25, 0, 0, 10, 0, 0, 0, 13, 6, 0, 0, 0, 0, 0, 27, 0, 26, 0
|0, 2, 35, 0, 6, 0, 0, 0, 0, 0, 0, 0, 29, 0, 0, 0, 0, 0, 0, 0, 0, 26, 33, 0, 10, 0, 0, 25, 0, 0, 0, 30, 0, 0, 0, 0
|0, 0, 0, 29, 0, 0, 25, 0, 34, 0, 0, 0, 0, 15, 0, 22, 0, 0, 0, 6, 0, 21, 0, 0, 0, 0, 0, 19, 0, 1, 0, 0, 28, 9, 0, 0
|0, 0, 0, 0, 0, 33, 0, 6, 0, 0, 1, 0, 0, 0, 18, 0, 20, 0, 11, 0, 0, 0, 0, 0, 0, 0, 14, 0, 0, 8, 0, 25, 0, 23, 0, 0
|0, 0, 0, 0, 0, 0, 0, 0, 0, 0, 17, 15, 0, 0, 0, 0, 0, 0, 3, 0, 0, 0, 0, 0, 0, 0, 0, 0, 0, 0, 23, 0, 0, 0, 0, 0
|0, 0, 31, 0, 0, 0, 0, 0, 0, 0, 34, 0, 1, 35, 0, 0, 0, 0, 15, 25, 0, 0, 0, 10, 29, 0, 0, 0, 0, 0, 11, 0, 0, 0, 0, 0
|0, 0, 0, 0, 0, 0, 3, 0, 0, 36, 0, 28, 0, 0, 0, 2, 0, 14, 34, 0, 29, 0, 0, 18, 0, 0, 27, 0, 30, 0, 15, 0, 33, 16, 10, 0
|0, 0, 0, 21, 23, 0, 0, 0, 6, 0, 0, 0, 0, 0, 0, 15, 0, 11, 8, 5, 0, 13, 0, 30, 0, 0, 0, 0, 0, 0, 0, 31, 0, 27, 0, 0
|0, 0, 36, 0, 16, 0, 0, 0, 0, 0, 0, 0, 0, 0, 0, 0, 0, 0, 0, 0, 0, 0, 0, 0, 23, 0, 0, 0, 0, 0, 5, 0, 6, 25, 17, 0
|11, 0, 25, 0, 15, 22, 14, 30, 0, 16, 0, 0, 0, 0, 19, 27, 0, 0, 0, 0, 21, 2, 0, 0, 0, 18, 17, 0, 0, 34, 28, 0, 7, 29, 0, 0|];