order = 6;
grid = [|0, 8, 15, 0, 0, 0, 0, 0, 14, 26, 0, 0, 0, 9, 0, 18, 0, 28, 0, 0, 0, 0, 3, 0, 0, 16, 0, 0, 0, 0, 0, 0, 0, 0, 0, 0
|0, 28, 0, 0, 0, 4, 32, 0, 0, 0, 16, 29, 0, 10, 0, 26, 0, 0, 30, 8, 0, 0, 0, 0, 0, 0, 13, 0, 3, 0, 0, 0, 0, 7, 17, 24
|32, 0, 33, 0, 0, 18, 0, 0, 20, 24, 0, 0, 21, 0, 0, 0, 0, 0, 0, 0, 0, 0, 31, 0, 35, 15, 0, 8, 1, 0, 29, 13, 9, 22, 0, 0
|3, 0, 25, 0, 0, 0, 1, 0, 22, 0, 0, 0, 19, 0, 0, 8, 0, 0, 0, 0, 0, 26, 0, 21, 0, 0, 17, 0, 36, 0, 0, 12, 2, 0, 0, 0
|0, 0, 0, 12, 0, 0, 0, 0, 0, 21, 0, 15, 0, 0, 0, 0, 0, 30, 0, 0, 0, 0, 0, 0, 0, 0, 26, 0, 18, 0, 16, 6, 8, 0, 0, 0
|31, 0, 0, 0, 0, 26, 0, 0, 0, 0, 3, 5, 0, 0, 0, 0, 0, 0, 33, 14, 0, 0, 0, 0, 0, 0, 0, 0, 0, 2, 0, 0, 0, 0, 0, 0
|0, 0, 3, 0, 0, 34, 17, 32, 0, 20, 21, 0, 0, 7, 0, 0, 12, 0, 0, 0, 9, 0, 11, 33, 0, 0, 19, 0, 0, 0, 14, 0, 5, 28, 0, 0
|0, 18, 0, 0, 0, 0, 5, 22, 0, 0, 0, 0, 15, 21, 0, 0, 0, 0, 0, 0, 0, 0, 0, 0, 30, 17, 0, 20, 0, 0, 0, 0, 0, 0, 0, 0
|0, 0, 0, 0, 0, 2, 0, 0, 29, 0, 14, 0, 25, 0, 22, 0, 0, 17, 35, 15, 34, 0, 20, 0, 0, 0, 5, 0, 26, 0, 0, 8, 16, 0, 0, 0
|0, 9, 0, 0, 0, 0, 0, 0, 0, 0, 13, 0, 0, 0, 0, 34, 24, 0, 0, 4, 0, 0, 0, 30, 15, 0, 29, 0, 0, 0, 0, 20, 0, 35, 0, 0
|0, 0, 0, 32, 24, 0, 0, 0, 3, 0, 0, 0, 28, 0, 27, 0, 0, 0, 0, 0, 0, 0, 0, 16, 0, 0, 0, 0, 0, 10, 18, 0, 0, 0, 0, 7
|0, 0, 0, 0, 14, 0, 4, 0, 15, 18, 1, 0, 31, 0, 0, 0, 13, 0, 36, 0, 0, 32, 22, 23, 9, 0, 0, 0, 11, 0, 0, 0, 0, 0, 21, 0
|0, 0, 0, 0, 0, 0, 0, 16, 30, 0, 0, 0, 35, 0, 0, 0, 0, 5, 0, 20, 0, 0, 0, 0, 8, 2, 0, 0, 0, 0, 21, 19, 0, 0, 0, 0
|0, 0, 0, 0, 0, 13, 0, 0, 0, 0, 5, 0, 16, 2, 0, 0, 26, 0, 29, 0, 36, 0, 0, 0, 0, 0, 0, 0, 0, 0, 7, 24, 4, 0, 0, 0
|0, 0, 0, 0, 0, 0, 0, 0, 0, 8, 0, 0, 23, 0, 12, 15, 9, 0, 0, 0, 0, 0, 0, 0, 16, 0, 6, 29, 0, 0, 1, 0, 0, 0, 20, 0
|9, 5, 27, 0, 0, 0, 19, 0, 0, 0, 0, 0, 17, 0, 0, 0, 0, 0, 14, 0, 6, 33, 12, 31, 0, 0, 0, 0, 0, 0, 0, 0, 0, 0, 15, 0
|0, 0, 0, 7, 0, 14, 0, 0, 0, 0, 0, 0, 1, 0, 31, 29, 18, 0, 19, 0, 0, 0, 0, 28, 0, 33, 23, 0, 0, 15, 0, 0, 0, 0, 0, 30
|0, 0, 0, 15, 0, 0, 29, 0, 0, 0, 0, 0, 0, 0, 0, 0, 0, 0, 0, 30, 5, 0, 0, 0, 0, 0, 1, 0, 0, 0, 0, 0, 0, 0, 0, 33
|10, 0, 0, 0, 0, 0, 0, 29, 27, 15, 0, 0, 0, 28, 0, 0, 0, 8, 0, 0, 0, 0, 0, 0, 0, 0, 22, 1, 0, 0, 0, 0, 12, 0, 16, 0
|4, 0, 0, 23, 32, 0, 0, 0, 36, 3, 0, 0, 0, 13, 0, 12, 35, 0, 0, 0, 16, 0, 0, 0, 0, 0, 0, 26, 0, 0, 0, 5, 0, 0, 22, 0
|0, 0, 1, 0, 0, 0, 0, 34, 0, 10, 28, 16, 0, 0, 0, 0, 29, 22, 0, 0, 0, 9, 0, 0, 0, 8, 0, 0, 0, 36, 0, 0, 0, 3, 24, 0
|0, 0, 0, 0, 0, 0, 0, 0, 8, 12, 0, 14, 24, 0, 0, 36, 0, 0, 0, 0, 0, 0, 0, 0, 0, 0, 0, 0, 0, 0, 34, 0, 0, 0, 9, 0
|34, 0, 0, 0, 0, 0, 0, 0, 0, 25, 26, 0, 0, 0, 20, 0, 0, 0, 0, 5, 0, 0, 0, 10, 0, 0, 0, 0, 0, 0, 0, 0, 30, 0, 0, 0
|0, 0, 0, 0, 0, 0, 31, 0, 0, 5, 0, 0, 0, 0, 0, 16, 0, 0, 11, 0, 0, 0, 17, 19, 0, 30, 0, 0, 0, 0, 0, 28, 0, 0, 0, 0
|0, 0, 0, 0, 11, 0, 34, 0, 0, 0, 0, 0, 27, 0, 0, 0, 21, 0, 0, 16, 0, 0, 0, 0, 6, 35, 0, 0, 9, 0, 0, 0, 0, 0, 0, 0
|23, 19, 31, 0, 0, 0, 0, 0, 0, 22, 0, 0, 0, 0, 0, 0, 0, 0, 0, 0, 0, 0, 0, 0, 29, 18, 0, 0, 0, 0, 32, 0, 0, 27, 0, 2
|0, 0, 0, 0, 0, 10, 0, 0, 0, 0, 11, 0, 0, 0, 4, 9, 17, 0, 0, 6, 0, 0, 0, 0, 0, 0, 0, 0, 30, 13, 0, 0, 0, 0, 0, 0
|27, 25, 0, 0, 0, 32, 0, 0, 0, 0, 19, 0, 14, 0, 0, 0, 0, 0, 0, 31, 0, 29, 0, 2, 0, 0, 0, 24, 10, 0, 0, 34, 0, 0, 0, 1
|0, 0, 8, 0, 29, 9, 0, 0, 17, 2, 7, 0, 0, 0, 0, 0, 0, 24, 0, 26, 0, 0, 15, 0, 22, 0, 25, 0, 23, 0, 0, 0, 0, 0, 0, 0
|12, 0, 6, 0, 0, 28, 0, 5, 13, 0, 0, 20, 0, 0, 29, 0, 19, 3, 10, 0, 0, 11, 21, 18, 0, 32, 0, 0, 0, 0, 0, 0, 0, 0, 0, 36
|0, 0, 0, 0, 0, 36, 0, 0, 0, 0, 0, 0, 20, 16, 0, 0, 0, 0, 0, 19, 0, 0, 0, 13, 18, 29, 0, 7, 0, 31, 0, 35, 0, 0, 0, 0
|0, 0, 0, 0, 1, 0, 6, 14, 0, 0, 0, 7, 0, 0, 15, 0, 0, 13, 0, 0, 18, 0, 0, 0, 0, 0, 0, 0, 25, 17, 31, 0, 0, 0, 8, 0
|0, 0, 0, 0, 4, 30, 20, 0, 0, 36, 0, 26, 6, 12, 0, 0, 8, 0, 0, 10, 0, 0, 0, 0, 0, 0, 0, 34, 0, 0, 0, 0, 33, 5, 0, 18
|0, 0, 0, 29, 31, 0, 16, 21, 0, 0, 0, 12, 0, 18, 23, 27, 0, 0, 0, 24, 0, 2, 0, 0, 0, 20, 33, 0, 19, 0, 0, 0, 0, 0, 0, 0
|0, 0, 0, 9, 0, 0, 35, 0, 34, 0, 0, 0, 0, 0, 0, 28, 0, 29, 0, 36, 0, 0, 4, 0, 1, 26, 10, 0, 0, 0, 0, 0, 3, 0, 32, 0
|0, 0, 0, 0, 0, 12, 0, 0, 0, 27, 0, 0, 0, 0, 33, 0, 0, 0, 5, 0, 0, 20, 0, 8, 0, 0, 21, 0, 0, 28, 17, 1, 0, 0, 0, 4|];