order = 6;
grid = [|0, 0, 0, 0, 0, 14, 0, 32, 0, 4, 0, 31, 0, 0, 0, 0, 7, 0, 2, 0, 0, 0, 0, 0, 0, 19, 23, 26, 24, 0, 0, 0, 0, 0, 0, 0
|0, 24, 0, 0, 15, 0, 0, 0, 0, 0, 28, 0, 0, 14, 0, 0, 0, 0, 8, 7, 0, 0, 26, 0, 0, 0, 0, 27, 30, 0, 0, 5, 32, 0, 0, 4
|0, 0, 0, 0, 0, 0, 0, 13, 0, 0, 0, 0, 0, 0, 0, 0, 0, 0, 23, 32, 0, 0, 5, 0, 0, 0, 0, 0, 0, 0, 0, 0, 9, 0, 0, 0
|4, 0, 13, 5, 0, 0, 0, 16, 0, 36, 0, 0, 0, 0, 0, 32, 0, 0, 0, 0, 0, 0, 12, 0, 21, 0, 7, 10, 35, 0, 0, 11, 17, 8, 31, 0
|0, 0, 0, 36, 0, 0, 12, 7, 0, 0, 9, 0, 0, 0, 0, 0, 21, 0, 0, 28, 31, 0, 0, 11, 0, 14, 20, 0, 4, 0, 0, 0, 0, 0, 19, 30
|0, 2, 32, 0, 0, 0, 0, 0, 0, 20, 5, 0, 0, 0, 0, 0, 0, 31, 0, 14, 9, 0, 0, 0, 29, 0, 13, 0, 0, 22, 0, 28, 24, 0, 12, 26
|21, 0, 0, 0, 0, 0, 29, 0, 0, 18, 0, 0, 0, 0, 0, 28, 0, 0, 0, 0, 0, 0, 20, 32, 0, 0, 34, 0, 0, 0, 0, 0, 0, 2, 5, 0
|0, 0, 15, 0, 0, 0, 0, 0, 0, 0, 0, 0, 0, 0, 0, 0, 17, 21, 0, 0, 0, 0, 0, 0, 35, 20, 0, 12, 11, 1, 0, 8, 0, 0, 0, 24
|0, 0, 0, 0, 0, 2, 0, 0, 0, 0, 0, 0, 0, 18, 8, 0, 0, 0, 0, 22, 0, 0, 4, 0, 0, 0, 0, 7, 0, 0, 21, 0, 0, 0, 29, 0
|0, 0, 0, 16, 0, 32, 0, 30, 12, 0, 0, 23, 0, 5, 36, 34, 0, 4, 0, 33, 0, 0, 0, 25, 13, 22, 0, 0, 0, 0, 0, 0, 0, 11, 0, 0
|0, 0, 0, 6, 0, 11, 0, 0, 0, 0, 0, 0, 0, 0, 0, 0, 0, 0, 0, 16, 0, 28, 1, 10, 0, 0, 0, 0, 0, 0, 12, 0, 0, 0, 33, 0
|18, 0, 0, 33, 0, 17, 22, 0, 0, 0, 19, 0, 31, 0, 32, 0, 29, 16, 7, 0, 0, 15, 0, 0, 0, 0, 28, 30, 21, 0, 0, 13, 35, 4, 20, 0
|17, 11, 25, 0, 0, 0, 0, 0, 0, 0, 0, 2, 0, 0, 0, 5, 0, 14, 0, 3, 0, 0, 15, 0, 10, 0, 0, 20, 0, 0, 0, 0, 0, 22, 0, 7
|32, 0, 0, 28, 3, 0, 6, 0, 0, 0, 0, 0, 0, 0, 0, 29, 10, 0, 0, 24, 0, 0, 9, 1, 0, 0, 25, 0, 5, 0, 0, 17, 2, 0, 18, 21
|22, 0, 0, 27, 16, 0, 36, 0, 28, 0, 0, 30, 2, 24, 0, 0, 0, 0, 0, 17, 8, 0, 29, 0, 4, 0, 0, 23, 0, 0, 31, 0, 0, 25, 0, 0
|0, 0, 0, 19, 6, 24, 21, 0, 15, 0, 0, 1, 0, 4, 0, 27, 0, 11, 0, 20, 0, 0, 23, 33, 28, 36, 0, 0, 9, 34, 0, 29, 0, 10, 0, 0
|0, 26, 0, 0, 0, 0, 0, 14, 0, 0, 0, 0, 0, 0, 0, 0, 34, 0, 5, 12, 0, 0, 18, 0, 0, 0, 0, 0, 0, 0, 0, 19, 0, 6, 0, 13
|0, 0, 21, 0, 7, 0, 0, 0, 29, 19, 0, 5, 0, 23, 0, 31, 0, 22, 0, 36, 0, 0, 32, 0, 33, 0, 0, 0, 0, 0, 0, 0, 0, 0, 0, 0
|0, 0, 10, 25, 0, 0, 28, 19, 0, 16, 0, 32, 0, 27, 34, 12, 0, 26, 0, 0, 0, 20, 0, 0, 0, 17, 0, 0, 0, 0, 0, 0, 0, 0, 0, 0
|0, 0, 0, 7, 0, 0, 13, 4, 0, 30, 0, 0, 32, 0, 0, 0, 0, 6, 26, 0, 2, 21, 0, 0, 15, 34, 0, 0, 0, 0, 0, 31, 0, 28, 10, 23
|0, 0, 5, 0, 0, 0, 0, 9, 0, 6, 0, 0, 0, 0, 0, 0, 0, 0, 0, 0, 0, 0, 10, 17, 0, 0, 12, 0, 33, 23, 0, 21, 15, 0, 0, 0
|0, 0, 2, 9, 0, 0, 0, 0, 1, 0, 0, 0, 5, 0, 0, 0, 0, 0, 19, 0, 0, 32, 0, 0, 0, 0, 0, 0, 0, 0, 0, 25, 0, 0, 14, 27
|0, 0, 3, 0, 0, 0, 0, 0, 17, 0, 23, 0, 0, 19, 0, 20, 0, 7, 0, 0, 0, 22, 31, 0, 0, 11, 0, 36, 0, 25, 0, 0, 0, 30, 13, 2
|0, 0, 0, 0, 0, 0, 20, 10, 0, 5, 0, 14, 23, 0, 0, 0, 0, 0, 36, 25, 7, 0, 13, 0, 0, 0, 0, 0, 0, 0, 0, 0, 0, 19, 0, 17
|0, 0, 30, 8, 0, 6, 15, 0, 0, 0, 35, 0, 0, 22, 0, 0, 18, 25, 0, 0, 24, 31, 0, 0, 12, 1, 0, 0, 0, 19, 0, 0, 0, 0, 0, 0
|0, 0, 4, 0, 21, 3, 0, 0, 0, 0, 0, 0, 0, 35, 0, 0, 12, 17, 18, 6, 1, 0, 0, 0, 22, 0, 24, 0, 0, 32, 5, 30, 0, 0, 0, 0
|0, 28, 0, 11, 0, 15, 0, 21, 10, 25, 0, 4, 0, 0, 0, 0, 0, 0, 0, 0, 0, 0, 17, 26, 0, 0, 0, 0, 0, 33, 0, 32, 0, 0, 0, 20
|0, 0, 0, 0, 33, 7, 0, 1, 0, 27, 14, 0, 0, 0, 0, 0, 8, 0, 10, 0, 13, 0, 11, 0, 0, 30, 0, 0, 0, 0, 0, 0, 0, 0, 0, 0
|0, 29, 0, 0, 27, 0, 30, 0, 33, 0, 0, 36, 0, 0, 21, 0, 0, 0, 25, 0, 0, 0, 22, 0, 0, 0, 0, 0, 6, 0, 0, 0, 0, 1, 0, 0
|0, 1, 12, 0, 25, 0, 0, 0, 0, 0, 22, 0, 19, 0, 11, 0, 0, 5, 0, 30, 0, 0, 0, 0, 0, 0, 18, 4, 0, 0, 0, 34, 0, 36, 0, 0
|0, 0, 29, 0, 0, 12, 0, 0, 8, 32, 11, 0, 0, 0, 23, 0, 5, 1, 0, 21, 0, 0, 16, 0, 25, 2, 0, 0, 15, 0, 9, 0, 22, 0, 36, 6
|0, 27, 0, 0, 0, 0, 0, 0, 0, 22, 0, 0, 30, 0, 0, 0, 0, 2, 32, 0, 0, 5, 34, 0, 0, 0, 0, 0, 0, 0, 0, 0, 31, 0, 0, 0
|0, 0, 22, 0, 0, 0, 0, 0, 0, 0, 6, 21, 0, 0, 0, 0, 0, 0, 20, 0, 26, 0, 3, 0, 0, 12, 0, 0, 0, 0, 0, 0, 0, 17, 0, 0
|0, 0, 0, 32, 0, 0, 26, 0, 0, 0, 30, 0, 22, 36, 4, 21, 0, 0, 0, 0, 15, 0, 0, 0, 0, 0, 9, 5, 0, 0, 0, 10, 7, 27, 34, 0
|0, 0, 1, 0, 2, 31, 0, 0, 18, 0, 0, 0, 0, 32, 27, 9, 0, 20, 0, 0, 0, 0, 0, 7, 0, 0, 22, 0, 0, 0, 8, 0, 0, 0, 11, 0
|0, 0, 0, 0, 4, 0, 9, 0, 0, 0, 0, 34, 0, 15, 0, 0, 35, 0, 22, 0, 23, 11, 25, 0, 0, 32, 0, 33, 0, 0, 0, 0, 0, 0, 0, 0|];