order = 9;
grid = [|0, 17, 49, 81, 46, 15, 0, 34, 63, 0, 78, 53, 32, 12, 69, 0, 56, 74, 67, 72, 79, 8, 0, 0, 70, 52, 68, 47, 0, 0, 5, 21, 24, 80, 0, 54, 0, 57, 16, 33, 18, 66, 51, 27, 0, 0, 31, 41, 0, 9, 4, 0, 0, 71, 0, 62, 76, 73, 26, 0, 35, 14, 3, 25, 2, 10, 64, 38, 77, 0, 22, 7, 0, 13, 37, 0, 6, 65, 0, 55, 40
|26, 0, 39, 65, 0, 75, 4, 0, 0, 0, 0, 79, 76, 0, 9, 66, 62, 81, 42, 17, 0, 0, 0, 69, 47, 0, 61, 58, 71, 2, 0, 72, 14, 0, 7, 0, 5, 37, 15, 55, 64, 11, 0, 43, 78, 68, 44, 30, 40, 36, 38, 0, 16, 25, 80, 53, 56, 23, 20, 0, 46, 0, 21, 0, 57, 33, 0, 31, 13, 49, 73, 8, 0, 0, 22, 0, 24, 74, 59, 50, 0
|2, 76, 21, 53, 27, 3, 0, 67, 72, 6, 0, 23, 63, 4, 7, 24, 45, 0, 0, 57, 49, 15, 0, 0, 46, 0, 5, 0, 12, 20, 60, 65, 11, 0, 0, 13, 69, 0, 80, 0, 52, 22, 0, 9, 30, 61, 18, 0, 78, 47, 48, 29, 34, 62, 0, 0, 0, 0, 42, 0, 40, 38, 66, 14, 0, 71, 43, 0, 81, 0, 51, 0, 77, 58, 25, 75, 28, 0, 36, 0, 64
|62, 0, 0, 23, 30, 16, 73, 74, 13, 42, 22, 25, 49, 72, 17, 44, 35, 27, 0, 26, 0, 51, 81, 39, 0, 11, 14, 0, 0, 61, 0, 28, 0, 15, 0, 32, 47, 6, 0, 0, 46, 40, 0, 56, 75, 21, 0, 0, 0, 58, 0, 33, 12, 0, 59, 0, 77, 0, 31, 43, 0, 34, 0, 0, 0, 70, 78, 0, 20, 0, 0, 0, 0, 41, 38, 69, 0, 48, 67, 10, 0
|0, 71, 0, 12, 40, 0, 77, 6, 41, 0, 67, 18, 13, 47, 50, 0, 73, 0, 60, 4, 32, 80, 0, 0, 58, 19, 0, 0, 17, 30, 0, 0, 33, 31, 43, 0, 25, 35, 72, 61, 28, 45, 7, 10, 0, 46, 69, 79, 22, 56, 39, 76, 59, 8, 24, 36, 63, 75, 78, 0, 52, 0, 81, 62, 16, 0, 5, 65, 55, 26, 66, 29, 3, 44, 20, 0, 57, 1, 34, 54, 53
|52, 0, 0, 8, 29, 14, 33, 44, 56, 0, 38, 10, 58, 65, 71, 59, 0, 0, 40, 0, 1, 66, 0, 16, 0, 6, 63, 64, 26, 81, 0, 51, 67, 79, 45, 75, 76, 0, 3, 0, 73, 23, 0, 0, 0, 2, 0, 0, 0, 0, 50, 0, 74, 15, 30, 28, 69, 0, 39, 22, 70, 61, 32, 0, 72, 0, 12, 0, 48, 11, 34, 46, 0, 42, 49, 0, 35, 0, 4, 0, 21
|78, 0, 0, 47, 0, 0, 31, 59, 19, 75, 0, 80, 34, 60, 0, 20, 46, 21, 48, 0, 12, 13, 0, 3, 33, 30, 62, 0, 0, 25, 6, 0, 0, 63, 0, 8, 74, 38, 65, 71, 0, 0, 0, 32, 24, 0, 0, 0, 57, 73, 0, 52, 0, 55, 4, 67, 17, 54, 51, 18, 2, 64, 0, 0, 69, 0, 27, 36, 35, 0, 23, 0, 0, 0, 79, 29, 61, 0, 11, 56, 16
|50, 0, 0, 0, 58, 0, 38, 22, 0, 28, 40, 55, 39, 31, 0, 52, 37, 8, 78, 10, 71, 36, 53, 73, 64, 59, 44, 29, 77, 35, 0, 18, 0, 0, 74, 23, 63, 34, 21, 17, 0, 0, 4, 81, 0, 24, 43, 6, 72, 54, 26, 20, 51, 0, 48, 13, 0, 0, 65, 0, 15, 5, 45, 0, 32, 30, 0, 0, 67, 19, 9, 0, 60, 12, 14, 0, 76, 80, 66, 2, 0
|36, 25, 80, 7, 24, 0, 18, 79, 55, 0, 3, 0, 33, 0, 51, 0, 0, 0, 0, 22, 0, 0, 34, 43, 0, 0, 0, 52, 0, 50, 78, 69, 57, 68, 0, 4, 0, 0, 0, 62, 0, 0, 0, 0, 0, 0, 0, 35, 77, 49, 66, 14, 67, 32, 0, 71, 47, 10, 44, 16, 0, 29, 72, 0, 21, 61, 40, 54, 74, 45, 37, 0, 27, 0, 0, 0, 0, 31, 9, 46, 70
|80, 66, 17, 5, 16, 9, 51, 0, 65, 54, 14, 0, 0, 68, 30, 22, 50, 43, 4, 0, 0, 79, 0, 23, 0, 38, 2, 35, 0, 33, 47, 73, 20, 8, 49, 55, 0, 52, 24, 29, 0, 61, 41, 0, 0, 39, 0, 40, 0, 67, 0, 3, 64, 0, 76, 10, 72, 21, 11, 78, 0, 0, 53, 0, 36, 26, 44, 48, 0, 15, 0, 56, 0, 0, 42, 81, 34, 70, 37, 28, 58
|77, 0, 0, 79, 0, 0, 35, 0, 34, 47, 39, 76, 73, 40, 0, 0, 17, 69, 22, 65, 0, 0, 0, 37, 49, 36, 0, 59, 0, 67, 42, 81, 0, 54, 31, 72, 26, 0, 57, 0, 45, 0, 53, 21, 0, 0, 12, 75, 28, 7, 19, 0, 32, 66, 63, 44, 0, 38, 58, 52, 30, 55, 0, 0, 71, 62, 24, 0, 3, 50, 20, 9, 4, 18, 0, 6, 25, 0, 80, 11, 15
|0, 49, 81, 14, 2, 33, 0, 0, 62, 35, 0, 0, 0, 36, 72, 8, 77, 13, 16, 0, 50, 0, 42, 0, 67, 44, 55, 26, 61, 57, 0, 0, 0, 56, 0, 29, 37, 70, 22, 80, 0, 47, 66, 4, 39, 17, 0, 0, 71, 20, 11, 0, 0, 46, 3, 65, 0, 25, 60, 6, 7, 9, 73, 63, 54, 0, 68, 76, 18, 41, 0, 53, 0, 40, 19, 0, 0, 5, 0, 24, 10
|39, 0, 73, 0, 15, 32, 36, 48, 0, 52, 64, 27, 80, 6, 33, 41, 0, 66, 58, 0, 47, 0, 9, 72, 69, 26, 59, 60, 79, 70, 0, 75, 17, 0, 0, 19, 7, 51, 0, 0, 0, 28, 0, 74, 56, 13, 53, 0, 24, 0, 57, 0, 25, 16, 31, 54, 61, 46, 0, 0, 42, 0, 0, 77, 55, 0, 34, 37, 8, 1, 81, 65, 0, 49, 2, 0, 21, 35, 62, 0, 3
|0, 44, 0, 0, 43, 53, 63, 42, 20, 58, 29, 38, 0, 24, 45, 62, 0, 37, 0, 12, 0, 0, 0, 14, 0, 80, 10, 41, 0, 0, 50, 71, 2, 1, 23, 0, 18, 11, 0, 72, 77, 64, 16, 17, 54, 36, 0, 81, 31, 48, 30, 0, 73, 34, 22, 26, 0, 0, 19, 79, 0, 0, 35, 70, 33, 60, 13, 57, 51, 46, 0, 0, 47, 69, 65, 32, 66, 0, 55, 75, 27
|0, 6, 72, 76, 70, 0, 58, 27, 40, 46, 75, 28, 26, 44, 1, 79, 55, 34, 77, 73, 53, 63, 0, 24, 57, 0, 18, 14, 0, 0, 0, 16, 25, 43, 66, 15, 20, 62, 81, 42, 3, 13, 19, 68, 65, 8, 78, 4, 10, 0, 49, 23, 47, 61, 0, 48, 39, 37, 32, 56, 51, 33, 17, 52, 0, 31, 45, 0, 21, 2, 12, 0, 50, 60, 9, 59, 29, 7, 54, 64, 36
|71, 21, 24, 61, 54, 18, 52, 0, 37, 53, 20, 70, 19, 11, 5, 57, 0, 0, 35, 6, 45, 32, 51, 66, 34, 78, 76, 27, 9, 13, 0, 48, 36, 3, 58, 40, 31, 25, 46, 69, 59, 15, 63, 50, 23, 79, 38, 0, 42, 33, 68, 55, 0, 26, 47, 0, 29, 81, 41, 62, 14, 1, 75, 10, 28, 7, 49, 0, 73, 0, 72, 30, 0, 16, 8, 39, 56, 17, 0, 44, 0
|11, 78, 57, 0, 0, 19, 10, 46, 31, 56, 81, 0, 25, 42, 67, 48, 2, 7, 21, 28, 0, 0, 0, 0, 0, 0, 30, 80, 0, 62, 0, 22, 0, 4, 0, 77, 58, 40, 14, 0, 35, 33, 0, 0, 6, 54, 41, 9, 37, 59, 44, 65, 52, 0, 20, 8, 12, 34, 24, 66, 71, 0, 50, 61, 17, 0, 0, 27, 0, 43, 64, 5, 13, 26, 51, 38, 72, 23, 45, 0, 0
|47, 26, 28, 0, 0, 8, 59, 60, 22, 32, 71, 61, 12, 0, 49, 23, 15, 0, 31, 0, 81, 52, 13, 56, 0, 54, 17, 24, 46, 18, 0, 63, 65, 0, 6, 37, 27, 2, 73, 9, 38, 55, 44, 0, 34, 0, 14, 62, 35, 74, 70, 72, 0, 50, 0, 69, 45, 77, 0, 80, 0, 16, 36, 0, 67, 42, 58, 0, 0, 40, 79, 25, 0, 30, 76, 20, 1, 57, 48, 43, 41
|0, 34, 53, 59, 6, 0, 66, 0, 26, 63, 60, 44, 55, 37, 47, 0, 49, 29, 25, 45, 68, 0, 52, 11, 9, 57, 78, 39, 51, 10, 16, 0, 81, 13, 48, 0, 28, 7, 8, 0, 42, 2, 21, 0, 74, 35, 46, 71, 54, 5, 56, 79, 0, 17, 0, 76, 0, 33, 73, 0, 0, 67, 14, 23, 0, 43, 77, 18, 0, 3, 0, 32, 15, 24, 4, 22, 36, 27, 72, 69, 20
|44, 0, 7, 58, 0, 72, 37, 54, 0, 0, 12, 9, 15, 32, 10, 0, 71, 76, 0, 23, 22, 69, 50, 0, 0, 79, 40, 55, 30, 0, 24, 0, 27, 0, 14, 67, 3, 80, 60, 35, 20, 41, 0, 59, 0, 0, 33, 38, 0, 1, 28, 11, 75, 43, 5, 46, 18, 0, 70, 0, 4, 0, 0, 68, 74, 0, 56, 21, 29, 0, 0, 13, 63, 34, 39, 62, 31, 53, 26, 25, 8
|68, 50, 14, 0, 32, 67, 45, 30, 42, 69, 0, 43, 70, 0, 64, 40, 33, 2, 0, 55, 7, 74, 73, 53, 44, 17, 35, 0, 0, 0, 37, 12, 4, 0, 0, 66, 24, 0, 26, 0, 0, 0, 0, 39, 0, 72, 80, 0, 0, 0, 65, 6, 48, 9, 57, 25, 0, 0, 27, 59, 29, 71, 0, 5, 34, 0, 41, 10, 28, 81, 16, 51, 18, 0, 0, 0, 19, 0, 49, 0, 38
|0, 33, 8, 29, 80, 0, 0, 81, 0, 5, 0, 24, 38, 0, 68, 0, 65, 6, 43, 15, 70, 0, 48, 47, 0, 0, 46, 79, 72, 77, 0, 26, 40, 2, 28, 0, 0, 53, 51, 0, 9, 0, 0, 0, 66, 0, 0, 61, 21, 18, 0, 39, 13, 0, 41, 32, 0, 78, 0, 20, 19, 0, 62, 0, 60, 50, 0, 67, 52, 14, 0, 0, 11, 45, 0, 0, 71, 56, 57, 73, 12
|16, 47, 41, 2, 69, 0, 15, 43, 0, 45, 4, 77, 35, 23, 13, 73, 26, 31, 5, 0, 42, 19, 28, 61, 0, 0, 34, 0, 56, 78, 11, 6, 3, 29, 0, 0, 0, 67, 0, 27, 50, 72, 46, 71, 32, 44, 57, 12, 62, 40, 0, 0, 0, 0, 21, 51, 52, 49, 79, 30, 0, 54, 8, 55, 24, 75, 20, 22, 63, 25, 0, 39, 10, 0, 0, 17, 48, 64, 81, 0, 0
|75, 62, 56, 0, 0, 0, 28, 31, 57, 27, 19, 58, 66, 52, 0, 0, 22, 67, 33, 80, 21, 1, 0, 8, 32, 64, 0, 7, 15, 71, 61, 20, 0, 36, 73, 0, 14, 0, 0, 12, 0, 0, 0, 38, 5, 50, 77, 42, 0, 68, 0, 53, 3, 4, 0, 0, 0, 0, 0, 39, 69, 0, 0, 46, 37, 65, 0, 0, 0, 72, 48, 11, 40, 0, 0, 54, 59, 30, 0, 29, 0
|0, 40, 11, 70, 1, 76, 3, 19, 0, 36, 72, 0, 0, 0, 81, 0, 59, 0, 27, 0, 0, 67, 2, 29, 39, 49, 24, 68, 54, 64, 0, 50, 58, 22, 38, 46, 73, 45, 30, 0, 4, 0, 34, 63, 62, 0, 55, 25, 52, 8, 69, 47, 20, 0, 0, 12, 10, 0, 7, 0, 0, 26, 56, 71, 61, 80, 31, 42, 53, 35, 78, 33, 21, 0, 0, 16, 32, 0, 41, 65, 60
|65, 77, 0, 46, 52, 27, 0, 51, 39, 0, 0, 20, 0, 0, 0, 75, 48, 41, 59, 14, 3, 0, 0, 4, 71, 63, 38, 43, 33, 42, 8, 0, 0, 74, 1, 0, 0, 0, 0, 11, 25, 0, 0, 0, 0, 0, 0, 0, 0, 32, 10, 22, 0, 2, 58, 24, 81, 0, 40, 72, 36, 0, 47, 49, 9, 45, 0, 30, 15, 0, 17, 44, 23, 50, 35, 0, 0, 37, 68, 0, 28
|0, 79, 71, 0, 36, 60, 25, 17, 0, 0, 0, 39, 7, 21, 61, 46, 42, 51, 81, 56, 16, 6, 20, 62, 0, 72, 26, 34, 69, 0, 0, 80, 0, 0, 35, 45, 65, 33, 1, 43, 29, 37, 47, 0, 0, 41, 67, 76, 19, 15, 24, 30, 63, 0, 0, 74, 66, 31, 64, 68, 28, 13, 77, 38, 0, 0, 8, 0, 12, 70, 0, 0, 58, 2, 0, 44, 3, 78, 14, 9, 75
|0, 0, 0, 66, 25, 0, 0, 50, 59, 0, 0, 67, 0, 0, 57, 0, 31, 4, 0, 68, 72, 0, 0, 52, 79, 0, 0, 6, 19, 75, 81, 77, 0, 47, 33, 63, 32, 10, 48, 51, 5, 46, 0, 0, 0, 80, 21, 45, 34, 14, 0, 8, 0, 0, 56, 41, 16, 0, 0, 0, 0, 0, 0, 0, 0, 44, 29, 0, 30, 17, 13, 24, 28, 0, 55, 76, 0, 22, 0, 0, 0
|8, 0, 2, 43, 21, 0, 0, 0, 14, 59, 44, 50, 71, 46, 56, 72, 75, 0, 1, 0, 20, 34, 60, 0, 11, 35, 0, 25, 31, 74, 51, 24, 64, 41, 65, 49, 30, 0, 29, 73, 27, 80, 17, 0, 0, 4, 52, 28, 68, 16, 32, 58, 69, 0, 54, 22, 78, 48, 76, 0, 18, 19, 0, 39, 0, 40, 0, 77, 6, 0, 55, 47, 26, 23, 10, 66, 9, 45, 61, 57, 37
|0, 0, 18, 41, 61, 13, 0, 80, 0, 81, 76, 19, 60, 0, 0, 21, 0, 0, 24, 38, 36, 22, 77, 6, 0, 43, 47, 8, 0, 0, 0, 42, 1, 0, 20, 73, 35, 28, 44, 0, 74, 0, 0, 15, 4, 0, 62, 78, 29, 25, 0, 31, 0, 0, 51, 0, 30, 72, 0, 0, 58, 17, 71, 0, 63, 16, 0, 69, 0, 67, 75, 14, 0, 7, 5, 49, 0, 33, 32, 39, 79
|29, 0, 30, 31, 47, 10, 17, 36, 0, 48, 0, 13, 0, 69, 18, 1, 11, 63, 44, 70, 4, 21, 0, 65, 14, 81, 32, 0, 16, 58, 28, 0, 50, 40, 26, 52, 0, 54, 78, 23, 41, 9, 0, 75, 45, 42, 51, 64, 0, 0, 0, 7, 0, 0, 33, 39, 0, 12, 15, 3, 37, 77, 55, 2, 0, 74, 80, 34, 71, 0, 0, 72, 35, 8, 6, 0, 67, 0, 53, 60, 19
|40, 0, 75, 67, 19, 62, 39, 0, 24, 0, 35, 0, 0, 77, 36, 6, 34, 0, 0, 13, 0, 0, 64, 51, 80, 16, 0, 53, 23, 17, 43, 0, 30, 0, 18, 12, 1, 63, 76, 0, 69, 0, 68, 65, 61, 0, 48, 55, 0, 3, 0, 71, 9, 60, 0, 81, 20, 52, 28, 14, 0, 0, 0, 0, 66, 0, 0, 0, 49, 0, 33, 73, 29, 0, 0, 50, 44, 4, 0, 31, 78
|6, 0, 76, 0, 56, 0, 22, 0, 0, 78, 23, 14, 10, 26, 0, 0, 39, 58, 46, 0, 0, 0, 62, 2, 54, 0, 0, 3, 34, 0, 32, 0, 66, 5, 80, 0, 19, 0, 43, 77, 33, 16, 0, 72, 47, 18, 50, 1, 17, 44, 75, 67, 0, 30, 0, 49, 0, 0, 59, 35, 45, 40, 79, 7, 25, 0, 0, 15, 41, 52, 0, 4, 20, 51, 27, 0, 42, 38, 12, 0, 81
|23, 4, 51, 0, 12, 58, 57, 0, 38, 0, 33, 17, 68, 80, 62, 29, 0, 0, 76, 42, 59, 0, 61, 75, 0, 10, 0, 0, 14, 0, 0, 0, 45, 27, 11, 78, 39, 21, 18, 52, 26, 67, 0, 7, 55, 56, 47, 13, 0, 41, 72, 37, 77, 0, 50, 0, 46, 6, 74, 53, 0, 44, 43, 0, 1, 8, 19, 32, 60, 22, 0, 81, 64, 0, 34, 63, 0, 71, 69, 0, 0
|69, 0, 0, 71, 44, 0, 79, 55, 78, 51, 28, 7, 20, 0, 0, 25, 66, 73, 12, 39, 0, 53, 0, 0, 74, 15, 45, 4, 57, 59, 35, 54, 37, 72, 67, 38, 6, 0, 40, 60, 0, 8, 0, 0, 3, 22, 61, 23, 43, 19, 0, 10, 49, 0, 2, 0, 0, 0, 47, 24, 0, 0, 42, 0, 50, 36, 0, 58, 31, 9, 11, 27, 1, 0, 75, 0, 80, 13, 30, 77, 17
|7, 42, 37, 0, 0, 48, 34, 28, 64, 12, 74, 5, 45, 0, 24, 0, 0, 61, 17, 0, 0, 0, 19, 0, 0, 56, 29, 71, 44, 9, 0, 60, 21, 39, 13, 36, 0, 66, 0, 31, 0, 14, 49, 58, 0, 6, 70, 33, 0, 81, 79, 73, 0, 0, 69, 63, 67, 4, 23, 25, 1, 75, 0, 20, 46, 0, 10, 26, 38, 59, 43, 76, 72, 0, 41, 47, 68, 3, 16, 62, 18
|0, 27, 0, 0, 0, 4, 0, 66, 51, 77, 65, 36, 0, 13, 0, 33, 60, 0, 9, 0, 58, 0, 0, 0, 0, 0, 74, 57, 29, 26, 7, 47, 0, 78, 32, 0, 80, 41, 0, 0, 0, 25, 62, 44, 79, 0, 0, 20, 6, 42, 0, 61, 10, 54, 49, 16, 38, 0, 1, 0, 0, 69, 0, 64, 0, 35, 39, 50, 24, 0, 18, 0, 0, 11, 71, 40, 73, 2, 43, 0, 0
|34, 7, 45, 80, 0, 77, 0, 41, 6, 44, 31, 0, 28, 67, 0, 55, 0, 79, 61, 0, 60, 47, 65, 0, 23, 0, 0, 74, 42, 4, 3, 25, 0, 46, 0, 0, 81, 0, 17, 0, 16, 35, 0, 0, 1, 37, 0, 0, 56, 0, 13, 0, 0, 72, 39, 66, 0, 8, 0, 0, 0, 53, 20, 29, 30, 0, 36, 0, 76, 5, 49, 78, 0, 64, 50, 21, 63, 54, 0, 51, 22
|33, 31, 1, 26, 72, 30, 29, 23, 0, 0, 21, 0, 2, 43, 42, 0, 0, 0, 14, 19, 34, 10, 24, 78, 36, 0, 56, 73, 64, 52, 0, 76, 12, 16, 37, 60, 0, 65, 0, 75, 63, 0, 61, 5, 27, 69, 0, 67, 25, 28, 53, 15, 0, 47, 0, 0, 7, 0, 3, 13, 68, 0, 46, 74, 48, 0, 22, 70, 0, 57, 44, 45, 0, 35, 80, 9, 0, 55, 38, 0, 39
|74, 24, 15, 56, 0, 0, 2, 0, 0, 0, 0, 64, 11, 0, 53, 0, 51, 0, 3, 20, 8, 29, 26, 0, 5, 18, 0, 63, 67, 23, 40, 13, 48, 35, 0, 1, 0, 0, 0, 70, 57, 32, 52, 14, 19, 0, 36, 27, 0, 39, 0, 78, 0, 0, 25, 72, 9, 0, 12, 44, 50, 45, 59, 4, 0, 0, 0, 0, 0, 37, 42, 75, 68, 28, 60, 31, 30, 0, 0, 79, 6
|81, 35, 0, 52, 20, 73, 47, 0, 5, 0, 69, 68, 0, 22, 78, 49, 7, 0, 75, 67, 0, 28, 0, 0, 40, 77, 13, 72, 59, 43, 62, 58, 71, 55, 0, 50, 38, 64, 45, 36, 24, 56, 0, 51, 0, 0, 60, 0, 30, 2, 23, 21, 19, 70, 18, 79, 11, 26, 57, 0, 74, 0, 63, 34, 0, 41, 0, 80, 61, 31, 0, 0, 37, 4, 0, 1, 15, 42, 33, 3, 0
|0, 0, 48, 39, 0, 0, 44, 57, 60, 0, 9, 59, 29, 1, 26, 0, 19, 16, 72, 0, 41, 4, 54, 70, 30, 0, 6, 61, 27, 0, 14, 66, 68, 75, 0, 33, 8, 0, 74, 47, 0, 71, 28, 2, 0, 45, 40, 11, 32, 55, 22, 50, 31, 81, 77, 35, 58, 80, 56, 23, 0, 0, 37, 13, 52, 63, 38, 51, 0, 0, 7, 0, 25, 20, 62, 0, 65, 0, 24, 67, 5
|9, 22, 67, 55, 78, 0, 62, 11, 36, 0, 66, 74, 48, 61, 23, 12, 6, 45, 0, 0, 73, 42, 0, 1, 51, 68, 0, 19, 0, 8, 80, 56, 41, 0, 24, 0, 10, 4, 20, 37, 58, 50, 54, 3, 33, 76, 64, 18, 0, 79, 29, 38, 0, 35, 0, 75, 0, 43, 2, 32, 0, 0, 0, 69, 27, 0, 72, 28, 17, 0, 40, 0, 0, 77, 53, 13, 26, 0, 7, 14, 49
|58, 0, 0, 32, 68, 37, 65, 0, 43, 80, 15, 40, 24, 63, 0, 70, 0, 0, 49, 52, 48, 35, 12, 0, 17, 55, 53, 45, 6, 0, 54, 0, 10, 11, 51, 0, 13, 9, 7, 39, 66, 73, 72, 0, 31, 3, 1, 57, 0, 46, 0, 77, 44, 0, 42, 4, 19, 27, 71, 0, 81, 22, 64, 26, 23, 20, 0, 79, 62, 21, 47, 60, 56, 0, 0, 0, 69, 0, 8, 0, 29
|0, 69, 0, 0, 76, 25, 0, 0, 54, 34, 5, 46, 0, 35, 0, 58, 47, 0, 2, 64, 80, 0, 0, 0, 0, 0, 0, 17, 0, 39, 31, 30, 0, 28, 44, 9, 53, 18, 59, 0, 23, 60, 42, 6, 22, 26, 63, 48, 0, 4, 0, 0, 0, 49, 0, 52, 41, 36, 0, 33, 78, 65, 15, 1, 0, 0, 0, 0, 0, 73, 0, 55, 74, 0, 61, 0, 0, 0, 27, 45, 0
|24, 14, 19, 27, 0, 0, 0, 47, 71, 0, 36, 0, 50, 0, 12, 53, 0, 56, 0, 30, 69, 65, 0, 64, 60, 13, 0, 54, 0, 40, 63, 3, 31, 67, 39, 2, 22, 0, 0, 0, 8, 0, 20, 16, 0, 0, 0, 73, 44, 0, 0, 18, 0, 78, 17, 34, 32, 0, 0, 0, 75, 52, 7, 81, 0, 48, 15, 0, 80, 76, 10, 0, 55, 37, 29, 4, 0, 21, 46, 38, 61
|51, 68, 12, 0, 13, 0, 41, 10, 76, 0, 32, 81, 3, 0, 73, 26, 0, 0, 34, 71, 14, 11, 0, 40, 0, 9, 36, 28, 50, 16, 0, 0, 0, 42, 0, 7, 0, 0, 6, 24, 49, 75, 0, 52, 17, 0, 20, 58, 0, 60, 59, 5, 0, 37, 38, 0, 62, 45, 30, 0, 39, 0, 0, 67, 29, 72, 54, 0, 27, 0, 31, 0, 66, 0, 69, 53, 0, 63, 22, 19, 1
|54, 48, 16, 62, 60, 0, 0, 73, 0, 39, 58, 0, 74, 38, 0, 0, 24, 0, 0, 51, 0, 44, 63, 0, 0, 0, 23, 0, 45, 69, 36, 0, 22, 0, 64, 71, 2, 0, 0, 79, 80, 10, 55, 66, 67, 47, 29, 0, 50, 34, 9, 0, 28, 76, 1, 18, 42, 0, 8, 0, 11, 27, 78, 65, 75, 14, 7, 53, 0, 30, 70, 20, 0, 5, 57, 43, 81, 0, 40, 72, 0
|55, 80, 32, 50, 0, 66, 46, 0, 53, 79, 34, 0, 72, 5, 0, 0, 20, 9, 56, 61, 78, 0, 4, 0, 62, 24, 81, 38, 47, 0, 0, 70, 23, 60, 29, 76, 0, 27, 12, 64, 43, 7, 65, 0, 35, 0, 45, 0, 39, 69, 41, 0, 0, 74, 28, 59, 68, 0, 22, 49, 0, 0, 67, 58, 0, 0, 0, 6, 0, 16, 21, 18, 17, 33, 44, 11, 75, 14, 0, 0, 13
|0, 81, 0, 0, 65, 0, 23, 15, 0, 71, 0, 69, 40, 0, 80, 68, 1, 52, 37, 0, 0, 0, 79, 19, 72, 29, 0, 11, 18, 48, 27, 5, 75, 12, 10, 58, 34, 30, 38, 0, 78, 62, 76, 54, 0, 0, 35, 53, 46, 64, 0, 42, 6, 0, 0, 0, 0, 24, 25, 61, 0, 0, 60, 22, 41, 55, 17, 39, 0, 13, 28, 49, 32, 9, 67, 0, 16, 0, 20, 47, 59
|0, 0, 52, 17, 9, 69, 42, 0, 18, 29, 43, 11, 0, 76, 2, 51, 64, 0, 74, 0, 0, 38, 58, 41, 0, 5, 20, 0, 0, 0, 0, 78, 6, 65, 0, 68, 45, 47, 0, 0, 13, 36, 3, 25, 73, 7, 75, 24, 61, 22, 0, 0, 1, 48, 14, 23, 0, 66, 0, 31, 56, 81, 10, 0, 0, 46, 0, 62, 50, 33, 63, 37, 0, 0, 0, 80, 77, 8, 28, 70, 34
|72, 36, 22, 34, 5, 0, 0, 75, 7, 4, 0, 21, 61, 0, 0, 16, 13, 55, 0, 35, 6, 76, 17, 0, 0, 0, 77, 0, 62, 41, 0, 32, 19, 14, 57, 0, 56, 0, 31, 68, 39, 63, 11, 29, 28, 70, 54, 49, 0, 23, 51, 0, 0, 0, 0, 37, 53, 58, 69, 0, 9, 12, 0, 44, 0, 0, 0, 0, 1, 0, 24, 40, 0, 0, 0, 27, 52, 50, 0, 0, 0
|0, 0, 79, 38, 0, 28, 11, 1, 29, 0, 0, 0, 75, 0, 31, 65, 67, 60, 55, 53, 0, 39, 59, 22, 2, 0, 0, 9, 25, 0, 34, 37, 56, 0, 0, 80, 0, 0, 50, 44, 0, 21, 0, 42, 70, 30, 27, 72, 0, 57, 63, 36, 14, 3, 0, 19, 64, 0, 54, 76, 33, 41, 0, 32, 0, 5, 51, 12, 69, 61, 26, 0, 0, 48, 24, 73, 0, 58, 0, 49, 0
|37, 0, 58, 0, 0, 57, 0, 78, 0, 66, 0, 6, 44, 30, 48, 27, 0, 22, 0, 16, 75, 18, 0, 49, 21, 0, 54, 13, 8, 51, 0, 0, 73, 24, 81, 0, 41, 0, 33, 46, 1, 69, 32, 53, 60, 25, 0, 68, 38, 10, 17, 12, 4, 0, 0, 0, 5, 0, 77, 29, 63, 80, 0, 9, 59, 0, 11, 52, 56, 0, 0, 0, 0, 76, 74, 0, 0, 79, 31, 15, 45
|21, 16, 36, 30, 0, 11, 27, 26, 80, 3, 0, 35, 0, 39, 63, 0, 23, 40, 73, 0, 46, 5, 75, 28, 4, 61, 12, 1, 2, 32, 0, 67, 72, 6, 9, 48, 79, 0, 0, 10, 53, 0, 22, 0, 29, 0, 74, 17, 33, 0, 0, 45, 78, 31, 52, 0, 0, 51, 68, 19, 24, 37, 70, 60, 0, 0, 50, 56, 57, 18, 58, 71, 8, 0, 66, 55, 47, 59, 0, 0, 0
|0, 43, 20, 40, 28, 0, 0, 13, 12, 0, 11, 29, 16, 0, 76, 45, 36, 10, 66, 0, 62, 17, 38, 55, 3, 65, 52, 69, 75, 0, 57, 0, 8, 18, 46, 35, 21, 56, 34, 41, 31, 0, 60, 49, 25, 64, 30, 7, 27, 6, 0, 48, 0, 0, 71, 78, 14, 53, 33, 2, 73, 72, 54, 24, 51, 19, 61, 1, 0, 32, 67, 74, 42, 0, 0, 5, 0, 77, 15, 68, 4
|31, 19, 38, 51, 8, 29, 49, 2, 52, 21, 0, 66, 1, 0, 0, 0, 18, 46, 0, 0, 24, 16, 0, 0, 0, 67, 0, 0, 0, 53, 15, 68, 34, 71, 17, 14, 0, 3, 0, 6, 0, 57, 0, 33, 59, 32, 0, 37, 70, 12, 36, 0, 0, 13, 0, 61, 40, 0, 80, 0, 76, 23, 0, 42, 7, 73, 4, 43, 5, 0, 65, 79, 75, 63, 45, 26, 10, 44, 0, 0, 0
|0, 0, 34, 73, 39, 0, 72, 3, 33, 2, 37, 49, 41, 19, 0, 47, 68, 14, 0, 21, 51, 26, 30, 7, 35, 0, 0, 0, 13, 0, 23, 4, 79, 0, 0, 0, 0, 5, 0, 0, 0, 43, 38, 0, 18, 0, 28, 44, 69, 66, 40, 57, 55, 11, 0, 0, 31, 67, 6, 42, 17, 50, 25, 54, 0, 53, 0, 59, 78, 0, 76, 0, 16, 29, 32, 46, 60, 0, 1, 81, 0
|25, 18, 6, 4, 23, 0, 70, 53, 45, 0, 52, 73, 78, 0, 20, 80, 0, 24, 69, 31, 0, 0, 43, 15, 76, 0, 39, 5, 0, 0, 29, 0, 16, 37, 63, 42, 72, 14, 0, 66, 68, 1, 0, 46, 12, 0, 59, 54, 2, 26, 8, 62, 56, 0, 7, 60, 74, 0, 13, 21, 0, 11, 48, 3, 49, 22, 33, 40, 44, 27, 41, 36, 67, 0, 58, 57, 0, 0, 50, 35, 30
|64, 0, 47, 0, 42, 44, 76, 14, 77, 8, 6, 0, 81, 53, 22, 0, 0, 5, 13, 0, 57, 0, 70, 58, 0, 0, 41, 50, 0, 0, 0, 0, 54, 0, 0, 24, 0, 36, 9, 32, 67, 78, 0, 0, 0, 60, 0, 46, 79, 0, 20, 35, 18, 21, 15, 30, 55, 0, 0, 34, 26, 0, 69, 11, 31, 0, 0, 16, 0, 66, 68, 38, 80, 19, 0, 48, 43, 73, 65, 0, 72
|0, 0, 54, 60, 57, 7, 24, 65, 0, 31, 13, 48, 51, 0, 74, 38, 44, 42, 79, 0, 19, 81, 6, 32, 0, 50, 0, 12, 36, 21, 0, 11, 43, 0, 47, 39, 0, 17, 28, 0, 2, 76, 73, 69, 0, 63, 3, 5, 0, 61, 0, 0, 0, 0, 46, 0, 0, 62, 16, 41, 22, 0, 18, 0, 20, 29, 26, 55, 72, 10, 0, 35, 34, 27, 56, 70, 78, 40, 25, 33, 0
|48, 46, 0, 22, 0, 17, 0, 0, 32, 72, 7, 4, 67, 0, 0, 0, 0, 50, 0, 29, 77, 59, 0, 18, 0, 20, 0, 30, 40, 31, 55, 0, 70, 0, 78, 26, 52, 19, 0, 16, 51, 58, 0, 0, 0, 14, 68, 0, 73, 24, 47, 75, 71, 0, 27, 0, 1, 35, 5, 64, 79, 66, 0, 21, 0, 15, 0, 0, 39, 34, 45, 2, 76, 0, 3, 41, 49, 11, 0, 53, 0
|0, 0, 35, 78, 0, 0, 5, 0, 0, 0, 26, 0, 0, 17, 0, 0, 25, 77, 53, 60, 0, 0, 0, 0, 0, 14, 22, 81, 0, 0, 73, 49, 7, 64, 19, 74, 0, 8, 63, 0, 40, 24, 0, 0, 0, 16, 0, 0, 0, 0, 43, 0, 0, 29, 36, 20, 0, 28, 0, 0, 3, 10, 57, 47, 80, 0, 37, 0, 9, 12, 6, 48, 0, 61, 18, 79, 38, 0, 2, 21, 52
|53, 56, 23, 9, 50, 6, 68, 0, 66, 0, 42, 1, 0, 0, 39, 0, 0, 38, 8, 76, 0, 2, 0, 27, 41, 25, 0, 20, 37, 7, 0, 64, 0, 61, 72, 69, 0, 26, 35, 74, 54, 59, 0, 0, 80, 71, 0, 60, 0, 51, 18, 40, 0, 10, 0, 17, 75, 0, 36, 5, 12, 62, 0, 0, 15, 21, 0, 0, 0, 55, 29, 0, 73, 0, 0, 3, 4, 28, 0, 0, 0
|0, 29, 40, 24, 0, 0, 64, 76, 30, 13, 17, 3, 14, 66, 6, 0, 63, 32, 19, 54, 35, 57, 80, 0, 18, 0, 72, 23, 49, 0, 58, 43, 0, 0, 71, 0, 55, 0, 67, 81, 12, 0, 0, 47, 21, 0, 22, 56, 0, 65, 0, 0, 8, 28, 78, 42, 48, 59, 50, 10, 27, 70, 51, 36, 62, 37, 0, 45, 33, 44, 0, 0, 0, 68, 16, 74, 20, 15, 0, 52, 0
|41, 45, 42, 63, 0, 22, 26, 32, 0, 73, 57, 30, 0, 74, 4, 61, 9, 0, 20, 81, 0, 7, 11, 31, 75, 66, 0, 2, 55, 0, 38, 10, 52, 0, 3, 0, 77, 46, 0, 25, 0, 65, 78, 24, 0, 0, 0, 15, 80, 62, 1, 19, 0, 0, 37, 14, 13, 76, 43, 60, 16, 18, 49, 0, 53, 12, 67, 0, 68, 64, 27, 70, 0, 0, 40, 0, 5, 34, 0, 0, 44
|0, 59, 69, 1, 49, 39, 67, 52, 11, 20, 51, 78, 31, 62, 77, 0, 53, 26, 65, 0, 15, 61, 0, 21, 0, 58, 71, 42, 0, 47, 12, 0, 44, 0, 34, 0, 0, 29, 64, 28, 14, 38, 40, 8, 37, 48, 0, 74, 9, 35, 0, 0, 79, 36, 0, 73, 0, 3, 46, 0, 25, 0, 24, 72, 6, 57, 0, 19, 16, 0, 0, 10, 30, 80, 0, 2, 33, 41, 23, 22, 76
|27, 58, 0, 0, 0, 43, 78, 20, 3, 10, 0, 0, 23, 2, 11, 35, 0, 80, 45, 59, 28, 37, 44, 0, 0, 42, 70, 36, 24, 29, 13, 0, 62, 0, 41, 6, 60, 50, 56, 48, 7, 51, 0, 19, 68, 67, 4, 0, 0, 75, 52, 49, 57, 0, 64, 0, 33, 32, 53, 71, 0, 47, 22, 0, 38, 76, 73, 0, 34, 74, 0, 1, 0, 0, 0, 25, 0, 81, 18, 61, 0
|19, 0, 46, 33, 0, 65, 71, 72, 44, 0, 0, 75, 36, 34, 21, 76, 29, 59, 26, 77, 17, 55, 0, 0, 0, 53, 0, 67, 28, 14, 18, 0, 0, 25, 0, 22, 0, 23, 32, 30, 62, 20, 1, 31, 0, 0, 42, 50, 0, 70, 73, 54, 24, 0, 0, 15, 2, 39, 0, 0, 0, 0, 74, 80, 5, 47, 3, 11, 7, 0, 0, 61, 57, 0, 0, 37, 13, 0, 0, 6, 0
|0, 12, 0, 54, 17, 36, 0, 38, 73, 0, 16, 0, 5, 0, 15, 19, 69, 0, 47, 0, 64, 14, 0, 30, 50, 39, 51, 46, 4, 0, 0, 53, 80, 57, 0, 31, 66, 58, 52, 0, 61, 0, 0, 76, 44, 0, 0, 34, 3, 78, 0, 25, 33, 41, 26, 0, 0, 0, 0, 65, 0, 68, 0, 0, 22, 9, 0, 63, 0, 20, 71, 77, 0, 0, 72, 10, 62, 49, 42, 1, 7
|13, 2, 0, 48, 4, 0, 7, 62, 16, 65, 54, 0, 8, 0, 44, 28, 58, 12, 23, 74, 56, 60, 3, 0, 6, 73, 9, 21, 63, 19, 68, 1, 32, 33, 75, 59, 15, 42, 0, 53, 36, 0, 10, 41, 43, 20, 72, 77, 76, 0, 14, 66, 27, 5, 55, 31, 0, 30, 81, 69, 61, 0, 38, 18, 78, 52, 35, 49, 0, 0, 46, 26, 0, 0, 0, 64, 0, 29, 70, 17, 50
|57, 5, 0, 10, 31, 0, 0, 0, 15, 24, 70, 45, 52, 25, 55, 64, 41, 68, 0, 46, 0, 78, 36, 0, 0, 4, 33, 56, 65, 73, 76, 9, 0, 81, 50, 30, 0, 0, 0, 3, 0, 18, 69, 34, 16, 43, 11, 29, 0, 21, 61, 0, 2, 6, 23, 40, 0, 0, 35, 63, 72, 0, 1, 0, 42, 39, 59, 66, 32, 0, 14, 0, 12, 75, 26, 58, 53, 0, 71, 27, 48
|73, 0, 44, 45, 11, 78, 13, 0, 81, 1, 55, 60, 0, 0, 59, 0, 80, 0, 64, 0, 26, 72, 47, 57, 61, 41, 16, 32, 0, 12, 46, 0, 29, 0, 56, 79, 36, 31, 4, 58, 71, 5, 0, 0, 0, 62, 7, 0, 0, 30, 0, 0, 76, 75, 6, 70, 15, 69, 14, 67, 66, 0, 0, 33, 0, 24, 0, 3, 0, 0, 77, 43, 0, 10, 68, 0, 22, 0, 0, 40, 2
|0, 23, 66, 37, 22, 40, 0, 68, 58, 76, 24, 51, 0, 9, 29, 31, 0, 17, 39, 5, 0, 54, 21, 80, 20, 27, 65, 33, 11, 0, 72, 0, 18, 69, 77, 64, 49, 44, 0, 0, 47, 12, 81, 48, 10, 78, 0, 8, 0, 43, 15, 0, 35, 52, 32, 3, 71, 42, 38, 46, 0, 0, 0, 75, 45, 25, 1, 0, 79, 63, 74, 0, 41, 62, 30, 7, 50, 67, 0, 0, 56
|46, 41, 0, 42, 18, 38, 74, 77, 47, 67, 45, 71, 30, 73, 70, 0, 81, 36, 6, 34, 44, 58, 69, 59, 1, 0, 50, 0, 80, 24, 17, 0, 0, 53, 68, 28, 78, 76, 27, 2, 0, 3, 14, 61, 57, 0, 0, 0, 55, 13, 54, 0, 0, 0, 62, 7, 0, 56, 52, 75, 23, 0, 29, 12, 4, 0, 48, 72, 37, 65, 0, 0, 0, 43, 0, 8, 0, 0, 0, 16, 0
|20, 28, 0, 16, 51, 1, 80, 7, 2, 26, 0, 0, 42, 79, 58, 0, 72, 0, 70, 40, 0, 0, 78, 0, 0, 12, 4, 0, 73, 0, 21, 14, 0, 76, 0, 0, 64, 0, 41, 56, 65, 52, 33, 18, 77, 29, 0, 0, 49, 53, 46, 34, 23, 44, 61, 47, 0, 68, 0, 57, 55, 39, 19, 17, 10, 0, 0, 0, 0, 38, 50, 69, 24, 6, 54, 45, 27, 66, 0, 37, 35
|79, 0, 31, 0, 34, 54, 43, 4, 35, 33, 41, 0, 62, 28, 52, 14, 38, 0, 0, 0, 0, 24, 0, 76, 22, 8, 42, 75, 0, 66, 1, 23, 26, 19, 2, 0, 67, 39, 0, 63, 17, 29, 0, 0, 40, 0, 5, 3, 0, 0, 0, 74, 61, 73, 72, 64, 51, 18, 37, 11, 20, 30, 16, 78, 70, 27, 9, 7, 46, 0, 59, 0, 0, 53, 81, 77, 58, 32, 44, 0, 80
|32, 30, 27, 6, 0, 64, 0, 5, 0, 22, 56, 47, 0, 0, 40, 13, 0, 44, 52, 3, 67, 25, 29, 35, 38, 60, 66, 0, 58, 34, 0, 59, 0, 0, 4, 70, 0, 68, 75, 7, 37, 54, 0, 0, 53, 1, 24, 39, 18, 45, 16, 69, 72, 20, 0, 0, 0, 50, 0, 0, 0, 2, 41, 73, 26, 0, 0, 81, 0, 0, 8, 31, 61, 57, 0, 0, 11, 12, 0, 74, 0
|56, 63, 3, 0, 48, 50, 12, 24, 0, 74, 61, 37, 4, 20, 46, 43, 5, 25, 30, 18, 0, 23, 68, 17, 0, 51, 15, 78, 39, 45, 67, 0, 0, 49, 54, 16, 0, 32, 66, 34, 60, 19, 80, 73, 0, 58, 79, 0, 41, 11, 0, 81, 38, 22, 44, 27, 8, 1, 0, 77, 59, 76, 31, 0, 0, 28, 0, 35, 14, 0, 57, 0, 70, 0, 0, 0, 0, 9, 29, 42, 26
|76, 52, 9, 0, 71, 49, 61, 0, 70, 7, 0, 2, 0, 0, 66, 69, 10, 23, 63, 79, 74, 62, 14, 45, 73, 75, 19, 31, 43, 37, 0, 57, 0, 50, 27, 81, 42, 0, 25, 38, 22, 30, 0, 11, 0, 0, 26, 59, 36, 17, 67, 0, 0, 0, 13, 21, 35, 40, 48, 58, 54, 78, 12, 0, 44, 32, 0, 41, 47, 51, 80, 0, 33, 0, 46, 60, 39, 18, 3, 0, 55
|17, 8, 62, 69, 67, 55, 53, 21, 0, 0, 18, 0, 64, 3, 35, 0, 0, 48, 32, 9, 0, 0, 7, 77, 37, 28, 31, 22, 0, 38, 0, 41, 13, 30, 61, 10, 23, 0, 79, 59, 72, 0, 0, 0, 0, 40, 56, 0, 12, 0, 6, 80, 0, 57, 81, 0, 26, 5, 49, 73, 60, 24, 33, 76, 39, 58, 2, 20, 66, 29, 0, 54, 0, 78, 36, 0, 14, 47, 75, 0, 51|];