order = 9;
grid = [|65, 6, 54, 81, 0, 44, 22, 0, 23, 56, 61, 0, 72, 13, 57, 10, 17, 43, 0, 0, 3, 0, 12, 2, 59, 0, 0, 75, 28, 0, 7, 68, 52, 46, 30, 29, 15, 0, 0, 32, 1, 51, 0, 24, 58, 0, 0, 0, 62, 67, 77, 40, 71, 70, 27, 16, 9, 48, 0, 19, 39, 0, 0, 21, 0, 0, 45, 35, 0, 20, 79, 34, 37, 0, 0, 78, 0, 49, 0, 33, 38
|10, 25, 39, 71, 46, 0, 53, 57, 15, 0, 47, 66, 34, 0, 2, 42, 65, 68, 0, 52, 28, 0, 0, 0, 0, 0, 63, 6, 8, 41, 61, 55, 48, 0, 76, 59, 0, 17, 67, 9, 36, 7, 21, 56, 78, 0, 20, 35, 0, 0, 33, 1, 0, 73, 0, 72, 0, 3, 0, 12, 45, 40, 5, 43, 49, 23, 31, 19, 81, 0, 37, 70, 44, 75, 80, 0, 0, 0, 69, 0, 0
|69, 0, 75, 67, 0, 42, 35, 43, 0, 0, 1, 24, 79, 32, 74, 9, 16, 78, 40, 73, 0, 0, 81, 0, 72, 60, 0, 0, 19, 0, 20, 31, 17, 54, 58, 25, 0, 76, 0, 0, 71, 5, 0, 33, 55, 34, 0, 39, 68, 38, 51, 6, 0, 66, 26, 77, 22, 0, 53, 0, 65, 0, 70, 57, 48, 0, 0, 8, 46, 13, 10, 28, 14, 52, 64, 0, 23, 0, 11, 2, 0
|0, 0, 0, 70, 0, 14, 0, 0, 9, 64, 54, 27, 4, 76, 73, 71, 35, 28, 0, 45, 67, 16, 0, 0, 13, 39, 25, 0, 10, 0, 22, 0, 36, 11, 50, 79, 81, 0, 19, 62, 3, 49, 80, 52, 0, 0, 0, 69, 21, 23, 43, 8, 0, 61, 24, 0, 0, 31, 78, 0, 44, 15, 0, 2, 0, 0, 59, 58, 68, 29, 74, 0, 30, 6, 40, 55, 0, 7, 65, 0, 18
|0, 38, 16, 47, 29, 0, 0, 72, 31, 46, 53, 22, 23, 25, 6, 0, 5, 8, 35, 0, 24, 36, 10, 78, 65, 11, 74, 71, 0, 0, 34, 14, 15, 40, 51, 81, 39, 54, 66, 0, 0, 60, 79, 30, 0, 3, 64, 7, 0, 57, 9, 50, 0, 26, 0, 61, 28, 58, 32, 52, 59, 49, 0, 0, 0, 62, 42, 44, 0, 0, 75, 73, 43, 21, 45, 67, 0, 0, 70, 68, 63
|3, 0, 0, 59, 0, 18, 32, 79, 2, 81, 0, 49, 20, 62, 40, 14, 67, 26, 8, 22, 6, 0, 0, 69, 70, 37, 34, 0, 1, 0, 44, 0, 5, 74, 66, 63, 57, 10, 0, 48, 38, 23, 0, 75, 64, 42, 0, 41, 30, 52, 72, 0, 29, 0, 43, 0, 0, 21, 0, 73, 71, 0, 55, 0, 0, 0, 0, 0, 0, 15, 61, 17, 0, 47, 0, 36, 12, 0, 50, 58, 0
|64, 80, 30, 17, 28, 78, 40, 0, 0, 29, 55, 52, 11, 0, 48, 39, 59, 75, 32, 53, 21, 51, 5, 47, 79, 15, 0, 0, 12, 0, 69, 0, 43, 0, 0, 4, 0, 31, 6, 74, 42, 13, 61, 0, 0, 2, 45, 58, 0, 18, 54, 63, 46, 44, 76, 20, 68, 81, 33, 0, 62, 56, 0, 26, 22, 0, 0, 0, 0, 0, 25, 50, 0, 0, 41, 66, 19, 72, 35, 10, 9
|0, 0, 0, 34, 0, 76, 0, 36, 33, 15, 31, 21, 77, 37, 69, 51, 58, 7, 0, 1, 46, 0, 0, 71, 0, 29, 19, 0, 0, 0, 70, 35, 0, 0, 0, 0, 0, 72, 44, 50, 28, 0, 18, 26, 20, 75, 25, 55, 0, 49, 79, 48, 47, 78, 64, 0, 8, 14, 0, 10, 63, 0, 0, 11, 24, 30, 65, 6, 0, 3, 32, 9, 60, 0, 59, 0, 74, 16, 22, 13, 62
|52, 74, 37, 58, 0, 13, 0, 24, 0, 80, 36, 63, 41, 38, 0, 70, 0, 12, 0, 23, 44, 0, 0, 61, 30, 33, 9, 62, 49, 60, 0, 78, 45, 27, 0, 72, 35, 43, 0, 25, 29, 46, 0, 68, 16, 15, 31, 14, 10, 0, 0, 0, 0, 17, 0, 2, 1, 0, 4, 66, 57, 79, 6, 18, 67, 5, 0, 0, 69, 71, 0, 55, 51, 32, 48, 53, 34, 20, 0, 76, 0
|4, 21, 17, 19, 20, 71, 68, 0, 38, 73, 0, 42, 78, 77, 63, 64, 0, 37, 0, 74, 34, 15, 11, 79, 0, 9, 0, 12, 0, 23, 0, 2, 0, 66, 27, 0, 0, 0, 0, 58, 24, 29, 48, 8, 0, 0, 33, 43, 0, 28, 56, 0, 40, 76, 31, 69, 80, 44, 49, 0, 75, 65, 46, 54, 50, 51, 18, 0, 60, 0, 6, 59, 16, 0, 62, 7, 0, 26, 0, 22, 47
|0, 18, 3, 0, 51, 0, 0, 37, 22, 0, 56, 72, 0, 0, 15, 4, 31, 44, 67, 46, 0, 0, 0, 12, 0, 0, 58, 8, 77, 0, 11, 53, 16, 0, 25, 1, 0, 62, 81, 66, 45, 0, 9, 69, 0, 79, 6, 27, 49, 0, 2, 65, 35, 5, 36, 24, 0, 57, 73, 63, 40, 7, 0, 48, 10, 0, 33, 0, 0, 21, 0, 52, 32, 17, 0, 50, 61, 39, 80, 0, 74
|11, 31, 49, 9, 25, 58, 65, 0, 61, 18, 41, 0, 30, 36, 28, 52, 0, 0, 0, 0, 0, 54, 0, 0, 0, 6, 10, 0, 0, 74, 0, 0, 81, 21, 80, 0, 17, 55, 15, 64, 33, 59, 57, 0, 0, 44, 0, 66, 46, 51, 19, 0, 63, 14, 72, 23, 29, 0, 71, 0, 20, 2, 0, 3, 0, 0, 68, 16, 0, 0, 73, 78, 38, 0, 79, 69, 4, 75, 53, 0, 12
|0, 0, 14, 0, 10, 55, 0, 0, 27, 49, 0, 40, 38, 34, 65, 0, 0, 11, 4, 71, 0, 0, 61, 0, 0, 17, 0, 51, 0, 0, 9, 0, 62, 44, 54, 7, 75, 25, 30, 36, 0, 16, 68, 0, 0, 13, 41, 80, 74, 12, 0, 52, 0, 18, 1, 70, 77, 0, 0, 76, 48, 42, 0, 0, 81, 45, 2, 31, 53, 0, 47, 0, 33, 29, 0, 0, 6, 21, 78, 56, 3
|45, 73, 2, 0, 70, 0, 0, 0, 0, 69, 50, 9, 0, 12, 27, 8, 7, 0, 78, 21, 0, 44, 0, 0, 80, 0, 16, 31, 38, 0, 0, 36, 0, 19, 68, 0, 0, 47, 3, 41, 61, 0, 0, 0, 0, 48, 57, 4, 54, 17, 34, 0, 0, 22, 0, 43, 59, 0, 81, 11, 56, 55, 64, 1, 58, 15, 72, 29, 30, 5, 0, 74, 71, 37, 60, 20, 25, 18, 46, 40, 0
|0, 32, 57, 60, 0, 12, 29, 0, 8, 3, 58, 5, 0, 74, 0, 53, 46, 6, 56, 38, 0, 73, 69, 26, 22, 0, 0, 72, 55, 70, 75, 59, 76, 0, 35, 43, 50, 0, 0, 28, 44, 52, 0, 78, 4, 31, 47, 77, 20, 21, 25, 68, 0, 36, 0, 34, 17, 18, 0, 16, 67, 0, 0, 61, 62, 42, 0, 0, 0, 7, 0, 63, 41, 54, 0, 49, 0, 10, 24, 66, 64
|53, 0, 0, 74, 69, 47, 43, 66, 52, 0, 24, 0, 51, 1, 17, 25, 0, 81, 27, 31, 14, 33, 2, 40, 55, 18, 64, 30, 0, 0, 79, 56, 6, 48, 63, 0, 80, 20, 70, 71, 73, 0, 0, 54, 0, 16, 23, 0, 60, 0, 75, 67, 58, 0, 68, 3, 0, 15, 8, 32, 21, 35, 0, 13, 4, 22, 9, 0, 0, 49, 0, 46, 36, 0, 34, 0, 44, 0, 0, 0, 0
|0, 41, 81, 15, 80, 5, 16, 1, 44, 0, 59, 75, 13, 47, 0, 0, 62, 66, 52, 19, 43, 3, 29, 25, 48, 49, 45, 46, 57, 58, 0, 0, 0, 20, 34, 17, 0, 23, 37, 12, 11, 21, 0, 0, 0, 26, 53, 70, 0, 8, 50, 61, 64, 0, 4, 0, 39, 6, 74, 30, 51, 0, 33, 36, 56, 24, 79, 0, 0, 28, 76, 35, 0, 0, 0, 0, 55, 42, 0, 0, 73
|13, 7, 36, 63, 0, 24, 34, 0, 48, 33, 70, 0, 60, 16, 0, 0, 0, 80, 39, 50, 1, 75, 32, 77, 57, 30, 20, 0, 0, 28, 78, 49, 41, 47, 61, 71, 51, 0, 0, 6, 14, 74, 40, 0, 38, 0, 29, 72, 9, 3, 0, 0, 0, 0, 79, 53, 54, 10, 58, 26, 25, 62, 0, 0, 17, 43, 0, 0, 0, 0, 11, 66, 8, 65, 76, 5, 15, 0, 2, 23, 0
|0, 0, 33, 0, 0, 0, 54, 0, 0, 0, 16, 26, 81, 7, 50, 18, 0, 36, 69, 10, 47, 0, 34, 0, 0, 38, 0, 15, 62, 13, 40, 63, 23, 77, 19, 35, 0, 24, 0, 56, 67, 12, 29, 0, 21, 0, 66, 0, 31, 0, 64, 0, 4, 1, 0, 0, 74, 0, 72, 0, 0, 0, 79, 49, 0, 76, 0, 3, 59, 0, 22, 30, 0, 27, 73, 46, 43, 71, 0, 5, 0
|0, 40, 66, 29, 55, 46, 73, 14, 74, 0, 0, 10, 0, 67, 43, 0, 0, 0, 25, 68, 54, 0, 44, 0, 0, 35, 0, 0, 50, 3, 1, 45, 61, 0, 0, 49, 0, 81, 0, 26, 0, 41, 36, 15, 5, 28, 51, 34, 0, 69, 0, 75, 38, 2, 20, 0, 56, 78, 0, 0, 16, 19, 0, 47, 63, 0, 37, 65, 0, 60, 0, 58, 72, 0, 6, 31, 77, 33, 52, 0, 30
|15, 30, 52, 2, 49, 38, 10, 20, 60, 0, 11, 0, 0, 19, 0, 75, 0, 25, 65, 0, 39, 74, 67, 3, 0, 36, 76, 18, 0, 78, 32, 73, 56, 0, 64, 0, 66, 69, 47, 35, 23, 0, 34, 40, 6, 0, 46, 0, 42, 72, 0, 27, 0, 55, 0, 0, 58, 0, 24, 5, 4, 44, 9, 51, 0, 16, 41, 0, 54, 50, 33, 14, 57, 79, 8, 63, 0, 53, 12, 21, 0
|81, 76, 0, 8, 59, 0, 0, 78, 1, 37, 35, 0, 40, 63, 79, 48, 0, 29, 45, 49, 19, 30, 71, 53, 0, 61, 66, 65, 7, 6, 16, 0, 0, 75, 69, 0, 0, 0, 20, 42, 0, 31, 4, 64, 60, 21, 36, 44, 52, 0, 24, 80, 62, 15, 0, 50, 23, 28, 0, 33, 73, 25, 0, 46, 11, 0, 13, 72, 38, 2, 39, 5, 67, 0, 32, 54, 17, 0, 47, 9, 0
|0, 0, 71, 69, 0, 67, 0, 0, 42, 0, 62, 65, 0, 20, 0, 49, 52, 54, 77, 8, 4, 60, 51, 70, 21, 0, 0, 0, 74, 10, 53, 29, 12, 41, 5, 0, 59, 75, 25, 18, 68, 48, 0, 19, 63, 73, 0, 22, 0, 0, 76, 32, 50, 0, 0, 7, 0, 38, 36, 6, 0, 46, 30, 0, 0, 79, 27, 0, 44, 0, 35, 24, 23, 0, 11, 45, 16, 0, 0, 55, 0
|27, 24, 35, 5, 68, 0, 0, 19, 0, 47, 77, 30, 0, 39, 31, 78, 12, 69, 0, 57, 26, 0, 50, 0, 16, 75, 22, 0, 36, 0, 8, 79, 28, 0, 0, 51, 62, 0, 72, 3, 0, 0, 0, 76, 10, 0, 67, 63, 0, 0, 0, 0, 65, 0, 0, 42, 49, 1, 15, 41, 0, 0, 21, 45, 0, 9, 0, 52, 56, 61, 0, 25, 81, 4, 2, 18, 40, 59, 38, 29, 0
|0, 0, 48, 25, 61, 0, 0, 0, 79, 24, 0, 32, 55, 0, 0, 72, 0, 9, 0, 64, 0, 43, 56, 73, 41, 81, 2, 67, 70, 39, 4, 21, 38, 34, 11, 52, 49, 33, 57, 0, 80, 58, 0, 77, 0, 71, 0, 0, 3, 35, 0, 30, 74, 8, 66, 0, 76, 26, 14, 0, 0, 75, 0, 28, 0, 36, 29, 7, 31, 53, 17, 0, 69, 0, 50, 22, 42, 0, 1, 20, 15
|34, 23, 4, 64, 0, 50, 6, 12, 65, 38, 0, 0, 44, 42, 0, 1, 0, 46, 0, 20, 13, 58, 0, 0, 0, 40, 0, 48, 0, 72, 27, 0, 14, 17, 81, 54, 53, 0, 43, 0, 78, 61, 52, 16, 0, 25, 9, 49, 33, 29, 0, 26, 0, 77, 80, 0, 31, 22, 67, 39, 0, 0, 69, 70, 0, 0, 0, 21, 0, 68, 62, 0, 35, 0, 74, 0, 51, 41, 36, 7, 0
|0, 0, 0, 77, 37, 72, 58, 80, 0, 4, 0, 45, 2, 0, 70, 68, 56, 41, 0, 0, 11, 29, 0, 9, 52, 5, 31, 0, 0, 0, 66, 0, 60, 25, 20, 30, 0, 0, 0, 8, 0, 14, 0, 0, 28, 0, 40, 16, 39, 0, 0, 0, 12, 0, 59, 0, 57, 43, 17, 51, 34, 18, 0, 0, 64, 0, 1, 69, 73, 0, 0, 6, 3, 61, 75, 0, 62, 78, 0, 65, 0
|48, 42, 5, 79, 38, 9, 74, 81, 62, 66, 76, 64, 33, 43, 46, 11, 22, 40, 12, 7, 55, 0, 30, 0, 14, 23, 56, 20, 0, 0, 19, 47, 0, 70, 0, 0, 37, 13, 69, 0, 0, 72, 73, 0, 49, 0, 75, 60, 16, 0, 36, 0, 2, 80, 18, 27, 0, 65, 0, 0, 77, 0, 58, 0, 8, 34, 0, 0, 78, 32, 1, 15, 63, 24, 0, 6, 21, 0, 0, 61, 39
|76, 3, 0, 0, 0, 28, 24, 68, 26, 1, 34, 60, 8, 55, 35, 31, 71, 32, 11, 16, 0, 52, 66, 0, 58, 51, 44, 0, 21, 2, 25, 30, 7, 49, 75, 78, 0, 70, 0, 0, 9, 67, 42, 0, 80, 17, 0, 0, 50, 20, 22, 13, 61, 63, 62, 19, 0, 36, 46, 14, 79, 39, 15, 5, 18, 73, 4, 40, 0, 12, 23, 27, 29, 53, 0, 0, 47, 0, 0, 0, 0
|72, 55, 0, 53, 21, 49, 25, 11, 63, 79, 0, 37, 27, 81, 0, 0, 20, 38, 1, 6, 69, 57, 0, 59, 8, 0, 0, 77, 32, 61, 5, 62, 0, 35, 16, 0, 48, 0, 36, 68, 0, 0, 0, 3, 52, 29, 15, 65, 0, 45, 0, 51, 0, 0, 41, 0, 78, 0, 34, 70, 24, 0, 0, 0, 80, 66, 0, 9, 22, 0, 0, 64, 0, 7, 46, 13, 18, 0, 0, 0, 2
|0, 0, 69, 44, 0, 52, 67, 35, 41, 16, 0, 19, 0, 0, 78, 50, 70, 14, 0, 27, 17, 21, 47, 0, 25, 0, 33, 81, 23, 0, 0, 60, 46, 71, 13, 6, 55, 65, 0, 0, 8, 32, 0, 5, 40, 4, 0, 24, 72, 0, 66, 0, 18, 0, 0, 45, 7, 51, 63, 0, 22, 64, 31, 0, 42, 0, 0, 0, 26, 57, 38, 61, 62, 11, 10, 0, 28, 30, 77, 0, 0
|0, 0, 0, 32, 33, 6, 77, 58, 66, 9, 23, 0, 59, 0, 21, 54, 0, 0, 61, 72, 38, 40, 80, 75, 29, 68, 4, 24, 69, 15, 76, 39, 0, 0, 65, 27, 0, 0, 0, 22, 31, 50, 41, 51, 30, 14, 37, 11, 0, 0, 44, 74, 0, 46, 13, 47, 42, 35, 16, 0, 53, 20, 0, 19, 28, 56, 81, 0, 0, 62, 2, 0, 5, 43, 78, 52, 73, 79, 48, 71, 0
|61, 46, 29, 39, 45, 16, 0, 0, 0, 67, 0, 13, 15, 41, 26, 24, 73, 57, 2, 77, 50, 63, 9, 18, 20, 10, 0, 79, 0, 0, 59, 12, 37, 22, 28, 0, 21, 35, 14, 0, 0, 38, 27, 62, 74, 47, 1, 8, 40, 0, 0, 53, 0, 0, 60, 52, 33, 49, 0, 56, 5, 0, 0, 25, 65, 55, 7, 54, 72, 0, 43, 68, 66, 19, 23, 70, 76, 0, 0, 42, 75
|57, 36, 7, 22, 0, 8, 59, 2, 54, 52, 18, 6, 49, 0, 0, 61, 25, 0, 0, 0, 78, 64, 0, 65, 0, 79, 35, 0, 53, 0, 55, 74, 42, 50, 72, 33, 76, 71, 4, 10, 0, 24, 0, 0, 0, 0, 28, 48, 0, 27, 0, 43, 23, 0, 9, 38, 37, 29, 21, 80, 3, 32, 0, 14, 44, 0, 67, 0, 75, 11, 69, 0, 0, 34, 0, 0, 0, 60, 20, 16, 40
|60, 0, 80, 50, 13, 37, 71, 0, 0, 65, 0, 51, 0, 68, 53, 74, 44, 2, 0, 34, 76, 0, 15, 5, 81, 0, 32, 41, 66, 0, 58, 0, 0, 1, 29, 48, 0, 6, 79, 46, 43, 0, 16, 0, 23, 49, 19, 64, 38, 73, 35, 78, 0, 25, 0, 59, 67, 72, 0, 75, 0, 28, 26, 0, 70, 21, 52, 20, 47, 31, 0, 3, 12, 0, 33, 9, 27, 0, 0, 4, 69
|18, 4, 23, 0, 19, 15, 0, 27, 30, 36, 39, 80, 0, 75, 62, 12, 63, 72, 60, 0, 71, 0, 13, 37, 42, 48, 49, 0, 0, 9, 0, 38, 68, 45, 0, 64, 25, 0, 0, 44, 57, 66, 7, 0, 0, 0, 21, 5, 56, 77, 0, 81, 54, 0, 55, 6, 0, 40, 50, 74, 0, 0, 2, 0, 16, 59, 46, 33, 51, 76, 24, 79, 0, 1, 22, 41, 32, 8, 14, 35, 58
|66, 8, 0, 62, 0, 73, 0, 48, 81, 74, 0, 4, 70, 3, 0, 0, 33, 76, 55, 43, 37, 65, 72, 16, 68, 44, 40, 0, 22, 59, 31, 64, 11, 61, 7, 0, 30, 51, 0, 0, 58, 36, 0, 0, 41, 0, 0, 32, 0, 0, 0, 71, 1, 0, 49, 21, 60, 47, 75, 2, 78, 17, 0, 56, 57, 69, 0, 0, 45, 35, 54, 53, 50, 23, 20, 12, 5, 0, 6, 19, 79
|25, 0, 24, 14, 36, 68, 7, 47, 56, 0, 0, 17, 0, 80, 55, 69, 0, 59, 0, 41, 29, 2, 77, 0, 6, 0, 0, 0, 4, 21, 60, 13, 53, 0, 0, 62, 32, 66, 76, 20, 54, 0, 33, 1, 0, 43, 65, 75, 23, 5, 0, 46, 30, 10, 19, 35, 0, 0, 27, 67, 37, 63, 0, 58, 39, 8, 73, 70, 0, 81, 0, 11, 42, 3, 18, 0, 31, 48, 16, 64, 45
|2, 65, 0, 78, 0, 10, 76, 0, 80, 35, 19, 0, 66, 44, 37, 26, 0, 58, 9, 0, 74, 0, 0, 13, 0, 0, 0, 1, 0, 0, 15, 0, 0, 0, 23, 0, 0, 79, 71, 40, 59, 0, 0, 43, 72, 54, 0, 21, 25, 0, 0, 57, 17, 0, 22, 30, 61, 62, 0, 7, 6, 34, 68, 42, 0, 3, 0, 0, 50, 52, 0, 0, 24, 0, 0, 27, 0, 67, 73, 69, 55
|46, 54, 38, 37, 43, 79, 64, 30, 0, 20, 0, 0, 7, 0, 49, 0, 0, 62, 70, 0, 27, 0, 21, 0, 0, 59, 0, 3, 76, 19, 74, 51, 9, 6, 0, 75, 34, 16, 23, 0, 50, 0, 0, 47, 68, 60, 69, 81, 73, 80, 12, 35, 0, 72, 45, 28, 0, 13, 0, 0, 0, 1, 71, 44, 36, 2, 22, 26, 14, 33, 31, 0, 0, 15, 0, 10, 52, 0, 58, 25, 0
|42, 0, 0, 72, 74, 23, 1, 71, 0, 0, 13, 16, 5, 61, 56, 22, 79, 60, 19, 32, 25, 34, 35, 0, 0, 78, 0, 17, 14, 80, 54, 0, 0, 0, 41, 0, 73, 49, 48, 0, 12, 44, 0, 0, 53, 11, 52, 3, 6, 33, 0, 2, 27, 0, 0, 40, 36, 46, 0, 4, 29, 38, 39, 75, 21, 67, 64, 59, 0, 0, 63, 18, 26, 76, 57, 30, 66, 81, 68, 43, 8
|32, 39, 0, 0, 34, 0, 0, 51, 0, 53, 38, 29, 6, 27, 0, 0, 8, 0, 63, 54, 0, 0, 14, 4, 0, 0, 73, 0, 37, 25, 65, 67, 77, 79, 78, 24, 0, 0, 0, 21, 5, 2, 45, 55, 81, 0, 74, 0, 36, 0, 42, 58, 13, 41, 70, 56, 10, 69, 64, 23, 80, 57, 0, 66, 1, 17, 71, 0, 0, 0, 68, 20, 0, 62, 61, 59, 7, 22, 0, 44, 46
|55, 61, 26, 11, 0, 57, 13, 67, 59, 28, 65, 39, 54, 0, 47, 34, 0, 73, 0, 0, 36, 38, 62, 33, 3, 12, 23, 0, 20, 43, 68, 52, 0, 56, 49, 5, 31, 46, 75, 17, 35, 64, 25, 6, 69, 66, 0, 0, 0, 0, 78, 76, 22, 0, 32, 8, 53, 24, 0, 15, 42, 0, 0, 37, 0, 0, 74, 30, 10, 79, 0, 40, 1, 0, 21, 2, 9, 63, 60, 80, 0
|58, 19, 20, 75, 44, 29, 49, 21, 0, 0, 52, 0, 0, 0, 1, 81, 0, 0, 80, 18, 30, 46, 0, 22, 56, 0, 11, 36, 34, 26, 0, 72, 0, 10, 0, 57, 65, 0, 42, 38, 0, 0, 63, 67, 70, 0, 0, 79, 53, 31, 0, 0, 77, 0, 0, 66, 0, 12, 3, 0, 76, 59, 14, 6, 61, 0, 78, 0, 13, 24, 5, 43, 40, 35, 37, 74, 39, 51, 4, 0, 0
|28, 69, 41, 35, 6, 0, 0, 63, 50, 68, 0, 36, 0, 72, 0, 77, 0, 51, 76, 24, 0, 42, 0, 57, 5, 20, 0, 16, 0, 66, 30, 0, 0, 39, 0, 0, 0, 3, 52, 60, 22, 62, 0, 0, 14, 7, 56, 47, 0, 61, 38, 37, 59, 19, 0, 0, 11, 73, 31, 44, 43, 26, 81, 55, 9, 48, 25, 12, 65, 23, 80, 4, 49, 13, 53, 34, 0, 0, 71, 75, 32
|29, 78, 60, 0, 24, 7, 30, 42, 4, 0, 75, 34, 68, 73, 0, 0, 0, 0, 33, 14, 62, 22, 0, 35, 28, 0, 52, 0, 63, 0, 0, 0, 0, 53, 21, 0, 23, 0, 40, 67, 10, 11, 0, 38, 12, 0, 58, 13, 0, 0, 81, 59, 0, 79, 46, 0, 0, 0, 0, 72, 9, 69, 1, 27, 66, 0, 51, 0, 17, 0, 0, 44, 77, 0, 71, 0, 80, 0, 0, 6, 48
|0, 48, 50, 0, 12, 1, 70, 55, 0, 43, 67, 38, 52, 5, 0, 32, 24, 18, 44, 56, 8, 78, 0, 7, 54, 31, 0, 0, 29, 0, 35, 0, 0, 65, 0, 58, 9, 26, 39, 69, 16, 47, 22, 66, 25, 61, 4, 15, 0, 0, 0, 77, 41, 75, 73, 36, 19, 20, 59, 62, 0, 13, 0, 0, 0, 46, 0, 71, 79, 63, 0, 21, 68, 49, 0, 76, 3, 14, 0, 60, 23
|62, 71, 47, 45, 35, 0, 44, 0, 0, 11, 2, 41, 0, 33, 42, 37, 64, 70, 68, 48, 0, 0, 0, 0, 12, 50, 24, 0, 75, 18, 0, 0, 0, 14, 0, 66, 61, 8, 21, 0, 20, 76, 0, 53, 46, 63, 7, 0, 0, 74, 23, 0, 0, 0, 38, 58, 34, 16, 40, 31, 30, 52, 0, 72, 6, 65, 80, 25, 3, 56, 78, 36, 79, 51, 0, 4, 0, 13, 15, 0, 81
|23, 53, 0, 0, 0, 22, 0, 52, 37, 0, 25, 71, 47, 56, 45, 0, 0, 10, 3, 9, 79, 5, 36, 38, 1, 66, 39, 60, 0, 0, 6, 4, 72, 16, 70, 61, 58, 63, 0, 0, 0, 80, 14, 74, 75, 68, 30, 12, 0, 32, 0, 0, 0, 65, 57, 67, 44, 64, 26, 49, 15, 0, 43, 59, 19, 13, 48, 73, 8, 55, 20, 42, 0, 41, 24, 0, 2, 0, 29, 17, 7
|41, 79, 0, 27, 75, 0, 0, 0, 13, 54, 49, 59, 0, 8, 12, 17, 80, 63, 20, 0, 2, 0, 23, 0, 51, 53, 30, 73, 47, 62, 45, 48, 0, 0, 77, 31, 0, 0, 5, 65, 19, 0, 1, 0, 32, 22, 35, 0, 76, 66, 0, 0, 26, 69, 50, 60, 25, 68, 10, 71, 61, 6, 56, 0, 52, 0, 14, 18, 24, 58, 70, 7, 21, 55, 67, 57, 46, 40, 44, 34, 0
|49, 64, 0, 0, 2, 26, 0, 0, 0, 48, 0, 78, 58, 0, 0, 15, 0, 30, 0, 37, 10, 19, 42, 41, 43, 0, 0, 55, 13, 69, 51, 81, 3, 36, 32, 74, 70, 0, 29, 31, 6, 71, 35, 57, 73, 80, 16, 46, 47, 1, 67, 0, 25, 0, 7, 0, 79, 0, 18, 21, 14, 0, 11, 22, 68, 0, 77, 62, 23, 0, 0, 45, 0, 59, 0, 56, 65, 50, 0, 0, 66
|63, 34, 0, 80, 0, 0, 3, 38, 25, 39, 0, 0, 0, 57, 0, 29, 6, 20, 81, 0, 58, 71, 46, 55, 74, 0, 0, 0, 42, 68, 26, 0, 1, 24, 0, 76, 0, 15, 0, 0, 49, 78, 0, 45, 36, 72, 0, 40, 0, 0, 0, 0, 9, 62, 2, 51, 48, 0, 23, 8, 35, 66, 27, 0, 31, 33, 0, 47, 43, 67, 41, 0, 0, 0, 30, 0, 22, 0, 0, 0, 53
|0, 9, 72, 0, 0, 32, 0, 61, 58, 19, 51, 79, 62, 0, 16, 66, 14, 13, 0, 67, 63, 77, 0, 80, 69, 0, 75, 22, 52, 71, 23, 5, 0, 2, 0, 39, 33, 68, 59, 7, 41, 4, 50, 44, 0, 45, 42, 28, 18, 54, 48, 0, 56, 6, 3, 0, 55, 37, 0, 81, 0, 29, 24, 0, 30, 0, 60, 53, 35, 1, 0, 0, 25, 20, 0, 0, 0, 27, 10, 8, 31
|14, 68, 67, 18, 31, 66, 0, 0, 0, 60, 4, 0, 21, 22, 23, 35, 76, 0, 0, 13, 0, 0, 45, 0, 61, 72, 65, 0, 46, 0, 12, 44, 8, 37, 79, 38, 0, 48, 24, 52, 30, 17, 2, 34, 3, 64, 0, 0, 43, 0, 71, 0, 55, 50, 47, 75, 70, 77, 0, 42, 41, 80, 0, 32, 69, 54, 57, 11, 0, 26, 0, 29, 19, 78, 63, 1, 58, 0, 9, 36, 33
|0, 17, 77, 16, 48, 60, 0, 76, 39, 51, 40, 1, 43, 50, 24, 0, 38, 4, 28, 3, 9, 70, 22, 66, 64, 0, 46, 32, 67, 42, 0, 34, 71, 0, 2, 47, 20, 36, 49, 61, 0, 15, 30, 35, 29, 58, 0, 0, 81, 65, 0, 69, 0, 54, 0, 57, 41, 59, 44, 45, 72, 74, 10, 31, 0, 0, 11, 79, 55, 18, 0, 19, 0, 26, 14, 21, 13, 68, 0, 0, 80
|0, 56, 44, 20, 72, 0, 14, 13, 47, 63, 26, 25, 0, 52, 60, 7, 36, 23, 0, 30, 45, 18, 43, 67, 2, 19, 5, 70, 6, 12, 0, 75, 35, 62, 37, 22, 0, 9, 78, 53, 0, 54, 81, 73, 0, 77, 0, 10, 59, 48, 0, 64, 21, 0, 51, 32, 16, 0, 55, 40, 58, 61, 34, 65, 74, 68, 0, 50, 0, 41, 4, 39, 0, 8, 0, 17, 79, 11, 66, 38, 0
|54, 49, 61, 0, 0, 3, 0, 41, 24, 8, 9, 70, 0, 0, 13, 45, 32, 0, 29, 12, 72, 55, 0, 60, 44, 57, 27, 68, 16, 76, 21, 11, 0, 51, 1, 18, 10, 0, 64, 0, 62, 26, 28, 48, 33, 0, 39, 0, 5, 79, 80, 66, 52, 40, 6, 81, 15, 50, 42, 65, 0, 0, 38, 0, 25, 35, 43, 0, 2, 78, 36, 22, 59, 0, 7, 0, 71, 0, 34, 37, 20
|0, 0, 10, 21, 32, 35, 0, 65, 0, 6, 0, 0, 73, 54, 41, 16, 0, 49, 59, 75, 31, 13, 48, 42, 34, 63, 0, 28, 25, 0, 29, 7, 44, 0, 0, 0, 3, 38, 0, 19, 51, 79, 0, 0, 39, 0, 24, 36, 26, 0, 46, 12, 0, 0, 17, 64, 20, 2, 11, 68, 1, 0, 0, 0, 71, 58, 70, 66, 61, 45, 60, 57, 53, 40, 0, 33, 78, 52, 18, 30, 22
|22, 75, 0, 38, 50, 0, 78, 9, 46, 0, 48, 0, 0, 31, 67, 58, 0, 65, 21, 61, 32, 10, 79, 81, 0, 25, 0, 52, 64, 0, 13, 0, 66, 0, 36, 19, 0, 41, 8, 0, 18, 43, 0, 0, 11, 53, 62, 76, 15, 37, 45, 3, 16, 7, 0, 39, 27, 0, 35, 0, 26, 5, 0, 20, 14, 72, 0, 0, 0, 73, 0, 0, 54, 60, 1, 0, 70, 23, 49, 74, 0
|1, 0, 45, 42, 71, 63, 0, 28, 64, 78, 12, 0, 39, 21, 0, 79, 0, 0, 14, 80, 65, 8, 7, 36, 0, 58, 6, 53, 26, 24, 73, 41, 20, 72, 0, 0, 47, 67, 17, 23, 0, 70, 74, 0, 0, 38, 50, 61, 22, 0, 0, 4, 51, 60, 25, 0, 0, 52, 66, 48, 0, 33, 49, 81, 59, 10, 0, 34, 0, 40, 0, 54, 0, 0, 19, 16, 56, 0, 32, 62, 35
|68, 26, 25, 12, 0, 0, 66, 7, 57, 71, 10, 33, 18, 59, 20, 62, 77, 0, 38, 51, 0, 0, 74, 0, 40, 41, 54, 50, 0, 45, 0, 0, 79, 30, 39, 46, 52, 14, 60, 1, 0, 22, 32, 4, 44, 0, 2, 0, 0, 70, 55, 34, 75, 35, 29, 31, 0, 19, 0, 43, 0, 67, 0, 0, 0, 64, 21, 0, 6, 37, 0, 16, 61, 9, 72, 0, 36, 5, 0, 0, 65
|79, 29, 34, 36, 58, 0, 19, 0, 55, 14, 0, 74, 46, 0, 11, 30, 3, 56, 0, 78, 33, 0, 52, 20, 0, 26, 1, 38, 54, 5, 17, 61, 0, 8, 60, 15, 68, 57, 16, 24, 0, 0, 0, 72, 59, 32, 71, 0, 0, 0, 6, 0, 44, 0, 0, 18, 62, 0, 0, 37, 23, 22, 63, 7, 13, 0, 69, 48, 67, 75, 0, 0, 0, 0, 0, 73, 64, 43, 81, 0, 0
|43, 62, 73, 52, 30, 51, 0, 0, 53, 75, 68, 69, 0, 64, 81, 0, 34, 0, 23, 17, 49, 35, 76, 56, 47, 16, 71, 10, 33, 48, 0, 0, 31, 59, 74, 0, 6, 37, 65, 0, 66, 25, 0, 21, 42, 18, 0, 67, 0, 14, 0, 29, 19, 20, 78, 54, 0, 0, 7, 79, 0, 70, 36, 8, 38, 26, 63, 0, 77, 46, 44, 0, 45, 39, 3, 0, 24, 55, 41, 0, 0
|80, 43, 0, 0, 0, 0, 46, 10, 3, 0, 57, 31, 29, 69, 19, 44, 54, 61, 0, 2, 0, 12, 0, 0, 15, 24, 0, 37, 0, 77, 0, 42, 0, 7, 18, 41, 79, 0, 56, 47, 0, 63, 0, 58, 66, 65, 70, 26, 45, 25, 60, 23, 0, 0, 35, 13, 14, 0, 0, 22, 36, 27, 75, 78, 73, 0, 0, 67, 0, 39, 28, 49, 0, 16, 0, 0, 72, 1, 0, 52, 71
|39, 5, 0, 0, 14, 65, 11, 25, 76, 27, 33, 58, 0, 28, 0, 0, 40, 45, 48, 35, 77, 0, 78, 30, 53, 0, 42, 64, 61, 0, 0, 16, 0, 80, 15, 56, 24, 59, 7, 70, 26, 69, 37, 0, 62, 0, 38, 0, 63, 46, 32, 18, 10, 81, 0, 0, 43, 8, 2, 57, 0, 0, 44, 74, 47, 71, 75, 4, 0, 0, 0, 0, 20, 31, 66, 29, 67, 12, 54, 79, 41
|24, 0, 0, 0, 47, 59, 27, 45, 71, 0, 5, 56, 0, 65, 0, 55, 1, 16, 0, 36, 0, 76, 63, 46, 60, 43, 0, 78, 68, 30, 38, 0, 0, 31, 0, 21, 67, 0, 28, 39, 0, 20, 6, 25, 35, 33, 0, 73, 0, 11, 4, 0, 8, 0, 15, 26, 32, 0, 19, 9, 0, 53, 0, 41, 0, 18, 3, 14, 37, 0, 13, 72, 7, 69, 0, 42, 50, 74, 51, 57, 44
|36, 66, 42, 0, 0, 20, 0, 16, 0, 41, 79, 8, 0, 0, 18, 38, 78, 52, 74, 70, 80, 62, 27, 0, 32, 67, 0, 0, 65, 63, 0, 71, 58, 73, 57, 34, 0, 0, 31, 81, 0, 0, 3, 14, 2, 51, 0, 0, 0, 0, 0, 0, 0, 43, 28, 1, 0, 4, 6, 55, 0, 12, 17, 76, 0, 60, 30, 46, 25, 0, 0, 48, 0, 68, 0, 24, 0, 0, 13, 39, 19
|0, 37, 18, 61, 0, 21, 9, 32, 75, 2, 0, 67, 36, 66, 39, 0, 81, 0, 57, 4, 0, 26, 16, 72, 50, 52, 0, 59, 51, 79, 0, 28, 19, 0, 3, 44, 8, 45, 10, 49, 46, 30, 0, 0, 13, 24, 78, 0, 0, 0, 40, 14, 20, 0, 5, 0, 63, 11, 29, 0, 0, 47, 65, 68, 43, 31, 53, 0, 58, 77, 0, 0, 17, 33, 70, 25, 60, 0, 62, 27, 0
|78, 0, 0, 68, 64, 0, 63, 44, 0, 30, 0, 15, 0, 14, 0, 20, 49, 0, 0, 58, 0, 79, 0, 8, 39, 55, 0, 0, 43, 67, 36, 0, 27, 4, 12, 13, 29, 22, 0, 72, 76, 73, 23, 9, 18, 50, 54, 17, 61, 42, 7, 0, 6, 53, 0, 0, 0, 0, 0, 77, 0, 21, 59, 0, 40, 11, 66, 0, 19, 34, 0, 0, 46, 80, 0, 3, 0, 35, 56, 0, 10
|35, 57, 31, 49, 67, 34, 12, 50, 72, 7, 0, 48, 24, 10, 25, 6, 21, 0, 0, 69, 61, 11, 54, 0, 71, 0, 28, 29, 39, 20, 0, 66, 0, 60, 0, 53, 40, 80, 74, 15, 65, 19, 0, 32, 0, 9, 77, 59, 2, 13, 0, 0, 76, 68, 42, 62, 46, 79, 56, 0, 18, 37, 0, 16, 33, 1, 23, 36, 0, 17, 8, 0, 4, 38, 55, 75, 0, 58, 30, 78, 0
|19, 0, 13, 0, 17, 0, 38, 77, 0, 12, 0, 0, 76, 0, 34, 80, 23, 0, 18, 65, 66, 0, 0, 0, 9, 56, 41, 14, 45, 75, 10, 1, 25, 55, 6, 8, 36, 0, 27, 0, 48, 42, 0, 0, 57, 69, 3, 62, 35, 39, 0, 0, 5, 52, 71, 49, 30, 67, 0, 58, 0, 24, 78, 79, 20, 50, 61, 63, 0, 64, 59, 0, 0, 22, 0, 32, 53, 73, 28, 26, 0
|8, 2, 62, 0, 60, 4, 79, 15, 73, 0, 43, 53, 22, 9, 51, 59, 74, 77, 13, 0, 81, 7, 3, 19, 0, 0, 47, 11, 35, 0, 24, 32, 0, 76, 46, 69, 1, 50, 33, 78, 55, 0, 75, 12, 71, 0, 80, 30, 28, 58, 57, 16, 31, 37, 34, 48, 66, 39, 0, 0, 54, 10, 72, 52, 5, 29, 6, 0, 27, 44, 56, 0, 64, 18, 36, 0, 0, 61, 0, 0, 21
|0, 44, 0, 13, 78, 2, 0, 0, 0, 45, 71, 76, 35, 70, 9, 57, 68, 53, 0, 79, 22, 20, 4, 52, 26, 46, 50, 58, 80, 1, 62, 25, 73, 5, 55, 0, 19, 39, 51, 0, 75, 0, 66, 0, 0, 10, 60, 0, 77, 7, 11, 42, 32, 31, 63, 0, 0, 0, 69, 3, 0, 41, 29, 15, 0, 6, 0, 81, 21, 14, 18, 0, 48, 64, 0, 0, 33, 47, 0, 59, 24
|38, 72, 0, 73, 9, 36, 80, 0, 34, 61, 0, 7, 67, 0, 52, 0, 0, 0, 75, 55, 0, 23, 58, 0, 35, 69, 62, 40, 0, 27, 64, 77, 33, 3, 45, 50, 42, 5, 32, 14, 81, 0, 0, 60, 79, 0, 43, 37, 44, 0, 21, 19, 66, 0, 8, 15, 0, 25, 0, 78, 0, 16, 0, 71, 0, 0, 10, 13, 1, 59, 30, 31, 56, 12, 26, 0, 49, 54, 17, 41, 11
|26, 14, 76, 10, 81, 64, 4, 5, 0, 0, 17, 62, 25, 6, 8, 60, 47, 33, 0, 63, 68, 41, 18, 21, 11, 2, 0, 69, 15, 53, 46, 0, 51, 32, 42, 70, 0, 77, 0, 43, 0, 0, 0, 22, 0, 12, 73, 52, 48, 75, 28, 56, 45, 13, 0, 0, 0, 9, 0, 50, 0, 30, 0, 34, 54, 0, 0, 61, 39, 66, 16, 37, 58, 72, 31, 23, 0, 29, 19, 0, 0
|47, 59, 32, 66, 65, 0, 0, 3, 0, 0, 22, 54, 0, 46, 58, 0, 69, 27, 0, 40, 0, 0, 17, 31, 45, 77, 0, 7, 0, 0, 63, 6, 75, 52, 44, 12, 0, 4, 2, 76, 21, 8, 20, 0, 0, 1, 0, 0, 0, 15, 62, 33, 79, 64, 39, 10, 0, 55, 43, 0, 0, 73, 57, 9, 0, 78, 24, 0, 11, 0, 72, 23, 74, 0, 35, 0, 81, 80, 67, 51, 37
|12, 16, 46, 0, 40, 39, 15, 6, 11, 32, 64, 20, 14, 78, 29, 0, 0, 21, 51, 0, 42, 9, 0, 43, 0, 27, 61, 0, 24, 8, 2, 0, 0, 26, 67, 60, 0, 30, 0, 73, 0, 3, 53, 10, 0, 35, 0, 50, 80, 0, 41, 0, 68, 23, 0, 71, 65, 45, 0, 36, 49, 0, 54, 33, 79, 25, 0, 55, 63, 48, 0, 77, 0, 66, 4, 62, 75, 28, 5, 18, 70
|50, 58, 27, 7, 0, 69, 0, 31, 0, 42, 0, 0, 63, 26, 0, 0, 30, 34, 0, 66, 70, 81, 0, 0, 0, 32, 12, 76, 72, 49, 57, 18, 0, 29, 0, 0, 11, 0, 0, 59, 47, 33, 64, 71, 24, 8, 0, 54, 65, 36, 5, 9, 3, 0, 53, 0, 0, 23, 61, 0, 13, 0, 74, 60, 45, 80, 62, 0, 20, 0, 52, 0, 22, 25, 44, 77, 38, 2, 79, 14, 78
|0, 33, 28, 24, 77, 0, 42, 0, 0, 23, 3, 0, 12, 49, 38, 56, 48, 0, 36, 29, 16, 72, 39, 0, 67, 8, 0, 0, 79, 35, 14, 20, 59, 43, 71, 11, 41, 7, 45, 0, 0, 37, 44, 0, 0, 57, 63, 2, 58, 0, 61, 0, 0, 74, 81, 5, 21, 75, 76, 47, 19, 0, 62, 73, 32, 0, 0, 51, 64, 0, 0, 69, 6, 50, 52, 0, 10, 15, 27, 53, 0
|17, 60, 0, 56, 0, 0, 45, 0, 68, 13, 81, 0, 10, 79, 0, 65, 4, 0, 0, 47, 0, 0, 0, 64, 33, 0, 3, 0, 0, 54, 37, 0, 78, 9, 31, 36, 16, 40, 12, 57, 72, 27, 62, 0, 15, 0, 26, 51, 0, 0, 30, 20, 34, 0, 67, 14, 2, 42, 0, 59, 66, 11, 0, 0, 29, 75, 0, 0, 74, 38, 0, 8, 39, 0, 43, 71, 63, 32, 21, 73, 1
|71, 51, 79, 1, 54, 0, 0, 62, 0, 72, 0, 73, 31, 0, 66, 41, 0, 24, 0, 15, 5, 0, 65, 34, 0, 0, 60, 13, 56, 0, 47, 0, 21, 0, 10, 16, 0, 0, 0, 63, 0, 0, 26, 0, 48, 70, 17, 53, 27, 40, 59, 0, 14, 67, 44, 4, 0, 33, 52, 46, 32, 58, 0, 12, 3, 0, 0, 22, 28, 43, 42, 2, 55, 30, 9, 0, 69, 76, 7, 45, 36|];