order = 9;
grid = [|55, 0, 56, 6, 7, 32, 38, 35, 66, 33, 67, 46, 28, 15, 0, 26, 68, 75, 49, 0, 18, 53, 0, 0, 40, 45, 23, 13, 44, 58, 60, 73, 51, 81, 50, 0, 0, 0, 63, 1, 0, 0, 0, 17, 0, 0, 0, 36, 0, 0, 59, 0, 54, 74, 0, 0, 76, 80, 25, 0, 0, 0, 3, 8, 43, 77, 31, 12, 0, 2, 19, 14, 16, 0, 0, 0, 42, 61, 41, 48, 5
|39, 0, 48, 61, 18, 0, 22, 77, 11, 9, 66, 0, 40, 47, 0, 19, 27, 71, 73, 0, 0, 0, 0, 0, 1, 0, 52, 64, 0, 69, 34, 32, 0, 70, 17, 56, 12, 38, 46, 44, 54, 59, 0, 13, 0, 50, 80, 45, 41, 31, 0, 72, 53, 26, 0, 67, 74, 51, 23, 30, 57, 16, 65, 0, 81, 75, 20, 63, 7, 0, 76, 0, 15, 24, 36, 62, 0, 0, 10, 43, 60
|0, 20, 0, 30, 0, 0, 8, 53, 0, 62, 36, 31, 0, 24, 48, 0, 0, 0, 66, 79, 78, 0, 0, 46, 44, 0, 63, 47, 0, 80, 0, 5, 71, 15, 0, 45, 9, 6, 37, 64, 32, 42, 40, 68, 69, 0, 10, 73, 33, 1, 52, 43, 0, 13, 0, 75, 12, 7, 41, 0, 50, 0, 14, 0, 23, 27, 58, 0, 26, 34, 0, 0, 70, 0, 39, 59, 0, 51, 2, 77, 55
|24, 9, 78, 51, 28, 13, 15, 12, 0, 70, 69, 0, 0, 80, 43, 81, 59, 0, 67, 74, 0, 47, 26, 31, 0, 29, 62, 23, 48, 16, 6, 27, 0, 1, 7, 3, 76, 65, 35, 77, 52, 71, 41, 60, 19, 2, 56, 0, 14, 0, 30, 0, 38, 21, 17, 0, 0, 32, 0, 0, 22, 55, 44, 5, 36, 0, 54, 0, 0, 0, 45, 53, 0, 4, 18, 34, 68, 79, 0, 8, 75
|76, 42, 80, 45, 0, 0, 63, 33, 0, 0, 21, 12, 0, 61, 54, 0, 4, 38, 14, 59, 75, 0, 0, 41, 60, 0, 0, 37, 40, 26, 0, 0, 0, 0, 10, 18, 0, 53, 20, 3, 5, 58, 23, 15, 31, 0, 67, 17, 65, 77, 8, 32, 0, 11, 68, 0, 66, 70, 6, 0, 27, 43, 62, 55, 0, 79, 0, 25, 35, 49, 0, 39, 0, 7, 9, 0, 56, 0, 22, 73, 50
|0, 41, 0, 71, 44, 43, 40, 23, 58, 29, 60, 0, 57, 20, 37, 52, 77, 0, 7, 0, 0, 0, 76, 8, 24, 38, 54, 0, 65, 0, 66, 39, 79, 59, 75, 72, 0, 0, 14, 34, 0, 0, 2, 48, 62, 25, 6, 19, 55, 63, 49, 4, 12, 0, 0, 64, 26, 13, 35, 0, 0, 0, 53, 10, 68, 69, 18, 22, 16, 61, 0, 46, 32, 30, 0, 67, 0, 45, 81, 21, 27
|0, 0, 36, 0, 52, 73, 0, 26, 17, 1, 13, 64, 53, 35, 0, 14, 0, 55, 10, 77, 80, 19, 50, 22, 12, 9, 0, 54, 0, 25, 62, 0, 63, 0, 29, 61, 51, 57, 18, 11, 43, 0, 45, 0, 66, 69, 0, 0, 71, 68, 0, 46, 75, 0, 39, 0, 24, 72, 56, 79, 5, 0, 8, 0, 32, 59, 3, 6, 30, 48, 42, 0, 78, 38, 76, 58, 40, 47, 49, 37, 20
|0, 59, 0, 0, 31, 0, 1, 68, 0, 30, 32, 0, 39, 74, 25, 2, 10, 65, 37, 0, 55, 34, 48, 13, 0, 6, 0, 77, 43, 8, 52, 33, 35, 76, 19, 49, 80, 7, 47, 0, 61, 0, 26, 75, 50, 3, 0, 78, 0, 51, 0, 0, 9, 79, 38, 0, 0, 0, 0, 21, 46, 73, 58, 24, 11, 60, 41, 15, 56, 0, 62, 0, 0, 17, 28, 23, 57, 63, 12, 0, 66
|46, 0, 50, 64, 0, 0, 75, 57, 0, 41, 0, 17, 0, 23, 22, 73, 0, 79, 43, 36, 30, 0, 72, 0, 32, 0, 0, 0, 0, 55, 0, 0, 42, 24, 9, 12, 16, 4, 8, 0, 0, 56, 74, 0, 39, 28, 40, 27, 0, 18, 48, 60, 35, 0, 0, 59, 45, 0, 0, 77, 81, 0, 49, 65, 0, 66, 70, 0, 0, 71, 47, 0, 54, 44, 13, 0, 3, 0, 0, 0, 26
|14, 0, 8, 39, 0, 44, 64, 40, 0, 27, 0, 74, 29, 30, 5, 48, 24, 56, 57, 0, 36, 43, 13, 67, 58, 34, 15, 63, 75, 9, 53, 0, 12, 42, 0, 16, 32, 81, 54, 10, 18, 76, 0, 2, 60, 52, 0, 0, 59, 80, 51, 47, 0, 78, 23, 4, 11, 73, 0, 0, 0, 62, 79, 0, 0, 37, 0, 31, 71, 41, 26, 50, 35, 6, 0, 55, 33, 72, 61, 0, 45
|80, 60, 59, 22, 79, 0, 32, 43, 65, 0, 51, 72, 34, 0, 21, 47, 13, 6, 46, 38, 0, 69, 0, 55, 9, 0, 0, 0, 0, 2, 57, 48, 4, 74, 24, 23, 8, 17, 3, 15, 75, 37, 73, 25, 0, 11, 66, 64, 61, 39, 0, 31, 68, 29, 0, 27, 19, 28, 0, 50, 35, 44, 33, 0, 53, 5, 62, 54, 49, 0, 20, 77, 71, 0, 81, 30, 67, 0, 78, 0, 36
|54, 46, 57, 0, 0, 16, 68, 29, 7, 61, 18, 70, 17, 9, 52, 0, 36, 0, 64, 39, 23, 10, 2, 0, 6, 51, 75, 60, 79, 0, 1, 30, 8, 11, 22, 0, 0, 33, 48, 47, 24, 45, 35, 71, 55, 0, 77, 14, 3, 0, 0, 25, 0, 27, 49, 31, 38, 67, 40, 63, 12, 0, 0, 56, 15, 0, 4, 72, 0, 81, 65, 74, 0, 21, 32, 53, 62, 43, 0, 0, 76
|4, 24, 72, 0, 0, 9, 49, 71, 81, 38, 0, 8, 77, 63, 0, 42, 66, 32, 16, 22, 31, 0, 37, 44, 54, 0, 47, 0, 10, 36, 3, 7, 25, 67, 0, 73, 27, 0, 0, 0, 56, 0, 29, 5, 43, 17, 53, 75, 12, 30, 69, 33, 18, 0, 0, 68, 21, 48, 76, 0, 51, 64, 0, 0, 46, 39, 40, 61, 78, 19, 14, 55, 57, 41, 0, 20, 2, 74, 11, 26, 0
|15, 74, 0, 36, 0, 30, 0, 0, 12, 55, 33, 20, 14, 0, 41, 0, 28, 0, 48, 53, 0, 0, 40, 45, 0, 52, 71, 38, 0, 0, 0, 49, 66, 0, 54, 0, 78, 77, 7, 68, 22, 9, 0, 31, 16, 60, 73, 67, 0, 46, 26, 37, 0, 19, 0, 69, 32, 65, 0, 0, 0, 0, 24, 0, 57, 23, 29, 0, 70, 0, 35, 58, 25, 50, 0, 75, 44, 0, 0, 63, 8
|0, 75, 0, 78, 20, 23, 48, 63, 35, 40, 0, 0, 69, 0, 46, 50, 19, 10, 26, 24, 27, 77, 0, 25, 3, 0, 0, 68, 5, 0, 55, 81, 80, 44, 52, 51, 14, 61, 13, 0, 64, 65, 0, 28, 53, 36, 0, 72, 0, 15, 2, 38, 32, 4, 0, 0, 37, 47, 74, 0, 70, 57, 0, 0, 42, 0, 67, 34, 11, 59, 33, 0, 0, 73, 29, 0, 9, 0, 16, 0, 22
|73, 0, 0, 5, 0, 2, 67, 50, 28, 0, 0, 3, 15, 37, 26, 25, 71, 53, 0, 0, 0, 0, 0, 0, 72, 74, 65, 0, 29, 0, 0, 0, 0, 62, 64, 0, 0, 40, 80, 66, 49, 63, 0, 44, 0, 20, 79, 57, 0, 34, 22, 45, 76, 0, 36, 54, 52, 30, 59, 0, 75, 81, 0, 18, 9, 48, 0, 0, 32, 7, 51, 60, 38, 0, 0, 0, 69, 0, 14, 42, 23
|31, 6, 26, 0, 0, 45, 0, 61, 0, 0, 81, 0, 64, 78, 0, 57, 75, 0, 0, 62, 12, 18, 32, 0, 0, 4, 49, 15, 34, 33, 69, 58, 65, 40, 0, 59, 0, 0, 42, 30, 50, 0, 20, 0, 72, 0, 1, 0, 13, 44, 0, 28, 8, 56, 3, 43, 16, 29, 77, 14, 55, 10, 17, 22, 47, 68, 0, 38, 79, 63, 0, 2, 5, 0, 52, 48, 54, 27, 7, 80, 0
|27, 52, 0, 37, 56, 77, 33, 41, 62, 0, 0, 54, 35, 59, 0, 22, 79, 76, 29, 42, 0, 0, 73, 1, 0, 19, 60, 21, 78, 14, 70, 71, 13, 18, 32, 28, 23, 69, 0, 38, 26, 57, 67, 51, 0, 55, 0, 40, 6, 10, 74, 48, 63, 49, 45, 0, 39, 9, 53, 2, 72, 15, 20, 0, 44, 0, 0, 80, 36, 8, 0, 75, 4, 34, 3, 65, 46, 64, 0, 0, 47
|0, 0, 40, 73, 63, 35, 66, 0, 1, 75, 41, 2, 0, 0, 0, 49, 78, 0, 6, 0, 71, 20, 5, 18, 59, 0, 77, 0, 0, 0, 23, 12, 0, 43, 79, 8, 0, 9, 0, 4, 16, 0, 0, 38, 45, 67, 0, 15, 0, 53, 72, 80, 11, 17, 0, 65, 13, 0, 30, 24, 0, 46, 0, 37, 70, 22, 32, 76, 60, 54, 68, 0, 0, 55, 0, 42, 81, 36, 48, 47, 0
|2, 0, 18, 0, 14, 24, 77, 59, 9, 63, 0, 30, 0, 1, 0, 0, 32, 62, 0, 0, 68, 27, 22, 36, 10, 0, 13, 0, 67, 74, 44, 0, 0, 75, 0, 78, 0, 0, 6, 71, 0, 17, 3, 0, 0, 19, 35, 33, 45, 76, 0, 41, 0, 81, 11, 15, 64, 0, 0, 73, 38, 51, 42, 50, 69, 65, 28, 66, 40, 53, 58, 52, 8, 80, 0, 0, 61, 12, 26, 25, 0
|58, 0, 0, 13, 0, 0, 0, 64, 0, 39, 48, 66, 8, 72, 57, 0, 0, 51, 3, 23, 44, 75, 19, 61, 25, 42, 0, 0, 52, 46, 11, 15, 0, 5, 81, 7, 49, 0, 28, 0, 73, 0, 76, 41, 56, 68, 2, 0, 0, 65, 43, 0, 0, 36, 14, 12, 18, 0, 79, 37, 0, 71, 55, 0, 0, 34, 59, 0, 45, 30, 0, 6, 0, 69, 0, 0, 63, 0, 0, 4, 29
|0, 0, 0, 44, 41, 28, 0, 0, 27, 24, 0, 38, 36, 22, 77, 0, 67, 40, 52, 0, 57, 55, 53, 81, 65, 80, 29, 32, 2, 35, 64, 51, 9, 71, 26, 0, 5, 46, 0, 33, 62, 75, 0, 0, 0, 56, 16, 6, 1, 0, 58, 12, 13, 25, 76, 72, 10, 0, 0, 60, 0, 0, 45, 0, 17, 0, 0, 79, 19, 47, 0, 4, 0, 20, 30, 0, 39, 0, 59, 54, 78
|62, 0, 5, 79, 21, 0, 0, 49, 22, 71, 0, 9, 4, 0, 0, 55, 81, 23, 17, 26, 64, 76, 0, 72, 0, 15, 0, 59, 0, 6, 0, 1, 45, 33, 0, 14, 54, 0, 25, 13, 30, 53, 0, 37, 68, 47, 20, 69, 70, 42, 29, 75, 0, 50, 41, 80, 7, 35, 34, 32, 52, 0, 36, 0, 77, 67, 57, 56, 0, 0, 0, 0, 3, 0, 60, 0, 73, 65, 38, 44, 31
|65, 19, 31, 12, 72, 75, 0, 60, 36, 42, 0, 50, 13, 34, 0, 45, 33, 11, 54, 37, 0, 7, 30, 62, 35, 0, 28, 55, 22, 0, 56, 0, 0, 53, 69, 80, 63, 66, 59, 23, 48, 78, 14, 0, 0, 10, 0, 21, 38, 4, 61, 51, 27, 71, 70, 9, 47, 17, 0, 58, 0, 0, 16, 44, 74, 0, 0, 0, 0, 3, 8, 29, 67, 49, 0, 0, 0, 0, 32, 5, 0
|33, 81, 55, 25, 8, 51, 23, 30, 70, 0, 0, 60, 27, 68, 0, 0, 76, 14, 0, 0, 24, 0, 0, 32, 0, 31, 0, 10, 17, 29, 20, 0, 0, 13, 0, 0, 69, 72, 61, 50, 0, 0, 43, 77, 57, 59, 0, 52, 64, 62, 39, 63, 3, 0, 67, 22, 28, 40, 0, 53, 0, 66, 54, 36, 26, 73, 15, 0, 75, 11, 71, 38, 79, 19, 46, 16, 18, 41, 35, 0, 7
|74, 0, 0, 68, 11, 0, 43, 32, 71, 3, 70, 61, 37, 0, 0, 0, 25, 59, 41, 56, 0, 66, 39, 16, 38, 47, 14, 76, 0, 0, 0, 31, 0, 73, 0, 0, 19, 15, 0, 67, 65, 55, 12, 80, 22, 8, 24, 23, 28, 78, 77, 34, 79, 44, 81, 0, 0, 57, 50, 0, 48, 63, 6, 1, 20, 7, 10, 0, 13, 42, 5, 0, 45, 64, 0, 0, 0, 75, 9, 72, 62
|42, 0, 38, 16, 6, 78, 0, 45, 76, 56, 26, 44, 0, 0, 17, 0, 73, 35, 60, 0, 9, 67, 11, 12, 50, 70, 40, 19, 47, 3, 18, 0, 34, 65, 0, 77, 0, 0, 0, 39, 21, 51, 0, 0, 64, 0, 0, 37, 30, 0, 0, 49, 0, 31, 4, 0, 29, 25, 75, 20, 59, 0, 27, 23, 33, 0, 72, 41, 2, 55, 43, 61, 52, 53, 24, 14, 15, 13, 66, 71, 28
|51, 71, 0, 3, 0, 39, 35, 56, 47, 6, 45, 0, 7, 70, 23, 0, 15, 0, 50, 33, 74, 0, 0, 29, 20, 46, 0, 26, 0, 0, 2, 16, 21, 54, 59, 0, 0, 62, 9, 75, 25, 31, 0, 79, 0, 73, 0, 0, 0, 5, 0, 19, 0, 0, 0, 0, 0, 55, 49, 52, 78, 0, 80, 53, 18, 61, 42, 14, 65, 57, 38, 81, 66, 63, 34, 0, 17, 77, 72, 67, 43
|25, 77, 0, 42, 0, 0, 5, 79, 0, 68, 0, 0, 32, 66, 0, 78, 74, 0, 30, 21, 3, 0, 0, 70, 0, 23, 72, 0, 35, 61, 0, 52, 50, 38, 0, 0, 40, 14, 16, 0, 4, 69, 0, 11, 0, 46, 55, 31, 18, 29, 34, 27, 48, 6, 56, 76, 0, 54, 0, 0, 24, 47, 26, 2, 58, 19, 0, 13, 0, 33, 22, 0, 53, 28, 0, 0, 0, 80, 0, 65, 0
|63, 34, 28, 40, 78, 57, 69, 6, 8, 53, 2, 0, 72, 62, 18, 0, 29, 0, 56, 66, 0, 73, 80, 24, 55, 48, 0, 0, 70, 0, 81, 19, 0, 0, 60, 0, 0, 0, 76, 65, 0, 38, 71, 47, 0, 12, 0, 0, 75, 41, 33, 30, 61, 0, 37, 7, 67, 68, 43, 17, 21, 5, 74, 25, 49, 0, 64, 50, 10, 26, 0, 16, 0, 23, 58, 79, 11, 14, 54, 9, 0
|0, 0, 0, 0, 81, 58, 0, 27, 13, 0, 75, 42, 43, 0, 9, 64, 52, 36, 12, 0, 0, 0, 65, 19, 47, 63, 0, 79, 0, 73, 78, 69, 0, 56, 48, 62, 37, 0, 41, 7, 0, 0, 0, 50, 0, 0, 70, 10, 2, 0, 68, 0, 20, 8, 0, 25, 15, 61, 0, 18, 4, 0, 32, 80, 0, 1, 35, 67, 31, 39, 46, 54, 0, 29, 0, 0, 51, 0, 55, 6, 0
|59, 0, 60, 80, 0, 0, 0, 74, 20, 0, 39, 40, 55, 26, 49, 30, 0, 8, 0, 0, 0, 31, 52, 43, 14, 78, 68, 9, 0, 63, 0, 65, 58, 7, 15, 42, 1, 0, 0, 6, 67, 77, 0, 22, 17, 81, 0, 0, 0, 0, 32, 56, 44, 66, 12, 53, 73, 0, 69, 28, 23, 0, 0, 48, 4, 21, 0, 0, 27, 0, 41, 0, 36, 35, 50, 64, 45, 16, 5, 61, 2
|0, 32, 21, 0, 0, 52, 7, 0, 50, 0, 35, 71, 11, 10, 31, 59, 0, 0, 0, 49, 38, 54, 61, 64, 16, 77, 37, 34, 13, 0, 43, 0, 33, 0, 80, 53, 0, 8, 56, 48, 12, 0, 27, 0, 81, 9, 72, 63, 0, 14, 3, 23, 69, 60, 46, 1, 58, 0, 0, 19, 65, 70, 41, 0, 75, 28, 0, 29, 0, 68, 40, 47, 44, 42, 25, 18, 30, 0, 73, 62, 24
|72, 26, 15, 31, 65, 0, 14, 75, 0, 37, 0, 80, 0, 25, 24, 38, 69, 34, 0, 32, 60, 11, 0, 9, 22, 0, 57, 0, 0, 30, 17, 74, 1, 77, 40, 46, 28, 18, 0, 0, 0, 49, 0, 58, 0, 21, 0, 62, 53, 52, 0, 0, 71, 39, 10, 51, 50, 2, 48, 44, 0, 35, 64, 73, 8, 0, 0, 0, 23, 76, 0, 79, 12, 70, 47, 68, 0, 3, 0, 81, 0
|53, 12, 0, 0, 46, 29, 0, 0, 0, 0, 47, 21, 61, 0, 0, 0, 14, 54, 79, 0, 35, 5, 0, 0, 0, 0, 26, 0, 0, 0, 24, 64, 0, 25, 37, 68, 0, 30, 0, 45, 33, 73, 0, 0, 36, 38, 28, 42, 0, 11, 65, 0, 67, 51, 16, 60, 75, 27, 72, 0, 0, 6, 0, 77, 63, 74, 71, 70, 0, 17, 0, 9, 0, 57, 48, 78, 0, 40, 15, 39, 69
|9, 44, 0, 0, 73, 0, 0, 0, 0, 65, 27, 28, 1, 48, 3, 16, 50, 58, 45, 6, 39, 25, 15, 7, 2, 81, 67, 0, 18, 47, 49, 75, 57, 0, 55, 32, 61, 29, 78, 70, 35, 0, 53, 0, 0, 76, 0, 80, 0, 43, 36, 79, 64, 0, 0, 42, 77, 34, 13, 0, 63, 59, 40, 51, 60, 0, 0, 0, 12, 5, 0, 20, 0, 0, 56, 71, 10, 0, 0, 46, 38
|12, 11, 29, 56, 42, 41, 50, 4, 45, 0, 61, 35, 47, 0, 33, 44, 72, 0, 69, 19, 0, 23, 57, 0, 78, 0, 79, 3, 0, 31, 0, 36, 18, 17, 0, 15, 73, 0, 26, 0, 80, 70, 16, 6, 1, 54, 0, 5, 0, 0, 63, 0, 77, 58, 66, 0, 59, 46, 32, 0, 74, 20, 68, 34, 48, 0, 13, 0, 51, 0, 0, 0, 81, 25, 75, 0, 37, 28, 60, 7, 67
|40, 5, 23, 0, 0, 66, 0, 25, 55, 54, 0, 69, 68, 0, 0, 32, 38, 22, 0, 35, 65, 6, 60, 77, 0, 3, 74, 20, 63, 19, 48, 0, 70, 0, 4, 64, 0, 71, 0, 17, 79, 18, 0, 57, 59, 43, 41, 44, 0, 0, 11, 10, 7, 33, 0, 14, 31, 0, 21, 0, 37, 45, 0, 47, 67, 52, 16, 81, 39, 0, 12, 78, 80, 76, 0, 0, 24, 46, 62, 49, 30
|16, 47, 3, 0, 74, 21, 51, 0, 0, 45, 80, 10, 0, 6, 13, 56, 18, 0, 31, 7, 52, 49, 75, 63, 8, 36, 0, 0, 32, 57, 35, 11, 78, 2, 0, 0, 22, 67, 66, 42, 60, 0, 50, 0, 54, 65, 30, 79, 0, 17, 53, 0, 40, 0, 77, 28, 41, 0, 19, 71, 0, 0, 12, 76, 61, 0, 5, 0, 0, 44, 37, 0, 73, 33, 0, 0, 38, 34, 0, 68, 70
|0, 30, 0, 0, 0, 65, 0, 0, 63, 64, 62, 25, 20, 0, 0, 23, 0, 7, 0, 70, 58, 0, 33, 0, 67, 24, 39, 80, 0, 28, 0, 0, 37, 0, 76, 13, 3, 19, 15, 29, 55, 44, 69, 52, 11, 49, 42, 0, 0, 16, 0, 78, 0, 75, 22, 5, 6, 53, 54, 48, 0, 18, 9, 68, 0, 41, 38, 0, 4, 27, 59, 31, 43, 26, 0, 0, 74, 8, 77, 35, 10
|22, 0, 9, 62, 70, 15, 0, 76, 0, 58, 59, 0, 49, 67, 30, 74, 63, 81, 0, 29, 0, 28, 0, 0, 18, 1, 73, 0, 60, 0, 0, 0, 26, 21, 65, 38, 0, 36, 0, 61, 7, 0, 39, 20, 51, 66, 0, 3, 0, 13, 31, 0, 4, 0, 35, 57, 55, 0, 8, 0, 33, 80, 2, 75, 19, 0, 43, 32, 25, 6, 72, 64, 0, 0, 5, 11, 41, 54, 23, 78, 0
|0, 0, 46, 0, 64, 37, 0, 72, 0, 76, 0, 0, 48, 0, 16, 0, 8, 27, 0, 80, 0, 0, 0, 15, 43, 0, 0, 0, 0, 0, 45, 67, 0, 23, 58, 75, 13, 63, 62, 0, 77, 21, 68, 0, 0, 0, 36, 0, 0, 2, 0, 1, 14, 38, 0, 0, 30, 49, 60, 34, 42, 17, 0, 26, 56, 0, 50, 71, 0, 0, 7, 11, 0, 18, 51, 40, 31, 0, 47, 69, 0
|8, 31, 2, 0, 80, 0, 0, 58, 73, 66, 0, 77, 0, 0, 0, 0, 11, 70, 0, 13, 0, 16, 81, 50, 42, 21, 10, 0, 69, 7, 41, 68, 0, 12, 0, 0, 43, 49, 38, 37, 23, 0, 30, 34, 0, 0, 39, 55, 0, 0, 67, 61, 59, 35, 0, 36, 51, 64, 0, 76, 47, 24, 29, 40, 22, 0, 14, 60, 74, 79, 0, 57, 56, 15, 65, 45, 0, 6, 3, 20, 0
|0, 39, 0, 35, 60, 81, 79, 7, 0, 57, 55, 53, 0, 46, 75, 15, 41, 19, 0, 72, 47, 0, 0, 48, 34, 0, 76, 30, 49, 0, 22, 0, 29, 0, 73, 40, 0, 27, 31, 8, 14, 10, 0, 0, 5, 0, 12, 68, 80, 0, 56, 0, 0, 28, 43, 52, 69, 38, 78, 23, 3, 65, 11, 21, 45, 58, 36, 18, 17, 70, 9, 33, 2, 13, 4, 0, 71, 59, 0, 50, 63
|44, 49, 43, 24, 0, 18, 6, 78, 38, 36, 34, 1, 0, 73, 0, 31, 17, 0, 68, 25, 4, 64, 71, 0, 26, 0, 30, 52, 0, 0, 74, 0, 59, 0, 47, 0, 56, 28, 45, 41, 0, 0, 33, 81, 0, 23, 9, 20, 46, 32, 0, 57, 0, 69, 50, 70, 0, 63, 67, 7, 0, 40, 13, 0, 0, 54, 0, 35, 0, 0, 77, 8, 22, 0, 53, 21, 12, 19, 42, 58, 79
|50, 0, 79, 41, 27, 0, 0, 66, 0, 34, 11, 52, 0, 58, 0, 12, 0, 74, 9, 8, 48, 0, 0, 0, 15, 0, 80, 81, 33, 53, 0, 29, 14, 39, 67, 69, 0, 0, 43, 56, 38, 0, 0, 62, 0, 31, 49, 0, 16, 22, 20, 3, 37, 30, 2, 78, 63, 1, 18, 45, 0, 72, 73, 0, 40, 0, 0, 75, 0, 21, 57, 23, 55, 0, 10, 35, 36, 25, 0, 0, 54
|19, 54, 0, 77, 53, 0, 12, 0, 80, 0, 4, 0, 18, 56, 27, 0, 1, 0, 51, 65, 29, 72, 0, 0, 0, 0, 0, 46, 0, 23, 0, 0, 0, 55, 34, 47, 20, 21, 69, 40, 3, 11, 75, 0, 6, 78, 38, 76, 0, 0, 0, 0, 39, 41, 57, 58, 79, 43, 62, 66, 0, 68, 50, 42, 37, 15, 0, 26, 0, 35, 0, 5, 14, 45, 0, 31, 52, 73, 70, 2, 0
|52, 0, 64, 0, 0, 0, 61, 67, 16, 44, 0, 13, 42, 54, 0, 36, 47, 25, 0, 5, 26, 0, 20, 40, 19, 27, 2, 62, 8, 49, 38, 9, 15, 0, 57, 0, 0, 35, 72, 18, 74, 0, 28, 24, 10, 6, 59, 12, 69, 23, 81, 53, 73, 43, 51, 55, 60, 22, 31, 0, 0, 77, 70, 0, 66, 0, 0, 46, 76, 80, 1, 0, 41, 0, 33, 4, 78, 0, 68, 0, 3
|0, 72, 32, 21, 5, 8, 62, 0, 2, 78, 0, 29, 80, 55, 64, 0, 49, 0, 77, 16, 22, 0, 67, 73, 63, 11, 31, 36, 56, 65, 0, 40, 7, 68, 18, 19, 0, 0, 0, 51, 1, 61, 59, 33, 0, 75, 48, 34, 0, 54, 45, 74, 70, 0, 69, 17, 0, 76, 52, 6, 71, 30, 0, 41, 50, 44, 12, 47, 38, 0, 3, 0, 60, 0, 20, 28, 0, 15, 53, 0, 58
|0, 0, 69, 38, 0, 0, 30, 9, 15, 0, 0, 63, 60, 0, 73, 53, 0, 57, 0, 61, 49, 0, 0, 21, 0, 0, 64, 0, 0, 0, 0, 41, 43, 10, 1, 54, 29, 12, 70, 76, 47, 4, 7, 19, 0, 77, 0, 0, 0, 0, 18, 68, 50, 0, 40, 56, 14, 16, 0, 67, 8, 42, 0, 11, 0, 0, 74, 0, 55, 0, 0, 22, 0, 39, 17, 0, 65, 44, 80, 0, 0
|45, 29, 51, 65, 4, 3, 0, 81, 39, 26, 77, 68, 41, 50, 32, 0, 0, 20, 13, 18, 1, 38, 55, 0, 0, 62, 0, 78, 12, 70, 80, 59, 0, 64, 35, 79, 58, 0, 36, 27, 0, 0, 34, 0, 30, 0, 47, 11, 24, 60, 0, 66, 2, 72, 0, 10, 44, 5, 15, 0, 28, 53, 37, 0, 25, 33, 9, 19, 52, 14, 73, 0, 23, 46, 69, 49, 7, 0, 43, 76, 57
|11, 35, 6, 0, 43, 0, 37, 10, 0, 15, 0, 7, 70, 14, 65, 28, 2, 45, 76, 0, 50, 0, 0, 60, 79, 69, 4, 5, 66, 75, 42, 13, 3, 27, 21, 0, 31, 41, 0, 55, 53, 0, 9, 73, 48, 44, 32, 51, 0, 57, 71, 0, 0, 0, 54, 0, 46, 23, 0, 74, 0, 49, 0, 58, 0, 81, 30, 59, 0, 29, 18, 63, 0, 40, 8, 72, 64, 62, 0, 1, 16
|75, 14, 73, 0, 23, 55, 78, 0, 57, 17, 0, 19, 3, 43, 0, 0, 62, 0, 74, 41, 70, 46, 0, 71, 28, 30, 0, 0, 51, 48, 76, 44, 6, 31, 16, 0, 0, 80, 64, 2, 37, 68, 66, 0, 77, 29, 58, 4, 0, 27, 35, 21, 5, 67, 34, 26, 0, 0, 81, 38, 7, 0, 25, 79, 54, 53, 61, 65, 8, 60, 69, 13, 47, 9, 11, 0, 59, 50, 18, 56, 0
|0, 13, 34, 47, 0, 60, 0, 44, 0, 0, 76, 0, 22, 0, 0, 0, 0, 9, 0, 10, 33, 39, 0, 0, 53, 57, 43, 0, 73, 11, 0, 72, 52, 0, 74, 30, 45, 5, 32, 54, 0, 0, 0, 0, 0, 0, 61, 56, 0, 7, 0, 14, 0, 55, 65, 3, 27, 41, 4, 35, 0, 12, 0, 20, 0, 70, 49, 64, 67, 0, 36, 17, 0, 71, 77, 38, 0, 37, 63, 79, 42
|0, 0, 65, 63, 0, 0, 13, 31, 30, 11, 19, 55, 0, 27, 51, 0, 56, 2, 0, 76, 53, 9, 14, 57, 0, 0, 21, 12, 20, 52, 75, 0, 54, 8, 41, 0, 0, 23, 50, 69, 66, 32, 0, 61, 0, 0, 81, 70, 77, 3, 0, 5, 45, 64, 80, 0, 35, 26, 22, 0, 49, 60, 0, 67, 10, 0, 39, 42, 33, 40, 0, 0, 0, 59, 37, 25, 1, 78, 0, 17, 71
|0, 0, 0, 0, 0, 0, 0, 19, 44, 0, 0, 57, 71, 38, 0, 24, 65, 52, 25, 45, 63, 13, 6, 74, 77, 0, 0, 0, 64, 51, 15, 60, 0, 0, 56, 0, 30, 0, 0, 0, 0, 80, 31, 0, 29, 26, 21, 16, 49, 67, 42, 18, 28, 1, 0, 0, 53, 8, 46, 39, 68, 0, 0, 61, 3, 35, 0, 73, 37, 0, 54, 69, 7, 0, 2, 32, 0, 55, 0, 27, 0
|0, 2, 62, 57, 0, 6, 25, 20, 32, 28, 0, 47, 5, 3, 0, 18, 46, 15, 65, 50, 34, 17, 70, 4, 49, 71, 0, 0, 0, 0, 0, 35, 0, 66, 61, 0, 55, 0, 77, 72, 40, 0, 63, 0, 33, 0, 78, 48, 44, 0, 27, 76, 0, 0, 59, 38, 54, 37, 64, 0, 16, 0, 43, 19, 0, 31, 52, 45, 53, 0, 81, 41, 0, 60, 73, 8, 29, 11, 30, 75, 51
|0, 0, 10, 29, 76, 12, 4, 80, 49, 35, 0, 32, 21, 0, 0, 9, 37, 68, 72, 54, 81, 0, 16, 30, 0, 18, 33, 42, 55, 0, 0, 53, 74, 19, 0, 43, 7, 34, 51, 58, 0, 8, 47, 56, 38, 79, 17, 0, 60, 50, 62, 2, 52, 73, 24, 77, 61, 75, 70, 31, 6, 28, 48, 0, 0, 36, 78, 5, 0, 25, 11, 65, 46, 67, 0, 0, 26, 0, 0, 57, 44
|28, 15, 39, 18, 26, 34, 0, 0, 23, 74, 78, 33, 0, 0, 80, 66, 12, 17, 61, 11, 7, 29, 0, 0, 46, 8, 38, 73, 59, 32, 9, 50, 27, 6, 77, 36, 35, 16, 53, 20, 41, 62, 65, 64, 42, 40, 4, 71, 43, 25, 75, 69, 0, 37, 44, 79, 56, 19, 47, 0, 0, 0, 63, 72, 55, 14, 68, 51, 57, 22, 60, 48, 13, 58, 21, 70, 5, 0, 0, 52, 81
|47, 69, 7, 8, 0, 74, 0, 14, 53, 0, 79, 26, 31, 4, 0, 43, 70, 0, 19, 0, 67, 48, 62, 42, 37, 64, 12, 28, 80, 38, 0, 45, 0, 0, 0, 0, 75, 52, 71, 5, 81, 0, 0, 3, 21, 32, 0, 0, 72, 61, 57, 11, 30, 63, 0, 0, 0, 0, 73, 41, 36, 0, 51, 0, 0, 29, 34, 0, 0, 56, 44, 59, 50, 0, 6, 0, 16, 0, 76, 33, 40
|70, 0, 35, 0, 50, 5, 16, 21, 79, 0, 73, 34, 76, 53, 61, 0, 0, 48, 80, 60, 32, 59, 0, 0, 69, 10, 27, 7, 0, 67, 33, 3, 11, 0, 2, 0, 0, 0, 1, 49, 0, 74, 0, 0, 13, 22, 19, 24, 8, 55, 0, 0, 31, 0, 0, 45, 20, 0, 29, 81, 40, 14, 57, 0, 0, 62, 0, 0, 58, 46, 75, 26, 63, 47, 0, 15, 66, 18, 0, 64, 65
|0, 61, 0, 60, 37, 0, 42, 0, 68, 13, 22, 59, 0, 8, 29, 58, 0, 0, 47, 0, 43, 3, 0, 78, 5, 73, 35, 18, 81, 0, 0, 0, 76, 79, 44, 26, 17, 70, 24, 46, 11, 14, 57, 39, 67, 0, 7, 41, 0, 0, 9, 20, 74, 0, 55, 21, 1, 66, 0, 33, 30, 25, 10, 64, 0, 0, 2, 28, 50, 38, 27, 49, 0, 0, 45, 80, 0, 69, 36, 19, 53
|38, 0, 81, 55, 59, 11, 3, 52, 64, 25, 50, 0, 0, 44, 0, 0, 0, 77, 15, 28, 20, 26, 0, 79, 0, 0, 41, 72, 31, 24, 46, 63, 17, 0, 78, 34, 10, 37, 0, 0, 0, 54, 19, 0, 0, 14, 33, 53, 51, 0, 0, 13, 29, 65, 0, 32, 71, 42, 7, 69, 62, 0, 5, 0, 0, 0, 8, 4, 21, 23, 70, 0, 0, 43, 61, 0, 49, 48, 39, 22, 0
|37, 63, 25, 32, 71, 59, 0, 65, 3, 60, 0, 15, 0, 7, 0, 17, 80, 69, 33, 0, 16, 36, 0, 58, 0, 41, 0, 0, 23, 45, 21, 22, 0, 48, 11, 0, 0, 47, 0, 19, 42, 64, 81, 53, 0, 0, 52, 29, 9, 12, 1, 26, 49, 0, 79, 0, 8, 6, 27, 51, 0, 0, 18, 62, 35, 0, 73, 55, 5, 50, 78, 24, 0, 77, 70, 2, 14, 39, 44, 34, 0
|49, 18, 45, 74, 62, 0, 0, 28, 52, 50, 20, 41, 9, 0, 0, 37, 26, 33, 70, 73, 6, 0, 44, 69, 71, 55, 59, 51, 0, 15, 5, 78, 77, 3, 53, 0, 25, 43, 39, 57, 27, 0, 0, 23, 40, 13, 0, 46, 4, 24, 0, 67, 58, 48, 0, 0, 68, 60, 80, 36, 14, 29, 34, 16, 65, 0, 19, 0, 0, 12, 17, 56, 0, 22, 54, 47, 21, 81, 75, 38, 64
|0, 64, 0, 34, 61, 0, 2, 0, 0, 14, 0, 24, 45, 40, 0, 51, 35, 28, 27, 30, 0, 0, 12, 0, 7, 0, 48, 43, 0, 1, 36, 0, 32, 20, 49, 33, 66, 0, 79, 0, 58, 72, 22, 0, 0, 0, 63, 38, 56, 19, 17, 50, 47, 0, 15, 44, 62, 71, 3, 25, 0, 0, 0, 57, 13, 18, 81, 74, 6, 77, 39, 68, 0, 52, 80, 0, 0, 67, 0, 60, 59
|17, 23, 27, 0, 12, 7, 47, 36, 21, 49, 72, 78, 38, 0, 0, 61, 0, 3, 8, 0, 11, 57, 0, 56, 45, 76, 46, 0, 62, 18, 0, 2, 0, 50, 6, 0, 60, 75, 4, 32, 68, 24, 0, 70, 73, 39, 71, 0, 5, 28, 14, 64, 16, 80, 53, 35, 40, 0, 55, 0, 69, 58, 1, 54, 52, 63, 22, 48, 0, 67, 0, 0, 51, 31, 26, 41, 0, 0, 13, 10, 37
|79, 78, 53, 58, 15, 1, 57, 0, 10, 0, 0, 67, 65, 11, 56, 71, 0, 47, 5, 81, 0, 52, 24, 23, 62, 60, 0, 61, 38, 17, 73, 0, 68, 0, 27, 55, 41, 54, 34, 0, 8, 0, 37, 12, 76, 35, 0, 0, 40, 0, 44, 59, 0, 3, 21, 13, 0, 77, 28, 49, 39, 0, 31, 46, 0, 0, 25, 20, 42, 69, 4, 72, 6, 0, 16, 9, 43, 32, 45, 0, 19
|68, 22, 42, 46, 0, 14, 29, 73, 51, 81, 0, 43, 74, 52, 4, 75, 0, 31, 39, 15, 54, 0, 0, 26, 0, 32, 18, 24, 25, 44, 13, 76, 69, 0, 0, 63, 77, 0, 67, 16, 71, 6, 56, 65, 0, 34, 0, 0, 21, 79, 10, 36, 55, 0, 30, 19, 5, 12, 0, 64, 0, 61, 72, 49, 41, 47, 33, 58, 0, 1, 23, 70, 27, 78, 0, 17, 50, 7, 0, 3, 11
|13, 40, 33, 81, 0, 38, 0, 24, 48, 18, 0, 62, 12, 29, 42, 0, 39, 16, 0, 20, 14, 63, 47, 53, 31, 67, 0, 0, 4, 72, 65, 54, 64, 0, 71, 57, 15, 50, 49, 80, 46, 7, 10, 74, 3, 51, 27, 77, 78, 6, 25, 73, 41, 2, 26, 23, 70, 0, 17, 59, 0, 75, 52, 32, 21, 43, 0, 44, 34, 36, 79, 76, 58, 0, 35, 0, 28, 5, 69, 55, 0
|0, 43, 75, 50, 55, 80, 0, 39, 77, 0, 0, 0, 6, 79, 0, 63, 44, 13, 0, 4, 72, 0, 51, 28, 29, 0, 34, 40, 19, 0, 0, 70, 0, 58, 0, 0, 33, 0, 0, 14, 0, 0, 17, 18, 61, 62, 69, 54, 23, 20, 37, 0, 15, 32, 0, 24, 2, 10, 16, 9, 0, 22, 0, 38, 7, 0, 60, 11, 64, 31, 0, 3, 0, 74, 0, 73, 76, 71, 0, 0, 25
|6, 66, 0, 11, 19, 0, 44, 8, 60, 2, 0, 58, 25, 21, 70, 0, 23, 0, 40, 0, 0, 0, 0, 0, 64, 49, 17, 14, 41, 34, 12, 79, 0, 0, 0, 0, 59, 0, 5, 0, 69, 36, 13, 55, 26, 7, 68, 30, 31, 81, 0, 22, 0, 61, 0, 46, 78, 50, 0, 0, 32, 0, 38, 0, 27, 0, 0, 0, 0, 9, 0, 0, 24, 48, 0, 0, 72, 0, 33, 15, 18
|0, 51, 0, 43, 1, 56, 0, 3, 0, 10, 42, 65, 0, 64, 63, 62, 45, 37, 81, 2, 0, 0, 0, 6, 66, 54, 25, 17, 15, 12, 71, 80, 0, 32, 0, 0, 21, 31, 33, 26, 0, 29, 49, 0, 35, 0, 75, 47, 0, 70, 13, 9, 0, 77, 0, 39, 0, 14, 0, 68, 0, 50, 69, 60, 30, 11, 53, 16, 46, 72, 74, 73, 0, 79, 78, 5, 0, 58, 0, 28, 48
|0, 67, 20, 26, 0, 0, 0, 0, 31, 0, 24, 56, 81, 36, 71, 0, 9, 66, 28, 46, 15, 0, 35, 49, 11, 72, 55, 57, 0, 0, 19, 0, 0, 29, 3, 0, 48, 45, 23, 0, 34, 0, 54, 8, 75, 42, 60, 2, 63, 69, 50, 44, 43, 0, 64, 16, 4, 78, 51, 0, 53, 79, 22, 0, 1, 0, 27, 0, 14, 0, 25, 62, 0, 0, 7, 0, 0, 30, 0, 13, 0
|23, 37, 4, 0, 69, 25, 0, 11, 75, 0, 44, 0, 79, 16, 38, 40, 22, 0, 78, 14, 61, 30, 43, 80, 0, 0, 0, 45, 0, 60, 54, 10, 0, 26, 70, 0, 62, 0, 2, 0, 13, 20, 15, 27, 71, 33, 29, 74, 68, 0, 7, 0, 0, 24, 72, 0, 65, 0, 0, 46, 18, 8, 77, 81, 31, 9, 21, 57, 0, 0, 34, 28, 17, 3, 0, 6, 55, 76, 50, 0, 0
|0, 79, 0, 2, 0, 63, 0, 34, 78, 8, 25, 14, 19, 13, 35, 0, 7, 46, 38, 27, 45, 0, 9, 0, 70, 26, 32, 0, 0, 64, 72, 20, 53, 22, 0, 24, 0, 55, 0, 28, 51, 0, 0, 69, 80, 37, 76, 61, 11, 40, 12, 54, 1, 62, 74, 73, 23, 0, 36, 10, 60, 0, 30, 3, 0, 56, 48, 0, 41, 0, 6, 43, 0, 0, 0, 0, 47, 49, 4, 0, 15
|10, 80, 44, 0, 49, 50, 0, 5, 18, 0, 0, 75, 26, 41, 2, 0, 20, 61, 0, 40, 0, 56, 0, 0, 57, 68, 16, 33, 30, 0, 8, 0, 47, 9, 62, 1, 46, 39, 60, 0, 0, 43, 0, 66, 0, 0, 51, 58, 73, 0, 23, 15, 0, 53, 13, 0, 0, 24, 0, 55, 17, 52, 0, 71, 29, 4, 65, 69, 63, 45, 67, 19, 37, 54, 14, 0, 22, 38, 0, 0, 72
|41, 8, 0, 15, 9, 36, 60, 38, 40, 69, 6, 11, 0, 0, 1, 34, 43, 49, 20, 44, 0, 62, 7, 65, 0, 12, 0, 0, 77, 59, 0, 18, 55, 0, 66, 76, 4, 56, 73, 0, 72, 0, 61, 0, 58, 27, 0, 0, 39, 71, 0, 81, 17, 14, 32, 47, 3, 31, 45, 42, 26, 48, 67, 70, 0, 50, 0, 68, 0, 0, 0, 0, 0, 51, 0, 63, 53, 24, 29, 16, 46
|7, 0, 0, 72, 29, 27, 0, 13, 6, 0, 17, 48, 73, 0, 0, 70, 31, 80, 71, 67, 0, 33, 64, 52, 0, 59, 5, 44, 0, 43, 63, 0, 0, 78, 36, 11, 50, 0, 0, 22, 0, 0, 77, 0, 18, 4, 34, 32, 66, 38, 79, 35, 19, 10, 0, 37, 0, 20, 1, 54, 2, 41, 75, 15, 0, 0, 51, 49, 24, 58, 55, 40, 62, 0, 0, 0, 8, 26, 0, 0, 21
|64, 0, 14, 28, 68, 22, 52, 62, 46, 0, 0, 0, 50, 57, 58, 0, 30, 0, 24, 0, 13, 60, 29, 0, 0, 0, 3, 75, 21, 79, 7, 34, 41, 69, 51, 0, 6, 25, 65, 0, 63, 40, 38, 10, 37, 16, 31, 0, 26, 0, 80, 55, 0, 18, 19, 0, 43, 81, 11, 0, 0, 0, 56, 35, 39, 8, 23, 0, 44, 0, 61, 42, 59, 12, 67, 1, 70, 9, 71, 0, 33
|35, 58, 12, 54, 32, 19, 17, 0, 74, 21, 68, 18, 59, 0, 53, 27, 55, 72, 63, 0, 37, 0, 0, 0, 0, 50, 51, 49, 16, 13, 25, 61, 56, 52, 0, 0, 11, 0, 57, 24, 0, 79, 70, 14, 47, 0, 3, 8, 0, 45, 0, 65, 6, 0, 29, 71, 0, 62, 33, 0, 0, 0, 28, 7, 78, 0, 0, 36, 0, 75, 64, 0, 69, 81, 0, 39, 60, 2, 34, 0, 0|];