order = 9;
grid = [|1, 70, 32, 76, 26, 62, 0, 44, 59, 0, 6, 0, 67, 42, 51, 17, 58, 20, 63, 45, 80, 0, 11, 22, 71, 5, 43, 0, 0, 31, 0, 46, 53, 12, 10, 0, 24, 66, 65, 68, 8, 21, 18, 19, 0, 49, 4, 50, 13, 48, 0, 69, 75, 37, 60, 0, 25, 2, 38, 78, 79, 40, 36, 0, 56, 52, 28, 27, 0, 35, 0, 34, 0, 0, 7, 61, 0, 0, 0, 0, 64
|27, 2, 0, 52, 8, 81, 24, 72, 78, 22, 0, 3, 0, 4, 43, 62, 23, 0, 61, 16, 6, 73, 30, 18, 15, 14, 50, 26, 80, 19, 42, 9, 34, 39, 44, 65, 59, 0, 0, 60, 1, 0, 0, 0, 77, 0, 46, 56, 40, 45, 74, 17, 64, 28, 0, 0, 58, 29, 0, 20, 63, 0, 0, 76, 0, 37, 0, 5, 0, 0, 0, 79, 68, 32, 51, 49, 70, 38, 25, 0, 10
|79, 56, 11, 0, 0, 49, 50, 0, 0, 59, 54, 0, 1, 45, 75, 33, 63, 0, 0, 23, 67, 39, 0, 0, 0, 0, 19, 21, 69, 7, 73, 5, 38, 6, 18, 47, 40, 81, 28, 32, 37, 78, 72, 35, 64, 0, 25, 0, 34, 0, 62, 31, 0, 0, 14, 0, 10, 24, 43, 57, 42, 80, 0, 26, 2, 0, 17, 70, 0, 13, 48, 9, 0, 76, 66, 52, 0, 46, 55, 36, 60
|3, 6, 10, 22, 15, 0, 77, 13, 48, 47, 0, 76, 0, 0, 32, 0, 35, 26, 0, 0, 0, 0, 0, 0, 0, 65, 0, 16, 29, 8, 68, 57, 28, 81, 67, 71, 25, 49, 0, 0, 70, 56, 0, 14, 42, 0, 0, 36, 12, 0, 80, 18, 43, 0, 66, 31, 0, 0, 0, 0, 0, 19, 33, 1, 46, 64, 0, 0, 7, 30, 45, 78, 0, 53, 39, 40, 5, 0, 0, 50, 54
|16, 75, 0, 0, 57, 28, 0, 31, 0, 0, 81, 69, 50, 49, 38, 29, 78, 56, 7, 26, 2, 40, 33, 52, 35, 0, 24, 15, 59, 0, 0, 0, 32, 0, 20, 74, 10, 41, 17, 53, 0, 13, 61, 73, 80, 55, 65, 0, 0, 22, 66, 0, 8, 63, 51, 77, 39, 0, 76, 0, 30, 9, 64, 12, 0, 44, 42, 54, 60, 0, 0, 67, 0, 0, 47, 45, 6, 19, 48, 0, 79
|69, 58, 65, 74, 47, 73, 39, 0, 0, 53, 70, 9, 40, 46, 41, 66, 52, 0, 0, 36, 0, 0, 27, 57, 0, 49, 0, 0, 2, 30, 51, 0, 0, 55, 45, 48, 0, 7, 76, 50, 0, 4, 43, 33, 20, 71, 0, 60, 78, 14, 0, 81, 5, 0, 0, 0, 6, 75, 11, 44, 0, 0, 35, 0, 21, 3, 0, 0, 80, 0, 38, 0, 0, 0, 15, 0, 28, 0, 12, 22, 63
|45, 68, 18, 23, 80, 19, 51, 43, 9, 34, 37, 36, 28, 77, 60, 5, 0, 65, 81, 0, 25, 76, 41, 38, 31, 66, 12, 0, 63, 56, 50, 0, 0, 64, 52, 0, 79, 26, 6, 0, 11, 2, 0, 71, 0, 57, 0, 30, 59, 61, 29, 3, 42, 73, 67, 17, 48, 15, 7, 13, 8, 32, 0, 75, 10, 0, 0, 14, 40, 20, 55, 22, 0, 0, 62, 16, 27, 0, 0, 69, 0
|21, 35, 0, 53, 25, 0, 67, 40, 0, 2, 64, 0, 0, 0, 0, 0, 0, 18, 13, 0, 42, 0, 28, 72, 0, 0, 0, 33, 27, 24, 22, 60, 36, 70, 0, 0, 0, 0, 0, 39, 0, 38, 63, 0, 75, 7, 6, 19, 79, 0, 52, 1, 9, 0, 37, 47, 23, 16, 0, 68, 34, 0, 4, 62, 61, 57, 0, 73, 50, 32, 69, 43, 0, 65, 0, 59, 30, 11, 0, 0, 56
|0, 7, 0, 64, 38, 20, 14, 63, 0, 74, 0, 0, 71, 0, 48, 0, 24, 19, 0, 78, 34, 0, 46, 79, 69, 47, 21, 0, 0, 0, 66, 25, 0, 0, 37, 61, 55, 36, 0, 9, 22, 30, 15, 62, 23, 54, 39, 2, 0, 33, 53, 67, 0, 0, 45, 28, 0, 59, 56, 27, 50, 70, 0, 18, 0, 6, 0, 31, 51, 29, 58, 8, 13, 43, 3, 35, 42, 17, 57, 26, 0
|0, 52, 62, 79, 0, 32, 10, 81, 11, 38, 39, 35, 41, 60, 68, 16, 0, 0, 12, 22, 0, 0, 0, 56, 0, 44, 8, 46, 4, 27, 0, 0, 47, 71, 26, 75, 9, 50, 63, 13, 25, 0, 0, 74, 37, 0, 0, 77, 0, 57, 28, 24, 0, 0, 0, 0, 15, 0, 0, 64, 1, 0, 20, 40, 51, 70, 0, 23, 45, 48, 33, 30, 2, 0, 0, 34, 0, 65, 0, 61, 73
|25, 50, 58, 4, 12, 0, 57, 30, 0, 1, 75, 5, 18, 13, 10, 0, 0, 79, 49, 6, 29, 74, 77, 70, 28, 78, 0, 32, 0, 73, 60, 0, 0, 61, 64, 67, 54, 0, 26, 0, 46, 0, 44, 68, 0, 0, 7, 0, 36, 0, 0, 14, 16, 38, 39, 59, 63, 23, 0, 17, 3, 0, 0, 65, 0, 69, 2, 19, 31, 0, 0, 81, 47, 62, 0, 20, 53, 0, 24, 21, 0
|0, 44, 0, 29, 0, 34, 0, 0, 0, 0, 23, 31, 0, 0, 61, 2, 46, 14, 21, 0, 68, 35, 55, 0, 25, 0, 0, 0, 0, 13, 72, 28, 45, 65, 58, 5, 70, 0, 3, 0, 0, 47, 60, 17, 22, 0, 64, 20, 4, 49, 33, 71, 10, 0, 24, 69, 52, 54, 0, 62, 19, 8, 0, 0, 41, 26, 0, 1, 0, 0, 11, 42, 63, 0, 74, 15, 0, 0, 0, 30, 0
|33, 28, 51, 67, 0, 71, 18, 21, 76, 0, 47, 72, 0, 0, 0, 70, 74, 9, 15, 52, 13, 0, 37, 60, 27, 0, 0, 0, 14, 49, 81, 44, 0, 2, 54, 19, 45, 61, 79, 12, 0, 35, 0, 10, 59, 34, 0, 63, 8, 5, 26, 0, 62, 1, 0, 46, 0, 32, 0, 42, 55, 66, 11, 0, 0, 43, 25, 38, 17, 78, 50, 20, 58, 64, 69, 22, 0, 40, 23, 3, 7
|19, 5, 45, 0, 69, 54, 61, 80, 8, 56, 0, 0, 63, 48, 66, 44, 0, 43, 76, 2, 0, 71, 0, 10, 0, 41, 0, 35, 1, 38, 78, 79, 42, 3, 36, 57, 23, 11, 15, 20, 0, 14, 0, 0, 0, 21, 55, 13, 72, 39, 0, 30, 73, 52, 49, 25, 51, 18, 74, 7, 0, 0, 0, 37, 0, 0, 22, 34, 75, 64, 0, 58, 26, 31, 0, 32, 67, 9, 4, 17, 28
|0, 78, 37, 40, 63, 1, 17, 23, 22, 7, 25, 67, 0, 73, 36, 0, 0, 0, 16, 0, 18, 81, 5, 0, 14, 51, 75, 77, 11, 62, 70, 33, 74, 66, 0, 20, 80, 34, 42, 4, 30, 24, 19, 58, 53, 61, 0, 69, 9, 27, 15, 0, 3, 6, 0, 44, 65, 0, 2, 79, 68, 0, 56, 8, 49, 29, 57, 72, 21, 39, 59, 10, 48, 0, 52, 60, 12, 13, 71, 0, 46
|70, 20, 56, 41, 49, 75, 0, 64, 47, 54, 22, 0, 58, 0, 0, 37, 3, 51, 17, 19, 0, 72, 26, 0, 46, 62, 7, 0, 0, 23, 10, 24, 0, 21, 15, 0, 0, 0, 39, 0, 0, 1, 66, 77, 38, 68, 2, 0, 0, 81, 0, 0, 31, 59, 9, 14, 34, 50, 71, 4, 27, 53, 0, 74, 5, 0, 0, 0, 13, 0, 63, 80, 29, 8, 16, 36, 0, 55, 44, 43, 0
|0, 3, 36, 0, 0, 0, 65, 35, 31, 0, 0, 0, 12, 0, 0, 77, 27, 0, 0, 63, 73, 45, 43, 24, 20, 0, 48, 68, 0, 0, 17, 0, 51, 56, 34, 0, 49, 0, 64, 52, 2, 0, 21, 81, 29, 25, 32, 23, 0, 58, 11, 60, 70, 0, 61, 38, 5, 72, 0, 22, 40, 37, 0, 53, 15, 4, 7, 0, 47, 55, 9, 0, 0, 79, 78, 10, 75, 0, 19, 1, 0
|2, 77, 24, 15, 27, 13, 66, 42, 16, 0, 34, 80, 0, 71, 53, 20, 0, 0, 79, 0, 23, 9, 47, 4, 0, 0, 0, 43, 18, 59, 48, 22, 63, 29, 55, 31, 0, 69, 8, 5, 28, 0, 78, 7, 72, 41, 40, 35, 76, 50, 65, 0, 74, 19, 75, 26, 81, 0, 67, 60, 0, 33, 10, 0, 14, 73, 62, 12, 0, 0, 3, 44, 45, 0, 0, 0, 57, 70, 0, 0, 0
|0, 17, 22, 73, 40, 18, 72, 65, 0, 70, 53, 0, 57, 0, 58, 38, 14, 5, 32, 60, 76, 3, 61, 7, 29, 0, 64, 36, 0, 63, 8, 62, 0, 52, 0, 50, 0, 9, 45, 78, 0, 0, 25, 0, 39, 10, 0, 71, 0, 0, 35, 21, 44, 33, 0, 0, 0, 11, 15, 56, 0, 2, 0, 0, 37, 0, 74, 66, 26, 0, 30, 0, 34, 47, 68, 6, 13, 81, 20, 0, 4
|0, 31, 9, 56, 4, 0, 49, 51, 60, 40, 61, 6, 45, 20, 2, 0, 75, 0, 44, 39, 36, 28, 54, 0, 0, 21, 0, 64, 67, 0, 14, 72, 48, 25, 65, 59, 7, 58, 11, 0, 0, 0, 68, 38, 74, 81, 62, 53, 42, 17, 3, 78, 52, 41, 71, 24, 0, 13, 34, 0, 5, 30, 57, 0, 69, 22, 73, 10, 16, 0, 79, 0, 0, 33, 32, 0, 0, 0, 8, 80, 0
|0, 0, 0, 61, 0, 0, 13, 59, 0, 11, 0, 0, 8, 74, 47, 52, 62, 49, 14, 53, 46, 70, 0, 0, 0, 0, 0, 5, 38, 39, 29, 30, 0, 0, 0, 0, 1, 22, 0, 65, 34, 17, 81, 21, 0, 18, 0, 15, 0, 0, 32, 7, 60, 48, 27, 0, 41, 79, 3, 73, 0, 0, 0, 0, 12, 20, 0, 36, 2, 25, 76, 56, 57, 0, 75, 0, 63, 0, 64, 67, 0
|39, 63, 0, 0, 41, 23, 0, 37, 53, 29, 78, 0, 0, 1, 15, 34, 17, 27, 0, 0, 0, 66, 0, 43, 12, 0, 0, 20, 0, 0, 18, 10, 44, 0, 9, 35, 0, 0, 0, 16, 0, 71, 0, 0, 46, 70, 8, 64, 38, 0, 22, 2, 80, 0, 0, 0, 47, 26, 49, 32, 76, 72, 50, 67, 0, 14, 0, 77, 59, 45, 31, 65, 28, 7, 0, 0, 21, 0, 60, 56, 19
|75, 21, 0, 0, 62, 36, 19, 0, 54, 76, 60, 0, 3, 56, 42, 0, 0, 0, 18, 4, 81, 0, 45, 71, 0, 22, 30, 74, 58, 70, 11, 49, 73, 0, 33, 0, 53, 20, 37, 0, 72, 26, 50, 0, 0, 77, 0, 57, 51, 66, 59, 0, 12, 55, 6, 64, 29, 65, 35, 0, 0, 44, 8, 7, 80, 9, 39, 61, 46, 1, 78, 0, 43, 48, 0, 2, 79, 41, 52, 10, 16
|15, 33, 64, 70, 74, 0, 52, 79, 34, 0, 0, 0, 25, 7, 0, 59, 67, 0, 0, 0, 0, 0, 63, 42, 2, 0, 57, 0, 53, 0, 0, 69, 21, 37, 0, 0, 66, 0, 0, 0, 51, 0, 76, 43, 35, 29, 0, 1, 46, 47, 0, 0, 0, 56, 81, 60, 45, 20, 39, 18, 77, 78, 61, 19, 0, 0, 50, 44, 72, 0, 0, 71, 0, 11, 24, 62, 55, 3, 0, 65, 49
|0, 66, 76, 27, 3, 0, 0, 7, 0, 51, 30, 0, 68, 36, 0, 41, 12, 0, 67, 20, 0, 0, 73, 0, 16, 56, 11, 55, 77, 34, 24, 0, 46, 0, 42, 43, 19, 2, 14, 54, 18, 28, 59, 47, 79, 0, 13, 0, 0, 6, 31, 4, 61, 0, 17, 80, 75, 22, 58, 74, 38, 0, 25, 64, 63, 62, 0, 0, 70, 49, 57, 48, 1, 50, 23, 53, 0, 0, 37, 40, 15
|68, 57, 8, 69, 6, 78, 0, 0, 0, 71, 0, 65, 37, 81, 0, 39, 54, 66, 62, 34, 10, 31, 9, 0, 0, 25, 79, 56, 0, 0, 0, 3, 80, 0, 47, 22, 42, 44, 0, 0, 0, 52, 64, 0, 0, 0, 0, 58, 28, 0, 0, 76, 50, 0, 36, 0, 53, 0, 0, 0, 0, 43, 23, 21, 40, 33, 32, 13, 24, 41, 17, 0, 0, 18, 61, 30, 14, 59, 51, 73, 72
|11, 10, 14, 0, 55, 30, 0, 0, 20, 0, 72, 28, 46, 0, 64, 22, 43, 48, 33, 0, 50, 0, 0, 59, 49, 80, 35, 31, 0, 51, 0, 0, 1, 78, 66, 79, 3, 24, 56, 61, 32, 77, 8, 60, 0, 73, 68, 40, 75, 23, 19, 25, 67, 65, 0, 7, 37, 62, 63, 21, 4, 52, 0, 0, 81, 34, 29, 53, 0, 27, 42, 18, 76, 0, 36, 17, 38, 45, 39, 74, 9
|44, 62, 77, 30, 32, 48, 16, 12, 43, 79, 0, 46, 33, 0, 49, 0, 0, 36, 66, 72, 69, 34, 24, 75, 22, 42, 63, 0, 17, 53, 35, 78, 0, 19, 7, 56, 0, 0, 21, 6, 67, 23, 0, 0, 0, 47, 81, 10, 65, 13, 0, 11, 0, 18, 25, 27, 0, 0, 0, 41, 57, 0, 52, 45, 54, 55, 37, 3, 20, 9, 14, 0, 0, 40, 0, 28, 80, 0, 70, 39, 74
|0, 42, 74, 38, 0, 59, 0, 17, 63, 0, 45, 75, 0, 53, 40, 72, 11, 64, 27, 0, 28, 49, 0, 0, 0, 18, 61, 0, 68, 43, 20, 55, 0, 10, 51, 77, 0, 70, 50, 19, 0, 60, 0, 0, 2, 33, 22, 8, 0, 21, 41, 52, 0, 32, 0, 0, 9, 0, 80, 48, 6, 0, 15, 56, 76, 30, 0, 71, 34, 0, 16, 62, 0, 35, 0, 47, 65, 0, 67, 66, 5
|0, 36, 1, 34, 0, 0, 15, 0, 75, 5, 14, 54, 22, 9, 27, 13, 0, 0, 4, 43, 0, 23, 60, 0, 21, 48, 0, 28, 0, 0, 12, 0, 71, 31, 76, 0, 17, 0, 0, 77, 24, 0, 62, 11, 41, 40, 0, 0, 0, 0, 20, 38, 55, 74, 30, 56, 0, 0, 79, 59, 0, 0, 72, 39, 66, 8, 0, 80, 44, 67, 0, 33, 64, 19, 2, 57, 0, 53, 0, 78, 0
|0, 0, 46, 81, 0, 67, 4, 0, 45, 0, 0, 44, 0, 0, 18, 30, 41, 71, 37, 51, 0, 62, 78, 17, 70, 55, 0, 23, 0, 25, 13, 0, 79, 14, 29, 66, 0, 48, 57, 34, 73, 0, 54, 59, 65, 64, 28, 68, 3, 9, 27, 35, 7, 43, 5, 10, 0, 53, 0, 0, 32, 16, 26, 31, 1, 0, 58, 40, 15, 74, 0, 6, 0, 49, 42, 75, 36, 0, 61, 11, 0
|0, 53, 27, 66, 0, 0, 35, 18, 37, 0, 20, 48, 62, 47, 0, 12, 80, 59, 31, 79, 45, 0, 74, 41, 65, 67, 71, 69, 0, 75, 0, 0, 22, 38, 1, 73, 0, 14, 51, 43, 26, 46, 0, 0, 78, 2, 72, 0, 0, 34, 30, 6, 57, 58, 28, 70, 44, 0, 60, 29, 0, 77, 19, 63, 32, 17, 0, 49, 0, 24, 0, 11, 55, 0, 0, 21, 68, 0, 13, 4, 81
|41, 71, 49, 0, 33, 39, 5, 2, 0, 0, 4, 51, 81, 10, 0, 0, 55, 34, 9, 30, 11, 0, 12, 0, 52, 0, 0, 37, 44, 0, 0, 0, 60, 32, 8, 64, 56, 0, 0, 72, 45, 0, 22, 0, 27, 50, 23, 25, 77, 59, 17, 48, 0, 53, 0, 65, 42, 0, 66, 75, 31, 76, 58, 69, 78, 0, 43, 0, 0, 0, 0, 29, 0, 16, 46, 14, 3, 0, 38, 15, 0
|0, 55, 61, 78, 76, 70, 69, 56, 14, 0, 2, 42, 7, 6, 25, 73, 38, 77, 0, 3, 39, 33, 57, 50, 64, 35, 13, 11, 62, 0, 65, 16, 72, 58, 27, 21, 74, 53, 0, 63, 40, 0, 32, 0, 81, 67, 5, 0, 29, 36, 71, 80, 19, 15, 34, 1, 49, 43, 18, 45, 37, 23, 24, 68, 48, 46, 79, 59, 52, 47, 0, 0, 0, 22, 0, 31, 41, 0, 0, 51, 0
|31, 23, 21, 51, 0, 11, 20, 0, 0, 0, 56, 15, 61, 43, 0, 0, 68, 78, 77, 0, 0, 0, 32, 0, 6, 46, 0, 47, 5, 33, 34, 18, 0, 26, 0, 45, 38, 13, 71, 49, 0, 16, 0, 0, 55, 12, 73, 0, 24, 0, 0, 0, 69, 79, 4, 40, 0, 35, 50, 81, 0, 0, 74, 2, 0, 0, 70, 28, 0, 36, 72, 53, 52, 25, 1, 0, 17, 37, 0, 63, 27
|8, 40, 25, 54, 19, 60, 6, 68, 3, 0, 57, 32, 0, 0, 35, 24, 65, 16, 1, 80, 0, 59, 38, 0, 0, 0, 15, 30, 0, 42, 49, 63, 9, 4, 0, 36, 18, 33, 47, 0, 0, 75, 28, 64, 52, 46, 0, 0, 0, 70, 14, 45, 76, 78, 20, 21, 17, 7, 0, 55, 0, 11, 71, 27, 26, 0, 10, 50, 0, 22, 12, 61, 77, 0, 0, 79, 43, 0, 29, 0, 0
|30, 1, 35, 0, 0, 43, 0, 46, 80, 0, 0, 74, 0, 59, 5, 4, 33, 41, 22, 70, 37, 13, 0, 49, 50, 16, 81, 60, 48, 0, 69, 27, 3, 28, 71, 0, 0, 0, 0, 45, 0, 63, 73, 26, 14, 0, 36, 0, 0, 55, 24, 20, 0, 2, 72, 76, 11, 17, 53, 31, 47, 0, 21, 44, 23, 25, 68, 56, 0, 0, 29, 39, 61, 0, 0, 0, 62, 58, 0, 64, 0
|66, 27, 52, 19, 0, 3, 44, 39, 69, 36, 55, 2, 0, 14, 0, 45, 48, 0, 0, 65, 9, 67, 21, 0, 74, 6, 78, 0, 40, 32, 53, 80, 77, 0, 25, 42, 43, 5, 58, 22, 4, 34, 13, 41, 0, 59, 0, 73, 0, 0, 75, 10, 46, 0, 0, 16, 56, 61, 23, 63, 81, 64, 0, 33, 7, 79, 15, 0, 0, 0, 0, 0, 8, 60, 0, 50, 54, 0, 11, 70, 31
|42, 12, 48, 49, 24, 25, 0, 57, 17, 60, 0, 37, 66, 51, 30, 11, 26, 29, 69, 14, 32, 2, 0, 33, 55, 43, 68, 9, 19, 0, 0, 54, 7, 0, 0, 52, 50, 77, 23, 0, 0, 0, 0, 0, 47, 15, 76, 0, 58, 0, 72, 65, 0, 64, 18, 8, 59, 0, 70, 0, 20, 0, 62, 46, 3, 27, 41, 45, 73, 0, 13, 31, 0, 0, 0, 74, 1, 5, 0, 28, 0
|37, 29, 13, 5, 0, 0, 36, 20, 0, 65, 0, 64, 39, 63, 23, 19, 0, 38, 0, 73, 0, 0, 48, 0, 57, 79, 0, 70, 49, 1, 6, 15, 58, 0, 81, 34, 71, 51, 0, 35, 0, 76, 0, 52, 18, 0, 54, 61, 41, 60, 67, 27, 30, 0, 74, 32, 24, 0, 9, 28, 0, 0, 44, 17, 16, 59, 75, 69, 78, 2, 22, 12, 80, 55, 25, 0, 0, 7, 0, 42, 66
|22, 0, 55, 62, 0, 2, 45, 15, 0, 46, 10, 0, 34, 0, 3, 21, 53, 57, 30, 0, 0, 0, 18, 0, 0, 77, 0, 17, 0, 72, 16, 31, 20, 44, 56, 12, 0, 32, 19, 0, 60, 0, 37, 0, 28, 0, 33, 0, 70, 0, 7, 0, 71, 13, 78, 52, 0, 68, 0, 80, 43, 25, 0, 9, 67, 36, 40, 58, 35, 8, 0, 0, 73, 26, 81, 0, 0, 0, 27, 0, 76
|23, 0, 47, 0, 60, 41, 64, 67, 56, 0, 7, 0, 43, 8, 81, 9, 16, 12, 40, 38, 0, 27, 29, 0, 0, 0, 0, 45, 24, 0, 76, 73, 33, 13, 0, 2, 30, 1, 0, 36, 0, 0, 79, 44, 17, 3, 0, 80, 25, 78, 39, 19, 77, 62, 0, 55, 35, 46, 0, 50, 65, 0, 22, 72, 0, 5, 0, 51, 48, 0, 52, 28, 0, 37, 0, 18, 34, 21, 75, 20, 0
|18, 54, 28, 0, 16, 61, 0, 0, 40, 62, 0, 0, 52, 24, 0, 76, 25, 0, 56, 0, 15, 0, 75, 46, 45, 0, 0, 0, 43, 4, 36, 26, 0, 0, 74, 0, 65, 0, 9, 21, 27, 39, 67, 0, 0, 31, 11, 0, 0, 0, 48, 8, 68, 35, 38, 0, 0, 41, 29, 5, 73, 79, 66, 80, 70, 10, 1, 0, 37, 0, 32, 77, 3, 2, 13, 51, 47, 49, 0, 53, 69
|71, 14, 0, 31, 9, 77, 26, 0, 79, 13, 27, 70, 0, 0, 6, 54, 0, 0, 0, 10, 0, 64, 35, 0, 4, 0, 28, 0, 0, 46, 59, 37, 67, 8, 0, 0, 0, 3, 0, 25, 56, 15, 0, 55, 0, 1, 53, 0, 0, 32, 50, 0, 81, 17, 0, 0, 33, 0, 0, 51, 39, 7, 42, 49, 38, 11, 21, 0, 0, 0, 43, 63, 0, 45, 22, 19, 23, 0, 72, 16, 41
|81, 0, 38, 0, 70, 76, 0, 50, 72, 0, 40, 56, 0, 0, 0, 71, 0, 0, 19, 58, 0, 0, 23, 25, 34, 12, 0, 0, 51, 79, 0, 0, 5, 30, 14, 0, 78, 59, 66, 2, 7, 42, 46, 0, 8, 0, 18, 28, 63, 0, 0, 16, 0, 0, 0, 37, 13, 27, 0, 0, 75, 15, 77, 24, 0, 0, 0, 20, 64, 0, 0, 74, 33, 0, 43, 0, 4, 35, 36, 0, 52
|60, 25, 0, 55, 0, 0, 79, 33, 27, 24, 46, 0, 0, 15, 21, 0, 0, 0, 0, 0, 49, 37, 44, 20, 0, 11, 0, 7, 32, 0, 67, 0, 0, 0, 77, 9, 72, 74, 69, 80, 50, 12, 34, 56, 3, 53, 0, 70, 64, 40, 16, 0, 1, 45, 48, 2, 38, 31, 59, 0, 0, 61, 29, 58, 0, 19, 71, 78, 0, 17, 47, 13, 65, 10, 63, 0, 8, 54, 68, 62, 36
|73, 0, 4, 12, 53, 57, 0, 66, 18, 14, 50, 0, 44, 0, 13, 35, 36, 0, 29, 40, 0, 15, 70, 16, 68, 19, 22, 81, 10, 55, 46, 65, 27, 47, 38, 37, 39, 0, 0, 0, 54, 32, 71, 6, 43, 0, 42, 9, 7, 31, 25, 28, 2, 51, 26, 33, 62, 0, 24, 0, 23, 5, 0, 3, 77, 45, 69, 74, 61, 0, 1, 76, 56, 20, 0, 0, 72, 79, 0, 0, 58
|32, 65, 70, 3, 1, 8, 0, 34, 74, 0, 66, 12, 0, 0, 67, 0, 0, 75, 64, 81, 27, 63, 17, 0, 61, 50, 45, 39, 78, 0, 30, 2, 0, 79, 40, 0, 14, 0, 0, 59, 52, 73, 7, 28, 0, 0, 0, 6, 80, 62, 0, 77, 20, 71, 13, 58, 36, 4, 37, 0, 15, 0, 46, 0, 72, 53, 0, 68, 33, 51, 54, 0, 31, 0, 0, 44, 76, 42, 0, 0, 47
|0, 0, 0, 43, 61, 35, 0, 48, 51, 23, 65, 41, 0, 80, 0, 27, 0, 0, 46, 24, 12, 30, 34, 3, 0, 4, 36, 62, 28, 26, 0, 0, 15, 0, 0, 33, 0, 31, 0, 79, 0, 57, 38, 0, 60, 19, 67, 22, 54, 18, 69, 32, 56, 11, 50, 72, 0, 0, 52, 0, 25, 81, 40, 16, 8, 39, 63, 0, 42, 7, 44, 14, 49, 0, 0, 1, 2, 0, 66, 13, 21
|72, 0, 78, 28, 0, 37, 7, 0, 58, 0, 42, 0, 2, 68, 0, 47, 56, 0, 0, 59, 74, 14, 80, 0, 0, 33, 55, 54, 50, 36, 0, 51, 0, 41, 31, 0, 0, 63, 77, 17, 10, 70, 0, 22, 0, 38, 0, 0, 81, 46, 0, 26, 27, 39, 1, 35, 0, 60, 20, 19, 0, 0, 3, 0, 0, 48, 11, 0, 43, 40, 0, 32, 12, 6, 4, 0, 71, 0, 0, 45, 29
|0, 67, 0, 17, 46, 9, 75, 6, 77, 0, 32, 0, 29, 54, 59, 43, 0, 72, 60, 0, 0, 8, 2, 78, 10, 0, 66, 73, 13, 0, 58, 19, 0, 16, 0, 63, 27, 40, 49, 81, 0, 0, 45, 65, 11, 0, 24, 0, 74, 4, 0, 57, 35, 0, 47, 79, 76, 39, 22, 34, 53, 42, 68, 70, 0, 31, 36, 21, 23, 5, 62, 41, 51, 28, 26, 37, 15, 48, 69, 7, 3
|40, 16, 68, 0, 31, 21, 54, 0, 0, 33, 69, 38, 4, 64, 7, 49, 10, 0, 0, 62, 0, 0, 58, 9, 26, 0, 42, 48, 45, 11, 0, 70, 8, 74, 0, 18, 0, 0, 2, 1, 15, 55, 0, 51, 19, 72, 37, 52, 0, 0, 0, 63, 34, 47, 57, 73, 0, 6, 0, 0, 0, 0, 0, 0, 79, 75, 46, 65, 22, 59, 81, 35, 67, 41, 0, 25, 60, 0, 43, 32, 78
|29, 0, 63, 80, 14, 0, 0, 0, 0, 58, 11, 61, 53, 78, 17, 0, 0, 70, 54, 48, 0, 25, 79, 28, 72, 0, 0, 0, 34, 0, 1, 42, 35, 0, 21, 0, 47, 46, 0, 67, 9, 18, 24, 0, 13, 44, 15, 3, 23, 10, 8, 68, 0, 0, 0, 0, 43, 51, 0, 0, 64, 75, 0, 0, 20, 56, 0, 6, 12, 66, 2, 0, 0, 73, 27, 5, 52, 0, 33, 19, 50
|62, 0, 20, 11, 36, 15, 0, 0, 19, 39, 48, 25, 77, 0, 0, 74, 71, 63, 0, 0, 1, 6, 7, 31, 0, 57, 52, 0, 0, 0, 43, 14, 68, 22, 3, 72, 0, 42, 0, 33, 53, 0, 26, 4, 30, 13, 0, 0, 17, 76, 0, 50, 41, 21, 56, 0, 70, 8, 0, 12, 54, 0, 32, 0, 60, 0, 0, 55, 49, 37, 67, 27, 40, 0, 0, 9, 0, 0, 34, 0, 75
|56, 51, 69, 20, 0, 40, 0, 49, 0, 0, 44, 17, 65, 0, 54, 60, 2, 6, 0, 31, 57, 22, 25, 48, 41, 0, 0, 52, 16, 0, 77, 32, 4, 34, 68, 80, 0, 75, 30, 37, 5, 64, 70, 13, 0, 79, 12, 76, 35, 71, 23, 53, 11, 29, 59, 66, 72, 0, 81, 67, 0, 39, 1, 15, 47, 7, 55, 0, 8, 61, 73, 36, 10, 21, 38, 63, 19, 0, 62, 33, 0
|65, 60, 19, 16, 73, 27, 43, 0, 0, 75, 41, 7, 38, 0, 8, 40, 20, 24, 6, 49, 59, 50, 4, 30, 62, 63, 44, 0, 47, 5, 55, 0, 81, 76, 0, 11, 77, 0, 53, 42, 80, 68, 58, 31, 61, 28, 51, 0, 22, 25, 45, 15, 0, 54, 0, 0, 0, 37, 26, 23, 10, 57, 2, 0, 39, 71, 0, 0, 69, 0, 56, 0, 17, 12, 67, 78, 64, 32, 0, 0, 13
|0, 48, 0, 0, 18, 0, 0, 0, 81, 0, 1, 71, 36, 0, 0, 23, 0, 4, 0, 0, 65, 12, 42, 35, 38, 2, 0, 61, 60, 22, 54, 0, 39, 0, 0, 3, 11, 15, 44, 0, 59, 51, 47, 0, 67, 27, 19, 55, 10, 0, 0, 58, 17, 16, 76, 34, 30, 74, 0, 0, 33, 0, 0, 29, 13, 49, 5, 57, 62, 43, 0, 52, 79, 0, 6, 0, 9, 75, 0, 24, 68
|0, 15, 0, 0, 0, 52, 62, 0, 39, 61, 16, 29, 0, 0, 34, 42, 30, 22, 0, 66, 77, 68, 0, 81, 0, 0, 0, 25, 20, 18, 0, 12, 0, 53, 28, 0, 35, 0, 74, 10, 76, 0, 0, 0, 0, 0, 21, 0, 0, 67, 0, 0, 72, 0, 0, 5, 64, 80, 0, 0, 24, 13, 41, 0, 0, 63, 51, 0, 0, 0, 65, 0, 11, 69, 8, 58, 46, 36, 47, 55, 48
|4, 0, 29, 8, 11, 24, 3, 5, 38, 68, 49, 58, 10, 25, 78, 48, 31, 35, 34, 37, 21, 51, 0, 19, 32, 1, 73, 67, 26, 17, 79, 23, 59, 9, 69, 0, 0, 16, 0, 55, 71, 22, 0, 0, 0, 14, 80, 81, 20, 30, 61, 44, 47, 77, 65, 0, 7, 12, 75, 70, 62, 0, 0, 6, 28, 54, 0, 0, 74, 50, 0, 2, 66, 52, 40, 56, 45, 15, 41, 18, 43
|54, 37, 44, 21, 58, 6, 0, 55, 35, 64, 0, 0, 14, 67, 26, 57, 0, 39, 43, 5, 60, 46, 56, 0, 17, 72, 16, 0, 31, 74, 19, 48, 70, 0, 24, 0, 12, 52, 78, 29, 79, 50, 0, 0, 1, 42, 34, 18, 0, 8, 68, 9, 36, 7, 0, 0, 0, 3, 28, 25, 49, 0, 69, 30, 0, 0, 0, 0, 10, 0, 0, 0, 0, 61, 53, 0, 51, 4, 81, 27, 20
|10, 34, 0, 45, 28, 17, 80, 70, 0, 0, 0, 0, 0, 0, 12, 53, 21, 0, 0, 33, 0, 52, 15, 36, 79, 64, 23, 75, 73, 6, 63, 29, 50, 0, 43, 44, 4, 0, 25, 0, 0, 65, 39, 3, 9, 0, 31, 0, 0, 0, 0, 13, 26, 57, 0, 61, 71, 0, 0, 77, 0, 0, 0, 14, 0, 66, 27, 0, 32, 58, 0, 0, 35, 30, 60, 76, 7, 16, 0, 0, 0
|0, 30, 12, 0, 23, 22, 68, 0, 32, 55, 13, 66, 9, 5, 74, 28, 77, 45, 70, 11, 61, 58, 53, 80, 0, 10, 47, 0, 0, 0, 0, 7, 62, 33, 0, 51, 0, 27, 0, 14, 36, 81, 40, 18, 21, 52, 0, 24, 0, 43, 56, 0, 59, 69, 29, 15, 50, 73, 16, 0, 60, 0, 0, 78, 19, 0, 26, 79, 0, 44, 0, 17, 39, 1, 34, 54, 0, 57, 65, 72, 25
|13, 61, 79, 25, 71, 33, 31, 0, 26, 0, 52, 19, 76, 18, 63, 50, 0, 15, 74, 8, 54, 7, 0, 27, 0, 29, 69, 78, 30, 58, 64, 21, 0, 36, 57, 10, 62, 0, 24, 66, 23, 45, 20, 34, 56, 0, 41, 65, 39, 0, 0, 75, 40, 60, 0, 48, 0, 0, 0, 35, 51, 6, 17, 81, 53, 68, 0, 0, 1, 0, 46, 38, 0, 3, 59, 80, 73, 44, 28, 49, 77
|0, 18, 43, 60, 56, 65, 58, 0, 52, 0, 68, 0, 0, 33, 72, 7, 59, 0, 45, 44, 79, 5, 3, 77, 0, 0, 26, 0, 0, 50, 37, 64, 30, 0, 70, 0, 61, 0, 12, 15, 42, 0, 2, 25, 32, 80, 48, 17, 19, 0, 6, 0, 0, 34, 53, 41, 0, 49, 0, 0, 28, 62, 75, 0, 22, 0, 78, 16, 63, 31, 0, 54, 0, 0, 0, 13, 66, 39, 35, 8, 0
|47, 9, 2, 36, 34, 44, 70, 16, 68, 0, 21, 0, 0, 52, 11, 0, 0, 0, 25, 0, 14, 24, 20, 64, 48, 0, 62, 27, 79, 3, 26, 0, 0, 0, 0, 0, 33, 0, 0, 58, 0, 40, 35, 0, 5, 0, 59, 31, 67, 1, 42, 22, 28, 10, 55, 23, 69, 0, 30, 0, 72, 0, 0, 51, 29, 12, 76, 0, 53, 80, 8, 37, 81, 0, 65, 43, 78, 0, 0, 6, 0
|17, 0, 23, 0, 35, 29, 59, 38, 0, 0, 9, 0, 48, 70, 65, 0, 0, 58, 2, 32, 51, 47, 69, 12, 54, 37, 0, 22, 46, 66, 0, 0, 76, 57, 78, 0, 21, 39, 0, 28, 14, 62, 10, 0, 0, 26, 0, 0, 30, 64, 0, 41, 49, 8, 16, 11, 0, 45, 19, 24, 71, 50, 0, 13, 73, 81, 0, 7, 56, 0, 36, 0, 75, 63, 20, 55, 0, 74, 0, 60, 53
|76, 26, 0, 0, 0, 0, 73, 0, 21, 0, 5, 1, 0, 2, 44, 0, 34, 0, 52, 55, 0, 0, 6, 0, 80, 74, 0, 59, 23, 28, 47, 0, 0, 51, 0, 39, 0, 45, 75, 0, 78, 0, 77, 0, 48, 24, 35, 66, 71, 0, 0, 40, 15, 25, 22, 43, 0, 9, 0, 37, 29, 68, 70, 11, 17, 0, 60, 33, 65, 10, 0, 46, 50, 0, 49, 72, 0, 0, 0, 0, 57
|20, 81, 15, 0, 5, 69, 22, 45, 64, 12, 36, 18, 42, 23, 4, 32, 76, 80, 28, 0, 72, 11, 0, 34, 0, 68, 10, 44, 0, 0, 0, 38, 31, 0, 0, 6, 41, 60, 0, 71, 65, 0, 0, 70, 73, 51, 63, 0, 0, 53, 57, 47, 37, 3, 8, 67, 40, 21, 61, 0, 78, 58, 0, 59, 43, 50, 0, 52, 14, 62, 0, 66, 25, 0, 56, 0, 48, 26, 1, 0, 0
|12, 0, 80, 14, 0, 50, 28, 11, 61, 45, 24, 0, 0, 16, 0, 6, 51, 25, 0, 75, 22, 0, 31, 66, 0, 0, 67, 0, 33, 65, 5, 17, 43, 72, 0, 8, 44, 0, 59, 0, 0, 19, 9, 0, 63, 74, 69, 29, 0, 77, 81, 0, 0, 70, 0, 13, 0, 0, 42, 0, 52, 60, 7, 0, 0, 0, 0, 48, 0, 26, 21, 0, 32, 0, 73, 0, 58, 0, 76, 23, 0
|53, 0, 31, 75, 0, 10, 40, 32, 6, 15, 26, 22, 60, 0, 46, 61, 0, 55, 35, 50, 16, 0, 0, 63, 8, 39, 59, 58, 0, 21, 0, 11, 0, 80, 0, 7, 52, 0, 29, 56, 47, 0, 27, 23, 34, 76, 0, 12, 68, 65, 0, 79, 13, 5, 64, 4, 74, 57, 0, 38, 48, 1, 51, 20, 0, 2, 0, 24, 9, 0, 70, 49, 19, 42, 41, 33, 69, 28, 14, 77, 0
|48, 0, 30, 57, 13, 0, 1, 19, 7, 35, 28, 0, 54, 38, 0, 10, 8, 17, 36, 0, 70, 29, 65, 73, 33, 0, 60, 34, 42, 41, 74, 20, 2, 69, 63, 53, 22, 0, 81, 26, 66, 49, 4, 24, 76, 56, 50, 75, 62, 16, 58, 0, 78, 0, 77, 3, 14, 44, 31, 47, 12, 18, 0, 0, 0, 72, 45, 64, 0, 6, 23, 25, 5, 80, 11, 27, 40, 52, 0, 0, 0
|0, 74, 66, 77, 78, 79, 0, 0, 62, 37, 3, 0, 30, 29, 31, 63, 50, 13, 57, 0, 43, 56, 1, 76, 7, 9, 49, 0, 0, 48, 25, 0, 0, 0, 60, 24, 16, 80, 72, 51, 64, 54, 0, 8, 36, 45, 14, 32, 73, 0, 21, 33, 23, 20, 46, 39, 0, 81, 65, 0, 2, 17, 5, 34, 58, 40, 0, 75, 4, 28, 61, 0, 22, 38, 18, 68, 59, 47, 15, 71, 70
|63, 0, 40, 0, 45, 4, 48, 0, 0, 6, 79, 0, 5, 66, 33, 36, 81, 23, 0, 27, 31, 20, 59, 0, 78, 17, 9, 0, 72, 0, 0, 61, 26, 42, 39, 76, 60, 28, 0, 41, 21, 0, 0, 0, 44, 0, 71, 0, 55, 0, 77, 64, 24, 0, 19, 0, 0, 1, 0, 65, 7, 56, 0, 22, 34, 32, 53, 0, 58, 14, 0, 3, 69, 0, 0, 73, 50, 0, 16, 0, 0
|51, 0, 75, 35, 20, 47, 55, 60, 50, 42, 29, 24, 31, 76, 57, 46, 0, 40, 48, 13, 19, 0, 64, 62, 3, 0, 0, 12, 56, 0, 0, 59, 11, 0, 0, 0, 0, 0, 1, 18, 68, 0, 69, 67, 71, 8, 30, 0, 0, 73, 0, 70, 25, 0, 10, 49, 66, 77, 0, 52, 0, 22, 38, 54, 74, 0, 33, 17, 27, 63, 39, 7, 21, 14, 28, 81, 26, 6, 58, 0, 65
|67, 38, 39, 1, 68, 31, 0, 0, 44, 73, 0, 0, 27, 17, 62, 0, 15, 47, 24, 0, 5, 0, 0, 0, 36, 60, 0, 0, 6, 0, 0, 40, 66, 7, 30, 0, 75, 0, 32, 0, 19, 53, 49, 46, 70, 58, 79, 26, 0, 0, 13, 56, 48, 0, 41, 29, 18, 64, 72, 54, 16, 28, 81, 25, 9, 0, 20, 0, 0, 69, 51, 0, 23, 0, 45, 0, 11, 2, 63, 52, 61
|6, 0, 26, 9, 29, 56, 71, 62, 0, 48, 8, 60, 20, 0, 55, 0, 0, 0, 75, 7, 66, 57, 16, 39, 30, 0, 41, 51, 54, 47, 52, 34, 65, 18, 79, 0, 2, 73, 22, 31, 0, 43, 42, 76, 45, 63, 44, 38, 49, 0, 78, 59, 53, 80, 23, 50, 32, 40, 0, 58, 0, 74, 67, 28, 0, 13, 35, 0, 0, 21, 37, 70, 0, 0, 0, 3, 24, 1, 0, 68, 0
|61, 69, 41, 32, 52, 14, 37, 76, 13, 3, 0, 77, 72, 50, 16, 51, 22, 54, 0, 29, 0, 18, 49, 0, 42, 58, 0, 19, 21, 0, 28, 75, 0, 0, 0, 55, 63, 65, 36, 47, 0, 0, 56, 66, 40, 0, 1, 43, 0, 7, 9, 23, 6, 46, 44, 57, 68, 25, 8, 0, 0, 0, 39, 71, 59, 15, 0, 0, 11, 0, 0, 64, 0, 34, 0, 4, 74, 67, 78, 79, 17
|34, 73, 16, 65, 0, 12, 25, 0, 2, 63, 18, 59, 21, 75, 0, 68, 0, 53, 50, 0, 4, 54, 0, 69, 1, 0, 46, 71, 81, 64, 33, 45, 13, 27, 23, 0, 0, 30, 61, 0, 55, 9, 14, 20, 7, 0, 0, 74, 32, 35, 0, 37, 29, 31, 43, 62, 78, 42, 0, 3, 17, 0, 0, 66, 44, 0, 0, 0, 0, 19, 0, 0, 38, 56, 48, 41, 0, 0, 40, 47, 0
|36, 79, 53, 18, 17, 0, 21, 0, 30, 0, 0, 39, 70, 41, 0, 56, 0, 0, 47, 67, 44, 0, 0, 6, 0, 40, 37, 63, 74, 9, 3, 58, 0, 0, 5, 1, 0, 78, 13, 8, 0, 59, 0, 16, 0, 4, 0, 0, 14, 0, 51, 0, 22, 0, 15, 45, 31, 0, 33, 61, 35, 34, 0, 0, 62, 65, 0, 46, 29, 75, 68, 73, 0, 71, 19, 0, 25, 20, 49, 0, 80
|49, 8, 33, 24, 0, 0, 23, 3, 0, 30, 74, 13, 64, 12, 0, 14, 32, 0, 0, 61, 35, 0, 76, 0, 11, 28, 51, 50, 25, 0, 57, 67, 78, 0, 46, 41, 0, 0, 34, 0, 17, 0, 29, 79, 54, 0, 20, 21, 47, 72, 0, 39, 18, 0, 63, 75, 0, 70, 0, 53, 80, 59, 9, 0, 52, 0, 0, 0, 38, 56, 40, 0, 0, 15, 31, 7, 22, 60, 0, 44, 0
|0, 19, 59, 0, 81, 0, 11, 0, 0, 0, 58, 45, 49, 35, 37, 0, 0, 0, 8, 0, 26, 77, 0, 14, 63, 34, 25, 38, 0, 60, 0, 36, 29, 73, 80, 0, 51, 10, 5, 24, 33, 0, 0, 39, 0, 0, 17, 16, 15, 52, 40, 54, 0, 0, 79, 20, 0, 0, 27, 69, 46, 47, 13, 61, 50, 18, 48, 2, 30, 23, 41, 1, 53, 75, 0, 0, 32, 0, 9, 76, 55|];