order = 9;
grid = [|51, 1, 0, 0, 0, 13, 0, 63, 79, 0, 49, 52, 6, 28, 72, 26, 0, 0, 39, 0, 0, 2, 36, 62, 0, 0, 0, 34, 40, 0, 75, 29, 0, 16, 57, 0, 14, 0, 21, 0, 74, 0, 53, 0, 45, 4, 0, 25, 0, 0, 0, 8, 23, 11, 0, 47, 0, 73, 5, 76, 58, 55, 71, 32, 37, 0, 0, 24, 80, 59, 77, 30, 46, 48, 0, 0, 38, 0, 0, 0, 9
|46, 78, 0, 40, 0, 0, 69, 50, 23, 43, 22, 0, 0, 0, 42, 0, 59, 27, 7, 38, 15, 31, 45, 60, 29, 0, 0, 62, 36, 58, 10, 55, 79, 66, 77, 20, 0, 0, 72, 12, 37, 0, 11, 0, 57, 34, 0, 0, 33, 53, 0, 18, 0, 56, 52, 2, 0, 41, 0, 35, 0, 8, 39, 74, 48, 65, 0, 54, 70, 44, 47, 75, 64, 67, 1, 3, 49, 0, 25, 0, 24
|2, 0, 72, 55, 65, 3, 0, 0, 41, 40, 5, 80, 77, 71, 0, 58, 0, 29, 68, 52, 30, 22, 67, 49, 0, 0, 26, 0, 0, 0, 0, 27, 12, 70, 28, 0, 0, 46, 1, 24, 8, 63, 19, 79, 32, 61, 75, 0, 36, 0, 81, 0, 7, 21, 0, 33, 0, 18, 0, 0, 0, 16, 0, 57, 0, 0, 34, 17, 39, 0, 14, 51, 0, 11, 0, 0, 0, 73, 56, 35, 0
|57, 0, 26, 60, 0, 19, 58, 35, 0, 0, 51, 44, 25, 48, 79, 66, 0, 18, 0, 55, 78, 0, 4, 10, 72, 0, 28, 0, 64, 71, 0, 5, 0, 63, 73, 6, 39, 27, 50, 77, 16, 61, 56, 0, 0, 0, 47, 31, 68, 0, 0, 62, 59, 0, 0, 21, 11, 3, 40, 24, 46, 20, 67, 15, 0, 33, 23, 42, 49, 81, 22, 52, 0, 0, 80, 0, 7, 43, 30, 0, 54
|29, 42, 0, 0, 81, 0, 14, 31, 39, 12, 8, 76, 32, 69, 0, 54, 0, 57, 0, 56, 11, 23, 48, 17, 34, 77, 0, 67, 44, 53, 3, 68, 0, 46, 1, 7, 38, 18, 59, 66, 62, 0, 55, 0, 0, 50, 58, 0, 64, 40, 52, 27, 37, 13, 0, 36, 0, 79, 72, 10, 49, 26, 30, 73, 0, 9, 5, 21, 0, 2, 41, 0, 74, 19, 75, 6, 60, 16, 28, 71, 22
|71, 36, 68, 28, 21, 45, 33, 56, 27, 2, 0, 16, 0, 0, 50, 0, 67, 75, 41, 1, 0, 24, 35, 0, 0, 40, 70, 0, 8, 49, 0, 51, 14, 0, 0, 23, 64, 0, 52, 47, 0, 0, 65, 29, 3, 77, 22, 73, 48, 0, 54, 15, 17, 39, 57, 43, 0, 34, 0, 7, 12, 53, 80, 18, 46, 60, 26, 62, 0, 66, 79, 4, 61, 69, 0, 58, 20, 42, 0, 44, 76
|64, 16, 38, 34, 9, 12, 44, 59, 6, 24, 46, 0, 0, 78, 47, 0, 41, 31, 57, 0, 8, 0, 0, 0, 0, 25, 33, 39, 0, 26, 4, 72, 0, 69, 30, 11, 48, 0, 0, 42, 22, 0, 0, 0, 67, 5, 32, 0, 63, 0, 79, 28, 0, 80, 1, 17, 54, 70, 56, 51, 0, 23, 68, 55, 45, 0, 58, 3, 0, 13, 40, 20, 37, 66, 0, 53, 52, 18, 36, 2, 77
|80, 0, 0, 0, 0, 18, 48, 11, 0, 0, 0, 23, 73, 3, 38, 56, 0, 17, 46, 14, 59, 58, 71, 61, 0, 5, 13, 42, 81, 33, 22, 50, 0, 35, 0, 47, 0, 4, 51, 54, 25, 2, 75, 9, 7, 24, 0, 0, 70, 0, 0, 0, 57, 0, 37, 0, 64, 0, 63, 0, 62, 74, 0, 31, 8, 0, 28, 0, 0, 29, 53, 68, 39, 40, 26, 21, 0, 79, 55, 72, 0
|0, 70, 0, 8, 4, 77, 43, 0, 0, 0, 9, 61, 0, 0, 1, 36, 0, 34, 79, 0, 18, 19, 20, 12, 44, 53, 3, 52, 0, 76, 24, 74, 54, 80, 45, 21, 0, 23, 40, 78, 41, 17, 0, 0, 49, 46, 35, 2, 0, 51, 71, 0, 66, 55, 75, 0, 0, 6, 14, 59, 32, 0, 48, 0, 72, 25, 56, 16, 50, 64, 67, 38, 0, 47, 0, 62, 68, 27, 57, 33, 5
|75, 17, 0, 0, 36, 55, 57, 73, 0, 21, 0, 0, 46, 12, 0, 64, 0, 0, 38, 7, 33, 42, 65, 37, 81, 18, 0, 60, 0, 62, 6, 25, 0, 15, 0, 0, 49, 78, 0, 0, 72, 19, 74, 61, 0, 52, 29, 43, 67, 0, 59, 58, 48, 34, 0, 14, 0, 0, 0, 66, 56, 2, 5, 16, 0, 24, 76, 0, 31, 0, 4, 0, 77, 35, 27, 0, 39, 0, 80, 10, 28
|58, 0, 11, 0, 0, 54, 26, 10, 63, 0, 0, 25, 55, 9, 43, 4, 31, 0, 0, 49, 17, 0, 15, 28, 57, 44, 60, 0, 24, 69, 38, 67, 42, 0, 47, 79, 0, 0, 46, 0, 29, 36, 2, 56, 12, 39, 0, 37, 76, 62, 0, 53, 77, 1, 20, 3, 21, 71, 30, 33, 7, 68, 51, 0, 78, 70, 0, 61, 18, 23, 48, 65, 13, 81, 0, 0, 0, 50, 0, 0, 0
|72, 67, 65, 20, 0, 0, 59, 0, 12, 73, 33, 39, 24, 0, 0, 0, 0, 49, 0, 43, 48, 29, 0, 74, 71, 63, 6, 0, 11, 0, 0, 0, 10, 0, 58, 0, 62, 5, 0, 31, 0, 0, 0, 57, 0, 0, 61, 9, 0, 0, 2, 0, 81, 23, 19, 55, 1, 32, 22, 0, 18, 0, 13, 34, 68, 0, 53, 64, 42, 0, 35, 7, 0, 4, 60, 44, 21, 3, 54, 0, 45
|13, 2, 0, 27, 0, 47, 0, 38, 62, 19, 61, 0, 75, 0, 45, 34, 5, 67, 69, 20, 1, 79, 0, 0, 0, 26, 0, 54, 0, 7, 72, 0, 0, 78, 0, 43, 6, 15, 0, 44, 60, 9, 32, 22, 0, 42, 25, 0, 80, 33, 0, 10, 63, 30, 0, 29, 53, 64, 0, 23, 0, 40, 76, 0, 55, 41, 73, 66, 74, 37, 28, 8, 18, 52, 0, 0, 0, 65, 68, 51, 0
|48, 33, 70, 0, 37, 0, 52, 0, 34, 81, 29, 0, 47, 68, 69, 16, 22, 1, 0, 64, 0, 4, 24, 66, 56, 45, 2, 0, 53, 9, 0, 80, 0, 55, 0, 59, 8, 51, 14, 67, 71, 54, 21, 27, 10, 11, 28, 40, 0, 36, 46, 3, 44, 65, 61, 15, 77, 0, 73, 25, 31, 42, 0, 0, 50, 19, 0, 39, 30, 43, 0, 49, 72, 58, 0, 17, 79, 76, 0, 57, 0
|0, 23, 0, 43, 0, 39, 7, 80, 77, 35, 58, 0, 44, 63, 48, 0, 0, 20, 9, 0, 68, 5, 51, 54, 55, 46, 21, 75, 50, 31, 28, 0, 16, 65, 22, 0, 40, 34, 0, 76, 0, 0, 0, 66, 0, 0, 0, 0, 32, 27, 0, 60, 24, 47, 59, 74, 0, 78, 12, 45, 37, 62, 26, 36, 0, 10, 29, 2, 0, 0, 11, 67, 0, 30, 0, 0, 69, 0, 1, 19, 33
|0, 40, 6, 19, 68, 0, 49, 45, 0, 18, 0, 2, 27, 38, 13, 32, 66, 28, 14, 0, 0, 0, 16, 78, 61, 31, 52, 35, 39, 34, 71, 44, 57, 73, 37, 48, 0, 81, 53, 0, 0, 0, 43, 25, 41, 12, 56, 21, 7, 64, 74, 17, 54, 75, 67, 0, 0, 63, 36, 69, 50, 80, 0, 0, 62, 5, 72, 20, 33, 0, 51, 77, 42, 55, 0, 8, 22, 0, 29, 23, 26
|3, 61, 44, 0, 64, 22, 0, 0, 15, 23, 74, 37, 10, 76, 62, 50, 0, 0, 70, 32, 0, 73, 13, 0, 19, 75, 36, 2, 0, 0, 18, 41, 77, 12, 29, 0, 0, 0, 33, 0, 24, 0, 80, 68, 42, 20, 57, 0, 35, 0, 4, 0, 45, 14, 0, 0, 79, 0, 0, 28, 52, 54, 11, 0, 81, 47, 17, 58, 40, 46, 63, 69, 0, 25, 31, 0, 67, 49, 0, 0, 38
|9, 0, 0, 14, 35, 24, 0, 29, 25, 7, 40, 57, 0, 77, 53, 30, 0, 59, 0, 0, 62, 80, 0, 0, 10, 0, 67, 33, 49, 1, 0, 0, 0, 61, 3, 36, 65, 0, 26, 64, 55, 37, 0, 28, 0, 68, 0, 0, 69, 73, 78, 0, 5, 19, 0, 48, 0, 81, 8, 58, 38, 0, 6, 0, 60, 0, 32, 75, 0, 71, 0, 0, 20, 0, 70, 0, 12, 46, 74, 66, 56
|65, 75, 0, 16, 0, 57, 29, 0, 36, 1, 12, 35, 81, 0, 41, 7, 0, 0, 56, 50, 0, 0, 74, 0, 63, 0, 79, 71, 32, 0, 0, 52, 0, 0, 27, 0, 46, 54, 45, 0, 20, 22, 78, 3, 8, 76, 0, 59, 14, 23, 33, 64, 25, 61, 6, 31, 73, 49, 15, 26, 0, 77, 19, 0, 51, 0, 21, 80, 43, 9, 72, 58, 0, 42, 0, 68, 66, 0, 38, 18, 0
|59, 35, 23, 0, 0, 0, 0, 3, 50, 15, 0, 49, 5, 27, 0, 18, 0, 46, 0, 0, 10, 28, 60, 0, 1, 12, 22, 0, 0, 0, 7, 75, 0, 19, 79, 0, 0, 33, 0, 11, 26, 52, 62, 51, 74, 63, 0, 0, 56, 6, 36, 0, 0, 0, 70, 0, 24, 37, 29, 9, 0, 0, 64, 0, 34, 0, 0, 0, 0, 17, 0, 39, 0, 31, 54, 32, 2, 0, 72, 0, 43
|0, 12, 15, 0, 0, 4, 68, 0, 0, 75, 0, 28, 33, 17, 24, 0, 64, 26, 43, 21, 44, 3, 61, 73, 11, 0, 0, 0, 0, 23, 56, 0, 0, 0, 36, 25, 0, 0, 67, 0, 65, 6, 49, 38, 0, 0, 10, 0, 78, 7, 80, 0, 1, 35, 13, 69, 57, 0, 18, 2, 0, 50, 0, 71, 31, 45, 79, 55, 54, 41, 0, 59, 9, 20, 0, 77, 0, 8, 60, 0, 16
|0, 71, 39, 63, 32, 0, 66, 74, 0, 0, 21, 77, 0, 40, 56, 8, 43, 0, 53, 70, 19, 67, 0, 26, 59, 30, 31, 11, 1, 0, 50, 54, 34, 0, 5, 0, 2, 0, 9, 69, 13, 0, 0, 16, 25, 37, 73, 49, 72, 18, 55, 68, 79, 58, 80, 7, 28, 23, 27, 65, 60, 36, 14, 0, 35, 15, 10, 0, 0, 75, 24, 42, 33, 76, 3, 4, 64, 0, 78, 81, 0
|49, 56, 0, 64, 20, 21, 76, 0, 14, 0, 66, 79, 80, 0, 0, 69, 70, 72, 16, 37, 0, 62, 23, 0, 15, 27, 18, 0, 10, 0, 33, 0, 22, 6, 0, 77, 17, 24, 44, 0, 0, 34, 59, 50, 40, 29, 0, 5, 0, 0, 42, 65, 2, 0, 46, 38, 52, 8, 0, 47, 1, 43, 54, 68, 0, 0, 4, 73, 12, 11, 3, 74, 67, 71, 7, 26, 0, 25, 48, 75, 0
|69, 5, 0, 7, 60, 80, 1, 2, 61, 51, 0, 34, 63, 0, 59, 76, 68, 78, 49, 9, 0, 45, 0, 65, 14, 72, 0, 0, 28, 24, 26, 46, 40, 21, 41, 4, 79, 48, 10, 37, 43, 64, 0, 47, 0, 19, 31, 39, 44, 13, 22, 32, 11, 15, 71, 20, 33, 67, 3, 55, 0, 75, 25, 8, 52, 23, 0, 0, 66, 0, 70, 53, 29, 0, 35, 36, 0, 0, 0, 62, 30
|18, 54, 28, 79, 0, 11, 37, 9, 0, 67, 0, 0, 0, 25, 22, 3, 0, 0, 78, 0, 57, 0, 0, 0, 47, 0, 0, 0, 0, 81, 0, 0, 69, 76, 12, 15, 0, 21, 23, 4, 1, 77, 31, 63, 36, 66, 50, 0, 40, 75, 24, 30, 0, 43, 62, 72, 0, 74, 0, 16, 44, 0, 41, 0, 19, 61, 33, 0, 64, 7, 5, 6, 0, 0, 39, 56, 34, 14, 0, 46, 0
|53, 0, 27, 26, 72, 0, 51, 24, 70, 9, 6, 29, 52, 11, 36, 0, 0, 19, 76, 33, 2, 0, 55, 8, 0, 4, 25, 31, 0, 80, 13, 18, 0, 0, 64, 0, 81, 60, 7, 68, 73, 32, 28, 41, 56, 0, 38, 54, 0, 69, 0, 67, 34, 0, 78, 61, 0, 0, 66, 40, 0, 0, 63, 1, 0, 77, 65, 50, 0, 49, 16, 37, 15, 79, 23, 5, 44, 58, 0, 0, 0
|33, 8, 46, 31, 25, 0, 34, 55, 43, 74, 30, 58, 0, 13, 10, 44, 50, 0, 40, 36, 0, 7, 0, 64, 6, 69, 66, 3, 29, 16, 67, 0, 35, 48, 49, 68, 76, 0, 0, 0, 15, 75, 0, 0, 53, 26, 17, 52, 9, 81, 0, 47, 62, 77, 22, 39, 0, 4, 0, 56, 11, 21, 0, 60, 0, 0, 2, 0, 14, 63, 0, 0, 73, 37, 0, 51, 0, 0, 70, 24, 61
|77, 39, 55, 3, 63, 10, 0, 67, 58, 17, 1, 4, 0, 0, 60, 27, 6, 24, 2, 0, 0, 0, 37, 45, 54, 61, 53, 64, 0, 75, 0, 21, 13, 30, 72, 34, 36, 0, 0, 0, 0, 44, 73, 59, 16, 23, 12, 35, 0, 26, 0, 9, 0, 5, 15, 42, 78, 11, 0, 48, 79, 18, 0, 50, 40, 52, 0, 43, 0, 33, 56, 32, 0, 29, 0, 0, 25, 0, 19, 14, 49
|21, 73, 19, 24, 33, 0, 0, 70, 4, 0, 0, 78, 51, 2, 0, 61, 54, 0, 58, 0, 0, 0, 0, 44, 35, 0, 0, 1, 0, 52, 17, 0, 32, 42, 10, 9, 47, 28, 27, 0, 50, 0, 63, 46, 11, 55, 0, 79, 53, 0, 0, 22, 16, 0, 81, 49, 39, 43, 31, 75, 69, 56, 0, 0, 80, 8, 0, 0, 0, 36, 0, 34, 0, 0, 5, 0, 77, 48, 23, 0, 59
|68, 76, 75, 41, 56, 28, 0, 71, 30, 0, 34, 0, 43, 73, 25, 49, 11, 23, 63, 47, 0, 0, 46, 36, 13, 14, 72, 40, 80, 65, 78, 0, 70, 0, 20, 12, 9, 61, 57, 8, 0, 69, 24, 39, 31, 1, 0, 0, 4, 52, 0, 29, 58, 0, 55, 66, 0, 0, 35, 44, 0, 0, 2, 0, 5, 42, 0, 51, 53, 0, 0, 0, 45, 0, 74, 0, 16, 0, 15, 54, 0
|42, 11, 57, 0, 0, 7, 5, 0, 0, 33, 35, 0, 19, 0, 80, 48, 58, 0, 8, 10, 0, 15, 59, 51, 62, 34, 0, 81, 26, 22, 0, 0, 53, 3, 56, 28, 23, 0, 0, 60, 0, 72, 37, 4, 1, 65, 0, 75, 0, 71, 50, 73, 39, 0, 0, 0, 0, 24, 0, 67, 27, 0, 21, 49, 0, 17, 0, 41, 29, 31, 74, 18, 2, 0, 44, 55, 6, 30, 61, 20, 32
|26, 49, 34, 45, 6, 64, 0, 32, 47, 63, 44, 0, 56, 31, 0, 0, 0, 9, 0, 24, 73, 81, 0, 79, 22, 17, 55, 0, 0, 39, 74, 15, 61, 0, 23, 76, 0, 77, 35, 0, 52, 0, 0, 0, 0, 59, 18, 0, 0, 20, 11, 0, 28, 0, 68, 0, 51, 40, 0, 12, 0, 14, 57, 54, 67, 30, 48, 0, 71, 3, 0, 0, 43, 1, 78, 0, 0, 0, 8, 7, 50
|0, 44, 1, 0, 48, 69, 35, 79, 0, 32, 0, 81, 66, 0, 16, 72, 10, 0, 31, 0, 0, 39, 0, 3, 26, 0, 0, 14, 18, 11, 27, 33, 25, 62, 67, 37, 0, 64, 0, 41, 0, 43, 34, 45, 68, 8, 15, 51, 19, 0, 47, 49, 6, 60, 73, 4, 5, 30, 80, 54, 20, 7, 61, 0, 0, 13, 24, 0, 0, 38, 12, 78, 21, 0, 42, 63, 57, 28, 40, 53, 58
|54, 50, 0, 12, 80, 0, 23, 43, 81, 0, 28, 67, 42, 0, 40, 41, 39, 0, 0, 68, 5, 27, 0, 0, 64, 19, 32, 0, 16, 59, 45, 0, 66, 38, 0, 44, 53, 0, 48, 22, 18, 49, 15, 17, 58, 57, 0, 24, 21, 0, 76, 33, 36, 62, 65, 34, 0, 26, 60, 0, 0, 0, 9, 72, 70, 14, 20, 1, 6, 0, 55, 25, 52, 3, 56, 46, 47, 31, 79, 73, 0
|0, 59, 0, 62, 2, 17, 0, 66, 31, 0, 0, 0, 79, 70, 37, 0, 12, 15, 0, 65, 40, 49, 42, 0, 21, 23, 0, 46, 0, 54, 77, 0, 24, 0, 0, 51, 0, 0, 0, 7, 38, 67, 0, 0, 76, 0, 63, 0, 74, 43, 0, 34, 61, 0, 72, 8, 0, 52, 41, 71, 45, 32, 28, 0, 75, 0, 60, 11, 73, 35, 58, 16, 4, 36, 18, 13, 26, 33, 9, 39, 0
|60, 0, 25, 65, 0, 0, 20, 53, 9, 0, 13, 0, 0, 59, 29, 0, 0, 76, 80, 0, 16, 52, 78, 43, 18, 70, 4, 0, 5, 63, 0, 73, 8, 50, 7, 49, 0, 0, 79, 0, 30, 26, 14, 32, 54, 56, 0, 0, 77, 2, 66, 31, 42, 0, 36, 23, 58, 0, 33, 0, 64, 0, 0, 47, 44, 81, 46, 0, 0, 0, 39, 10, 75, 51, 0, 72, 0, 34, 41, 0, 12
|0, 38, 0, 0, 0, 49, 53, 14, 0, 0, 0, 48, 0, 75, 71, 17, 33, 35, 59, 67, 72, 57, 77, 0, 23, 43, 0, 0, 21, 44, 65, 24, 29, 13, 46, 69, 51, 6, 0, 18, 4, 10, 0, 0, 0, 9, 0, 0, 0, 0, 62, 0, 60, 42, 0, 52, 0, 80, 16, 1, 0, 61, 70, 5, 20, 0, 0, 0, 0, 28, 15, 0, 0, 0, 0, 0, 40, 12, 27, 47, 73
|0, 0, 0, 72, 34, 63, 0, 0, 26, 66, 37, 18, 45, 54, 9, 22, 3, 0, 0, 35, 0, 0, 0, 0, 41, 0, 0, 0, 17, 0, 48, 4, 11, 0, 31, 58, 15, 0, 0, 81, 46, 55, 0, 77, 44, 0, 13, 8, 20, 29, 1, 75, 73, 32, 43, 51, 0, 0, 78, 14, 39, 25, 12, 2, 27, 74, 7, 56, 0, 0, 50, 0, 5, 59, 10, 33, 61, 0, 21, 0, 70
|74, 52, 43, 73, 0, 48, 77, 0, 55, 46, 23, 5, 8, 24, 11, 28, 0, 0, 30, 0, 32, 64, 81, 4, 12, 22, 80, 16, 7, 0, 0, 1, 36, 67, 71, 0, 34, 14, 0, 0, 0, 33, 29, 62, 72, 51, 65, 47, 61, 3, 0, 0, 10, 31, 26, 0, 0, 68, 0, 0, 21, 0, 0, 53, 18, 66, 69, 0, 0, 0, 0, 13, 0, 0, 6, 50, 56, 0, 0, 17, 60
|70, 62, 0, 0, 39, 2, 0, 16, 76, 0, 0, 12, 4, 26, 51, 0, 0, 43, 55, 0, 52, 0, 8, 20, 25, 0, 37, 22, 74, 15, 34, 61, 73, 40, 0, 3, 54, 0, 0, 0, 80, 0, 0, 0, 9, 44, 64, 14, 41, 0, 68, 0, 71, 49, 18, 0, 19, 56, 0, 27, 0, 0, 36, 30, 0, 0, 31, 23, 65, 57, 45, 60, 24, 32, 0, 1, 75, 29, 69, 0, 11
|50, 0, 0, 61, 0, 33, 24, 64, 1, 77, 56, 55, 65, 57, 67, 31, 0, 0, 0, 0, 75, 13, 11, 70, 73, 9, 39, 28, 0, 20, 0, 59, 19, 41, 18, 0, 0, 0, 74, 30, 7, 40, 58, 8, 23, 36, 46, 0, 5, 21, 37, 72, 0, 25, 69, 62, 47, 66, 10, 6, 0, 0, 29, 0, 54, 34, 52, 0, 17, 0, 43, 71, 76, 53, 0, 45, 78, 68, 51, 16, 4
|28, 20, 7, 13, 0, 0, 0, 69, 54, 79, 70, 64, 49, 29, 32, 0, 62, 6, 0, 31, 21, 53, 10, 46, 0, 36, 0, 55, 0, 14, 37, 0, 0, 75, 43, 72, 16, 0, 41, 19, 35, 0, 1, 60, 0, 0, 66, 34, 22, 0, 0, 2, 78, 0, 8, 0, 71, 44, 0, 50, 74, 9, 0, 0, 63, 12, 61, 0, 4, 0, 0, 47, 57, 80, 0, 39, 48, 0, 18, 42, 23
|32, 4, 60, 0, 0, 59, 6, 15, 10, 0, 50, 38, 69, 21, 0, 19, 0, 52, 54, 27, 14, 16, 18, 0, 0, 65, 0, 12, 77, 5, 62, 26, 64, 68, 51, 33, 61, 47, 37, 73, 66, 25, 79, 78, 75, 0, 76, 45, 57, 0, 0, 0, 0, 70, 23, 58, 55, 13, 0, 0, 17, 31, 72, 80, 29, 0, 1, 0, 41, 8, 0, 46, 3, 43, 20, 71, 0, 0, 22, 0, 67
|0, 18, 67, 47, 0, 44, 9, 21, 57, 0, 15, 13, 60, 0, 74, 1, 40, 58, 51, 0, 26, 0, 5, 29, 38, 62, 0, 50, 56, 0, 53, 10, 49, 23, 0, 39, 3, 0, 12, 32, 42, 71, 0, 0, 27, 0, 0, 4, 43, 16, 69, 0, 0, 24, 64, 30, 41, 54, 75, 73, 0, 45, 59, 78, 36, 37, 77, 48, 0, 6, 81, 14, 0, 0, 55, 66, 0, 7, 34, 0, 19
|0, 51, 80, 17, 19, 29, 0, 5, 0, 0, 72, 0, 41, 14, 30, 0, 0, 0, 0, 34, 66, 61, 1, 15, 79, 7, 0, 32, 25, 47, 0, 45, 2, 81, 0, 78, 57, 0, 0, 36, 69, 56, 50, 76, 0, 0, 77, 0, 6, 55, 26, 23, 18, 0, 24, 0, 0, 22, 20, 63, 0, 28, 4, 0, 10, 39, 59, 0, 38, 42, 75, 62, 0, 64, 13, 35, 8, 37, 65, 0, 52
|38, 46, 37, 0, 54, 16, 0, 0, 0, 30, 0, 0, 31, 0, 6, 20, 51, 0, 26, 0, 7, 0, 0, 0, 4, 1, 0, 27, 15, 73, 29, 69, 0, 0, 76, 64, 74, 44, 34, 49, 9, 42, 0, 0, 0, 43, 36, 10, 0, 5, 0, 70, 47, 8, 0, 0, 0, 0, 24, 80, 71, 3, 55, 17, 23, 0, 39, 0, 0, 62, 0, 48, 14, 0, 0, 67, 0, 35, 11, 65, 0
|15, 0, 77, 0, 24, 0, 71, 78, 21, 34, 36, 22, 0, 53, 52, 14, 16, 81, 61, 62, 65, 8, 39, 0, 46, 0, 76, 44, 67, 74, 80, 38, 0, 60, 42, 70, 37, 0, 0, 28, 19, 0, 41, 0, 0, 69, 2, 23, 11, 63, 51, 7, 12, 54, 4, 26, 35, 0, 0, 0, 0, 0, 47, 75, 0, 0, 18, 10, 13, 27, 64, 0, 32, 73, 0, 20, 5, 57, 33, 59, 31
|67, 0, 14, 33, 29, 27, 19, 20, 0, 49, 4, 45, 0, 0, 7, 59, 77, 0, 0, 0, 54, 55, 2, 38, 3, 60, 10, 61, 65, 0, 47, 78, 18, 72, 32, 0, 21, 53, 0, 0, 23, 8, 70, 0, 43, 0, 71, 0, 0, 0, 0, 41, 75, 64, 0, 9, 25, 31, 69, 0, 28, 63, 0, 37, 73, 0, 6, 34, 52, 51, 30, 0, 16, 0, 48, 0, 0, 44, 26, 68, 46
|17, 0, 10, 0, 18, 68, 3, 0, 49, 0, 65, 0, 0, 32, 39, 0, 0, 64, 5, 44, 51, 70, 21, 19, 0, 0, 27, 43, 52, 79, 0, 11, 0, 56, 0, 57, 4, 58, 30, 0, 63, 0, 36, 0, 22, 31, 0, 0, 26, 67, 0, 77, 33, 48, 50, 37, 7, 53, 6, 34, 15, 12, 45, 46, 14, 0, 0, 8, 0, 0, 2, 41, 0, 0, 69, 0, 62, 0, 13, 29, 72
|55, 22, 62, 36, 70, 34, 39, 52, 74, 13, 0, 72, 58, 15, 68, 0, 78, 0, 48, 63, 45, 59, 0, 40, 24, 81, 43, 53, 0, 0, 21, 9, 5, 2, 14, 0, 35, 79, 0, 71, 12, 66, 6, 7, 0, 18, 27, 28, 0, 0, 29, 0, 0, 0, 38, 64, 67, 75, 23, 0, 8, 60, 0, 20, 77, 0, 11, 0, 26, 47, 44, 19, 0, 10, 0, 0, 0, 0, 0, 0, 42
|0, 26, 12, 57, 50, 75, 30, 0, 8, 29, 79, 10, 37, 0, 21, 47, 0, 0, 52, 17, 25, 0, 0, 0, 32, 6, 0, 45, 3, 36, 0, 31, 48, 28, 62, 55, 13, 0, 69, 33, 76, 46, 67, 64, 51, 0, 14, 60, 39, 0, 53, 1, 68, 0, 42, 0, 27, 20, 44, 0, 0, 0, 58, 38, 71, 4, 15, 7, 0, 0, 59, 56, 19, 0, 63, 9, 43, 0, 81, 0, 0
|0, 79, 31, 44, 0, 0, 0, 0, 0, 71, 55, 17, 1, 23, 27, 0, 24, 40, 0, 0, 64, 14, 47, 42, 49, 0, 69, 10, 37, 30, 58, 0, 63, 0, 8, 19, 0, 26, 0, 75, 56, 73, 0, 54, 29, 0, 4, 66, 0, 38, 45, 78, 0, 46, 76, 81, 2, 0, 13, 11, 43, 59, 52, 0, 74, 32, 0, 72, 36, 0, 60, 0, 53, 18, 22, 80, 51, 77, 6, 34, 15
|35, 28, 64, 80, 0, 53, 45, 0, 0, 76, 0, 60, 0, 8, 0, 43, 69, 0, 37, 12, 34, 0, 22, 23, 30, 0, 0, 41, 0, 0, 81, 49, 1, 33, 39, 26, 78, 10, 11, 38, 0, 59, 0, 0, 65, 32, 3, 72, 24, 19, 44, 6, 0, 50, 0, 0, 46, 61, 0, 17, 14, 5, 16, 67, 42, 29, 40, 63, 0, 68, 25, 21, 36, 74, 2, 75, 71, 0, 66, 0, 0
|76, 0, 59, 32, 0, 43, 63, 4, 65, 0, 38, 50, 12, 5, 0, 2, 26, 44, 0, 79, 56, 36, 0, 57, 58, 11, 0, 17, 0, 46, 0, 0, 7, 25, 35, 75, 0, 62, 47, 72, 77, 0, 39, 14, 0, 13, 49, 42, 37, 9, 15, 0, 30, 20, 0, 0, 74, 48, 19, 70, 0, 0, 0, 81, 16, 31, 22, 53, 55, 80, 0, 66, 1, 45, 0, 0, 23, 0, 0, 27, 0
|52, 68, 2, 76, 1, 0, 31, 41, 0, 44, 77, 51, 16, 50, 0, 0, 0, 0, 10, 22, 0, 0, 63, 0, 78, 55, 0, 5, 0, 21, 73, 0, 0, 71, 33, 0, 27, 36, 75, 26, 79, 28, 30, 74, 64, 15, 60, 0, 12, 57, 23, 43, 8, 38, 32, 59, 29, 46, 54, 0, 0, 34, 0, 48, 0, 0, 47, 25, 20, 67, 6, 11, 0, 0, 0, 69, 0, 0, 4, 0, 53
|47, 57, 35, 66, 0, 67, 73, 61, 0, 22, 32, 9, 2, 43, 23, 0, 0, 63, 42, 58, 50, 44, 0, 59, 0, 0, 75, 0, 0, 0, 36, 0, 3, 64, 17, 41, 1, 68, 24, 53, 0, 14, 4, 10, 60, 0, 0, 70, 27, 65, 6, 55, 0, 28, 0, 0, 56, 25, 0, 0, 51, 0, 81, 7, 49, 46, 0, 18, 8, 0, 52, 15, 30, 78, 19, 0, 0, 74, 20, 12, 37
|0, 64, 48, 0, 71, 51, 10, 42, 59, 0, 78, 0, 53, 0, 17, 0, 52, 0, 15, 6, 69, 72, 79, 2, 80, 49, 46, 0, 22, 27, 70, 77, 55, 34, 0, 29, 20, 0, 0, 0, 58, 11, 9, 0, 33, 0, 0, 67, 0, 0, 14, 56, 0, 63, 39, 44, 30, 45, 0, 0, 65, 19, 0, 0, 0, 75, 0, 76, 37, 0, 1, 0, 0, 0, 8, 61, 0, 0, 3, 28, 40
|44, 7, 16, 0, 0, 36, 38, 39, 33, 56, 19, 14, 0, 65, 46, 29, 1, 37, 12, 53, 43, 11, 9, 47, 28, 57, 0, 30, 54, 60, 0, 20, 74, 10, 81, 67, 42, 80, 6, 0, 32, 0, 77, 23, 55, 45, 69, 41, 0, 4, 25, 40, 13, 78, 66, 35, 0, 27, 0, 0, 26, 24, 18, 0, 22, 0, 70, 0, 34, 61, 73, 3, 50, 72, 0, 0, 0, 71, 64, 48, 79
|30, 80, 18, 0, 77, 0, 0, 6, 28, 0, 67, 0, 39, 47, 61, 0, 81, 38, 0, 25, 70, 65, 0, 0, 0, 64, 24, 58, 23, 0, 1, 0, 50, 44, 0, 52, 29, 63, 76, 0, 48, 3, 54, 40, 69, 16, 26, 7, 49, 37, 17, 66, 74, 59, 10, 78, 0, 12, 0, 31, 13, 0, 60, 4, 56, 0, 0, 5, 45, 19, 71, 0, 35, 34, 73, 0, 0, 22, 0, 41, 36
|0, 19, 0, 50, 26, 0, 4, 54, 29, 42, 48, 20, 7, 60, 0, 6, 0, 45, 36, 3, 67, 30, 34, 0, 66, 74, 1, 76, 57, 56, 46, 14, 0, 47, 69, 40, 25, 37, 49, 0, 44, 0, 16, 70, 59, 81, 39, 33, 2, 0, 61, 0, 53, 10, 28, 0, 9, 0, 0, 0, 22, 73, 17, 0, 13, 38, 64, 77, 0, 79, 62, 55, 65, 23, 0, 11, 27, 15, 75, 0, 18
|81, 3, 21, 75, 0, 0, 22, 27, 78, 25, 24, 0, 11, 80, 33, 13, 0, 0, 17, 19, 4, 20, 32, 76, 5, 38, 7, 0, 12, 0, 0, 43, 9, 53, 48, 31, 0, 8, 0, 51, 45, 65, 71, 34, 0, 0, 0, 36, 1, 0, 0, 35, 50, 0, 0, 0, 16, 55, 37, 15, 0, 41, 23, 10, 2, 44, 30, 14, 0, 0, 57, 72, 6, 0, 66, 29, 63, 0, 46, 56, 68
|34, 45, 0, 0, 55, 0, 0, 37, 13, 64, 59, 30, 0, 4, 73, 79, 21, 69, 71, 40, 23, 0, 26, 0, 0, 8, 77, 24, 0, 6, 63, 0, 0, 0, 11, 66, 67, 12, 0, 2, 0, 0, 72, 0, 50, 48, 0, 0, 0, 46, 20, 0, 3, 9, 0, 0, 0, 0, 58, 61, 76, 70, 49, 0, 41, 78, 0, 0, 27, 32, 17, 33, 7, 60, 25, 0, 0, 47, 16, 5, 51
|0, 9, 20, 70, 8, 40, 25, 0, 0, 0, 0, 31, 26, 72, 58, 5, 55, 10, 0, 0, 0, 35, 14, 18, 52, 16, 0, 0, 78, 2, 15, 32, 0, 7, 75, 0, 0, 41, 19, 46, 47, 39, 61, 13, 0, 0, 0, 0, 71, 0, 0, 0, 76, 0, 0, 0, 0, 0, 64, 3, 63, 0, 53, 0, 28, 59, 50, 81, 0, 0, 23, 80, 44, 77, 0, 0, 33, 21, 62, 0, 1
|24, 47, 0, 38, 49, 26, 0, 65, 19, 0, 0, 33, 59, 37, 15, 40, 14, 12, 50, 28, 61, 32, 0, 52, 8, 71, 34, 0, 58, 10, 60, 23, 81, 0, 25, 0, 77, 0, 66, 3, 0, 5, 42, 55, 79, 70, 0, 53, 51, 74, 75, 76, 46, 0, 27, 0, 80, 0, 7, 0, 0, 11, 0, 9, 4, 64, 43, 0, 56, 0, 36, 63, 22, 62, 30, 48, 18, 0, 35, 0, 0
|0, 58, 76, 0, 15, 1, 74, 62, 0, 0, 81, 63, 0, 46, 34, 55, 56, 30, 24, 23, 0, 48, 12, 0, 0, 0, 0, 0, 75, 29, 0, 0, 0, 45, 54, 16, 80, 0, 17, 59, 28, 70, 18, 49, 6, 47, 79, 0, 65, 14, 0, 21, 0, 73, 53, 0, 0, 0, 71, 64, 78, 0, 8, 52, 0, 3, 0, 60, 7, 0, 69, 0, 68, 0, 33, 37, 42, 32, 77, 36, 20
|0, 0, 30, 59, 0, 81, 0, 8, 16, 3, 0, 62, 0, 0, 54, 77, 0, 22, 0, 73, 0, 1, 0, 9, 45, 68, 0, 74, 6, 43, 19, 0, 78, 49, 0, 0, 72, 0, 38, 0, 0, 57, 0, 0, 37, 0, 24, 50, 23, 0, 5, 61, 56, 0, 12, 18, 0, 2, 0, 0, 70, 0, 46, 42, 17, 71, 55, 15, 67, 39, 13, 0, 58, 7, 53, 28, 4, 0, 0, 79, 10
|0, 60, 45, 69, 0, 0, 28, 12, 48, 0, 0, 47, 68, 51, 49, 0, 75, 71, 0, 0, 46, 0, 56, 67, 53, 0, 15, 36, 62, 55, 40, 22, 30, 17, 0, 18, 0, 1, 54, 63, 0, 50, 7, 20, 19, 2, 52, 0, 8, 0, 3, 59, 0, 4, 0, 79, 0, 0, 0, 77, 66, 39, 0, 41, 24, 16, 44, 74, 23, 0, 65, 70, 0, 21, 34, 0, 72, 11, 0, 78, 81
|25, 0, 0, 39, 67, 0, 40, 46, 0, 38, 0, 65, 17, 58, 19, 0, 76, 50, 62, 51, 55, 26, 49, 21, 0, 47, 81, 77, 0, 0, 41, 48, 28, 37, 80, 0, 45, 73, 0, 16, 0, 23, 10, 2, 0, 72, 7, 63, 42, 35, 30, 54, 22, 27, 9, 0, 3, 36, 0, 20, 0, 15, 31, 66, 0, 79, 0, 0, 0, 0, 0, 0, 8, 0, 0, 57, 70, 75, 71, 60, 74
|20, 0, 78, 18, 43, 0, 0, 77, 64, 57, 25, 0, 74, 35, 31, 0, 73, 21, 0, 54, 0, 38, 30, 63, 7, 59, 0, 0, 76, 3, 0, 66, 68, 1, 0, 0, 0, 0, 58, 13, 14, 62, 48, 71, 0, 40, 81, 6, 0, 60, 19, 37, 32, 36, 0, 45, 4, 65, 61, 22, 41, 52, 0, 33, 53, 28, 75, 47, 46, 72, 0, 29, 0, 0, 67, 12, 9, 23, 2, 69, 17
|37, 63, 42, 0, 7, 52, 80, 0, 0, 0, 0, 0, 18, 41, 0, 0, 29, 79, 77, 2, 22, 0, 72, 0, 40, 0, 19, 0, 73, 70, 0, 71, 33, 0, 34, 0, 32, 0, 61, 27, 68, 31, 51, 0, 35, 58, 0, 0, 38, 44, 28, 0, 26, 17, 0, 0, 62, 69, 25, 74, 24, 67, 0, 14, 0, 0, 78, 49, 81, 0, 54, 0, 0, 6, 47, 65, 46, 13, 0, 15, 66
|61, 29, 0, 22, 75, 31, 55, 0, 0, 69, 60, 66, 36, 6, 28, 78, 48, 53, 0, 0, 79, 10, 0, 0, 42, 39, 0, 9, 0, 0, 20, 7, 0, 24, 59, 46, 44, 0, 56, 74, 81, 47, 8, 30, 0, 67, 68, 0, 18, 77, 0, 71, 0, 16, 0, 63, 13, 0, 17, 5, 0, 76, 35, 0, 21, 62, 37, 38, 0, 40, 0, 1, 0, 41, 50, 0, 45, 19, 52, 0, 3
|27, 0, 32, 0, 0, 0, 50, 68, 3, 0, 45, 1, 70, 61, 0, 9, 13, 7, 0, 0, 36, 0, 0, 33, 37, 58, 78, 8, 0, 67, 42, 2, 47, 14, 63, 0, 60, 25, 65, 52, 21, 0, 0, 11, 0, 10, 0, 15, 34, 48, 39, 12, 69, 66, 54, 28, 0, 51, 55, 81, 75, 0, 0, 19, 76, 57, 0, 0, 0, 22, 31, 0, 0, 0, 38, 0, 24, 56, 44, 0, 29
|56, 24, 0, 0, 12, 73, 0, 0, 0, 37, 69, 0, 0, 22, 2, 33, 65, 47, 64, 18, 58, 0, 28, 34, 36, 21, 0, 0, 0, 35, 39, 16, 17, 57, 0, 14, 11, 50, 0, 79, 6, 0, 40, 15, 46, 60, 42, 32, 31, 61, 0, 5, 27, 41, 0, 75, 0, 19, 67, 0, 54, 71, 66, 62, 38, 26, 45, 70, 9, 0, 0, 44, 10, 13, 77, 59, 29, 20, 63, 0, 48
|8, 0, 58, 6, 0, 62, 0, 25, 20, 26, 17, 0, 29, 1, 76, 21, 63, 0, 0, 0, 31, 75, 68, 71, 70, 24, 54, 23, 0, 0, 0, 28, 0, 27, 50, 42, 0, 3, 64, 9, 34, 51, 0, 18, 0, 49, 55, 0, 59, 11, 0, 46, 67, 37, 0, 0, 0, 0, 74, 0, 0, 78, 44, 39, 7, 73, 41, 4, 0, 53, 10, 79, 0, 33, 45, 38, 14, 72, 32, 61, 35
|16, 0, 29, 10, 0, 0, 2, 28, 18, 0, 20, 27, 72, 0, 0, 60, 9, 39, 65, 0, 49, 74, 38, 0, 67, 79, 44, 51, 33, 0, 0, 0, 0, 0, 21, 8, 0, 19, 0, 23, 70, 0, 13, 37, 0, 6, 0, 56, 73, 54, 48, 0, 64, 0, 63, 0, 0, 0, 0, 4, 53, 30, 24, 25, 11, 58, 14, 52, 35, 77, 78, 31, 40, 0, 0, 22, 3, 80, 17, 26, 62
|39, 14, 4, 21, 59, 0, 54, 33, 53, 36, 16, 0, 0, 0, 77, 25, 74, 5, 23, 0, 42, 0, 62, 7, 60, 32, 11, 29, 20, 48, 76, 34, 0, 9, 26, 22, 41, 17, 2, 0, 0, 58, 0, 43, 0, 78, 80, 68, 15, 0, 63, 69, 38, 79, 31, 50, 70, 35, 51, 0, 0, 0, 56, 27, 57, 0, 0, 0, 3, 30, 18, 0, 12, 75, 46, 19, 1, 0, 67, 52, 6
|0, 0, 74, 0, 38, 70, 41, 72, 67, 54, 0, 24, 71, 10, 18, 12, 80, 32, 4, 0, 76, 78, 57, 0, 0, 73, 47, 6, 55, 25, 49, 3, 62, 11, 0, 1, 26, 52, 36, 61, 0, 7, 0, 69, 63, 75, 9, 0, 28, 0, 21, 13, 0, 22, 14, 0, 17, 0, 59, 79, 40, 46, 42, 29, 64, 56, 0, 0, 0, 0, 66, 81, 0, 50, 0, 23, 30, 5, 53, 43, 0
|0, 34, 0, 68, 46, 23, 75, 26, 17, 58, 0, 0, 50, 0, 57, 38, 0, 0, 33, 80, 6, 43, 53, 35, 69, 2, 14, 18, 63, 64, 0, 13, 31, 54, 0, 10, 0, 76, 62, 55, 49, 27, 66, 0, 0, 0, 0, 3, 30, 70, 0, 0, 4, 0, 47, 60, 0, 28, 77, 29, 9, 37, 0, 61, 0, 20, 67, 22, 32, 16, 19, 0, 78, 56, 51, 0, 0, 0, 39, 21, 44
|0, 55, 71, 11, 3, 0, 64, 57, 7, 0, 43, 46, 78, 19, 44, 0, 23, 51, 45, 26, 13, 12, 41, 22, 27, 20, 56, 80, 60, 0, 0, 81, 67, 77, 0, 73, 31, 29, 16, 25, 0, 74, 47, 21, 0, 33, 1, 0, 50, 24, 35, 14, 52, 0, 5, 10, 38, 62, 76, 0, 61, 72, 0, 28, 15, 0, 49, 59, 75, 48, 0, 36, 34, 9, 79, 18, 54, 4, 58, 8, 65
|0, 77, 9, 48, 0, 76, 0, 22, 42, 14, 68, 59, 61, 34, 4, 52, 35, 13, 19, 81, 0, 50, 40, 0, 17, 0, 63, 0, 2, 0, 30, 37, 46, 0, 65, 74, 0, 20, 8, 56, 78, 0, 45, 67, 24, 25, 0, 62, 58, 66, 0, 57, 29, 26, 11, 27, 6, 21, 43, 39, 73, 49, 15, 69, 1, 0, 0, 33, 5, 0, 0, 23, 0, 16, 0, 7, 31, 60, 47, 70, 64
|31, 69, 0, 5, 27, 65, 0, 0, 35, 0, 0, 53, 30, 67, 0, 45, 28, 62, 72, 59, 29, 77, 25, 1, 9, 0, 0, 15, 70, 0, 79, 0, 58, 4, 78, 71, 22, 32, 60, 57, 0, 48, 38, 0, 14, 7, 23, 19, 10, 39, 16, 0, 51, 2, 0, 12, 0, 0, 26, 18, 0, 13, 0, 63, 6, 43, 74, 0, 21, 0, 46, 0, 66, 0, 76, 49, 0, 24, 0, 55, 41|];