order = 9;
grid = [|79, 32, 11, 1, 0, 0, 0, 76, 55, 7, 52, 43, 12, 70, 0, 62, 23, 45, 42, 0, 44, 0, 0, 48, 49, 17, 0, 9, 6, 47, 0, 33, 0, 14, 3, 0, 57, 0, 0, 66, 0, 21, 37, 0, 0, 20, 73, 61, 0, 36, 26, 71, 63, 38, 0, 58, 80, 18, 0, 15, 0, 0, 0, 24, 29, 0, 59, 8, 10, 0, 35, 25, 0, 53, 77, 0, 30, 22, 41, 27, 0
|23, 0, 62, 57, 38, 47, 0, 5, 44, 60, 0, 11, 66, 31, 27, 58, 22, 73, 6, 69, 1, 0, 4, 2, 39, 33, 20, 18, 43, 42, 79, 29, 71, 0, 61, 30, 54, 74, 49, 0, 51, 45, 80, 10, 64, 24, 7, 3, 76, 13, 17, 40, 50, 34, 0, 16, 72, 26, 35, 12, 0, 32, 0, 0, 21, 53, 46, 48, 14, 0, 15, 81, 52, 65, 75, 37, 28, 19, 0, 0, 25
|28, 81, 68, 30, 25, 0, 0, 77, 0, 10, 38, 69, 5, 0, 13, 42, 51, 61, 32, 55, 26, 0, 12, 79, 34, 64, 53, 40, 0, 35, 0, 49, 45, 57, 16, 8, 0, 0, 46, 62, 14, 70, 50, 63, 22, 1, 78, 59, 0, 80, 18, 15, 11, 75, 0, 43, 0, 48, 0, 0, 47, 0, 21, 3, 0, 0, 0, 54, 72, 76, 39, 4, 56, 0, 58, 24, 73, 23, 44, 0, 0
|18, 31, 6, 48, 0, 61, 35, 39, 50, 0, 0, 0, 74, 2, 29, 28, 54, 1, 0, 57, 66, 45, 40, 22, 43, 52, 59, 24, 0, 76, 62, 75, 56, 26, 32, 23, 79, 0, 27, 44, 41, 53, 78, 0, 36, 25, 72, 14, 10, 0, 30, 51, 46, 55, 33, 7, 0, 73, 0, 4, 42, 38, 19, 0, 12, 0, 0, 0, 0, 49, 68, 11, 8, 0, 5, 60, 0, 63, 69, 34, 64
|0, 52, 21, 58, 59, 0, 72, 0, 0, 0, 57, 0, 8, 0, 44, 25, 0, 67, 0, 0, 80, 73, 81, 77, 31, 0, 0, 4, 41, 68, 69, 0, 0, 0, 0, 0, 0, 40, 71, 75, 0, 0, 13, 0, 35, 49, 65, 60, 23, 0, 0, 0, 0, 0, 0, 62, 14, 0, 22, 30, 3, 0, 56, 51, 0, 5, 74, 78, 2, 27, 61, 43, 66, 33, 47, 42, 38, 54, 48, 29, 18
|71, 0, 43, 0, 0, 74, 22, 27, 0, 55, 59, 14, 0, 35, 33, 0, 81, 80, 56, 3, 21, 62, 29, 0, 0, 38, 0, 52, 73, 70, 0, 39, 0, 66, 46, 0, 76, 4, 11, 20, 8, 9, 0, 0, 28, 48, 31, 47, 58, 64, 0, 0, 12, 42, 61, 49, 0, 68, 17, 24, 53, 0, 0, 50, 0, 36, 26, 69, 75, 0, 19, 0, 13, 10, 7, 0, 6, 78, 40, 2, 67
|49, 69, 75, 0, 78, 17, 63, 53, 0, 47, 50, 64, 18, 0, 3, 21, 40, 36, 0, 0, 0, 46, 0, 0, 0, 27, 0, 80, 0, 13, 34, 0, 0, 60, 20, 0, 0, 6, 72, 0, 16, 24, 77, 31, 48, 32, 67, 29, 0, 8, 0, 0, 66, 81, 52, 10, 5, 59, 23, 0, 57, 28, 11, 0, 42, 0, 1, 9, 38, 0, 0, 73, 55, 4, 0, 79, 26, 14, 43, 76, 70
|73, 15, 10, 29, 80, 34, 36, 7, 26, 24, 72, 79, 56, 63, 0, 65, 20, 53, 75, 0, 50, 51, 0, 14, 67, 11, 19, 59, 22, 5, 38, 27, 54, 64, 58, 0, 0, 25, 0, 60, 68, 52, 0, 42, 0, 43, 33, 6, 41, 62, 9, 2, 44, 37, 0, 45, 76, 0, 0, 74, 81, 8, 0, 0, 70, 57, 18, 77, 66, 23, 17, 31, 0, 35, 32, 0, 12, 0, 0, 1, 0
|56, 0, 64, 0, 33, 42, 66, 70, 0, 0, 9, 71, 0, 46, 0, 34, 49, 48, 7, 8, 0, 0, 35, 63, 0, 76, 23, 67, 0, 0, 21, 81, 53, 0, 0, 77, 0, 73, 43, 3, 0, 0, 0, 38, 0, 22, 4, 5, 69, 0, 0, 0, 0, 16, 0, 78, 27, 54, 0, 50, 0, 29, 31, 40, 0, 79, 65, 0, 45, 47, 55, 28, 62, 0, 51, 57, 0, 15, 0, 61, 0
|65, 51, 77, 0, 0, 0, 70, 47, 0, 34, 80, 0, 11, 73, 0, 64, 72, 50, 0, 0, 49, 0, 23, 55, 66, 12, 26, 31, 56, 75, 0, 76, 48, 54, 40, 52, 17, 8, 32, 0, 4, 29, 33, 21, 67, 36, 0, 0, 0, 71, 0, 43, 15, 78, 0, 22, 7, 0, 0, 0, 30, 53, 5, 0, 18, 37, 0, 25, 0, 57, 10, 46, 24, 0, 44, 0, 0, 61, 0, 6, 41
|0, 0, 53, 8, 32, 10, 29, 23, 0, 49, 4, 61, 58, 3, 74, 0, 71, 41, 0, 42, 38, 48, 11, 0, 76, 67, 44, 73, 16, 46, 78, 65, 0, 17, 0, 35, 60, 70, 20, 79, 0, 80, 75, 30, 37, 5, 0, 2, 51, 0, 62, 24, 0, 56, 47, 26, 0, 0, 77, 25, 0, 15, 57, 0, 13, 0, 40, 6, 0, 21, 50, 0, 68, 31, 0, 0, 52, 0, 12, 22, 19
|59, 0, 50, 0, 0, 81, 0, 37, 0, 0, 32, 67, 54, 1, 45, 24, 0, 56, 64, 61, 0, 40, 8, 18, 46, 0, 35, 0, 0, 77, 80, 22, 9, 6, 47, 0, 0, 0, 52, 14, 0, 0, 12, 0, 0, 31, 23, 0, 0, 66, 53, 25, 41, 30, 79, 29, 49, 21, 44, 78, 58, 0, 75, 15, 51, 33, 2, 39, 42, 0, 43, 68, 65, 60, 0, 71, 62, 72, 74, 0, 63
|54, 80, 25, 0, 68, 78, 0, 0, 60, 0, 27, 0, 48, 26, 62, 0, 15, 0, 36, 30, 20, 79, 0, 75, 69, 0, 6, 7, 0, 0, 67, 38, 0, 74, 81, 55, 0, 0, 41, 0, 5, 44, 59, 56, 42, 17, 64, 4, 32, 0, 58, 13, 0, 22, 72, 2, 0, 0, 0, 0, 66, 0, 76, 63, 8, 73, 61, 0, 0, 3, 34, 70, 28, 9, 49, 16, 50, 0, 35, 33, 77
|64, 36, 66, 0, 58, 27, 0, 44, 61, 43, 75, 19, 0, 55, 2, 0, 0, 0, 78, 0, 5, 52, 71, 53, 0, 0, 0, 69, 23, 15, 57, 13, 20, 42, 70, 0, 0, 0, 0, 74, 62, 63, 1, 7, 72, 35, 50, 38, 0, 14, 68, 81, 80, 26, 17, 51, 60, 41, 0, 16, 0, 40, 46, 77, 49, 12, 0, 31, 48, 0, 29, 67, 0, 18, 56, 11, 25, 3, 0, 45, 54
|41, 57, 56, 21, 42, 40, 49, 71, 62, 0, 63, 47, 7, 78, 52, 70, 59, 6, 31, 77, 60, 14, 25, 65, 51, 0, 0, 19, 61, 0, 5, 43, 36, 2, 0, 0, 73, 50, 0, 0, 0, 28, 3, 48, 16, 0, 37, 79, 54, 20, 0, 0, 0, 18, 24, 81, 0, 12, 64, 38, 0, 55, 0, 0, 35, 45, 0, 0, 4, 80, 0, 9, 17, 34, 66, 32, 0, 67, 0, 39, 0
|35, 76, 0, 75, 67, 0, 20, 30, 45, 77, 0, 0, 81, 0, 28, 69, 13, 8, 29, 4, 0, 50, 15, 0, 0, 73, 0, 25, 32, 33, 12, 0, 49, 62, 66, 53, 2, 0, 0, 58, 61, 0, 0, 64, 9, 27, 44, 11, 40, 1, 47, 16, 0, 7, 59, 0, 0, 74, 39, 18, 37, 0, 68, 0, 0, 17, 38, 0, 56, 0, 0, 72, 48, 0, 70, 0, 55, 5, 57, 14, 0
|38, 0, 48, 12, 15, 46, 0, 6, 52, 0, 36, 0, 29, 25, 17, 0, 60, 39, 0, 47, 45, 0, 32, 21, 74, 62, 2, 0, 26, 30, 3, 50, 27, 37, 0, 41, 49, 0, 81, 0, 66, 0, 0, 57, 0, 76, 0, 55, 0, 75, 72, 9, 8, 61, 20, 0, 28, 67, 80, 0, 0, 0, 0, 64, 44, 0, 5, 0, 7, 0, 11, 0, 59, 42, 0, 69, 0, 0, 23, 53, 78
|74, 2, 0, 4, 26, 14, 7, 28, 0, 35, 30, 5, 38, 44, 0, 40, 0, 76, 0, 0, 56, 0, 43, 17, 57, 0, 81, 21, 60, 64, 0, 0, 0, 8, 59, 18, 6, 31, 0, 0, 55, 11, 65, 0, 0, 0, 3, 0, 77, 0, 67, 34, 52, 0, 0, 61, 50, 42, 36, 1, 0, 70, 63, 75, 0, 69, 23, 32, 62, 19, 71, 66, 80, 47, 0, 0, 46, 0, 15, 13, 0
|0, 0, 69, 6, 30, 22, 0, 0, 70, 52, 77, 48, 0, 81, 0, 55, 14, 65, 73, 0, 0, 28, 0, 11, 0, 23, 38, 75, 9, 0, 24, 0, 76, 13, 15, 0, 64, 39, 5, 18, 43, 32, 17, 0, 80, 37, 79, 0, 62, 0, 0, 26, 0, 45, 3, 25, 78, 0, 0, 10, 31, 19, 0, 0, 60, 71, 42, 66, 35, 59, 0, 0, 33, 74, 0, 0, 7, 21, 0, 47, 56
|24, 0, 16, 0, 8, 0, 0, 0, 0, 0, 33, 0, 0, 60, 0, 29, 0, 15, 14, 0, 65, 81, 9, 57, 0, 44, 49, 56, 36, 39, 0, 11, 0, 63, 69, 0, 71, 28, 0, 78, 48, 13, 0, 0, 50, 54, 1, 0, 0, 32, 0, 61, 0, 10, 74, 64, 77, 72, 62, 22, 0, 47, 0, 45, 26, 18, 37, 38, 43, 0, 51, 12, 0, 30, 27, 59, 41, 52, 31, 35, 0
|40, 63, 28, 11, 0, 48, 45, 52, 13, 8, 43, 2, 0, 61, 59, 49, 21, 66, 15, 74, 0, 72, 30, 0, 26, 53, 76, 0, 34, 0, 73, 42, 77, 80, 0, 19, 24, 35, 16, 10, 12, 81, 79, 37, 0, 0, 47, 9, 55, 0, 22, 38, 0, 0, 18, 36, 65, 20, 41, 0, 5, 57, 50, 69, 0, 0, 0, 56, 6, 7, 67, 33, 0, 3, 14, 78, 17, 39, 60, 0, 0
|0, 77, 39, 65, 61, 44, 0, 17, 38, 62, 56, 58, 37, 71, 0, 18, 9, 0, 33, 0, 69, 27, 41, 3, 0, 0, 0, 0, 7, 25, 20, 35, 12, 70, 0, 40, 0, 23, 76, 63, 54, 49, 21, 67, 75, 16, 15, 74, 0, 30, 81, 6, 0, 0, 4, 14, 46, 53, 43, 0, 8, 45, 0, 48, 22, 2, 0, 0, 11, 32, 80, 0, 0, 73, 50, 19, 79, 66, 28, 24, 42
|0, 54, 1, 79, 0, 53, 0, 0, 67, 5, 7, 25, 35, 23, 40, 0, 47, 28, 8, 0, 37, 22, 16, 24, 61, 58, 62, 0, 38, 78, 51, 0, 64, 0, 50, 49, 0, 0, 59, 4, 9, 73, 56, 41, 0, 65, 71, 48, 19, 0, 80, 11, 69, 0, 29, 17, 66, 32, 68, 34, 55, 0, 0, 70, 36, 0, 76, 14, 0, 10, 27, 74, 6, 0, 46, 18, 72, 0, 63, 26, 44
|27, 25, 32, 14, 36, 15, 10, 0, 80, 73, 0, 74, 41, 30, 76, 0, 0, 16, 19, 70, 31, 18, 0, 52, 0, 45, 42, 0, 21, 0, 53, 0, 0, 0, 67, 37, 44, 62, 1, 61, 33, 0, 38, 51, 26, 56, 68, 78, 7, 50, 66, 59, 4, 0, 13, 11, 39, 0, 81, 35, 60, 0, 79, 28, 0, 77, 72, 17, 8, 75, 0, 0, 43, 54, 0, 12, 71, 34, 49, 23, 9
|0, 59, 34, 0, 0, 3, 42, 66, 0, 19, 0, 0, 24, 72, 50, 22, 0, 0, 80, 67, 25, 2, 0, 46, 0, 75, 68, 0, 0, 0, 28, 18, 31, 0, 4, 71, 8, 65, 0, 0, 77, 0, 14, 29, 27, 0, 13, 57, 0, 0, 0, 36, 0, 0, 37, 0, 0, 69, 73, 0, 38, 7, 48, 39, 0, 0, 64, 0, 0, 0, 16, 0, 76, 51, 0, 58, 53, 32, 10, 0, 0
|78, 0, 0, 0, 20, 62, 58, 41, 57, 75, 0, 10, 0, 12, 42, 26, 6, 0, 63, 35, 29, 0, 0, 0, 0, 71, 0, 0, 27, 74, 0, 55, 65, 72, 23, 14, 0, 0, 0, 36, 40, 69, 70, 0, 31, 28, 24, 17, 18, 43, 0, 39, 34, 73, 30, 21, 0, 51, 0, 67, 2, 80, 16, 0, 19, 0, 4, 46, 49, 0, 0, 0, 61, 8, 11, 5, 13, 0, 0, 48, 15
|72, 0, 49, 47, 0, 18, 0, 4, 35, 0, 46, 0, 67, 39, 0, 11, 38, 31, 0, 10, 48, 56, 17, 36, 12, 0, 64, 0, 59, 0, 41, 8, 0, 79, 45, 61, 15, 0, 7, 6, 3, 0, 68, 60, 0, 0, 52, 70, 63, 0, 0, 20, 40, 2, 23, 54, 0, 9, 0, 42, 71, 27, 28, 0, 81, 34, 73, 50, 21, 0, 0, 0, 0, 0, 0, 29, 65, 0, 62, 0, 0
|39, 41, 0, 31, 10, 0, 24, 0, 0, 71, 13, 0, 4, 58, 0, 0, 56, 35, 0, 37, 0, 76, 44, 43, 25, 0, 45, 53, 80, 8, 81, 14, 74, 67, 0, 62, 78, 12, 69, 0, 0, 64, 0, 28, 0, 57, 0, 18, 0, 63, 0, 50, 7, 0, 19, 55, 54, 79, 11, 0, 46, 6, 59, 65, 17, 0, 66, 0, 34, 36, 2, 3, 15, 70, 0, 22, 0, 0, 0, 0, 48
|61, 75, 44, 59, 14, 9, 28, 0, 18, 3, 0, 15, 65, 66, 81, 0, 0, 0, 27, 72, 17, 5, 69, 0, 71, 46, 0, 0, 0, 31, 54, 25, 0, 29, 0, 36, 68, 0, 0, 0, 0, 0, 19, 0, 0, 11, 0, 0, 21, 0, 0, 0, 0, 80, 77, 67, 34, 7, 0, 73, 0, 0, 62, 1, 10, 70, 53, 60, 22, 38, 4, 16, 37, 12, 0, 35, 0, 30, 24, 20, 51
|66, 12, 38, 0, 23, 0, 50, 79, 64, 61, 10, 55, 31, 80, 32, 2, 0, 25, 0, 49, 36, 35, 20, 47, 48, 26, 0, 0, 4, 0, 0, 37, 18, 0, 24, 27, 46, 59, 54, 72, 74, 67, 15, 53, 7, 0, 51, 41, 0, 3, 73, 29, 0, 8, 16, 30, 1, 44, 0, 21, 0, 17, 70, 5, 52, 9, 0, 0, 0, 0, 14, 63, 40, 0, 6, 13, 0, 56, 0, 0, 0
|37, 42, 58, 80, 70, 13, 47, 48, 65, 53, 73, 0, 21, 0, 75, 16, 0, 0, 34, 0, 52, 10, 19, 51, 60, 28, 0, 32, 20, 0, 0, 0, 35, 3, 56, 0, 0, 36, 22, 5, 81, 79, 0, 14, 11, 0, 66, 0, 12, 59, 43, 64, 26, 17, 68, 63, 61, 29, 27, 0, 0, 74, 69, 31, 0, 76, 0, 18, 71, 40, 54, 15, 39, 55, 9, 67, 49, 2, 25, 8, 1
|0, 21, 0, 17, 62, 76, 1, 32, 40, 39, 74, 12, 0, 20, 0, 6, 48, 64, 4, 33, 23, 78, 50, 38, 73, 63, 29, 68, 71, 60, 0, 57, 41, 9, 43, 34, 25, 30, 61, 16, 24, 3, 0, 2, 0, 72, 0, 0, 44, 22, 56, 70, 42, 58, 81, 5, 8, 0, 28, 0, 0, 51, 14, 0, 79, 0, 67, 0, 0, 0, 0, 37, 26, 0, 31, 54, 18, 0, 0, 66, 52
|68, 6, 46, 77, 0, 0, 34, 55, 74, 27, 54, 52, 19, 0, 0, 72, 0, 0, 0, 64, 53, 59, 0, 67, 2, 0, 32, 28, 48, 0, 66, 0, 70, 16, 0, 0, 0, 9, 0, 0, 0, 0, 20, 35, 0, 30, 49, 15, 0, 0, 13, 1, 36, 76, 25, 42, 0, 37, 10, 71, 0, 4, 0, 0, 50, 0, 75, 61, 29, 58, 0, 0, 73, 0, 78, 0, 0, 57, 17, 5, 0
|0, 43, 30, 0, 27, 5, 81, 0, 0, 11, 0, 60, 76, 14, 67, 50, 70, 29, 13, 12, 0, 39, 0, 0, 0, 8, 58, 0, 0, 0, 0, 15, 40, 0, 63, 78, 52, 38, 33, 73, 37, 65, 34, 55, 0, 77, 2, 68, 24, 0, 61, 10, 0, 0, 0, 0, 64, 36, 0, 32, 0, 26, 0, 72, 45, 6, 35, 59, 0, 25, 56, 0, 42, 62, 74, 53, 4, 0, 0, 0, 79
|0, 0, 29, 25, 22, 0, 0, 35, 20, 57, 34, 30, 0, 37, 0, 0, 26, 33, 18, 65, 75, 24, 0, 16, 0, 14, 3, 58, 0, 23, 0, 61, 73, 44, 19, 6, 77, 0, 0, 0, 0, 0, 63, 0, 49, 79, 0, 28, 0, 53, 31, 0, 0, 62, 56, 39, 15, 0, 0, 0, 48, 0, 72, 21, 0, 7, 69, 12, 64, 42, 0, 47, 27, 36, 0, 10, 0, 46, 11, 41, 0
|0, 67, 63, 0, 57, 0, 0, 78, 0, 0, 68, 59, 0, 62, 8, 51, 24, 46, 40, 15, 61, 6, 56, 31, 0, 54, 70, 13, 0, 0, 30, 79, 55, 52, 10, 45, 26, 29, 18, 0, 0, 0, 58, 0, 0, 19, 14, 81, 25, 35, 48, 4, 37, 71, 12, 9, 22, 0, 65, 0, 43, 60, 47, 23, 0, 0, 33, 0, 73, 0, 0, 39, 72, 21, 34, 28, 0, 50, 80, 7, 76
|19, 23, 13, 28, 53, 58, 15, 0, 0, 79, 47, 7, 0, 0, 0, 0, 33, 0, 52, 0, 78, 26, 76, 30, 64, 77, 21, 16, 81, 61, 65, 0, 62, 32, 54, 0, 10, 72, 0, 0, 0, 57, 48, 3, 2, 0, 0, 40, 5, 39, 0, 0, 0, 14, 46, 60, 37, 8, 29, 0, 74, 11, 0, 0, 0, 0, 0, 0, 24, 73, 0, 45, 20, 0, 41, 70, 67, 1, 0, 63, 66
|0, 0, 72, 0, 29, 39, 48, 68, 59, 0, 0, 13, 10, 75, 69, 41, 35, 40, 55, 53, 8, 4, 0, 0, 58, 34, 1, 0, 3, 67, 0, 66, 24, 0, 0, 7, 0, 0, 36, 81, 23, 25, 45, 74, 65, 0, 18, 44, 0, 0, 0, 0, 56, 0, 42, 52, 21, 0, 57, 54, 77, 0, 80, 61, 27, 19, 0, 70, 28, 31, 26, 0, 0, 0, 12, 0, 5, 43, 50, 51, 32
|43, 0, 0, 18, 77, 64, 38, 22, 0, 0, 39, 0, 70, 36, 60, 1, 0, 74, 0, 51, 0, 66, 0, 0, 13, 0, 63, 0, 0, 0, 0, 48, 0, 0, 49, 0, 50, 54, 0, 0, 0, 0, 42, 76, 21, 0, 20, 16, 59, 0, 7, 72, 9, 4, 0, 73, 35, 30, 0, 5, 34, 25, 61, 41, 37, 56, 6, 71, 17, 81, 40, 8, 58, 69, 2, 33, 57, 45, 3, 79, 0
|9, 60, 40, 0, 21, 37, 3, 0, 24, 0, 51, 0, 72, 4, 12, 23, 0, 17, 5, 19, 79, 0, 70, 33, 0, 2, 46, 8, 0, 45, 36, 34, 0, 20, 74, 13, 53, 64, 0, 47, 32, 0, 71, 49, 61, 41, 0, 76, 0, 31, 15, 28, 0, 57, 48, 0, 58, 27, 14, 26, 65, 59, 0, 16, 0, 35, 55, 0, 30, 68, 63, 80, 0, 56, 62, 44, 0, 0, 18, 52, 22
|50, 34, 20, 54, 44, 0, 0, 61, 0, 66, 81, 0, 57, 0, 6, 0, 37, 78, 23, 0, 28, 74, 0, 40, 14, 25, 0, 0, 47, 0, 42, 0, 79, 39, 5, 70, 59, 1, 58, 9, 19, 41, 60, 17, 77, 69, 35, 10, 3, 24, 51, 8, 0, 13, 76, 32, 38, 71, 0, 55, 63, 62, 2, 67, 33, 0, 52, 43, 65, 0, 22, 0, 7, 46, 72, 21, 0, 0, 0, 0, 49
|0, 66, 80, 0, 35, 52, 78, 33, 36, 54, 15, 53, 30, 59, 11, 0, 76, 0, 71, 44, 22, 7, 45, 81, 42, 0, 9, 77, 57, 0, 0, 63, 58, 56, 0, 0, 0, 0, 34, 8, 27, 12, 5, 13, 20, 67, 26, 0, 0, 25, 29, 0, 0, 47, 0, 23, 10, 28, 0, 79, 70, 18, 40, 74, 39, 3, 0, 0, 46, 0, 0, 60, 19, 64, 0, 0, 0, 31, 0, 65, 4
|0, 10, 71, 45, 41, 25, 27, 65, 0, 0, 58, 73, 55, 52, 34, 44, 0, 0, 57, 0, 0, 3, 31, 69, 32, 47, 0, 12, 72, 19, 29, 0, 38, 0, 2, 76, 0, 15, 30, 33, 0, 68, 0, 0, 62, 0, 70, 36, 0, 46, 11, 63, 0, 0, 0, 24, 0, 16, 49, 0, 0, 20, 0, 0, 0, 59, 0, 79, 13, 0, 78, 54, 74, 0, 26, 0, 37, 0, 53, 60, 23
|57, 74, 17, 5, 4, 56, 8, 73, 81, 0, 22, 28, 2, 0, 25, 27, 65, 3, 0, 59, 54, 12, 39, 0, 0, 49, 50, 51, 69, 40, 0, 0, 0, 18, 0, 0, 16, 52, 26, 0, 0, 37, 66, 46, 55, 58, 0, 23, 80, 34, 0, 60, 0, 6, 78, 1, 68, 47, 67, 0, 0, 36, 33, 0, 53, 10, 29, 76, 20, 0, 32, 7, 0, 0, 61, 9, 0, 13, 42, 77, 0
|30, 70, 0, 49, 47, 51, 79, 1, 11, 63, 0, 50, 0, 5, 46, 48, 0, 26, 0, 20, 67, 37, 10, 0, 16, 29, 36, 22, 14, 52, 0, 53, 0, 41, 80, 21, 18, 78, 0, 0, 7, 0, 0, 73, 0, 62, 74, 0, 0, 65, 27, 19, 17, 68, 39, 0, 12, 0, 31, 64, 75, 69, 45, 57, 0, 42, 44, 72, 15, 2, 23, 58, 38, 0, 59, 55, 0, 0, 54, 0, 0
|4, 17, 8, 66, 46, 0, 77, 63, 71, 9, 0, 0, 42, 0, 26, 67, 0, 72, 0, 0, 33, 68, 61, 56, 78, 0, 74, 38, 25, 10, 0, 0, 3, 0, 0, 0, 31, 41, 53, 0, 65, 0, 11, 44, 0, 0, 28, 27, 34, 5, 59, 21, 18, 0, 51, 79, 0, 81, 12, 0, 0, 58, 73, 76, 2, 1, 0, 0, 37, 69, 49, 75, 0, 0, 13, 50, 22, 70, 39, 62, 35
|0, 44, 0, 68, 34, 6, 61, 36, 0, 38, 24, 20, 0, 69, 5, 0, 80, 0, 0, 0, 57, 0, 0, 0, 4, 21, 16, 0, 75, 55, 76, 41, 14, 0, 0, 59, 43, 18, 8, 42, 45, 26, 74, 0, 0, 7, 0, 0, 50, 70, 0, 73, 78, 72, 28, 0, 0, 0, 54, 17, 49, 67, 35, 32, 15, 25, 58, 64, 0, 0, 66, 19, 60, 0, 0, 30, 3, 48, 0, 56, 2
|5, 73, 51, 0, 76, 50, 0, 45, 0, 30, 31, 40, 0, 0, 70, 12, 25, 0, 0, 0, 2, 0, 37, 0, 35, 43, 27, 0, 39, 18, 0, 71, 4, 61, 8, 47, 0, 24, 79, 19, 0, 72, 0, 78, 6, 0, 36, 80, 16, 11, 49, 0, 0, 67, 7, 68, 0, 0, 63, 0, 21, 42, 3, 0, 59, 81, 0, 22, 57, 0, 9, 34, 54, 41, 0, 38, 0, 26, 0, 69, 53
|0, 26, 19, 22, 75, 49, 0, 0, 0, 59, 0, 0, 39, 0, 15, 71, 27, 34, 10, 14, 0, 65, 0, 0, 24, 42, 0, 44, 68, 73, 0, 5, 0, 69, 33, 81, 0, 17, 0, 37, 0, 0, 7, 12, 40, 45, 6, 35, 0, 0, 4, 62, 30, 54, 31, 57, 52, 76, 66, 0, 0, 43, 38, 0, 0, 0, 0, 28, 70, 0, 0, 0, 67, 20, 79, 74, 61, 51, 8, 11, 21
|0, 0, 0, 38, 1, 28, 52, 16, 42, 37, 65, 0, 13, 29, 66, 7, 46, 0, 53, 0, 0, 0, 47, 34, 62, 5, 8, 0, 74, 24, 32, 21, 26, 0, 31, 72, 22, 0, 0, 69, 49, 59, 0, 15, 73, 9, 61, 51, 64, 0, 41, 17, 0, 0, 0, 0, 0, 14, 0, 44, 0, 0, 30, 71, 55, 0, 0, 0, 39, 35, 0, 6, 0, 75, 25, 77, 0, 18, 0, 12, 0
|69, 30, 12, 0, 31, 24, 21, 18, 0, 17, 60, 0, 49, 8, 51, 0, 2, 23, 44, 0, 46, 80, 63, 0, 81, 0, 0, 66, 54, 0, 43, 70, 16, 65, 6, 79, 0, 0, 28, 0, 0, 0, 25, 77, 14, 38, 57, 0, 13, 58, 71, 37, 48, 20, 0, 0, 47, 1, 74, 9, 41, 22, 4, 11, 0, 67, 3, 0, 5, 0, 7, 53, 0, 0, 45, 36, 0, 76, 78, 15, 73
|55, 37, 41, 0, 0, 79, 43, 25, 0, 50, 62, 44, 0, 0, 0, 78, 58, 0, 60, 36, 59, 31, 18, 73, 30, 70, 75, 0, 0, 0, 27, 56, 0, 0, 1, 0, 80, 66, 21, 0, 34, 2, 0, 5, 3, 0, 0, 0, 8, 10, 0, 69, 0, 0, 71, 72, 48, 24, 0, 39, 6, 65, 15, 52, 0, 61, 54, 0, 23, 14, 20, 0, 9, 68, 81, 40, 42, 0, 33, 0, 7
|48, 56, 0, 67, 0, 7, 64, 58, 78, 0, 21, 76, 73, 77, 0, 0, 3, 0, 38, 0, 13, 49, 0, 0, 9, 69, 79, 0, 2, 0, 22, 28, 30, 0, 42, 0, 0, 61, 0, 57, 70, 39, 27, 71, 68, 75, 46, 0, 1, 81, 25, 33, 14, 15, 0, 20, 55, 80, 59, 45, 0, 5, 53, 0, 24, 50, 63, 16, 0, 74, 60, 0, 34, 43, 4, 66, 31, 65, 52, 0, 29
|80, 0, 0, 0, 39, 59, 0, 81, 72, 1, 6, 68, 45, 0, 48, 57, 75, 11, 22, 76, 0, 0, 0, 28, 40, 0, 17, 0, 49, 50, 19, 0, 0, 34, 9, 12, 36, 56, 13, 29, 20, 38, 54, 0, 4, 2, 53, 0, 0, 44, 60, 0, 0, 43, 0, 0, 25, 70, 0, 61, 26, 78, 0, 73, 46, 21, 8, 30, 51, 0, 31, 0, 5, 14, 0, 0, 16, 0, 47, 55, 0
|0, 0, 9, 3, 50, 32, 0, 57, 0, 0, 61, 0, 23, 40, 0, 0, 18, 20, 49, 1, 0, 0, 27, 19, 0, 15, 67, 39, 29, 63, 2, 17, 42, 0, 0, 0, 0, 22, 77, 64, 60, 48, 43, 0, 71, 66, 56, 62, 36, 0, 69, 5, 73, 0, 0, 74, 0, 25, 70, 8, 0, 0, 34, 46, 38, 41, 0, 10, 0, 45, 58, 59, 0, 76, 0, 0, 81, 53, 26, 44, 55
|0, 35, 61, 64, 54, 0, 59, 0, 47, 2, 49, 22, 0, 0, 65, 32, 11, 0, 3, 0, 55, 30, 53, 71, 70, 51, 66, 0, 52, 0, 0, 67, 25, 7, 0, 0, 75, 13, 0, 0, 39, 58, 29, 18, 0, 0, 16, 12, 14, 60, 1, 0, 43, 44, 36, 0, 42, 78, 0, 80, 28, 0, 9, 6, 62, 31, 79, 73, 77, 17, 37, 0, 41, 5, 48, 15, 0, 74, 0, 50, 0
|0, 0, 2, 46, 0, 69, 16, 26, 0, 0, 67, 39, 25, 0, 0, 73, 4, 52, 54, 0, 77, 0, 74, 0, 29, 0, 0, 48, 12, 0, 0, 10, 44, 24, 35, 22, 42, 0, 80, 7, 28, 0, 0, 0, 0, 64, 59, 33, 68, 40, 50, 0, 6, 0, 63, 65, 18, 60, 21, 31, 0, 30, 81, 55, 1, 8, 0, 13, 36, 5, 0, 0, 75, 66, 3, 0, 51, 0, 71, 0, 11
|31, 38, 24, 34, 66, 65, 0, 21, 0, 0, 0, 75, 59, 17, 1, 8, 0, 27, 0, 0, 58, 11, 14, 37, 68, 0, 0, 0, 33, 79, 56, 36, 0, 51, 0, 0, 5, 69, 0, 0, 44, 46, 0, 70, 0, 13, 77, 71, 0, 0, 28, 0, 57, 32, 73, 6, 16, 43, 26, 0, 12, 72, 39, 4, 0, 20, 81, 0, 63, 52, 0, 0, 18, 22, 0, 61, 10, 35, 64, 25, 40
|77, 13, 18, 44, 52, 0, 12, 20, 5, 51, 79, 57, 28, 42, 35, 0, 7, 70, 50, 38, 39, 25, 0, 76, 0, 36, 31, 0, 78, 0, 0, 47, 0, 43, 0, 54, 11, 0, 63, 24, 67, 17, 81, 0, 0, 3, 10, 58, 30, 0, 0, 0, 19, 0, 0, 0, 41, 56, 0, 66, 59, 64, 22, 68, 0, 74, 27, 0, 9, 71, 0, 61, 23, 2, 0, 73, 0, 60, 14, 72, 6
|25, 0, 73, 0, 0, 41, 76, 49, 0, 0, 5, 34, 6, 43, 0, 14, 29, 81, 35, 0, 62, 44, 72, 26, 22, 0, 24, 55, 18, 28, 77, 64, 66, 0, 27, 0, 0, 2, 74, 1, 36, 56, 61, 33, 8, 80, 0, 0, 0, 4, 75, 0, 0, 79, 50, 0, 0, 46, 38, 48, 54, 3, 71, 60, 23, 65, 16, 11, 69, 12, 70, 42, 30, 0, 19, 52, 0, 20, 7, 9, 57
|0, 71, 0, 39, 0, 23, 0, 0, 0, 0, 37, 0, 26, 50, 56, 53, 0, 44, 0, 0, 32, 0, 33, 0, 6, 0, 0, 76, 70, 41, 0, 46, 0, 58, 11, 3, 65, 0, 31, 0, 25, 54, 49, 0, 79, 8, 34, 0, 81, 78, 42, 7, 0, 0, 45, 47, 0, 62, 5, 0, 68, 0, 0, 2, 14, 0, 28, 15, 0, 0, 64, 57, 12, 63, 0, 4, 77, 27, 13, 0, 17
|0, 11, 36, 0, 17, 0, 56, 0, 22, 68, 12, 3, 0, 47, 71, 0, 0, 77, 28, 0, 41, 0, 42, 23, 79, 48, 34, 0, 40, 21, 13, 30, 0, 75, 73, 69, 72, 51, 50, 0, 0, 78, 57, 0, 76, 29, 38, 20, 0, 0, 63, 65, 25, 9, 15, 4, 0, 58, 55, 27, 10, 14, 0, 18, 0, 0, 39, 33, 26, 44, 0, 0, 0, 1, 37, 46, 45, 0, 0, 32, 0
|1, 78, 70, 42, 63, 72, 60, 51, 58, 46, 16, 41, 64, 9, 10, 0, 0, 62, 21, 75, 47, 0, 52, 0, 65, 4, 0, 6, 8, 0, 0, 23, 81, 71, 0, 80, 0, 32, 73, 38, 30, 66, 55, 20, 12, 53, 11, 0, 26, 18, 35, 76, 45, 74, 57, 77, 0, 0, 24, 19, 44, 79, 37, 7, 3, 40, 25, 0, 50, 0, 48, 56, 36, 59, 54, 39, 0, 49, 0, 0, 69
|42, 49, 35, 76, 65, 54, 69, 0, 0, 28, 19, 0, 9, 0, 0, 75, 68, 0, 77, 13, 14, 0, 79, 0, 23, 40, 4, 61, 50, 48, 39, 6, 67, 30, 51, 63, 0, 55, 56, 26, 59, 18, 8, 0, 44, 10, 41, 7, 45, 47, 20, 0, 72, 5, 2, 0, 74, 0, 60, 58, 24, 16, 43, 34, 73, 64, 12, 81, 31, 33, 21, 0, 0, 78, 0, 25, 36, 0, 66, 17, 38
|0, 29, 31, 55, 0, 0, 6, 0, 41, 15, 26, 56, 46, 18, 0, 43, 66, 30, 0, 60, 76, 0, 57, 7, 17, 61, 52, 27, 0, 0, 0, 0, 59, 68, 0, 2, 74, 20, 75, 39, 0, 35, 64, 19, 70, 50, 0, 34, 37, 67, 24, 0, 49, 40, 38, 0, 0, 45, 32, 36, 23, 0, 8, 53, 0, 11, 78, 0, 0, 51, 1, 10, 0, 48, 21, 14, 0, 81, 0, 54, 0
|44, 47, 0, 32, 28, 0, 30, 0, 27, 40, 0, 37, 20, 0, 22, 52, 78, 0, 0, 0, 0, 63, 36, 45, 0, 0, 73, 65, 79, 0, 0, 54, 8, 25, 21, 38, 12, 0, 10, 15, 0, 77, 6, 50, 81, 51, 76, 75, 53, 16, 70, 0, 2, 35, 26, 80, 71, 61, 34, 11, 1, 0, 67, 14, 48, 23, 0, 68, 59, 39, 74, 5, 46, 49, 33, 7, 56, 4, 9, 3, 0
|81, 0, 14, 0, 0, 0, 71, 13, 0, 25, 70, 0, 50, 11, 61, 74, 42, 4, 0, 32, 34, 0, 55, 0, 0, 0, 0, 15, 66, 0, 1, 31, 5, 19, 29, 57, 3, 58, 62, 0, 46, 0, 36, 80, 78, 23, 0, 63, 0, 54, 0, 52, 27, 60, 49, 48, 40, 0, 18, 75, 64, 21, 0, 22, 0, 47, 45, 7, 0, 30, 0, 0, 0, 79, 0, 26, 0, 59, 0, 0, 0
|0, 20, 45, 19, 73, 77, 39, 67, 4, 41, 35, 81, 34, 24, 80, 47, 0, 59, 46, 0, 43, 0, 64, 78, 0, 3, 65, 33, 53, 37, 60, 0, 0, 49, 0, 42, 23, 0, 9, 0, 31, 0, 28, 79, 0, 0, 58, 30, 17, 61, 14, 57, 62, 48, 0, 0, 29, 10, 51, 0, 7, 76, 27, 25, 0, 66, 15, 52, 32, 0, 0, 2, 50, 44, 40, 1, 74, 11, 0, 71, 0
|0, 61, 78, 74, 18, 38, 0, 43, 21, 6, 0, 49, 0, 0, 31, 39, 67, 0, 0, 0, 0, 53, 28, 0, 5, 1, 0, 45, 58, 0, 40, 0, 32, 10, 17, 75, 30, 0, 0, 22, 0, 7, 51, 0, 29, 4, 8, 25, 11, 79, 77, 0, 3, 33, 0, 59, 0, 15, 56, 47, 69, 13, 65, 0, 63, 0, 41, 35, 0, 37, 0, 50, 0, 19, 52, 20, 34, 0, 76, 0, 62
|17, 0, 0, 0, 7, 80, 33, 0, 37, 58, 8, 0, 1, 65, 0, 3, 44, 55, 16, 11, 74, 47, 38, 49, 75, 50, 0, 20, 35, 22, 26, 0, 52, 0, 78, 56, 48, 45, 2, 40, 57, 5, 76, 27, 34, 68, 19, 21, 43, 73, 0, 12, 29, 28, 62, 66, 31, 39, 53, 46, 14, 81, 25, 0, 71, 0, 13, 4, 0, 70, 0, 77, 0, 32, 15, 41, 63, 42, 67, 30, 0
|62, 48, 0, 70, 0, 60, 11, 0, 0, 0, 2, 33, 51, 0, 21, 77, 12, 0, 20, 22, 0, 0, 66, 0, 0, 0, 30, 14, 24, 80, 0, 3, 0, 0, 76, 16, 41, 0, 17, 25, 0, 0, 52, 0, 0, 0, 81, 56, 31, 74, 0, 0, 0, 0, 0, 28, 0, 0, 0, 37, 72, 0, 78, 49, 9, 0, 19, 0, 67, 46, 0, 69, 53, 13, 18, 0, 27, 55, 65, 57, 43
|22, 50, 52, 26, 72, 16, 0, 0, 0, 69, 0, 17, 63, 10, 0, 0, 62, 71, 51, 0, 27, 0, 2, 58, 37, 0, 18, 11, 46, 0, 70, 7, 23, 77, 41, 74, 66, 0, 67, 21, 53, 33, 0, 0, 0, 0, 0, 1, 78, 38, 32, 55, 13, 65, 0, 12, 0, 5, 79, 0, 0, 0, 6, 29, 0, 43, 56, 57, 40, 61, 3, 24, 35, 0, 8, 75, 0, 0, 45, 0, 0
|11, 22, 3, 53, 0, 36, 44, 38, 0, 78, 0, 9, 77, 0, 63, 68, 0, 0, 0, 0, 6, 32, 26, 12, 45, 79, 47, 70, 62, 0, 23, 51, 80, 35, 0, 60, 81, 0, 37, 0, 0, 0, 30, 39, 0, 0, 0, 69, 71, 0, 5, 58, 0, 66, 0, 18, 13, 0, 0, 43, 20, 0, 74, 42, 65, 46, 10, 2, 61, 54, 72, 0, 14, 57, 24, 0, 76, 0, 55, 0, 8
|45, 0, 26, 61, 49, 71, 54, 31, 0, 48, 66, 0, 0, 34, 0, 59, 36, 0, 0, 5, 0, 38, 1, 4, 0, 56, 14, 3, 67, 0, 33, 0, 0, 27, 0, 10, 19, 21, 57, 77, 50, 15, 40, 62, 25, 0, 12, 8, 2, 7, 0, 22, 0, 23, 11, 41, 73, 55, 0, 76, 79, 37, 29, 0, 69, 30, 0, 0, 81, 0, 13, 64, 44, 28, 60, 0, 70, 58, 32, 42, 65
|47, 0, 4, 78, 48, 21, 37, 14, 2, 33, 0, 6, 40, 53, 0, 10, 28, 42, 30, 25, 15, 36, 13, 8, 3, 20, 43, 49, 63, 0, 0, 32, 29, 73, 22, 46, 67, 5, 64, 27, 79, 60, 41, 54, 18, 0, 80, 77, 57, 0, 65, 0, 0, 50, 70, 0, 59, 31, 16, 23, 17, 61, 51, 0, 74, 75, 7, 55, 76, 66, 12, 71, 0, 0, 69, 0, 0, 9, 0, 19, 0
|13, 0, 81, 0, 0, 55, 65, 8, 25, 56, 18, 29, 0, 15, 0, 20, 43, 5, 0, 0, 63, 23, 48, 61, 33, 22, 0, 41, 0, 0, 0, 69, 0, 28, 0, 64, 58, 44, 0, 2, 0, 10, 31, 66, 0, 70, 27, 37, 42, 6, 36, 79, 0, 19, 80, 38, 62, 57, 78, 72, 52, 0, 32, 26, 40, 14, 34, 0, 60, 4, 59, 0, 0, 50, 53, 0, 54, 75, 77, 67, 74
|33, 0, 0, 0, 43, 0, 57, 0, 0, 81, 44, 0, 61, 32, 7, 76, 0, 69, 0, 21, 40, 0, 62, 80, 0, 31, 37, 54, 42, 16, 18, 20, 13, 38, 25, 58, 0, 11, 12, 0, 0, 0, 0, 36, 51, 0, 0, 64, 47, 0, 0, 41, 55, 0, 0, 75, 0, 65, 9, 0, 0, 0, 24, 0, 0, 39, 77, 0, 68, 50, 0, 27, 10, 29, 73, 6, 15, 71, 0, 46, 26
|12, 39, 79, 63, 0, 0, 0, 0, 77, 70, 23, 54, 0, 21, 0, 60, 0, 0, 69, 29, 16, 0, 0, 64, 44, 78, 11, 37, 0, 9, 0, 2, 61, 81, 0, 31, 28, 0, 45, 46, 76, 0, 24, 34, 13, 74, 25, 72, 52, 0, 10, 3, 33, 0, 66, 0, 26, 4, 15, 0, 0, 68, 36, 43, 0, 38, 0, 19, 1, 0, 0, 0, 22, 7, 17, 48, 20, 47, 51, 0, 5
|0, 62, 27, 69, 51, 30, 67, 0, 0, 26, 3, 35, 14, 0, 0, 19, 52, 0, 0, 41, 70, 75, 60, 59, 10, 65, 71, 50, 44, 66, 15, 40, 57, 1, 0, 0, 0, 43, 23, 17, 29, 0, 73, 9, 0, 18, 48, 54, 0, 0, 38, 0, 28, 0, 21, 0, 0, 77, 7, 6, 25, 0, 42, 0, 31, 24, 80, 0, 53, 8, 45, 22, 81, 61, 0, 56, 11, 12, 72, 78, 33
|29, 58, 0, 60, 56, 20, 0, 59, 0, 74, 1, 0, 0, 45, 38, 37, 17, 0, 0, 50, 9, 0, 49, 42, 18, 0, 0, 0, 55, 0, 6, 0, 72, 0, 0, 24, 63, 0, 65, 80, 0, 61, 0, 26, 0, 0, 62, 0, 0, 51, 21, 0, 0, 11, 5, 8, 0, 19, 30, 81, 22, 54, 0, 33, 0, 0, 70, 23, 16, 48, 36, 79, 25, 52, 35, 64, 66, 40, 0, 0, 27
|7, 0, 42, 52, 64, 70, 46, 50, 10, 65, 41, 0, 22, 67, 0, 0, 0, 0, 81, 66, 0, 34, 77, 0, 27, 0, 54, 36, 0, 0, 14, 0, 0, 76, 12, 0, 0, 3, 38, 32, 78, 8, 72, 6, 0, 61, 9, 43, 49, 45, 0, 31, 0, 1, 58, 0, 53, 40, 0, 69, 0, 56, 60, 62, 0, 29, 11, 20, 25, 0, 0, 51, 63, 16, 0, 80, 0, 0, 0, 0, 13|];