order = 9;
grid = [|0, 17, 29, 54, 71, 53, 0, 40, 75, 61, 0, 0, 8, 0, 38, 36, 0, 0, 0, 39, 48, 19, 5, 0, 14, 0, 0, 81, 69, 50, 74, 6, 24, 0, 68, 33, 10, 56, 66, 42, 9, 47, 35, 0, 12, 0, 65, 0, 45, 55, 37, 64, 7, 49, 76, 28, 43, 13, 0, 18, 0, 59, 57, 0, 11, 79, 77, 52, 41, 0, 3, 0, 0, 16, 0, 0, 0, 0, 63, 80, 31
|23, 0, 60, 51, 59, 47, 0, 13, 7, 63, 0, 0, 54, 0, 27, 0, 58, 56, 74, 29, 8, 61, 0, 44, 75, 0, 9, 49, 67, 0, 70, 78, 73, 39, 0, 0, 0, 55, 6, 22, 0, 77, 0, 0, 36, 40, 0, 28, 25, 38, 19, 0, 80, 42, 79, 0, 0, 0, 31, 46, 3, 33, 66, 0, 43, 76, 26, 62, 5, 1, 24, 68, 35, 30, 10, 0, 57, 0, 0, 0, 45
|41, 0, 0, 49, 73, 48, 8, 0, 1, 3, 75, 0, 0, 10, 51, 31, 50, 0, 54, 30, 69, 0, 46, 0, 24, 0, 35, 0, 0, 11, 0, 17, 0, 0, 38, 0, 81, 28, 27, 0, 16, 0, 76, 33, 59, 0, 0, 68, 0, 4, 0, 21, 57, 0, 0, 23, 0, 65, 29, 77, 39, 0, 55, 37, 44, 9, 14, 80, 45, 40, 61, 0, 71, 66, 0, 0, 74, 0, 0, 15, 64
|20, 74, 0, 24, 11, 0, 0, 43, 0, 37, 53, 0, 0, 13, 72, 81, 45, 19, 41, 0, 0, 33, 32, 63, 1, 0, 0, 79, 5, 30, 3, 29, 60, 0, 23, 0, 0, 0, 64, 75, 51, 73, 46, 0, 50, 27, 71, 0, 0, 0, 14, 0, 59, 0, 12, 21, 58, 0, 61, 69, 0, 62, 0, 65, 56, 0, 49, 34, 2, 55, 28, 0, 9, 0, 18, 0, 52, 68, 26, 39, 17
|0, 35, 63, 2, 72, 45, 0, 19, 0, 41, 33, 42, 15, 5, 0, 7, 0, 0, 0, 0, 22, 79, 50, 62, 0, 10, 40, 66, 13, 47, 31, 32, 44, 0, 59, 0, 1, 80, 20, 65, 0, 17, 14, 25, 23, 69, 34, 67, 39, 0, 12, 76, 30, 0, 11, 52, 75, 49, 0, 6, 51, 54, 68, 16, 58, 18, 0, 21, 27, 53, 0, 29, 61, 78, 56, 38, 0, 24, 4, 55, 48
|12, 33, 5, 52, 78, 18, 69, 6, 4, 34, 14, 65, 11, 76, 48, 66, 68, 30, 37, 55, 45, 0, 59, 0, 0, 0, 0, 77, 0, 0, 57, 53, 0, 8, 62, 80, 67, 0, 54, 71, 49, 44, 40, 19, 79, 13, 81, 9, 41, 75, 15, 61, 22, 0, 0, 0, 0, 42, 74, 17, 27, 36, 73, 7, 0, 20, 10, 39, 0, 0, 70, 60, 47, 0, 58, 23, 1, 43, 0, 29, 3
|0, 56, 9, 0, 58, 16, 15, 0, 0, 0, 57, 32, 2, 43, 60, 55, 67, 49, 21, 65, 4, 27, 47, 13, 42, 72, 28, 48, 0, 20, 52, 0, 1, 7, 14, 0, 41, 0, 5, 38, 37, 18, 11, 0, 61, 51, 33, 0, 0, 0, 73, 0, 6, 10, 34, 40, 45, 53, 0, 30, 26, 0, 81, 69, 64, 0, 0, 0, 36, 23, 0, 0, 62, 22, 70, 77, 12, 0, 59, 54, 44
|0, 76, 68, 0, 67, 10, 21, 81, 0, 59, 0, 0, 71, 28, 78, 79, 0, 4, 0, 0, 77, 57, 3, 17, 23, 11, 0, 0, 36, 64, 19, 55, 0, 0, 41, 0, 0, 72, 74, 48, 24, 8, 62, 7, 39, 58, 18, 53, 0, 46, 26, 44, 0, 63, 0, 20, 0, 0, 0, 56, 0, 5, 0, 0, 0, 0, 42, 0, 0, 0, 12, 30, 27, 73, 0, 49, 50, 69, 6, 51, 0
|55, 66, 57, 62, 61, 25, 31, 79, 65, 77, 26, 20, 9, 0, 69, 0, 39, 0, 0, 80, 0, 68, 15, 53, 12, 7, 70, 0, 0, 37, 46, 0, 22, 54, 42, 0, 30, 3, 58, 13, 29, 21, 0, 63, 43, 0, 52, 17, 23, 5, 74, 24, 56, 8, 0, 0, 47, 0, 35, 0, 2, 0, 72, 0, 0, 0, 73, 51, 6, 59, 33, 48, 81, 19, 75, 36, 60, 11, 14, 76, 34
|77, 44, 22, 74, 0, 55, 28, 0, 71, 64, 56, 0, 0, 0, 81, 70, 20, 0, 14, 6, 30, 0, 69, 0, 40, 0, 0, 0, 26, 17, 38, 45, 52, 68, 78, 3, 49, 43, 0, 35, 13, 32, 58, 50, 0, 0, 5, 0, 21, 54, 41, 0, 0, 18, 7, 76, 9, 47, 0, 0, 0, 80, 0, 8, 48, 10, 72, 57, 62, 19, 27, 31, 67, 79, 15, 39, 66, 37, 1, 0, 0
|60, 4, 53, 0, 0, 12, 0, 35, 23, 45, 0, 75, 49, 0, 29, 32, 16, 0, 0, 17, 27, 76, 77, 8, 44, 25, 0, 0, 47, 71, 10, 21, 7, 0, 0, 37, 80, 0, 30, 0, 40, 0, 0, 22, 57, 66, 70, 0, 19, 9, 0, 36, 79, 48, 15, 38, 78, 1, 14, 3, 46, 55, 56, 34, 28, 73, 24, 0, 39, 63, 2, 5, 0, 72, 20, 26, 68, 6, 52, 13, 59
|0, 47, 16, 0, 18, 0, 40, 0, 0, 53, 0, 30, 66, 58, 5, 25, 0, 46, 22, 67, 0, 31, 1, 37, 70, 3, 39, 11, 2, 60, 81, 50, 4, 57, 12, 0, 7, 21, 0, 29, 15, 0, 69, 27, 72, 0, 0, 71, 78, 0, 61, 42, 52, 59, 10, 74, 64, 28, 8, 51, 0, 24, 0, 54, 79, 17, 0, 65, 0, 77, 0, 49, 45, 0, 48, 0, 0, 75, 56, 0, 0
|0, 43, 0, 1, 27, 51, 78, 48, 29, 33, 47, 0, 17, 21, 44, 0, 0, 0, 28, 2, 57, 0, 19, 74, 54, 79, 5, 46, 6, 70, 39, 80, 23, 49, 32, 73, 24, 4, 71, 14, 53, 68, 52, 0, 65, 0, 64, 34, 0, 76, 3, 7, 31, 0, 59, 35, 0, 67, 0, 45, 0, 0, 37, 0, 0, 41, 9, 40, 13, 22, 75, 20, 18, 0, 0, 0, 63, 55, 38, 58, 12
|68, 57, 0, 64, 42, 30, 0, 0, 69, 39, 36, 41, 80, 9, 0, 0, 76, 0, 0, 38, 66, 0, 58, 0, 4, 53, 21, 62, 0, 24, 54, 48, 0, 51, 33, 0, 70, 25, 46, 61, 79, 10, 17, 0, 55, 22, 29, 63, 20, 37, 0, 12, 77, 0, 72, 73, 0, 23, 19, 13, 0, 26, 0, 50, 71, 14, 67, 43, 0, 32, 0, 45, 78, 3, 27, 0, 0, 28, 0, 60, 49
|13, 67, 37, 9, 10, 2, 0, 0, 15, 28, 0, 0, 24, 12, 19, 51, 0, 0, 73, 61, 18, 0, 81, 68, 0, 60, 42, 20, 40, 63, 0, 77, 72, 44, 22, 55, 23, 0, 26, 0, 0, 38, 0, 59, 5, 49, 25, 32, 30, 17, 65, 0, 47, 14, 70, 79, 27, 0, 33, 34, 0, 43, 75, 78, 4, 16, 64, 56, 1, 21, 76, 69, 0, 0, 36, 0, 80, 50, 0, 7, 57
|58, 32, 70, 20, 62, 73, 39, 72, 46, 0, 0, 52, 23, 0, 77, 0, 40, 37, 0, 12, 9, 49, 41, 24, 10, 29, 56, 0, 19, 25, 0, 31, 0, 75, 0, 53, 64, 36, 78, 0, 48, 0, 51, 28, 63, 81, 4, 0, 0, 0, 68, 1, 0, 0, 30, 69, 0, 44, 54, 0, 0, 22, 42, 18, 15, 26, 61, 33, 55, 66, 0, 0, 65, 71, 8, 17, 0, 0, 0, 0, 47
|63, 45, 26, 59, 0, 21, 79, 0, 0, 0, 22, 68, 73, 71, 2, 65, 72, 0, 46, 48, 13, 43, 80, 15, 50, 36, 51, 16, 14, 29, 35, 0, 41, 42, 56, 0, 20, 67, 75, 37, 11, 0, 1, 8, 0, 28, 27, 60, 0, 0, 44, 55, 62, 0, 39, 18, 57, 66, 0, 0, 0, 0, 40, 47, 23, 3, 0, 0, 12, 52, 38, 0, 70, 0, 81, 4, 0, 77, 34, 25, 61
|61, 49, 41, 3, 17, 0, 25, 0, 24, 38, 0, 69, 13, 27, 79, 11, 0, 43, 0, 0, 20, 71, 65, 59, 0, 52, 0, 9, 1, 34, 66, 28, 30, 0, 0, 76, 0, 18, 60, 77, 0, 0, 44, 47, 56, 0, 0, 8, 57, 2, 75, 23, 50, 67, 0, 0, 16, 6, 0, 0, 31, 4, 21, 0, 46, 81, 53, 70, 29, 36, 37, 51, 14, 0, 54, 0, 40, 33, 73, 0, 0
|8, 52, 0, 0, 46, 0, 60, 39, 0, 0, 0, 0, 68, 80, 0, 6, 0, 51, 0, 34, 0, 66, 63, 0, 61, 73, 69, 0, 25, 0, 14, 81, 58, 77, 35, 0, 17, 41, 76, 0, 0, 0, 0, 18, 33, 78, 16, 0, 0, 0, 23, 0, 0, 75, 22, 45, 36, 74, 57, 50, 55, 12, 64, 71, 37, 30, 38, 53, 4, 10, 0, 62, 42, 40, 32, 9, 44, 49, 47, 0, 0
|74, 81, 27, 0, 0, 0, 9, 58, 0, 0, 37, 71, 0, 77, 17, 0, 36, 41, 8, 26, 55, 4, 0, 56, 38, 68, 30, 0, 65, 44, 0, 0, 78, 48, 0, 40, 12, 61, 35, 0, 0, 50, 13, 79, 42, 31, 54, 49, 0, 33, 7, 5, 0, 32, 6, 59, 66, 0, 70, 0, 69, 0, 0, 20, 0, 46, 51, 0, 34, 80, 0, 0, 0, 0, 29, 0, 21, 0, 0, 0, 15
|80, 41, 76, 79, 37, 56, 55, 24, 70, 60, 34, 23, 0, 0, 49, 63, 0, 33, 6, 35, 78, 17, 0, 20, 36, 19, 77, 12, 15, 18, 8, 46, 45, 32, 66, 61, 75, 47, 25, 0, 22, 27, 39, 30, 26, 4, 28, 0, 0, 0, 10, 67, 0, 0, 16, 29, 5, 0, 0, 44, 0, 0, 54, 13, 0, 69, 0, 72, 59, 74, 50, 65, 58, 68, 0, 0, 51, 7, 11, 0, 73
|0, 7, 0, 77, 13, 32, 0, 78, 0, 11, 65, 0, 19, 75, 0, 72, 10, 58, 39, 45, 3, 0, 16, 25, 71, 33, 74, 60, 56, 49, 79, 0, 31, 0, 63, 23, 34, 6, 52, 20, 59, 69, 0, 40, 44, 30, 37, 18, 62, 21, 36, 70, 0, 81, 0, 2, 51, 76, 67, 1, 43, 9, 48, 42, 66, 57, 0, 12, 0, 29, 0, 0, 0, 4, 46, 5, 55, 26, 8, 14, 27
|0, 75, 54, 66, 0, 1, 35, 29, 26, 0, 4, 13, 0, 22, 0, 62, 0, 14, 0, 41, 60, 0, 40, 23, 0, 57, 10, 0, 55, 0, 0, 43, 0, 0, 67, 51, 68, 0, 81, 73, 80, 0, 48, 65, 0, 61, 50, 74, 6, 52, 0, 0, 34, 0, 42, 0, 0, 58, 38, 53, 0, 32, 0, 63, 2, 70, 47, 19, 0, 78, 0, 17, 0, 77, 37, 71, 33, 0, 3, 36, 72
|0, 12, 64, 18, 50, 0, 3, 15, 30, 73, 0, 39, 38, 54, 61, 45, 8, 0, 24, 14, 75, 11, 79, 81, 0, 0, 62, 76, 0, 0, 9, 20, 26, 70, 0, 17, 74, 29, 0, 55, 71, 0, 5, 0, 28, 0, 0, 0, 0, 0, 66, 72, 43, 69, 4, 60, 19, 78, 37, 68, 0, 35, 0, 33, 21, 0, 36, 58, 0, 0, 49, 44, 13, 0, 22, 80, 0, 0, 23, 6, 0
|17, 6, 34, 0, 57, 59, 65, 20, 61, 0, 9, 21, 0, 0, 35, 74, 0, 0, 52, 70, 42, 0, 0, 0, 15, 50, 1, 68, 73, 62, 0, 0, 53, 0, 29, 19, 0, 10, 72, 23, 0, 0, 0, 14, 58, 41, 0, 12, 40, 22, 76, 13, 44, 77, 0, 47, 80, 79, 49, 0, 0, 0, 11, 0, 60, 64, 27, 81, 0, 67, 0, 0, 38, 39, 66, 63, 0, 0, 69, 0, 75
|73, 10, 38, 0, 2, 23, 16, 31, 43, 70, 67, 0, 50, 81, 30, 69, 0, 0, 29, 18, 59, 0, 53, 0, 0, 21, 44, 80, 37, 42, 0, 24, 0, 0, 4, 36, 0, 46, 49, 1, 32, 51, 78, 0, 9, 14, 60, 0, 58, 65, 0, 68, 63, 0, 17, 41, 56, 20, 0, 72, 7, 61, 71, 0, 75, 0, 76, 77, 79, 26, 45, 6, 0, 34, 19, 0, 35, 62, 54, 64, 0
|5, 0, 25, 0, 4, 71, 51, 36, 49, 46, 42, 44, 55, 66, 1, 0, 12, 29, 0, 64, 54, 7, 27, 67, 37, 58, 22, 57, 72, 0, 6, 0, 50, 21, 16, 0, 77, 60, 43, 0, 45, 62, 0, 38, 19, 0, 0, 2, 26, 11, 8, 56, 0, 80, 18, 10, 13, 0, 34, 0, 0, 65, 14, 9, 40, 23, 0, 0, 3, 0, 15, 32, 59, 70, 79, 61, 20, 31, 0, 17, 78
|0, 80, 0, 73, 49, 3, 71, 0, 74, 18, 6, 48, 0, 8, 34, 44, 2, 81, 45, 77, 0, 21, 0, 52, 25, 42, 33, 0, 57, 28, 0, 0, 56, 67, 0, 38, 62, 54, 0, 7, 78, 40, 20, 35, 53, 11, 79, 29, 0, 10, 55, 16, 72, 1, 31, 0, 50, 0, 75, 43, 24, 19, 58, 64, 30, 36, 12, 5, 69, 0, 23, 37, 41, 15, 0, 76, 0, 32, 22, 26, 0
|59, 0, 69, 26, 76, 24, 13, 55, 0, 15, 51, 33, 0, 68, 0, 60, 14, 0, 12, 4, 0, 47, 18, 11, 53, 0, 16, 17, 63, 0, 0, 19, 0, 43, 0, 49, 9, 0, 50, 27, 57, 66, 22, 0, 21, 8, 41, 81, 61, 70, 71, 0, 78, 62, 0, 25, 34, 10, 3, 0, 35, 2, 0, 46, 74, 0, 40, 73, 0, 6, 0, 79, 0, 28, 80, 54, 75, 30, 64, 0, 23
|56, 25, 0, 32, 9, 38, 0, 10, 0, 23, 0, 5, 70, 0, 73, 19, 69, 24, 0, 51, 40, 0, 0, 0, 0, 64, 60, 0, 79, 0, 80, 30, 75, 55, 0, 46, 0, 13, 4, 0, 0, 0, 0, 29, 68, 52, 17, 45, 0, 43, 21, 27, 0, 7, 0, 62, 15, 63, 18, 0, 0, 0, 53, 44, 20, 77, 8, 0, 0, 50, 67, 26, 0, 49, 0, 3, 58, 1, 0, 42, 0
|51, 63, 0, 50, 23, 78, 19, 0, 0, 17, 0, 0, 22, 0, 0, 0, 31, 11, 3, 46, 0, 8, 61, 41, 67, 0, 68, 0, 12, 15, 40, 0, 0, 35, 53, 0, 32, 73, 0, 69, 81, 55, 0, 49, 34, 48, 0, 56, 0, 64, 59, 0, 39, 30, 0, 0, 6, 70, 79, 57, 65, 76, 4, 0, 80, 42, 0, 0, 0, 43, 0, 9, 0, 0, 5, 74, 18, 0, 27, 20, 7
|81, 0, 20, 5, 0, 79, 12, 16, 0, 0, 1, 0, 0, 0, 0, 3, 59, 0, 0, 0, 0, 0, 56, 49, 0, 0, 38, 32, 41, 31, 0, 61, 34, 0, 51, 44, 0, 8, 47, 46, 72, 19, 23, 0, 64, 15, 0, 0, 0, 6, 69, 0, 58, 4, 66, 71, 0, 0, 11, 0, 52, 0, 17, 0, 63, 25, 33, 45, 18, 7, 48, 0, 68, 29, 78, 67, 77, 40, 70, 73, 0
|15, 29, 18, 30, 44, 54, 0, 2, 0, 0, 40, 57, 56, 74, 0, 53, 78, 32, 0, 75, 37, 0, 26, 70, 27, 1, 13, 45, 0, 8, 23, 0, 64, 72, 0, 81, 16, 0, 12, 0, 58, 0, 61, 5, 0, 63, 0, 77, 36, 0, 42, 66, 76, 73, 0, 33, 0, 0, 0, 80, 0, 49, 7, 11, 51, 0, 65, 22, 19, 0, 14, 59, 69, 48, 0, 79, 43, 60, 71, 0, 6
|14, 53, 0, 11, 0, 58, 66, 28, 27, 9, 12, 79, 20, 67, 7, 42, 41, 63, 81, 73, 74, 54, 0, 6, 0, 0, 0, 4, 16, 3, 24, 71, 0, 22, 0, 21, 0, 0, 31, 0, 77, 70, 30, 0, 0, 23, 80, 0, 75, 44, 18, 0, 0, 68, 5, 26, 46, 59, 0, 64, 0, 69, 47, 57, 29, 49, 0, 17, 15, 0, 52, 61, 34, 62, 50, 0, 0, 13, 0, 35, 39
|64, 40, 35, 45, 52, 0, 7, 0, 67, 47, 25, 36, 37, 0, 71, 0, 28, 61, 72, 20, 65, 15, 24, 58, 79, 34, 0, 0, 33, 73, 0, 70, 39, 62, 77, 0, 48, 0, 18, 43, 0, 0, 60, 44, 1, 5, 22, 0, 0, 53, 57, 26, 49, 31, 23, 51, 32, 21, 27, 0, 56, 42, 0, 76, 13, 78, 54, 55, 0, 3, 0, 4, 16, 8, 0, 10, 46, 2, 81, 11, 9
|72, 42, 61, 0, 1, 22, 57, 77, 41, 50, 49, 43, 58, 4, 0, 21, 46, 64, 0, 23, 0, 69, 2, 0, 30, 0, 0, 10, 0, 0, 18, 27, 0, 76, 0, 26, 15, 24, 79, 74, 6, 33, 75, 71, 52, 34, 67, 3, 65, 60, 32, 25, 9, 28, 54, 0, 0, 36, 0, 8, 48, 40, 0, 35, 53, 62, 39, 38, 70, 31, 81, 56, 0, 51, 0, 12, 47, 14, 45, 44, 55
|0, 38, 0, 0, 48, 49, 70, 64, 9, 56, 0, 0, 33, 0, 16, 28, 29, 54, 75, 37, 68, 53, 22, 0, 78, 6, 63, 69, 51, 13, 50, 36, 0, 14, 46, 62, 0, 0, 44, 66, 0, 25, 0, 57, 0, 74, 3, 5, 27, 0, 0, 34, 18, 19, 0, 32, 10, 0, 0, 0, 67, 58, 24, 23, 0, 71, 15, 76, 40, 42, 0, 0, 0, 17, 60, 0, 30, 41, 31, 8, 0
|25, 11, 7, 17, 0, 0, 67, 0, 42, 12, 2, 0, 44, 62, 45, 0, 57, 70, 0, 74, 0, 0, 0, 34, 26, 69, 0, 63, 10, 0, 0, 1, 37, 81, 31, 0, 72, 22, 0, 15, 43, 0, 0, 9, 80, 29, 23, 51, 16, 0, 13, 0, 0, 39, 3, 0, 4, 0, 0, 35, 0, 0, 0, 0, 0, 24, 0, 59, 0, 54, 30, 41, 55, 46, 0, 0, 64, 5, 58, 71, 68
|0, 30, 0, 14, 28, 5, 0, 47, 58, 22, 3, 59, 76, 0, 52, 71, 26, 17, 0, 0, 1, 65, 0, 0, 0, 15, 24, 0, 0, 80, 0, 0, 79, 34, 0, 60, 6, 23, 0, 2, 0, 0, 0, 0, 0, 0, 12, 11, 42, 0, 56, 0, 0, 0, 48, 39, 62, 40, 20, 27, 9, 68, 41, 21, 16, 0, 66, 75, 31, 81, 43, 53, 44, 0, 69, 29, 7, 0, 0, 78, 67
|76, 50, 62, 0, 26, 0, 23, 0, 18, 51, 0, 46, 48, 37, 58, 1, 60, 42, 0, 0, 11, 0, 67, 71, 13, 80, 81, 70, 54, 5, 59, 75, 40, 28, 0, 6, 36, 52, 68, 17, 0, 35, 27, 78, 41, 7, 0, 21, 72, 49, 24, 4, 32, 0, 64, 53, 69, 30, 44, 22, 15, 79, 0, 14, 19, 0, 0, 9, 0, 0, 0, 74, 3, 38, 0, 66, 25, 34, 0, 16, 2
|24, 0, 78, 0, 41, 36, 81, 0, 0, 69, 0, 10, 0, 0, 67, 20, 0, 9, 30, 0, 31, 59, 0, 72, 17, 0, 3, 47, 22, 65, 0, 0, 0, 27, 0, 42, 54, 50, 0, 79, 12, 4, 21, 0, 40, 0, 63, 14, 77, 15, 1, 6, 8, 0, 2, 37, 28, 0, 60, 66, 0, 29, 49, 58, 55, 0, 0, 0, 51, 0, 34, 64, 80, 74, 76, 0, 0, 18, 33, 52, 26
|79, 0, 0, 0, 35, 20, 46, 0, 2, 0, 15, 25, 81, 23, 66, 18, 80, 5, 40, 0, 0, 50, 38, 21, 7, 0, 12, 0, 8, 68, 53, 44, 49, 24, 0, 29, 71, 30, 48, 47, 0, 0, 0, 3, 11, 59, 0, 58, 0, 69, 0, 9, 0, 0, 0, 57, 55, 34, 56, 36, 0, 74, 19, 22, 67, 61, 0, 78, 17, 28, 0, 0, 37, 0, 4, 14, 39, 72, 75, 0, 10
|0, 61, 72, 44, 0, 37, 53, 59, 21, 14, 0, 34, 0, 35, 0, 39, 0, 0, 70, 0, 0, 20, 48, 2, 0, 0, 49, 0, 0, 57, 67, 12, 71, 17, 3, 15, 58, 32, 65, 0, 0, 1, 18, 46, 74, 76, 0, 0, 0, 66, 0, 0, 25, 0, 13, 81, 63, 50, 0, 7, 5, 0, 26, 0, 36, 4, 0, 0, 38, 33, 60, 52, 0, 0, 0, 0, 42, 56, 0, 0, 54
|75, 3, 0, 43, 15, 0, 80, 56, 34, 0, 0, 61, 0, 47, 4, 0, 63, 78, 42, 58, 0, 64, 0, 0, 62, 55, 19, 2, 30, 48, 0, 33, 0, 66, 0, 72, 53, 39, 24, 45, 5, 0, 0, 13, 16, 17, 44, 26, 54, 28, 81, 37, 41, 0, 0, 0, 11, 71, 52, 0, 0, 51, 38, 73, 69, 68, 0, 7, 77, 0, 25, 10, 23, 0, 6, 22, 65, 27, 12, 49, 0
|10, 0, 66, 16, 0, 4, 54, 57, 22, 36, 64, 24, 0, 11, 6, 0, 13, 65, 27, 0, 5, 60, 44, 51, 39, 46, 18, 0, 74, 0, 0, 0, 0, 38, 55, 52, 0, 0, 56, 8, 33, 63, 29, 69, 0, 0, 2, 0, 0, 61, 30, 0, 0, 79, 0, 42, 0, 17, 43, 14, 0, 0, 78, 12, 49, 1, 0, 32, 0, 35, 80, 0, 0, 9, 53, 0, 15, 59, 0, 81, 20
|4, 20, 50, 0, 16, 11, 10, 3, 55, 65, 44, 7, 0, 0, 0, 0, 74, 0, 1, 0, 36, 42, 0, 0, 6, 23, 45, 0, 38, 40, 37, 47, 0, 0, 72, 0, 35, 14, 15, 26, 0, 22, 0, 32, 0, 64, 69, 30, 52, 57, 28, 0, 13, 53, 60, 67, 59, 5, 81, 62, 29, 63, 27, 80, 9, 34, 43, 8, 48, 49, 77, 46, 2, 21, 17, 70, 0, 19, 24, 66, 76
|9, 0, 51, 37, 36, 0, 14, 0, 66, 68, 13, 8, 72, 32, 11, 0, 48, 53, 38, 0, 0, 34, 73, 69, 2, 0, 27, 0, 49, 16, 0, 42, 74, 19, 70, 45, 0, 65, 21, 41, 0, 61, 33, 6, 0, 18, 24, 50, 22, 12, 5, 0, 60, 54, 78, 15, 17, 39, 76, 28, 80, 0, 3, 25, 59, 0, 0, 23, 64, 30, 29, 75, 7, 43, 0, 57, 4, 52, 0, 0, 0
|0, 0, 31, 28, 0, 35, 0, 69, 0, 27, 30, 55, 0, 52, 36, 0, 0, 2, 17, 0, 0, 75, 57, 48, 16, 44, 7, 0, 20, 43, 25, 39, 0, 29, 81, 24, 76, 66, 9, 40, 50, 13, 0, 68, 37, 71, 78, 72, 67, 56, 0, 0, 1, 61, 0, 0, 41, 38, 64, 0, 70, 0, 79, 0, 54, 12, 45, 26, 0, 51, 11, 18, 46, 32, 42, 0, 53, 73, 10, 0, 63
|21, 15, 71, 7, 56, 0, 0, 26, 72, 10, 5, 0, 51, 25, 33, 0, 70, 73, 77, 0, 28, 0, 62, 18, 0, 0, 43, 78, 27, 0, 0, 0, 46, 13, 2, 0, 0, 0, 0, 34, 38, 81, 53, 0, 75, 44, 0, 80, 0, 41, 0, 0, 0, 0, 0, 0, 0, 0, 4, 52, 40, 30, 0, 0, 42, 0, 0, 24, 0, 76, 69, 36, 0, 67, 31, 65, 45, 0, 29, 9, 0
|27, 0, 0, 70, 0, 77, 0, 46, 0, 0, 69, 0, 26, 19, 0, 58, 0, 75, 33, 9, 52, 22, 12, 0, 11, 8, 67, 18, 50, 76, 4, 57, 63, 31, 0, 66, 0, 5, 45, 24, 23, 43, 79, 54, 49, 0, 59, 36, 7, 32, 51, 47, 2, 29, 68, 55, 0, 56, 42, 73, 34, 0, 25, 0, 39, 15, 28, 0, 0, 17, 62, 72, 0, 81, 0, 13, 38, 48, 80, 61, 35
|0, 0, 0, 81, 0, 0, 43, 54, 73, 0, 0, 0, 59, 45, 14, 0, 0, 16, 64, 21, 0, 0, 0, 29, 0, 13, 0, 0, 0, 77, 7, 67, 80, 52, 48, 0, 0, 12, 3, 0, 0, 57, 74, 58, 17, 20, 0, 27, 79, 23, 34, 75, 42, 26, 33, 0, 72, 2, 0, 19, 22, 0, 32, 56, 31, 0, 71, 47, 0, 41, 40, 63, 28, 0, 0, 6, 0, 0, 39, 69, 36
|33, 34, 23, 0, 0, 13, 48, 38, 0, 67, 0, 0, 57, 17, 40, 0, 0, 0, 65, 72, 80, 41, 66, 0, 0, 0, 54, 30, 53, 36, 1, 0, 0, 56, 0, 64, 0, 2, 0, 59, 0, 42, 63, 51, 0, 45, 74, 0, 4, 0, 62, 3, 0, 0, 0, 0, 0, 24, 77, 9, 0, 75, 0, 52, 7, 19, 0, 27, 0, 0, 16, 21, 11, 47, 71, 25, 49, 44, 0, 0, 79
|47, 0, 0, 0, 0, 0, 0, 0, 8, 29, 76, 64, 3, 0, 50, 12, 15, 80, 55, 5, 0, 40, 0, 39, 19, 30, 4, 0, 71, 54, 0, 68, 6, 0, 0, 58, 52, 48, 0, 0, 56, 7, 28, 11, 0, 9, 0, 73, 63, 31, 46, 17, 21, 0, 43, 0, 0, 51, 45, 0, 49, 53, 0, 79, 38, 0, 78, 2, 81, 13, 66, 35, 33, 14, 41, 75, 59, 22, 0, 0, 0
|0, 64, 52, 58, 0, 0, 44, 0, 45, 21, 0, 0, 43, 31, 42, 38, 24, 34, 0, 53, 14, 0, 78, 79, 49, 0, 0, 75, 28, 0, 0, 41, 0, 15, 61, 11, 55, 77, 39, 30, 0, 72, 80, 0, 73, 10, 6, 76, 0, 8, 25, 0, 16, 35, 47, 54, 0, 0, 46, 48, 0, 7, 0, 3, 57, 0, 0, 50, 33, 0, 4, 67, 0, 56, 12, 20, 26, 23, 68, 18, 0
|0, 71, 14, 0, 55, 64, 0, 27, 0, 42, 0, 70, 79, 65, 22, 0, 0, 36, 78, 11, 24, 81, 13, 43, 56, 40, 47, 0, 35, 38, 73, 49, 66, 0, 30, 0, 0, 15, 69, 0, 54, 0, 0, 76, 29, 62, 48, 0, 12, 7, 77, 32, 0, 58, 75, 34, 67, 0, 0, 23, 6, 45, 80, 10, 0, 59, 0, 0, 26, 0, 74, 0, 52, 33, 44, 31, 28, 0, 16, 37, 21
|37, 21, 0, 80, 34, 31, 42, 0, 25, 0, 41, 0, 62, 63, 0, 43, 49, 47, 58, 0, 38, 16, 55, 0, 0, 0, 76, 64, 77, 39, 61, 72, 0, 36, 45, 0, 13, 19, 0, 52, 0, 0, 0, 12, 30, 2, 10, 22, 0, 73, 29, 0, 0, 56, 0, 11, 68, 33, 0, 40, 74, 71, 28, 70, 5, 35, 44, 54, 0, 24, 65, 14, 48, 1, 0, 0, 0, 78, 0, 53, 32
|78, 72, 49, 4, 74, 50, 0, 41, 57, 13, 81, 19, 12, 2, 0, 0, 5, 0, 9, 33, 53, 0, 75, 77, 0, 65, 48, 25, 43, 46, 71, 37, 42, 23, 18, 54, 0, 70, 10, 31, 44, 0, 38, 26, 45, 3, 55, 79, 60, 14, 52, 11, 67, 66, 63, 7, 35, 29, 30, 58, 0, 27, 36, 0, 34, 0, 1, 0, 28, 61, 32, 16, 39, 0, 0, 59, 22, 17, 15, 0, 0
|0, 54, 13, 0, 3, 46, 0, 52, 0, 44, 16, 26, 0, 0, 9, 0, 0, 27, 0, 63, 0, 37, 20, 10, 68, 0, 0, 74, 48, 14, 0, 69, 0, 6, 76, 57, 0, 81, 80, 28, 47, 65, 0, 72, 24, 35, 0, 0, 17, 0, 45, 30, 5, 64, 50, 66, 77, 0, 78, 12, 79, 60, 0, 49, 62, 33, 0, 15, 73, 0, 31, 19, 25, 2, 11, 58, 71, 61, 42, 0, 56
|16, 0, 10, 22, 69, 0, 0, 0, 35, 48, 28, 0, 0, 0, 0, 33, 17, 52, 18, 42, 71, 0, 60, 0, 59, 49, 72, 15, 80, 67, 0, 34, 12, 0, 0, 0, 21, 27, 1, 0, 41, 11, 68, 77, 4, 36, 0, 39, 0, 50, 53, 43, 26, 76, 62, 44, 81, 14, 47, 0, 64, 0, 31, 29, 78, 6, 63, 0, 57, 8, 20, 0, 19, 13, 7, 46, 73, 51, 0, 30, 66
|45, 8, 0, 65, 0, 66, 58, 30, 76, 54, 46, 0, 6, 14, 25, 73, 0, 23, 44, 0, 0, 52, 39, 0, 57, 12, 15, 0, 0, 22, 60, 63, 0, 53, 19, 31, 42, 16, 33, 36, 0, 59, 34, 0, 0, 0, 0, 70, 71, 40, 80, 0, 0, 27, 0, 4, 26, 0, 51, 24, 13, 56, 18, 0, 3, 11, 7, 0, 9, 47, 21, 81, 10, 20, 49, 0, 41, 0, 43, 68, 5
|36, 0, 12, 38, 7, 68, 17, 73, 0, 1, 58, 11, 10, 69, 75, 15, 37, 59, 0, 62, 67, 26, 30, 0, 0, 0, 0, 0, 0, 0, 0, 2, 13, 0, 8, 0, 63, 51, 22, 39, 55, 20, 57, 0, 46, 25, 49, 42, 0, 47, 72, 18, 0, 0, 53, 0, 54, 48, 32, 16, 19, 21, 5, 77, 52, 43, 23, 64, 0, 79, 71, 66, 0, 27, 3, 0, 34, 74, 76, 0, 14
|43, 0, 33, 47, 6, 0, 5, 44, 48, 0, 0, 77, 29, 20, 18, 80, 35, 0, 69, 3, 51, 70, 0, 64, 66, 0, 25, 27, 0, 26, 11, 7, 10, 59, 52, 56, 0, 79, 0, 32, 0, 49, 73, 17, 0, 19, 21, 16, 13, 34, 31, 0, 0, 65, 61, 0, 1, 0, 39, 0, 38, 37, 15, 75, 0, 45, 30, 36, 42, 58, 0, 22, 0, 54, 9, 55, 23, 57, 62, 12, 81
|40, 26, 15, 0, 53, 39, 0, 63, 81, 0, 24, 66, 0, 7, 0, 8, 0, 31, 80, 0, 21, 5, 23, 35, 28, 0, 17, 51, 0, 0, 33, 16, 47, 4, 75, 41, 0, 37, 62, 58, 0, 71, 2, 61, 0, 54, 0, 44, 0, 0, 6, 0, 69, 78, 0, 22, 42, 73, 0, 76, 0, 52, 59, 0, 27, 0, 13, 25, 0, 46, 68, 12, 0, 50, 77, 0, 72, 29, 79, 38, 65
|19, 0, 75, 15, 0, 0, 24, 65, 36, 72, 70, 58, 0, 34, 43, 0, 0, 45, 68, 81, 0, 55, 49, 0, 5, 0, 53, 0, 0, 35, 0, 0, 0, 80, 20, 7, 3, 1, 13, 54, 26, 30, 0, 4, 6, 0, 76, 64, 44, 78, 67, 0, 74, 0, 21, 48, 38, 0, 0, 42, 0, 0, 33, 0, 22, 56, 37, 79, 0, 71, 0, 8, 40, 31, 0, 47, 11, 39, 9, 32, 60
|0, 68, 3, 53, 70, 0, 26, 18, 0, 62, 39, 0, 0, 0, 32, 22, 0, 50, 0, 27, 64, 48, 7, 40, 63, 0, 73, 71, 81, 66, 0, 0, 69, 10, 6, 77, 28, 35, 2, 0, 36, 78, 9, 0, 47, 75, 0, 52, 0, 0, 38, 0, 24, 0, 46, 12, 8, 11, 0, 55, 0, 1, 51, 15, 0, 0, 59, 0, 60, 14, 54, 0, 20, 76, 74, 0, 13, 58, 0, 57, 30
|34, 0, 58, 41, 64, 0, 73, 21, 79, 26, 48, 0, 36, 0, 28, 27, 4, 38, 32, 78, 61, 51, 54, 42, 72, 0, 80, 0, 0, 19, 0, 0, 18, 5, 0, 9, 0, 44, 11, 68, 52, 29, 16, 0, 0, 12, 53, 13, 0, 0, 47, 10, 0, 17, 71, 3, 23, 31, 63, 0, 75, 0, 74, 30, 1, 40, 55, 0, 0, 65, 0, 76, 0, 0, 35, 62, 14, 0, 50, 45, 0
|54, 27, 44, 56, 25, 0, 74, 4, 0, 2, 0, 0, 47, 73, 0, 30, 1, 35, 0, 69, 33, 0, 9, 14, 0, 0, 57, 21, 29, 12, 16, 62, 0, 0, 13, 39, 0, 76, 0, 18, 65, 0, 50, 43, 0, 0, 68, 6, 15, 20, 60, 22, 3, 36, 80, 0, 40, 0, 24, 81, 72, 64, 61, 19, 45, 0, 34, 49, 63, 48, 5, 23, 0, 75, 28, 51, 17, 42, 0, 79, 77
|35, 77, 0, 71, 12, 52, 0, 14, 10, 16, 0, 0, 42, 0, 76, 75, 54, 20, 79, 44, 0, 38, 37, 19, 0, 0, 0, 67, 61, 45, 0, 26, 68, 25, 64, 63, 22, 0, 40, 0, 74, 23, 72, 0, 62, 80, 0, 4, 1, 59, 49, 69, 46, 0, 28, 30, 73, 0, 66, 0, 60, 78, 34, 0, 50, 29, 0, 13, 43, 9, 51, 0, 0, 0, 55, 27, 6, 81, 7, 48, 33
|42, 0, 6, 0, 0, 17, 32, 0, 39, 52, 80, 56, 7, 0, 0, 0, 0, 13, 59, 16, 35, 0, 45, 0, 34, 74, 8, 24, 0, 55, 41, 65, 57, 30, 54, 2, 0, 63, 0, 25, 31, 0, 0, 0, 60, 50, 0, 61, 11, 0, 40, 73, 28, 33, 36, 43, 0, 62, 0, 15, 76, 0, 44, 72, 68, 75, 69, 66, 0, 0, 47, 58, 1, 64, 23, 19, 3, 10, 46, 4, 0
|0, 55, 67, 69, 38, 0, 30, 62, 16, 0, 0, 9, 0, 0, 0, 5, 0, 0, 0, 0, 2, 3, 76, 26, 0, 24, 29, 0, 0, 53, 47, 15, 27, 0, 44, 0, 33, 64, 17, 19, 0, 45, 77, 0, 0, 0, 58, 37, 0, 48, 54, 14, 0, 51, 56, 68, 0, 0, 0, 4, 0, 39, 35, 41, 10, 52, 25, 28, 11, 20, 36, 73, 72, 0, 0, 78, 0, 71, 0, 63, 0
|57, 9, 1, 60, 33, 76, 45, 0, 20, 55, 0, 0, 40, 6, 23, 37, 64, 69, 47, 0, 12, 0, 21, 75, 31, 70, 0, 0, 3, 74, 48, 8, 0, 0, 17, 0, 27, 53, 0, 0, 73, 39, 10, 24, 51, 42, 35, 41, 56, 30, 63, 62, 0, 2, 0, 14, 79, 19, 7, 0, 0, 0, 22, 26, 61, 32, 81, 0, 78, 4, 46, 0, 43, 5, 16, 68, 36, 0, 44, 34, 0
|31, 0, 59, 0, 5, 72, 0, 0, 50, 19, 0, 14, 78, 44, 63, 68, 0, 0, 36, 0, 58, 0, 6, 28, 60, 56, 20, 0, 32, 33, 0, 76, 70, 46, 0, 4, 61, 0, 55, 57, 34, 48, 0, 0, 69, 0, 26, 7, 18, 81, 0, 79, 66, 45, 0, 17, 0, 25, 0, 54, 0, 0, 9, 39, 0, 2, 74, 0, 0, 0, 0, 80, 8, 53, 0, 41, 24, 21, 49, 0, 29
|11, 0, 0, 12, 24, 0, 38, 1, 0, 6, 52, 18, 34, 42, 57, 17, 75, 39, 48, 71, 47, 45, 0, 9, 0, 35, 61, 31, 68, 41, 76, 0, 19, 64, 49, 67, 78, 40, 0, 81, 30, 28, 55, 10, 22, 0, 56, 54, 0, 62, 50, 0, 0, 23, 27, 0, 7, 26, 13, 0, 53, 15, 0, 59, 0, 0, 0, 0, 72, 0, 0, 33, 0, 44, 25, 73, 79, 70, 21, 3, 51
|0, 51, 0, 0, 79, 41, 18, 74, 52, 5, 20, 45, 21, 0, 0, 0, 19, 62, 56, 7, 81, 14, 42, 55, 8, 76, 37, 22, 46, 4, 26, 40, 36, 16, 57, 0, 0, 11, 34, 64, 2, 58, 71, 23, 66, 38, 15, 0, 0, 0, 0, 49, 29, 0, 9, 72, 3, 68, 0, 32, 0, 44, 30, 24, 73, 0, 75, 61, 54, 25, 0, 13, 0, 6, 1, 0, 69, 35, 0, 33, 50
|67, 0, 4, 10, 14, 34, 72, 0, 54, 71, 79, 40, 0, 51, 0, 56, 33, 76, 63, 22, 43, 0, 68, 32, 77, 75, 0, 3, 0, 21, 0, 13, 65, 37, 80, 48, 0, 69, 0, 0, 46, 15, 70, 73, 27, 0, 0, 0, 81, 18, 35, 45, 64, 11, 8, 19, 0, 12, 0, 38, 0, 41, 60, 0, 0, 0, 52, 74, 47, 0, 42, 0, 49, 23, 57, 0, 29, 0, 53, 24, 0
|62, 39, 0, 42, 0, 26, 0, 45, 0, 81, 0, 28, 0, 41, 70, 0, 0, 12, 0, 24, 17, 73, 0, 60, 69, 59, 34, 53, 7, 0, 0, 0, 54, 0, 0, 0, 29, 33, 0, 0, 76, 0, 43, 52, 35, 72, 30, 75, 80, 0, 0, 78, 40, 5, 74, 64, 22, 77, 50, 61, 25, 18, 0, 51, 65, 21, 3, 20, 0, 56, 19, 57, 0, 36, 68, 15, 16, 0, 48, 10, 71
|50, 70, 81, 8, 31, 0, 0, 68, 77, 58, 0, 0, 1, 36, 47, 0, 3, 0, 2, 10, 0, 78, 72, 27, 0, 28, 65, 34, 42, 0, 0, 59, 43, 33, 24, 0, 0, 49, 53, 12, 19, 79, 56, 67, 20, 21, 0, 57, 0, 25, 0, 52, 73, 0, 51, 16, 14, 35, 55, 0, 63, 48, 69, 45, 6, 22, 46, 41, 23, 60, 9, 40, 0, 26, 39, 11, 54, 80, 17, 74, 0
|65, 0, 21, 27, 30, 9, 33, 0, 63, 0, 68, 35, 67, 16, 0, 78, 11, 0, 0, 40, 6, 44, 0, 50, 3, 5, 41, 73, 0, 58, 56, 51, 17, 18, 60, 71, 39, 75, 32, 72, 62, 24, 36, 1, 7, 47, 0, 69, 28, 13, 0, 77, 20, 37, 57, 0, 31, 0, 23, 70, 42, 81, 10, 0, 26, 80, 0, 48, 0, 0, 79, 34, 0, 55, 45, 52, 76, 4, 61, 59, 46
|3, 0, 17, 57, 43, 60, 56, 25, 40, 80, 61, 0, 63, 15, 0, 0, 0, 72, 0, 0, 19, 12, 4, 30, 21, 67, 0, 0, 45, 10, 0, 14, 77, 20, 0, 32, 38, 9, 41, 0, 68, 0, 0, 48, 0, 0, 0, 0, 0, 79, 16, 51, 27, 71, 52, 1, 37, 75, 5, 47, 0, 0, 2, 0, 0, 53, 18, 35, 76, 0, 44, 0, 64, 7, 0, 42, 0, 0, 78, 22, 28
|0, 0, 46, 0, 20, 0, 76, 23, 37, 25, 31, 73, 69, 0, 13, 9, 44, 66, 0, 0, 0, 58, 64, 0, 74, 0, 0, 0, 75, 81, 78, 0, 38, 12, 28, 70, 0, 57, 0, 51, 17, 26, 0, 0, 0, 0, 42, 0, 0, 0, 0, 41, 55, 34, 29, 56, 0, 4, 36, 0, 21, 0, 6, 62, 77, 7, 0, 0, 49, 0, 10, 43, 0, 0, 72, 30, 0, 8, 32, 40, 18
|6, 48, 73, 35, 0, 44, 36, 22, 64, 0, 77, 54, 46, 50, 65, 2, 43, 26, 31, 0, 70, 1, 33, 38, 0, 39, 0, 55, 0, 52, 72, 5, 29, 0, 27, 25, 18, 59, 0, 0, 21, 0, 3, 80, 13, 68, 0, 10, 53, 0, 17, 8, 61, 0, 40, 24, 0, 45, 28, 79, 0, 34, 62, 32, 81, 0, 16, 0, 30, 12, 78, 15, 0, 58, 0, 37, 56, 0, 20, 41, 19|];