order = 9;
grid = [|0, 33, 19, 49, 11, 45, 0, 71, 13, 46, 41, 50, 67, 48, 72, 66, 6, 26, 70, 52, 47, 36, 0, 10, 51, 78, 43, 81, 37, 0, 15, 1, 18, 80, 31, 74, 77, 12, 21, 69, 57, 0, 0, 53, 30, 4, 0, 0, 40, 0, 0, 68, 27, 24, 42, 5, 65, 73, 0, 58, 0, 20, 22, 0, 0, 0, 17, 3, 2, 25, 8, 56, 39, 0, 14, 0, 0, 79, 44, 7, 54
|68, 75, 4, 52, 79, 0, 60, 0, 76, 61, 25, 0, 0, 58, 37, 0, 40, 13, 0, 67, 73, 66, 9, 0, 65, 42, 0, 0, 0, 33, 34, 46, 24, 26, 0, 21, 71, 0, 47, 0, 3, 0, 14, 80, 45, 50, 0, 69, 44, 0, 55, 59, 0, 0, 54, 7, 57, 0, 48, 1, 0, 35, 63, 39, 74, 62, 23, 32, 0, 38, 6, 0, 16, 0, 15, 17, 64, 0, 51, 18, 30
|20, 0, 29, 15, 0, 48, 17, 0, 0, 28, 0, 0, 0, 0, 54, 69, 11, 0, 46, 49, 0, 0, 53, 81, 71, 0, 0, 0, 42, 7, 50, 0, 77, 59, 2, 0, 52, 38, 74, 79, 0, 34, 0, 0, 18, 0, 67, 8, 30, 51, 72, 66, 76, 39, 0, 56, 4, 70, 0, 16, 0, 14, 32, 0, 37, 36, 0, 0, 0, 43, 64, 10, 31, 80, 6, 0, 40, 3, 75, 26, 55
|70, 0, 0, 21, 67, 16, 12, 0, 34, 17, 2, 71, 59, 36, 0, 53, 0, 76, 69, 4, 27, 0, 0, 14, 62, 63, 5, 0, 0, 10, 8, 45, 3, 65, 44, 0, 0, 0, 22, 54, 0, 0, 15, 50, 20, 9, 37, 0, 57, 47, 0, 33, 58, 0, 72, 0, 0, 79, 18, 52, 0, 80, 30, 49, 0, 1, 40, 35, 0, 7, 26, 42, 77, 66, 43, 29, 74, 56, 0, 0, 60
|0, 42, 0, 54, 77, 41, 30, 56, 0, 0, 74, 0, 78, 49, 68, 45, 79, 0, 76, 6, 58, 0, 0, 61, 0, 0, 0, 0, 69, 66, 17, 14, 70, 0, 0, 0, 40, 25, 32, 35, 75, 5, 0, 62, 0, 71, 0, 38, 60, 3, 0, 0, 0, 20, 50, 23, 43, 81, 34, 0, 0, 53, 12, 47, 65, 0, 0, 0, 0, 0, 0, 16, 10, 0, 57, 0, 13, 33, 37, 4, 72
|61, 55, 69, 7, 74, 0, 80, 62, 37, 42, 34, 75, 30, 8, 56, 12, 22, 57, 15, 59, 32, 38, 24, 60, 0, 79, 18, 0, 0, 72, 58, 0, 40, 71, 9, 35, 39, 0, 64, 43, 17, 63, 11, 73, 0, 19, 6, 65, 53, 0, 2, 16, 81, 21, 0, 10, 78, 29, 67, 0, 25, 13, 31, 0, 0, 14, 33, 20, 44, 50, 54, 68, 47, 5, 0, 76, 0, 36, 46, 0, 45
|10, 0, 40, 51, 43, 38, 6, 0, 0, 0, 4, 23, 47, 65, 18, 15, 39, 80, 1, 0, 0, 0, 12, 74, 26, 34, 0, 0, 19, 79, 0, 54, 27, 20, 0, 11, 56, 0, 0, 42, 0, 55, 37, 0, 0, 0, 0, 45, 78, 49, 0, 77, 0, 46, 71, 3, 66, 17, 0, 33, 0, 24, 60, 52, 58, 0, 5, 22, 0, 0, 13, 81, 0, 28, 73, 0, 21, 25, 0, 8, 69
|63, 14, 0, 8, 0, 0, 35, 0, 47, 0, 0, 0, 0, 0, 0, 0, 0, 0, 40, 37, 0, 23, 57, 45, 0, 25, 2, 0, 5, 0, 0, 0, 60, 0, 12, 56, 13, 81, 49, 29, 31, 0, 59, 0, 0, 0, 43, 54, 1, 0, 0, 17, 10, 80, 69, 75, 15, 64, 0, 61, 0, 0, 26, 51, 4, 79, 30, 0, 0, 0, 72, 0, 34, 58, 0, 0, 0, 67, 24, 27, 65
|23, 0, 81, 72, 18, 0, 0, 5, 50, 24, 0, 16, 14, 52, 29, 60, 43, 55, 0, 35, 17, 0, 54, 21, 68, 56, 33, 0, 0, 67, 38, 0, 25, 75, 28, 32, 10, 8, 70, 0, 7, 4, 0, 66, 65, 12, 0, 0, 41, 0, 0, 11, 13, 31, 0, 51, 0, 47, 0, 45, 37, 0, 27, 53, 34, 9, 57, 0, 0, 77, 59, 80, 78, 1, 62, 2, 0, 20, 22, 0, 71
|52, 3, 0, 53, 38, 0, 0, 0, 0, 49, 81, 0, 63, 35, 69, 0, 36, 0, 0, 76, 6, 22, 2, 0, 0, 0, 0, 75, 27, 56, 40, 58, 0, 50, 26, 0, 0, 16, 0, 0, 44, 0, 1, 37, 33, 74, 79, 14, 47, 67, 43, 0, 41, 0, 15, 8, 7, 10, 29, 54, 57, 0, 42, 68, 0, 59, 77, 31, 23, 28, 70, 0, 80, 17, 21, 66, 0, 0, 0, 64, 25
|58, 72, 71, 44, 80, 43, 10, 49, 0, 0, 70, 77, 21, 62, 0, 76, 54, 16, 27, 63, 14, 51, 47, 55, 31, 20, 15, 0, 12, 17, 0, 38, 64, 67, 19, 68, 0, 22, 0, 30, 5, 0, 0, 6, 41, 0, 28, 0, 36, 33, 0, 0, 50, 52, 53, 32, 74, 18, 37, 0, 11, 0, 61, 0, 25, 69, 0, 0, 42, 78, 73, 66, 40, 7, 0, 13, 0, 0, 1, 3, 0
|50, 0, 0, 57, 56, 2, 29, 0, 7, 0, 61, 46, 11, 0, 43, 10, 52, 68, 0, 25, 53, 21, 49, 37, 39, 0, 81, 0, 70, 18, 72, 65, 22, 74, 60, 0, 67, 71, 14, 8, 32, 79, 19, 48, 62, 44, 66, 12, 73, 1, 54, 0, 35, 6, 23, 30, 69, 0, 0, 51, 47, 41, 13, 9, 80, 5, 26, 16, 27, 3, 38, 15, 0, 63, 45, 28, 4, 0, 0, 58, 75
|0, 0, 67, 25, 23, 0, 31, 64, 30, 0, 22, 0, 37, 7, 28, 0, 0, 1, 77, 0, 80, 0, 61, 13, 43, 8, 0, 54, 34, 11, 66, 4, 42, 15, 14, 81, 21, 0, 38, 0, 59, 78, 0, 0, 0, 56, 18, 19, 72, 0, 51, 0, 32, 0, 0, 35, 26, 46, 39, 0, 65, 12, 0, 62, 29, 57, 0, 52, 6, 76, 20, 0, 5, 0, 16, 9, 0, 71, 0, 33, 0
|79, 32, 27, 24, 0, 6, 47, 16, 68, 5, 23, 59, 25, 18, 53, 13, 48, 12, 0, 0, 0, 10, 0, 0, 56, 67, 4, 0, 63, 0, 0, 35, 0, 0, 69, 0, 15, 72, 57, 65, 36, 0, 39, 0, 29, 0, 22, 71, 20, 30, 64, 34, 0, 77, 75, 31, 62, 52, 80, 66, 0, 1, 58, 0, 0, 49, 45, 0, 43, 0, 33, 74, 76, 19, 0, 0, 8, 51, 54, 61, 0
|15, 46, 1, 0, 0, 0, 78, 0, 69, 47, 0, 56, 38, 57, 20, 80, 0, 0, 28, 7, 33, 19, 0, 75, 0, 0, 30, 16, 0, 32, 0, 0, 37, 45, 0, 51, 0, 0, 60, 0, 50, 0, 61, 77, 42, 21, 0, 0, 3, 0, 9, 40, 0, 23, 0, 6, 0, 49, 0, 14, 0, 44, 24, 34, 8, 72, 0, 39, 18, 0, 22, 36, 48, 41, 0, 10, 52, 0, 59, 62, 0
|37, 0, 75, 41, 54, 0, 5, 28, 8, 0, 50, 33, 0, 0, 15, 0, 4, 29, 0, 26, 59, 52, 23, 32, 0, 36, 0, 0, 47, 77, 57, 30, 0, 0, 1, 62, 0, 0, 56, 25, 81, 0, 12, 63, 0, 0, 31, 24, 49, 0, 58, 53, 42, 78, 70, 48, 9, 0, 0, 22, 0, 21, 68, 10, 0, 0, 7, 65, 0, 44, 0, 17, 6, 69, 46, 0, 0, 14, 0, 34, 18
|22, 35, 21, 0, 0, 20, 0, 9, 73, 74, 26, 3, 58, 40, 14, 30, 17, 67, 0, 60, 64, 70, 50, 1, 29, 0, 45, 6, 80, 8, 28, 0, 0, 0, 33, 43, 55, 10, 0, 11, 0, 0, 52, 31, 34, 46, 63, 15, 0, 39, 0, 0, 69, 0, 36, 0, 0, 16, 19, 72, 0, 5, 0, 4, 54, 75, 0, 13, 0, 32, 71, 0, 65, 23, 78, 0, 81, 68, 56, 77, 0
|4, 0, 13, 65, 19, 0, 0, 0, 0, 0, 27, 60, 0, 0, 51, 71, 0, 42, 34, 3, 0, 12, 72, 11, 5, 57, 54, 79, 0, 36, 41, 0, 7, 29, 23, 76, 45, 53, 68, 0, 20, 17, 9, 26, 64, 80, 0, 0, 8, 0, 16, 0, 0, 48, 0, 77, 67, 56, 43, 78, 0, 0, 28, 50, 21, 0, 0, 61, 46, 0, 0, 0, 15, 0, 35, 0, 24, 0, 31, 22, 73
|48, 50, 33, 2, 46, 54, 67, 69, 0, 55, 36, 25, 39, 0, 63, 0, 1, 58, 23, 31, 11, 0, 0, 78, 0, 12, 37, 32, 26, 0, 74, 0, 0, 79, 0, 4, 0, 44, 40, 71, 21, 0, 0, 51, 15, 0, 80, 47, 61, 7, 53, 60, 0, 0, 64, 0, 41, 0, 68, 10, 0, 8, 19, 0, 72, 0, 0, 77, 28, 30, 5, 76, 0, 20, 81, 62, 57, 18, 73, 14, 56
|73, 80, 8, 62, 0, 0, 0, 0, 0, 60, 14, 0, 61, 51, 4, 0, 0, 0, 0, 44, 67, 0, 3, 39, 70, 0, 47, 17, 0, 0, 0, 11, 5, 48, 0, 23, 64, 18, 0, 46, 22, 50, 72, 0, 27, 0, 0, 0, 58, 28, 56, 0, 38, 0, 35, 0, 55, 33, 69, 12, 34, 25, 0, 71, 40, 32, 54, 0, 0, 65, 15, 29, 68, 30, 31, 36, 49, 21, 26, 19, 0
|0, 0, 5, 27, 71, 0, 0, 61, 40, 0, 32, 7, 0, 0, 17, 0, 80, 0, 0, 15, 0, 30, 46, 16, 72, 51, 0, 28, 18, 65, 22, 0, 21, 60, 45, 70, 0, 0, 19, 14, 0, 0, 74, 42, 0, 63, 11, 0, 64, 77, 44, 1, 12, 75, 0, 54, 50, 0, 81, 48, 52, 59, 67, 36, 78, 41, 68, 26, 79, 8, 9, 4, 35, 55, 66, 33, 0, 76, 0, 10, 2
|0, 79, 22, 74, 30, 56, 24, 0, 32, 0, 0, 0, 27, 0, 11, 49, 0, 78, 0, 62, 4, 14, 0, 5, 10, 43, 57, 40, 68, 54, 0, 0, 73, 12, 0, 41, 58, 48, 65, 36, 16, 52, 0, 60, 7, 0, 35, 6, 0, 25, 69, 0, 0, 8, 1, 61, 37, 13, 0, 63, 31, 70, 38, 0, 0, 39, 0, 34, 59, 0, 66, 0, 17, 64, 72, 0, 42, 50, 45, 0, 80
|59, 29, 0, 75, 68, 14, 18, 0, 0, 0, 13, 65, 0, 0, 22, 42, 34, 41, 0, 64, 0, 79, 35, 0, 40, 48, 0, 15, 44, 61, 24, 0, 0, 2, 0, 71, 47, 5, 67, 56, 0, 81, 0, 12, 10, 33, 0, 0, 51, 20, 0, 0, 0, 74, 46, 17, 53, 80, 0, 0, 66, 58, 45, 21, 0, 3, 43, 38, 0, 0, 0, 49, 37, 0, 0, 52, 0, 0, 69, 0, 7
|6, 81, 47, 36, 53, 0, 0, 72, 17, 0, 0, 0, 69, 66, 0, 0, 0, 75, 32, 0, 0, 0, 0, 71, 0, 38, 19, 0, 67, 58, 31, 63, 51, 0, 64, 0, 80, 11, 4, 77, 45, 0, 0, 29, 35, 37, 24, 26, 68, 15, 39, 52, 73, 18, 27, 20, 44, 74, 28, 0, 56, 62, 21, 0, 12, 2, 10, 25, 7, 0, 42, 14, 0, 70, 0, 0, 54, 16, 5, 41, 78
|44, 43, 25, 4, 0, 42, 63, 66, 11, 56, 52, 70, 81, 28, 62, 35, 68, 71, 41, 69, 0, 77, 0, 7, 55, 73, 17, 29, 53, 14, 59, 72, 30, 19, 0, 38, 0, 0, 23, 33, 0, 8, 34, 0, 0, 40, 45, 10, 21, 0, 78, 0, 46, 0, 2, 16, 22, 26, 36, 18, 51, 3, 76, 0, 0, 74, 6, 1, 80, 0, 75, 31, 9, 48, 47, 58, 67, 61, 12, 24, 15
|76, 16, 0, 78, 26, 12, 0, 15, 0, 0, 18, 64, 10, 5, 0, 31, 0, 38, 63, 0, 0, 54, 21, 0, 25, 0, 42, 46, 36, 20, 39, 6, 47, 62, 43, 37, 0, 66, 69, 41, 61, 0, 55, 0, 68, 70, 72, 23, 34, 32, 0, 22, 0, 0, 77, 49, 71, 30, 4, 0, 14, 0, 65, 24, 81, 17, 73, 0, 45, 56, 58, 0, 79, 0, 44, 74, 0, 29, 3, 11, 8
|41, 28, 0, 35, 0, 0, 0, 0, 0, 12, 0, 43, 8, 47, 21, 54, 30, 19, 74, 45, 18, 29, 66, 0, 0, 0, 0, 1, 56, 50, 81, 42, 0, 0, 7, 80, 0, 26, 53, 63, 0, 0, 78, 76, 38, 0, 65, 36, 0, 14, 3, 0, 16, 59, 0, 0, 0, 5, 0, 24, 73, 0, 6, 67, 0, 44, 0, 64, 33, 0, 69, 0, 0, 4, 22, 0, 0, 34, 40, 13, 32
|75, 19, 28, 0, 25, 5, 0, 0, 29, 72, 56, 62, 0, 0, 78, 70, 31, 45, 6, 40, 0, 46, 0, 0, 0, 0, 26, 0, 55, 30, 33, 22, 63, 38, 0, 16, 11, 0, 20, 0, 0, 73, 79, 3, 0, 59, 0, 51, 69, 0, 10, 42, 60, 66, 12, 0, 58, 4, 7, 8, 0, 27, 48, 32, 0, 53, 65, 23, 0, 2, 49, 0, 64, 43, 54, 77, 50, 57, 76, 0, 67
|45, 53, 80, 0, 76, 0, 0, 77, 67, 29, 54, 69, 52, 16, 66, 58, 0, 32, 50, 43, 25, 37, 38, 63, 0, 7, 70, 0, 39, 0, 3, 28, 79, 0, 0, 61, 68, 0, 0, 2, 0, 57, 18, 5, 81, 0, 9, 64, 48, 17, 27, 19, 71, 26, 0, 40, 23, 60, 0, 31, 0, 78, 73, 0, 56, 47, 0, 75, 0, 15, 4, 6, 0, 51, 55, 0, 33, 24, 8, 12, 62
|35, 0, 72, 0, 1, 23, 56, 48, 18, 21, 59, 55, 73, 76, 49, 27, 0, 34, 0, 5, 20, 41, 13, 0, 80, 81, 75, 66, 0, 0, 51, 43, 0, 0, 8, 29, 0, 74, 0, 0, 64, 77, 4, 16, 32, 62, 25, 2, 54, 57, 31, 67, 22, 0, 0, 65, 0, 39, 6, 0, 0, 0, 3, 69, 38, 37, 0, 46, 0, 0, 0, 9, 52, 15, 53, 61, 36, 0, 60, 0, 47
|26, 44, 38, 0, 65, 59, 14, 40, 9, 77, 10, 81, 80, 75, 61, 19, 23, 28, 18, 0, 0, 32, 0, 69, 0, 49, 60, 47, 21, 45, 6, 15, 0, 0, 52, 72, 27, 33, 0, 7, 58, 51, 42, 8, 50, 41, 39, 56, 43, 63, 4, 24, 36, 0, 0, 0, 0, 22, 70, 46, 0, 17, 5, 57, 0, 71, 78, 0, 54, 66, 29, 67, 13, 73, 79, 34, 0, 0, 74, 25, 37
|16, 36, 37, 3, 47, 0, 55, 46, 27, 63, 0, 1, 0, 44, 0, 68, 50, 8, 22, 14, 0, 0, 77, 2, 21, 0, 0, 0, 57, 73, 76, 32, 17, 0, 0, 53, 0, 0, 31, 0, 24, 23, 0, 0, 70, 30, 0, 0, 18, 0, 6, 20, 15, 0, 61, 0, 80, 51, 49, 0, 29, 74, 56, 26, 43, 28, 64, 81, 0, 62, 0, 39, 4, 0, 41, 0, 10, 69, 0, 0, 66
|17, 0, 58, 50, 24, 78, 74, 4, 0, 43, 0, 39, 0, 71, 0, 0, 42, 0, 56, 73, 0, 16, 51, 67, 0, 0, 35, 70, 10, 0, 27, 60, 0, 0, 68, 0, 30, 19, 52, 0, 53, 36, 76, 38, 61, 0, 0, 81, 33, 46, 40, 80, 75, 34, 0, 26, 14, 0, 57, 47, 54, 15, 64, 8, 1, 20, 31, 21, 77, 48, 44, 0, 45, 32, 28, 18, 0, 0, 65, 29, 5
|0, 13, 57, 32, 73, 69, 0, 0, 41, 0, 67, 53, 51, 60, 0, 46, 37, 15, 0, 0, 10, 65, 76, 52, 44, 19, 24, 7, 20, 78, 0, 81, 0, 4, 56, 18, 28, 6, 62, 47, 48, 40, 25, 72, 39, 45, 0, 68, 29, 0, 0, 3, 77, 0, 43, 0, 0, 0, 66, 38, 63, 0, 0, 0, 36, 12, 0, 5, 0, 22, 30, 0, 23, 26, 75, 0, 31, 17, 21, 70, 0
|33, 0, 66, 31, 15, 30, 70, 43, 0, 26, 17, 40, 48, 0, 0, 36, 5, 4, 72, 53, 3, 0, 68, 23, 61, 28, 0, 2, 0, 19, 80, 67, 9, 64, 46, 50, 0, 41, 29, 45, 69, 21, 10, 54, 22, 78, 0, 32, 74, 0, 47, 79, 0, 76, 0, 13, 0, 75, 11, 37, 0, 0, 52, 0, 55, 16, 34, 0, 58, 0, 14, 25, 42, 56, 0, 0, 7, 6, 0, 81, 39
|0, 0, 0, 39, 10, 0, 0, 6, 61, 20, 0, 41, 0, 30, 38, 0, 0, 47, 62, 8, 0, 0, 0, 4, 54, 0, 27, 65, 77, 0, 75, 48, 26, 35, 42, 5, 46, 63, 15, 0, 0, 0, 66, 0, 43, 0, 12, 7, 28, 0, 0, 37, 23, 0, 44, 0, 32, 67, 59, 0, 0, 69, 0, 76, 51, 80, 24, 19, 0, 52, 0, 18, 3, 0, 71, 1, 0, 0, 0, 72, 0
|39, 0, 36, 59, 29, 17, 0, 80, 52, 35, 0, 0, 71, 27, 70, 51, 60, 30, 79, 77, 68, 62, 34, 0, 16, 0, 0, 19, 50, 38, 2, 66, 0, 43, 4, 0, 3, 23, 5, 40, 8, 0, 63, 46, 47, 65, 78, 0, 0, 0, 57, 54, 0, 41, 33, 0, 13, 14, 0, 0, 0, 75, 37, 58, 7, 56, 55, 74, 12, 64, 0, 1, 53, 11, 18, 22, 72, 31, 61, 21, 28
|38, 37, 31, 47, 9, 0, 0, 70, 49, 13, 16, 0, 45, 0, 79, 0, 29, 61, 60, 0, 71, 63, 67, 53, 41, 40, 0, 0, 14, 42, 23, 78, 33, 30, 81, 55, 1, 0, 0, 0, 35, 69, 26, 25, 80, 0, 10, 48, 52, 0, 34, 51, 21, 15, 73, 62, 27, 0, 5, 0, 0, 22, 57, 0, 0, 0, 0, 0, 72, 0, 24, 0, 2, 44, 7, 54, 0, 0, 0, 20, 0
|0, 0, 32, 42, 0, 40, 65, 74, 15, 0, 62, 80, 33, 53, 0, 4, 47, 22, 30, 21, 24, 75, 1, 38, 0, 52, 0, 0, 13, 5, 7, 8, 72, 0, 20, 63, 48, 29, 0, 51, 18, 64, 71, 70, 2, 0, 69, 61, 19, 0, 79, 14, 55, 12, 60, 0, 39, 36, 0, 0, 78, 0, 46, 54, 0, 73, 66, 0, 0, 10, 45, 0, 67, 3, 17, 35, 0, 43, 23, 50, 58
|78, 25, 20, 58, 0, 8, 46, 67, 66, 14, 24, 0, 0, 31, 0, 44, 0, 64, 51, 0, 45, 76, 27, 56, 22, 70, 3, 0, 61, 57, 0, 0, 28, 37, 10, 0, 79, 55, 0, 16, 77, 49, 17, 59, 54, 32, 0, 0, 13, 0, 0, 0, 18, 0, 80, 21, 40, 0, 0, 68, 7, 0, 0, 23, 6, 48, 71, 0, 69, 5, 35, 0, 81, 36, 52, 75, 65, 0, 63, 42, 0
|0, 18, 0, 6, 0, 61, 75, 10, 45, 0, 0, 63, 0, 50, 36, 0, 20, 72, 0, 42, 54, 33, 4, 64, 0, 0, 7, 0, 0, 51, 0, 27, 0, 9, 0, 0, 0, 67, 73, 0, 52, 39, 0, 0, 21, 5, 3, 66, 11, 16, 0, 71, 47, 60, 32, 0, 49, 23, 0, 28, 0, 48, 77, 29, 70, 0, 80, 0, 40, 46, 53, 44, 19, 57, 0, 69, 12, 41, 25, 38, 34
|60, 27, 0, 5, 0, 4, 53, 1, 14, 69, 0, 11, 12, 54, 7, 25, 18, 74, 57, 0, 48, 0, 43, 0, 0, 2, 0, 0, 0, 40, 62, 68, 0, 3, 0, 67, 76, 30, 45, 61, 38, 44, 81, 10, 37, 73, 77, 70, 23, 0, 63, 0, 49, 35, 17, 66, 8, 55, 0, 0, 19, 64, 20, 42, 50, 52, 0, 0, 26, 75, 36, 28, 0, 79, 32, 56, 78, 0, 29, 0, 0
|54, 56, 63, 79, 0, 55, 26, 11, 72, 0, 0, 0, 17, 23, 76, 8, 0, 0, 20, 39, 9, 50, 0, 36, 74, 35, 69, 60, 31, 15, 65, 0, 0, 46, 53, 58, 0, 34, 0, 32, 41, 19, 13, 4, 57, 0, 0, 67, 59, 22, 0, 7, 45, 0, 10, 0, 0, 3, 25, 0, 42, 61, 0, 16, 2, 38, 51, 47, 0, 68, 27, 0, 0, 0, 37, 64, 80, 48, 0, 0, 24
|0, 2, 51, 23, 69, 35, 0, 57, 3, 0, 0, 0, 75, 0, 67, 43, 78, 49, 0, 65, 0, 0, 26, 18, 17, 0, 66, 80, 74, 52, 1, 29, 16, 39, 76, 0, 22, 20, 36, 9, 12, 42, 50, 0, 0, 0, 0, 28, 81, 58, 0, 46, 30, 56, 24, 38, 0, 54, 53, 4, 0, 11, 0, 19, 31, 25, 32, 59, 0, 21, 79, 77, 0, 40, 0, 6, 0, 13, 0, 47, 70
|0, 71, 50, 0, 62, 77, 0, 12, 0, 68, 57, 0, 3, 0, 0, 0, 21, 10, 0, 0, 0, 0, 78, 0, 0, 0, 0, 18, 0, 0, 47, 75, 0, 69, 32, 54, 0, 0, 0, 0, 60, 72, 7, 74, 0, 27, 36, 0, 0, 42, 24, 38, 37, 0, 79, 0, 0, 0, 31, 35, 16, 9, 70, 15, 0, 34, 76, 0, 67, 0, 61, 20, 51, 45, 8, 14, 1, 55, 0, 46, 0
|29, 0, 0, 0, 59, 68, 0, 18, 33, 81, 0, 9, 20, 0, 0, 0, 51, 56, 4, 32, 23, 31, 58, 48, 0, 0, 0, 50, 0, 12, 73, 0, 36, 0, 0, 66, 62, 37, 26, 38, 30, 0, 44, 0, 0, 0, 42, 0, 79, 0, 0, 74, 1, 0, 0, 22, 0, 27, 64, 7, 21, 43, 40, 0, 11, 0, 0, 8, 63, 0, 0, 0, 57, 0, 65, 3, 0, 47, 0, 35, 0
|49, 10, 6, 30, 81, 58, 0, 20, 0, 66, 80, 52, 0, 0, 12, 0, 0, 0, 36, 2, 15, 0, 44, 27, 47, 5, 0, 72, 0, 0, 78, 24, 43, 32, 67, 57, 19, 4, 50, 0, 79, 33, 22, 61, 13, 77, 0, 11, 70, 37, 73, 55, 0, 71, 0, 60, 0, 48, 65, 0, 46, 0, 8, 35, 23, 54, 0, 51, 0, 0, 18, 62, 1, 42, 68, 0, 75, 26, 0, 63, 21
|72, 0, 12, 0, 52, 44, 40, 0, 0, 37, 0, 4, 68, 69, 48, 39, 53, 50, 35, 0, 70, 11, 62, 34, 78, 18, 0, 63, 0, 41, 64, 77, 81, 16, 0, 1, 0, 28, 54, 0, 25, 29, 27, 0, 71, 10, 19, 58, 0, 45, 38, 21, 7, 51, 0, 0, 30, 24, 0, 73, 0, 49, 47, 59, 0, 61, 36, 0, 32, 17, 57, 26, 0, 2, 0, 5, 0, 46, 43, 0, 13
|55, 57, 14, 0, 0, 0, 48, 13, 0, 7, 21, 49, 0, 10, 0, 22, 8, 63, 0, 72, 37, 0, 0, 59, 0, 0, 41, 62, 29, 0, 54, 44, 0, 51, 0, 6, 0, 64, 0, 74, 15, 47, 53, 45, 5, 69, 23, 50, 0, 66, 35, 26, 4, 32, 11, 25, 16, 31, 0, 79, 58, 0, 80, 20, 0, 43, 46, 0, 38, 34, 2, 0, 70, 61, 36, 40, 0, 0, 17, 28, 81
|0, 0, 45, 16, 36, 47, 2, 0, 0, 1, 35, 0, 0, 43, 23, 74, 61, 59, 8, 71, 42, 67, 39, 65, 57, 54, 55, 38, 60, 0, 0, 80, 69, 0, 11, 14, 0, 58, 76, 0, 0, 68, 40, 52, 9, 53, 33, 29, 22, 34, 81, 75, 3, 63, 37, 0, 0, 32, 0, 13, 0, 56, 44, 66, 5, 27, 0, 72, 4, 73, 0, 0, 50, 24, 49, 0, 62, 0, 7, 79, 10
|31, 77, 23, 0, 50, 51, 61, 73, 0, 0, 0, 6, 34, 78, 5, 0, 0, 17, 0, 1, 0, 0, 80, 26, 49, 21, 0, 0, 9, 28, 0, 13, 0, 47, 0, 0, 8, 36, 16, 24, 43, 18, 0, 81, 60, 0, 0, 0, 0, 0, 46, 0, 72, 44, 52, 63, 0, 0, 54, 71, 0, 4, 2, 3, 0, 0, 70, 40, 22, 74, 0, 79, 66, 0, 29, 55, 41, 19, 33, 69, 0
|65, 8, 42, 63, 28, 0, 76, 0, 38, 0, 0, 0, 0, 29, 73, 0, 70, 0, 0, 0, 77, 20, 40, 50, 13, 0, 0, 0, 25, 34, 0, 0, 31, 52, 0, 46, 35, 39, 7, 1, 14, 3, 0, 0, 66, 67, 64, 60, 12, 56, 5, 0, 54, 0, 81, 0, 0, 0, 10, 0, 0, 33, 0, 78, 45, 68, 44, 9, 0, 0, 21, 0, 0, 74, 80, 59, 37, 4, 0, 0, 6
|62, 11, 3, 0, 34, 0, 69, 0, 5, 71, 72, 0, 0, 15, 47, 77, 2, 54, 0, 0, 0, 81, 0, 0, 52, 0, 74, 27, 79, 21, 0, 26, 4, 22, 70, 33, 73, 46, 75, 23, 49, 0, 0, 65, 51, 0, 61, 59, 9, 0, 48, 0, 40, 43, 0, 55, 19, 12, 35, 0, 50, 0, 14, 64, 16, 60, 0, 80, 29, 24, 1, 0, 0, 0, 0, 30, 0, 45, 58, 0, 0
|27, 0, 43, 9, 4, 53, 79, 60, 74, 0, 65, 13, 0, 0, 0, 67, 62, 0, 12, 61, 29, 24, 0, 0, 0, 0, 68, 3, 45, 37, 55, 59, 0, 23, 35, 0, 0, 0, 34, 0, 0, 48, 32, 0, 63, 36, 0, 52, 0, 18, 17, 0, 6, 30, 0, 1, 5, 0, 78, 39, 20, 0, 15, 0, 10, 81, 0, 0, 49, 0, 19, 47, 25, 0, 51, 8, 0, 72, 0, 54, 64
|57, 30, 9, 73, 55, 0, 39, 8, 0, 75, 68, 51, 36, 74, 1, 21, 0, 27, 0, 0, 0, 0, 28, 70, 11, 0, 59, 0, 38, 60, 69, 71, 80, 0, 16, 64, 37, 0, 41, 76, 26, 35, 0, 34, 12, 42, 0, 18, 56, 0, 25, 15, 33, 22, 0, 46, 0, 6, 61, 49, 72, 0, 0, 77, 44, 31, 0, 0, 0, 47, 32, 23, 58, 0, 24, 0, 14, 7, 78, 67, 0
|0, 0, 48, 0, 0, 66, 0, 0, 20, 25, 43, 76, 0, 55, 0, 73, 15, 46, 0, 12, 0, 0, 0, 57, 0, 0, 0, 0, 0, 63, 0, 0, 53, 0, 0, 19, 69, 24, 0, 0, 40, 56, 54, 32, 23, 16, 34, 3, 77, 75, 0, 0, 0, 0, 31, 80, 47, 62, 33, 27, 44, 42, 0, 0, 0, 6, 81, 0, 0, 18, 52, 2, 0, 72, 64, 26, 22, 28, 0, 17, 1
|64, 59, 16, 34, 27, 80, 0, 37, 0, 0, 47, 0, 0, 81, 13, 48, 19, 40, 0, 36, 0, 0, 0, 15, 63, 24, 0, 11, 0, 70, 67, 17, 1, 66, 0, 22, 0, 52, 8, 0, 46, 74, 73, 0, 78, 38, 0, 0, 2, 4, 0, 28, 31, 0, 56, 45, 29, 7, 12, 20, 5, 60, 9, 43, 42, 58, 0, 10, 25, 0, 68, 0, 21, 0, 30, 0, 0, 23, 18, 51, 0
|11, 4, 54, 45, 72, 74, 77, 0, 22, 57, 0, 0, 32, 17, 26, 28, 0, 52, 0, 18, 46, 68, 0, 40, 38, 13, 0, 8, 49, 43, 48, 7, 0, 6, 37, 42, 16, 0, 30, 0, 63, 0, 5, 19, 59, 61, 73, 0, 24, 36, 60, 44, 20, 9, 66, 71, 81, 69, 50, 25, 3, 67, 39, 65, 15, 33, 0, 0, 1, 0, 0, 21, 0, 10, 12, 0, 0, 2, 34, 0, 41
|36, 0, 76, 10, 6, 67, 0, 65, 75, 18, 71, 24, 0, 39, 80, 59, 0, 23, 0, 74, 44, 56, 19, 41, 37, 58, 32, 5, 51, 0, 0, 0, 0, 33, 72, 0, 38, 31, 1, 0, 42, 60, 43, 13, 3, 0, 0, 49, 35, 0, 0, 64, 0, 0, 14, 53, 54, 0, 16, 15, 22, 57, 34, 28, 0, 40, 11, 0, 8, 27, 0, 70, 73, 50, 48, 81, 0, 66, 77, 45, 46
|14, 24, 17, 70, 40, 19, 1, 31, 0, 22, 66, 44, 50, 0, 60, 0, 35, 5, 0, 0, 0, 34, 25, 0, 0, 61, 0, 26, 0, 0, 45, 0, 54, 18, 57, 0, 53, 7, 0, 0, 2, 75, 80, 0, 0, 47, 0, 46, 63, 43, 21, 0, 0, 11, 0, 64, 48, 59, 32, 55, 13, 0, 23, 0, 0, 51, 4, 41, 0, 12, 16, 71, 8, 29, 76, 15, 68, 9, 0, 6, 49
|0, 52, 18, 0, 0, 21, 81, 78, 43, 65, 0, 38, 72, 67, 16, 61, 63, 6, 0, 22, 76, 1, 0, 51, 9, 0, 80, 74, 28, 46, 13, 41, 58, 0, 40, 31, 49, 62, 44, 10, 0, 15, 47, 11, 55, 8, 26, 0, 50, 54, 0, 32, 66, 7, 19, 2, 70, 37, 24, 77, 0, 0, 4, 5, 57, 64, 48, 56, 36, 0, 39, 45, 0, 71, 20, 25, 69, 75, 0, 0, 3
|0, 51, 56, 38, 33, 0, 71, 0, 46, 31, 0, 37, 41, 12, 77, 7, 10, 53, 0, 20, 8, 0, 0, 0, 64, 3, 16, 78, 15, 0, 0, 2, 76, 14, 39, 73, 36, 0, 72, 21, 9, 0, 48, 18, 0, 6, 0, 5, 67, 19, 23, 0, 68, 81, 0, 0, 28, 0, 0, 11, 0, 0, 1, 0, 22, 0, 0, 0, 34, 0, 80, 0, 60, 52, 40, 27, 47, 0, 42, 57, 43
|0, 47, 26, 28, 63, 32, 15, 44, 23, 0, 11, 0, 2, 34, 30, 9, 64, 0, 31, 48, 43, 27, 0, 6, 42, 53, 21, 61, 3, 55, 0, 12, 29, 56, 77, 24, 0, 50, 25, 0, 39, 66, 57, 22, 79, 0, 40, 1, 45, 72, 71, 69, 0, 70, 0, 52, 18, 76, 0, 75, 41, 68, 0, 0, 0, 46, 0, 67, 73, 49, 60, 59, 54, 0, 19, 4, 16, 5, 80, 37, 0
|42, 38, 59, 13, 78, 0, 0, 30, 16, 44, 0, 0, 0, 22, 10, 63, 76, 36, 25, 0, 35, 43, 15, 0, 53, 46, 34, 9, 48, 2, 18, 79, 65, 0, 0, 3, 54, 0, 66, 0, 0, 0, 77, 40, 8, 72, 32, 37, 0, 24, 0, 27, 61, 69, 41, 12, 0, 11, 74, 57, 0, 23, 17, 33, 68, 26, 0, 60, 81, 0, 7, 64, 0, 62, 4, 71, 0, 0, 67, 0, 52
|67, 0, 74, 0, 31, 24, 57, 68, 0, 80, 53, 61, 0, 20, 9, 65, 12, 0, 0, 0, 72, 18, 73, 3, 0, 33, 39, 22, 23, 6, 0, 19, 0, 63, 36, 0, 0, 0, 78, 0, 0, 25, 0, 35, 0, 79, 52, 0, 76, 81, 11, 49, 34, 14, 7, 4, 60, 38, 27, 70, 40, 10, 66, 2, 32, 0, 47, 28, 62, 59, 0, 8, 69, 0, 0, 42, 0, 54, 0, 5, 0
|28, 6, 0, 19, 61, 79, 22, 81, 58, 0, 5, 0, 31, 11, 52, 16, 27, 69, 21, 66, 57, 0, 0, 44, 0, 76, 40, 53, 32, 0, 4, 0, 68, 78, 51, 12, 41, 73, 0, 3, 10, 0, 33, 14, 24, 48, 30, 55, 62, 0, 45, 36, 70, 54, 0, 18, 35, 9, 0, 43, 26, 46, 75, 56, 77, 50, 0, 0, 39, 80, 74, 38, 59, 37, 0, 72, 34, 1, 64, 2, 0
|80, 5, 70, 76, 35, 33, 72, 0, 26, 0, 37, 34, 29, 14, 45, 0, 24, 62, 0, 58, 0, 17, 32, 0, 81, 0, 0, 52, 0, 39, 60, 64, 55, 40, 21, 0, 0, 9, 48, 57, 19, 28, 46, 27, 16, 2, 0, 0, 0, 0, 67, 18, 53, 25, 49, 15, 3, 1, 63, 44, 77, 31, 69, 0, 0, 66, 20, 0, 30, 0, 23, 12, 7, 68, 0, 0, 0, 0, 13, 65, 50
|0, 20, 62, 77, 37, 0, 64, 17, 25, 54, 19, 30, 0, 46, 32, 0, 0, 0, 75, 0, 0, 9, 0, 79, 67, 74, 38, 14, 0, 81, 70, 0, 15, 57, 0, 7, 0, 61, 0, 5, 0, 26, 49, 1, 0, 0, 13, 0, 0, 12, 59, 43, 0, 3, 0, 68, 6, 45, 2, 56, 48, 29, 0, 22, 27, 0, 52, 58, 21, 16, 34, 69, 28, 18, 39, 73, 66, 0, 0, 53, 0
|8, 23, 7, 14, 48, 63, 52, 0, 56, 0, 3, 17, 74, 33, 0, 2, 72, 70, 13, 0, 0, 59, 30, 77, 4, 1, 65, 45, 66, 0, 35, 50, 11, 28, 73, 25, 81, 15, 0, 0, 0, 0, 36, 47, 53, 0, 58, 21, 0, 78, 26, 31, 0, 29, 0, 34, 79, 19, 22, 64, 62, 16, 0, 55, 46, 10, 9, 37, 75, 71, 51, 43, 49, 27, 0, 32, 0, 44, 0, 40, 0
|18, 40, 65, 0, 2, 73, 43, 36, 4, 79, 77, 68, 23, 13, 64, 47, 28, 48, 55, 0, 26, 71, 8, 12, 69, 31, 6, 34, 72, 0, 44, 37, 59, 42, 5, 27, 0, 21, 80, 22, 74, 0, 0, 7, 0, 57, 51, 16, 38, 0, 66, 9, 19, 1, 39, 58, 24, 25, 30, 50, 61, 52, 53, 11, 0, 45, 49, 15, 78, 0, 0, 3, 0, 0, 0, 0, 0, 0, 81, 76, 0
|66, 9, 55, 12, 32, 15, 50, 21, 10, 4, 39, 58, 1, 59, 71, 18, 25, 0, 80, 29, 28, 2, 0, 54, 0, 47, 52, 0, 76, 49, 56, 16, 38, 8, 17, 0, 0, 45, 6, 13, 23, 62, 30, 79, 69, 22, 46, 63, 7, 0, 0, 35, 64, 68, 5, 73, 42, 20, 72, 36, 81, 37, 51, 0, 0, 19, 61, 57, 65, 70, 41, 0, 0, 0, 11, 24, 3, 78, 48, 0, 77
|34, 0, 60, 0, 44, 0, 0, 3, 53, 51, 0, 57, 66, 42, 75, 81, 0, 0, 0, 70, 49, 48, 0, 0, 50, 68, 23, 0, 43, 0, 0, 74, 0, 1, 41, 0, 12, 2, 37, 52, 0, 0, 67, 20, 11, 0, 47, 0, 0, 8, 28, 0, 56, 10, 13, 78, 33, 65, 0, 80, 32, 55, 0, 25, 0, 76, 72, 0, 5, 36, 31, 73, 0, 0, 63, 45, 30, 0, 0, 16, 9
|32, 0, 68, 0, 8, 72, 0, 26, 81, 10, 6, 0, 0, 61, 27, 52, 71, 20, 54, 11, 0, 28, 65, 30, 23, 77, 63, 69, 0, 47, 14, 5, 57, 0, 48, 17, 24, 0, 3, 50, 0, 0, 29, 44, 36, 51, 2, 0, 25, 0, 49, 0, 59, 38, 18, 0, 0, 78, 75, 0, 53, 19, 41, 40, 62, 4, 0, 45, 66, 13, 56, 37, 12, 46, 34, 67, 15, 74, 0, 60, 0
|25, 78, 0, 33, 57, 18, 37, 0, 62, 0, 48, 74, 0, 68, 59, 23, 13, 0, 52, 0, 51, 69, 0, 43, 0, 14, 44, 55, 22, 75, 12, 76, 39, 53, 49, 9, 0, 60, 2, 26, 80, 54, 8, 30, 19, 81, 21, 79, 31, 64, 20, 56, 63, 45, 40, 27, 73, 15, 0, 6, 4, 65, 16, 0, 71, 0, 67, 0, 10, 0, 17, 46, 24, 47, 3, 7, 5, 58, 50, 36, 0
|47, 0, 53, 60, 75, 70, 59, 45, 0, 76, 30, 0, 43, 0, 58, 17, 46, 0, 71, 81, 0, 0, 18, 66, 12, 0, 31, 0, 0, 0, 79, 0, 19, 41, 25, 0, 0, 69, 39, 49, 37, 14, 21, 9, 52, 54, 0, 72, 32, 68, 65, 5, 48, 0, 0, 57, 34, 44, 13, 62, 0, 0, 33, 74, 61, 15, 2, 36, 64, 51, 0, 50, 0, 0, 1, 0, 0, 0, 38, 56, 22
|43, 0, 44, 55, 14, 10, 0, 76, 0, 0, 29, 0, 62, 63, 24, 64, 0, 0, 0, 0, 79, 60, 0, 19, 1, 72, 8, 35, 0, 26, 37, 3, 45, 68, 38, 0, 18, 32, 81, 28, 27, 0, 70, 15, 58, 34, 57, 0, 16, 50, 0, 61, 74, 33, 22, 47, 0, 66, 71, 5, 80, 51, 0, 0, 52, 11, 0, 0, 0, 9, 65, 41, 75, 59, 0, 78, 0, 49, 0, 48, 31
|0, 0, 24, 22, 7, 27, 0, 0, 21, 3, 51, 0, 19, 0, 44, 1, 16, 65, 5, 0, 55, 0, 0, 0, 2, 0, 49, 10, 0, 13, 0, 40, 0, 61, 6, 52, 25, 77, 0, 0, 72, 0, 0, 64, 0, 0, 60, 39, 46, 53, 15, 73, 26, 0, 0, 0, 36, 8, 42, 69, 23, 81, 74, 30, 59, 78, 35, 14, 68, 33, 0, 32, 41, 0, 9, 57, 18, 37, 70, 66, 29
|77, 0, 0, 0, 0, 13, 16, 38, 54, 0, 8, 0, 60, 0, 57, 33, 49, 18, 0, 0, 56, 25, 59, 0, 3, 64, 20, 30, 24, 0, 0, 34, 0, 44, 62, 2, 66, 42, 10, 0, 0, 65, 51, 41, 0, 0, 14, 9, 6, 40, 0, 78, 11, 0, 58, 0, 31, 68, 46, 26, 43, 72, 79, 12, 0, 7, 39, 27, 19, 69, 55, 22, 32, 81, 23, 0, 0, 0, 0, 0, 0
|0, 66, 64, 0, 20, 34, 0, 52, 36, 0, 0, 47, 42, 0, 81, 75, 73, 11, 68, 41, 0, 61, 37, 9, 15, 22, 0, 33, 65, 31, 0, 56, 74, 27, 0, 60, 5, 78, 0, 4, 1, 6, 0, 57, 46, 7, 0, 0, 10, 0, 13, 12, 8, 17, 59, 14, 0, 0, 77, 3, 67, 54, 49, 0, 24, 23, 58, 29, 16, 26, 0, 63, 0, 76, 0, 39, 0, 0, 0, 43, 19
|74, 15, 41, 40, 49, 0, 58, 29, 39, 53, 55, 22, 26, 77, 50, 0, 9, 37, 33, 57, 78, 0, 0, 0, 46, 4, 48, 42, 81, 16, 0, 0, 66, 0, 54, 28, 63, 0, 0, 0, 56, 45, 68, 0, 0, 3, 1, 0, 0, 69, 52, 23, 67, 0, 20, 0, 0, 61, 17, 0, 12, 32, 0, 18, 75, 21, 0, 6, 0, 0, 47, 34, 44, 8, 13, 0, 11, 64, 0, 30, 14
|0, 17, 46, 0, 3, 50, 0, 0, 31, 36, 69, 14, 54, 80, 34, 72, 56, 25, 0, 27, 0, 0, 70, 0, 0, 26, 0, 64, 0, 59, 29, 0, 32, 7, 15, 78, 0, 40, 13, 0, 47, 53, 16, 23, 67, 18, 4, 22, 66, 0, 41, 62, 0, 37, 0, 0, 1, 0, 52, 21, 0, 30, 0, 81, 49, 42, 8, 0, 57, 20, 43, 0, 0, 77, 0, 0, 45, 65, 68, 0, 33|];