order = 9;
grid = [|0, 30, 0, 50, 64, 58, 0, 16, 61, 73, 51, 0, 0, 0, 65, 56, 29, 60, 0, 46, 47, 55, 18, 59, 24, 42, 78, 0, 76, 48, 3, 0, 77, 0, 28, 19, 67, 39, 32, 0, 15, 21, 22, 53, 0, 0, 31, 11, 2, 44, 54, 10, 36, 57, 1, 37, 14, 38, 25, 52, 81, 71, 79, 12, 68, 69, 72, 33, 80, 4, 0, 0, 0, 7, 34, 0, 26, 49, 9, 17, 43
|0, 49, 62, 44, 28, 0, 11, 42, 0, 0, 0, 54, 0, 48, 37, 23, 17, 18, 0, 0, 38, 0, 0, 77, 16, 31, 35, 71, 29, 27, 51, 0, 1, 34, 24, 0, 0, 66, 4, 0, 0, 5, 72, 0, 0, 0, 15, 76, 0, 75, 63, 65, 0, 0, 43, 3, 0, 59, 61, 69, 47, 0, 56, 0, 0, 30, 9, 22, 0, 45, 67, 60, 0, 0, 50, 55, 79, 8, 0, 25, 41
|0, 76, 55, 59, 20, 0, 17, 79, 51, 0, 0, 0, 27, 62, 41, 0, 6, 0, 71, 68, 13, 14, 0, 0, 60, 8, 29, 0, 25, 54, 26, 0, 0, 0, 4, 64, 69, 0, 12, 9, 24, 38, 74, 81, 0, 0, 0, 0, 0, 33, 0, 0, 3, 0, 50, 72, 45, 80, 67, 0, 0, 0, 18, 37, 42, 0, 34, 58, 21, 0, 47, 61, 11, 0, 53, 10, 65, 57, 19, 15, 78
|71, 0, 15, 3, 52, 0, 63, 78, 70, 0, 44, 32, 25, 0, 0, 64, 11, 0, 2, 0, 1, 51, 76, 0, 0, 0, 56, 55, 53, 50, 23, 68, 5, 46, 20, 47, 0, 34, 0, 45, 30, 16, 65, 79, 14, 80, 24, 18, 0, 48, 0, 4, 29, 67, 0, 27, 0, 21, 0, 12, 6, 36, 8, 0, 17, 66, 77, 73, 38, 49, 40, 59, 75, 0, 37, 58, 60, 42, 39, 0, 33
|18, 0, 33, 23, 6, 60, 73, 45, 24, 13, 50, 0, 12, 78, 58, 4, 39, 16, 0, 0, 0, 54, 25, 0, 70, 9, 30, 0, 57, 67, 32, 0, 35, 22, 0, 21, 0, 52, 11, 8, 40, 61, 51, 29, 64, 42, 27, 1, 0, 74, 72, 17, 79, 37, 68, 0, 10, 0, 62, 0, 48, 31, 0, 2, 26, 0, 56, 14, 55, 65, 0, 0, 0, 36, 0, 47, 0, 69, 63, 77, 38
|43, 9, 14, 67, 29, 0, 0, 66, 81, 63, 0, 0, 3, 0, 47, 30, 71, 10, 0, 0, 80, 26, 19, 39, 17, 53, 52, 0, 38, 58, 0, 0, 36, 70, 61, 6, 0, 0, 0, 35, 59, 0, 41, 75, 73, 68, 62, 55, 0, 21, 0, 8, 49, 40, 65, 0, 78, 13, 32, 23, 15, 60, 11, 0, 25, 57, 16, 44, 51, 79, 31, 27, 0, 74, 56, 2, 0, 48, 1, 18, 12
|10, 68, 19, 0, 47, 0, 0, 77, 7, 55, 80, 79, 0, 38, 0, 70, 31, 14, 40, 64, 0, 57, 0, 20, 43, 65, 0, 0, 0, 44, 42, 13, 74, 60, 0, 9, 46, 48, 0, 25, 27, 0, 0, 3, 0, 0, 41, 0, 0, 71, 0, 39, 0, 28, 0, 24, 66, 0, 75, 22, 0, 51, 49, 53, 0, 0, 0, 0, 52, 32, 0, 6, 5, 62, 0, 0, 61, 30, 16, 4, 67
|65, 75, 31, 0, 36, 57, 38, 32, 0, 81, 0, 28, 24, 33, 76, 59, 21, 0, 67, 66, 0, 27, 63, 23, 0, 11, 61, 0, 79, 49, 78, 56, 0, 14, 17, 37, 43, 2, 77, 0, 0, 71, 20, 60, 80, 69, 26, 9, 0, 25, 45, 58, 0, 47, 0, 0, 42, 16, 40, 64, 4, 55, 0, 39, 3, 0, 19, 62, 1, 48, 15, 50, 46, 6, 44, 72, 51, 29, 54, 35, 0
|37, 0, 0, 56, 22, 2, 0, 80, 25, 66, 52, 0, 15, 26, 9, 53, 7, 0, 28, 79, 0, 74, 0, 45, 4, 69, 75, 0, 0, 0, 0, 10, 65, 72, 41, 11, 0, 0, 47, 0, 13, 0, 31, 0, 0, 0, 0, 77, 78, 81, 0, 16, 61, 19, 39, 35, 0, 20, 33, 17, 0, 34, 30, 76, 63, 43, 64, 46, 5, 0, 24, 8, 40, 70, 3, 32, 0, 14, 68, 71, 73
|0, 0, 58, 11, 66, 1, 0, 14, 12, 24, 47, 45, 0, 3, 27, 19, 18, 13, 39, 0, 37, 0, 61, 62, 53, 41, 0, 21, 2, 43, 36, 35, 57, 63, 68, 48, 29, 79, 0, 0, 0, 0, 77, 30, 33, 44, 0, 26, 0, 78, 0, 0, 9, 49, 0, 0, 80, 0, 22, 0, 67, 20, 0, 70, 0, 0, 73, 75, 64, 59, 38, 0, 0, 60, 23, 0, 72, 25, 0, 76, 0
|0, 19, 0, 7, 60, 55, 50, 0, 13, 0, 0, 37, 34, 0, 16, 48, 38, 17, 52, 69, 0, 0, 68, 0, 0, 0, 20, 14, 0, 0, 72, 64, 44, 0, 53, 0, 1, 65, 0, 0, 23, 59, 21, 4, 8, 0, 80, 39, 67, 0, 0, 0, 56, 0, 0, 58, 0, 24, 0, 35, 62, 0, 0, 0, 0, 81, 0, 31, 0, 0, 36, 57, 71, 51, 28, 27, 18, 9, 41, 0, 2
|24, 5, 0, 0, 31, 20, 52, 75, 0, 0, 79, 0, 7, 1, 60, 0, 53, 0, 0, 72, 0, 40, 64, 4, 11, 18, 63, 0, 0, 80, 22, 71, 0, 0, 0, 13, 9, 62, 0, 73, 0, 39, 0, 38, 0, 45, 76, 47, 68, 0, 36, 0, 16, 2, 81, 48, 0, 0, 17, 0, 51, 3, 0, 6, 27, 77, 35, 26, 0, 0, 0, 0, 33, 8, 78, 12, 0, 50, 58, 0, 15
|0, 0, 16, 80, 0, 42, 37, 0, 29, 32, 0, 0, 0, 0, 0, 9, 0, 0, 51, 0, 24, 0, 38, 48, 0, 2, 23, 52, 0, 28, 8, 0, 0, 17, 54, 0, 68, 31, 76, 0, 41, 45, 26, 63, 78, 13, 59, 72, 55, 12, 0, 0, 0, 74, 15, 36, 77, 66, 0, 71, 60, 21, 33, 67, 11, 19, 0, 25, 4, 53, 58, 34, 69, 61, 79, 5, 0, 10, 47, 0, 65
|21, 81, 2, 63, 61, 0, 68, 0, 0, 10, 67, 0, 78, 12, 64, 57, 23, 66, 0, 27, 55, 59, 43, 0, 9, 0, 54, 0, 50, 47, 6, 0, 51, 33, 25, 18, 53, 13, 0, 0, 0, 60, 0, 7, 56, 0, 65, 17, 48, 15, 0, 62, 22, 79, 45, 0, 0, 32, 73, 1, 0, 8, 0, 41, 0, 16, 29, 49, 44, 20, 0, 5, 31, 75, 39, 19, 70, 0, 26, 24, 35
|28, 39, 25, 0, 78, 18, 65, 48, 0, 50, 71, 36, 70, 80, 0, 20, 54, 0, 13, 67, 75, 0, 10, 29, 0, 0, 26, 66, 45, 0, 0, 0, 0, 77, 60, 0, 24, 0, 57, 5, 64, 44, 81, 2, 43, 0, 0, 40, 51, 52, 4, 21, 0, 69, 31, 16, 76, 61, 72, 0, 14, 0, 23, 8, 46, 0, 0, 17, 0, 74, 33, 12, 7, 53, 38, 59, 1, 6, 3, 22, 0
|74, 59, 0, 0, 79, 40, 41, 30, 45, 15, 33, 2, 76, 52, 4, 68, 26, 21, 81, 8, 22, 12, 60, 0, 71, 35, 25, 0, 0, 78, 75, 65, 20, 5, 23, 0, 19, 0, 61, 0, 0, 47, 54, 6, 0, 11, 46, 0, 18, 3, 27, 70, 31, 63, 0, 53, 9, 50, 0, 10, 42, 7, 69, 48, 28, 56, 80, 32, 0, 14, 62, 1, 77, 0, 0, 36, 44, 37, 0, 13, 17
|38, 51, 26, 54, 46, 64, 0, 10, 36, 0, 59, 11, 5, 69, 0, 8, 72, 41, 33, 0, 14, 0, 16, 21, 30, 17, 77, 40, 9, 76, 0, 12, 56, 31, 81, 70, 48, 22, 0, 34, 3, 20, 0, 0, 35, 50, 57, 42, 58, 1, 23, 37, 0, 0, 78, 19, 25, 44, 79, 2, 75, 13, 29, 65, 7, 0, 0, 60, 18, 39, 0, 15, 68, 80, 0, 4, 0, 43, 52, 66, 74
|4, 43, 67, 77, 0, 9, 23, 33, 0, 30, 73, 65, 51, 58, 0, 28, 55, 31, 19, 0, 7, 0, 80, 3, 1, 36, 5, 27, 0, 79, 0, 16, 0, 38, 0, 61, 0, 37, 0, 42, 70, 74, 17, 66, 11, 0, 60, 0, 14, 24, 0, 41, 71, 29, 0, 0, 57, 0, 12, 68, 39, 47, 64, 78, 13, 2, 0, 72, 40, 50, 76, 22, 62, 54, 0, 48, 34, 0, 0, 46, 49
|0, 0, 64, 1, 73, 22, 77, 46, 19, 35, 0, 49, 21, 0, 10, 72, 0, 36, 30, 65, 6, 0, 79, 52, 61, 27, 76, 37, 60, 63, 40, 28, 39, 0, 0, 31, 56, 0, 0, 59, 29, 57, 48, 13, 20, 8, 71, 78, 11, 47, 62, 53, 0, 14, 41, 15, 33, 0, 0, 58, 44, 81, 43, 17, 74, 42, 0, 69, 50, 25, 45, 54, 0, 2, 0, 80, 0, 68, 12, 0, 26
|48, 53, 40, 0, 0, 80, 0, 12, 37, 68, 66, 51, 0, 0, 23, 0, 15, 30, 47, 0, 72, 62, 13, 10, 77, 0, 59, 0, 0, 0, 73, 0, 70, 6, 0, 26, 16, 18, 45, 0, 0, 69, 8, 43, 0, 79, 35, 63, 0, 42, 34, 5, 81, 0, 57, 32, 56, 36, 76, 19, 64, 2, 78, 61, 0, 0, 38, 0, 60, 44, 28, 0, 17, 0, 54, 33, 39, 24, 50, 0, 4
|57, 63, 47, 5, 0, 0, 0, 29, 71, 77, 81, 60, 0, 0, 43, 58, 13, 25, 0, 2, 0, 0, 44, 37, 20, 54, 14, 79, 23, 61, 48, 34, 50, 45, 32, 0, 26, 15, 0, 62, 17, 46, 0, 76, 0, 27, 0, 0, 21, 0, 0, 66, 67, 0, 69, 51, 0, 22, 68, 80, 0, 0, 74, 0, 6, 0, 75, 0, 36, 10, 0, 24, 78, 0, 9, 1, 0, 19, 53, 0, 64
|11, 18, 44, 10, 14, 0, 0, 60, 23, 0, 75, 31, 62, 0, 0, 33, 12, 8, 9, 17, 32, 67, 69, 49, 0, 71, 0, 54, 15, 66, 0, 57, 13, 65, 64, 38, 47, 27, 81, 19, 42, 30, 35, 22, 51, 48, 2, 37, 0, 20, 0, 1, 39, 77, 55, 50, 52, 72, 21, 3, 0, 25, 5, 0, 4, 0, 7, 68, 0, 80, 0, 41, 16, 0, 73, 79, 36, 28, 0, 74, 0
|9, 8, 36, 0, 0, 50, 0, 69, 75, 0, 78, 42, 47, 64, 0, 0, 56, 73, 0, 26, 63, 24, 57, 80, 0, 66, 0, 53, 59, 12, 21, 14, 72, 3, 46, 35, 11, 61, 23, 41, 0, 68, 0, 0, 0, 19, 74, 0, 0, 28, 0, 15, 33, 0, 67, 17, 29, 0, 60, 6, 0, 38, 0, 30, 0, 0, 1, 39, 0, 76, 70, 0, 0, 34, 25, 44, 52, 71, 13, 48, 77
|0, 42, 4, 0, 2, 68, 20, 0, 0, 54, 38, 59, 1, 0, 0, 76, 0, 55, 25, 7, 0, 15, 33, 53, 19, 78, 39, 30, 80, 0, 16, 69, 18, 0, 0, 43, 49, 0, 34, 0, 0, 0, 63, 14, 77, 51, 75, 36, 41, 50, 9, 13, 57, 46, 62, 0, 0, 70, 0, 47, 45, 79, 65, 22, 64, 37, 32, 0, 12, 5, 0, 0, 29, 58, 10, 0, 67, 81, 23, 60, 0
|27, 78, 0, 52, 55, 26, 76, 0, 34, 45, 28, 3, 63, 20, 46, 40, 0, 69, 23, 38, 11, 58, 0, 5, 12, 4, 16, 25, 0, 0, 17, 51, 0, 29, 44, 77, 33, 0, 39, 64, 0, 67, 2, 71, 0, 54, 6, 43, 80, 72, 0, 0, 0, 0, 73, 14, 75, 30, 0, 49, 61, 0, 10, 19, 0, 0, 81, 53, 13, 0, 56, 79, 66, 0, 0, 7, 0, 65, 0, 8, 59
|0, 67, 35, 6, 41, 30, 0, 15, 38, 0, 19, 0, 65, 0, 0, 0, 32, 50, 3, 73, 0, 0, 0, 70, 22, 60, 46, 56, 49, 33, 74, 0, 76, 0, 1, 68, 80, 0, 72, 0, 58, 78, 0, 10, 0, 12, 44, 16, 4, 7, 31, 64, 17, 45, 28, 34, 48, 0, 23, 37, 0, 18, 59, 66, 0, 11, 26, 0, 77, 0, 0, 0, 42, 69, 63, 62, 75, 21, 5, 43, 0
|0, 0, 0, 0, 54, 0, 56, 51, 28, 48, 29, 0, 44, 17, 74, 37, 80, 67, 0, 0, 18, 68, 0, 50, 34, 0, 41, 19, 11, 10, 0, 0, 78, 4, 47, 55, 66, 70, 0, 0, 0, 0, 40, 36, 0, 22, 0, 0, 69, 76, 0, 25, 0, 3, 26, 39, 1, 46, 77, 63, 71, 0, 27, 73, 57, 0, 23, 8, 20, 0, 2, 33, 0, 49, 35, 14, 38, 15, 72, 31, 32
|52, 31, 71, 0, 32, 44, 19, 73, 60, 47, 46, 56, 41, 0, 29, 34, 0, 62, 61, 0, 16, 0, 66, 9, 26, 33, 0, 6, 0, 0, 0, 0, 48, 40, 74, 0, 13, 75, 0, 0, 0, 64, 0, 50, 1, 5, 42, 51, 0, 0, 0, 27, 0, 72, 53, 0, 8, 18, 59, 55, 0, 12, 80, 23, 24, 76, 0, 38, 11, 0, 57, 0, 37, 30, 36, 81, 7, 58, 17, 39, 54
|55, 6, 12, 13, 0, 78, 0, 49, 2, 0, 53, 81, 50, 57, 5, 38, 48, 20, 0, 0, 64, 1, 14, 8, 0, 51, 0, 61, 0, 0, 0, 0, 37, 19, 29, 80, 4, 17, 63, 77, 0, 76, 7, 11, 0, 0, 0, 31, 0, 39, 0, 43, 68, 0, 3, 0, 69, 15, 28, 30, 33, 0, 0, 72, 0, 41, 42, 0, 47, 0, 79, 21, 67, 0, 27, 25, 74, 23, 62, 65, 0
|30, 33, 0, 0, 0, 0, 10, 28, 0, 0, 72, 43, 0, 0, 31, 0, 67, 9, 12, 56, 36, 49, 65, 74, 68, 34, 7, 64, 1, 81, 0, 0, 0, 58, 70, 45, 5, 23, 0, 0, 52, 41, 25, 8, 0, 66, 53, 38, 77, 60, 0, 0, 73, 48, 6, 20, 0, 76, 0, 26, 16, 29, 24, 69, 59, 50, 40, 78, 0, 17, 37, 46, 57, 4, 11, 13, 71, 55, 0, 0, 75
|0, 0, 0, 16, 38, 29, 66, 35, 48, 1, 0, 73, 17, 71, 69, 0, 37, 0, 32, 13, 2, 0, 47, 0, 0, 57, 27, 26, 10, 23, 68, 50, 8, 25, 52, 65, 15, 19, 20, 81, 0, 70, 0, 51, 22, 7, 63, 24, 6, 0, 28, 0, 62, 0, 75, 60, 54, 0, 36, 11, 0, 56, 21, 0, 39, 67, 0, 9, 45, 64, 0, 74, 53, 59, 12, 77, 0, 61, 76, 0, 72
|17, 45, 61, 20, 57, 47, 26, 0, 67, 2, 12, 76, 64, 68, 0, 78, 60, 22, 0, 18, 54, 52, 72, 42, 23, 0, 10, 13, 28, 7, 15, 62, 59, 56, 11, 36, 38, 40, 37, 69, 66, 0, 0, 39, 6, 74, 9, 35, 0, 49, 8, 0, 0, 4, 63, 1, 0, 79, 31, 34, 46, 0, 41, 0, 53, 29, 14, 48, 0, 77, 44, 16, 80, 50, 19, 51, 32, 0, 0, 5, 3
|79, 0, 0, 64, 0, 11, 81, 23, 1, 4, 24, 10, 0, 0, 0, 7, 58, 0, 15, 0, 17, 43, 3, 0, 0, 0, 48, 12, 46, 51, 9, 0, 0, 54, 39, 73, 0, 71, 74, 0, 62, 0, 0, 78, 0, 0, 0, 21, 0, 41, 22, 14, 0, 0, 25, 2, 27, 0, 52, 0, 70, 72, 66, 0, 0, 0, 20, 36, 34, 0, 13, 19, 26, 40, 33, 31, 0, 38, 45, 44, 18
|0, 58, 59, 75, 25, 24, 0, 54, 63, 70, 45, 52, 28, 0, 44, 0, 79, 0, 53, 0, 78, 41, 77, 71, 55, 39, 11, 76, 31, 0, 0, 5, 0, 42, 0, 66, 0, 30, 0, 0, 68, 0, 36, 0, 65, 3, 17, 23, 1, 29, 33, 67, 13, 80, 19, 74, 37, 40, 47, 0, 0, 4, 57, 0, 12, 0, 10, 43, 7, 0, 0, 0, 2, 0, 0, 16, 15, 60, 8, 9, 0
|7, 36, 0, 15, 77, 0, 0, 72, 27, 0, 0, 0, 11, 30, 13, 0, 0, 40, 0, 70, 5, 0, 50, 0, 0, 37, 28, 0, 47, 16, 0, 0, 55, 57, 38, 24, 73, 54, 31, 2, 12, 0, 59, 56, 53, 81, 0, 34, 0, 0, 46, 0, 76, 0, 0, 0, 23, 68, 0, 0, 22, 17, 71, 0, 0, 0, 0, 51, 0, 0, 0, 4, 0, 0, 52, 29, 69, 0, 42, 21, 48
|56, 0, 0, 22, 76, 0, 0, 53, 0, 23, 63, 19, 0, 66, 0, 51, 0, 77, 20, 21, 59, 4, 40, 69, 38, 81, 0, 0, 44, 75, 27, 0, 3, 0, 71, 17, 0, 0, 55, 58, 45, 0, 79, 32, 0, 18, 61, 0, 50, 16, 11, 57, 54, 0, 0, 62, 39, 0, 0, 73, 0, 0, 67, 0, 0, 1, 31, 0, 33, 0, 26, 2, 0, 0, 24, 0, 47, 0, 0, 0, 0
|13, 61, 0, 0, 0, 0, 0, 1, 0, 37, 9, 0, 38, 0, 77, 0, 66, 54, 57, 53, 31, 20, 55, 56, 69, 0, 0, 60, 21, 0, 5, 27, 0, 0, 78, 76, 0, 0, 0, 28, 4, 0, 75, 16, 0, 0, 49, 46, 63, 73, 32, 47, 74, 30, 11, 0, 0, 23, 45, 15, 0, 0, 44, 14, 0, 0, 0, 65, 48, 0, 0, 0, 0, 72, 43, 26, 0, 33, 51, 68, 25
|36, 72, 37, 71, 35, 45, 34, 7, 80, 0, 16, 24, 59, 0, 0, 0, 27, 57, 70, 52, 49, 28, 0, 38, 14, 46, 81, 22, 4, 69, 79, 23, 75, 55, 0, 10, 54, 1, 0, 17, 0, 43, 0, 0, 0, 25, 0, 15, 60, 13, 42, 50, 41, 20, 58, 56, 32, 48, 65, 0, 0, 68, 47, 0, 33, 53, 11, 76, 0, 18, 0, 63, 21, 73, 6, 9, 0, 77, 0, 61, 44
|59, 0, 48, 0, 56, 73, 28, 18, 54, 20, 0, 0, 23, 0, 19, 0, 68, 78, 17, 9, 0, 0, 8, 32, 80, 22, 66, 2, 12, 53, 0, 72, 64, 0, 13, 0, 60, 0, 62, 0, 44, 0, 6, 69, 24, 55, 0, 0, 57, 14, 58, 0, 4, 26, 16, 76, 0, 77, 38, 29, 49, 50, 37, 36, 40, 0, 61, 79, 0, 34, 35, 45, 52, 5, 0, 39, 31, 46, 30, 47, 0
|78, 2, 0, 49, 63, 17, 60, 6, 44, 0, 0, 0, 13, 28, 0, 0, 0, 15, 43, 42, 77, 34, 5, 24, 39, 0, 18, 68, 8, 0, 41, 54, 61, 81, 0, 67, 72, 9, 50, 56, 47, 53, 32, 70, 0, 16, 0, 33, 23, 27, 0, 69, 51, 59, 74, 79, 19, 14, 1, 75, 3, 64, 36, 80, 66, 46, 25, 7, 73, 52, 30, 58, 55, 45, 4, 35, 20, 22, 0, 11, 0
|0, 10, 11, 31, 0, 51, 47, 0, 53, 5, 69, 34, 72, 2, 0, 73, 0, 1, 0, 0, 67, 61, 45, 0, 6, 0, 68, 46, 0, 32, 39, 0, 49, 20, 0, 25, 77, 36, 19, 3, 0, 79, 0, 0, 66, 62, 29, 7, 0, 0, 65, 80, 48, 21, 0, 9, 4, 43, 35, 0, 52, 40, 60, 0, 38, 22, 71, 0, 57, 0, 16, 17, 15, 63, 0, 70, 0, 0, 0, 23, 28
|0, 0, 0, 33, 0, 0, 25, 0, 40, 39, 35, 0, 6, 44, 67, 79, 0, 63, 0, 0, 62, 0, 11, 47, 3, 76, 0, 34, 0, 56, 0, 0, 28, 48, 31, 0, 78, 0, 0, 80, 0, 0, 45, 57, 0, 9, 0, 0, 22, 19, 17, 0, 77, 18, 0, 0, 0, 0, 54, 0, 24, 66, 51, 42, 15, 75, 4, 0, 43, 0, 12, 0, 1, 0, 16, 65, 13, 32, 59, 49, 50
|23, 50, 21, 9, 0, 32, 70, 0, 14, 0, 0, 58, 55, 10, 53, 0, 33, 0, 4, 0, 79, 19, 51, 0, 2, 0, 65, 11, 16, 26, 66, 29, 45, 35, 36, 40, 74, 46, 73, 0, 22, 0, 27, 15, 0, 37, 68, 0, 5, 0, 0, 71, 75, 34, 20, 0, 0, 78, 0, 57, 30, 67, 17, 64, 0, 44, 0, 28, 31, 0, 1, 0, 60, 24, 62, 54, 3, 80, 38, 7, 76
|81, 62, 0, 19, 0, 4, 0, 0, 68, 56, 65, 0, 0, 0, 30, 0, 50, 0, 16, 48, 0, 0, 21, 0, 0, 0, 73, 44, 0, 0, 77, 0, 33, 7, 0, 0, 0, 0, 0, 0, 67, 14, 76, 0, 0, 0, 0, 8, 72, 0, 35, 79, 66, 0, 12, 71, 0, 0, 0, 28, 5, 63, 42, 51, 0, 20, 49, 47, 0, 27, 9, 0, 74, 0, 69, 37, 0, 2, 75, 57, 36
|0, 77, 0, 0, 0, 16, 74, 57, 66, 17, 36, 64, 0, 7, 49, 0, 4, 0, 0, 35, 44, 30, 54, 0, 40, 1, 60, 3, 43, 52, 18, 63, 15, 47, 0, 50, 20, 21, 0, 51, 0, 31, 0, 33, 23, 0, 45, 12, 39, 70, 6, 38, 28, 53, 22, 61, 62, 69, 0, 13, 8, 10, 73, 68, 0, 59, 37, 5, 2, 0, 0, 72, 79, 67, 0, 78, 81, 41, 48, 0, 34
|0, 55, 76, 32, 23, 21, 69, 13, 18, 51, 39, 25, 0, 49, 15, 36, 24, 0, 0, 14, 45, 38, 20, 30, 0, 63, 50, 5, 41, 40, 81, 79, 29, 71, 35, 53, 31, 44, 64, 33, 56, 17, 68, 1, 0, 78, 70, 0, 10, 9, 0, 75, 42, 16, 0, 12, 61, 0, 27, 0, 0, 0, 3, 11, 0, 54, 59, 77, 0, 66, 80, 0, 0, 65, 0, 73, 62, 34, 2, 0, 57
|73, 7, 63, 38, 0, 14, 44, 0, 20, 79, 70, 71, 29, 81, 0, 52, 75, 0, 77, 51, 4, 80, 23, 66, 0, 59, 0, 45, 48, 39, 60, 78, 0, 43, 0, 33, 55, 41, 28, 0, 0, 0, 0, 18, 9, 2, 0, 25, 27, 0, 21, 11, 0, 64, 36, 0, 67, 0, 34, 0, 56, 54, 72, 40, 0, 31, 0, 13, 69, 57, 0, 68, 0, 17, 1, 46, 37, 74, 15, 10, 58
|70, 74, 0, 51, 5, 0, 46, 0, 50, 0, 76, 0, 26, 31, 78, 17, 64, 72, 54, 22, 39, 0, 6, 0, 18, 48, 0, 47, 24, 14, 80, 25, 66, 44, 0, 20, 81, 53, 2, 7, 11, 75, 57, 34, 16, 0, 19, 4, 73, 0, 0, 0, 58, 68, 40, 0, 43, 63, 13, 79, 69, 0, 45, 0, 52, 61, 55, 71, 0, 42, 27, 23, 32, 35, 59, 8, 33, 0, 21, 29, 60
|0, 66, 17, 78, 0, 0, 43, 2, 31, 34, 40, 0, 54, 45, 14, 0, 5, 80, 36, 24, 0, 0, 67, 73, 57, 7, 1, 9, 0, 0, 56, 21, 52, 27, 55, 0, 0, 77, 0, 0, 0, 22, 0, 0, 0, 0, 50, 28, 0, 0, 74, 61, 38, 8, 0, 75, 65, 35, 18, 0, 29, 46, 16, 58, 20, 79, 0, 15, 30, 0, 51, 0, 4, 3, 41, 0, 0, 53, 44, 0, 0
|64, 11, 6, 0, 0, 0, 0, 0, 16, 67, 0, 1, 33, 0, 0, 13, 0, 58, 0, 47, 34, 0, 26, 27, 81, 68, 0, 10, 7, 36, 61, 49, 2, 0, 0, 28, 32, 20, 78, 46, 71, 0, 0, 0, 45, 41, 23, 22, 40, 69, 0, 54, 15, 17, 60, 42, 0, 31, 0, 38, 0, 5, 9, 35, 0, 21, 39, 0, 0, 0, 50, 0, 0, 12, 76, 52, 0, 79, 43, 51, 0
|75, 0, 27, 81, 15, 49, 80, 0, 59, 11, 18, 8, 35, 42, 32, 2, 61, 19, 29, 0, 71, 25, 0, 0, 58, 0, 64, 0, 54, 65, 13, 0, 34, 23, 62, 30, 3, 67, 79, 60, 39, 51, 69, 0, 5, 20, 66, 56, 47, 63, 53, 72, 14, 0, 17, 77, 22, 6, 0, 0, 0, 57, 68, 7, 0, 0, 44, 0, 37, 0, 10, 0, 70, 16, 40, 28, 50, 0, 0, 55, 45
|0, 71, 28, 45, 67, 33, 57, 0, 35, 65, 30, 4, 77, 21, 7, 69, 44, 53, 56, 15, 8, 13, 49, 40, 0, 32, 0, 31, 74, 0, 0, 37, 26, 64, 0, 0, 0, 0, 0, 66, 0, 72, 50, 54, 27, 43, 51, 79, 3, 0, 1, 24, 46, 36, 80, 0, 11, 41, 19, 81, 10, 0, 55, 9, 2, 5, 60, 0, 16, 75, 0, 0, 25, 22, 18, 20, 23, 39, 61, 78, 63
|60, 65, 34, 30, 0, 12, 0, 0, 79, 0, 0, 62, 66, 37, 20, 16, 41, 43, 5, 31, 0, 2, 0, 61, 74, 70, 69, 0, 19, 0, 4, 17, 22, 67, 50, 0, 59, 0, 0, 0, 14, 0, 29, 0, 25, 76, 55, 71, 52, 57, 80, 6, 18, 7, 21, 23, 44, 51, 53, 39, 1, 33, 48, 28, 0, 0, 46, 64, 72, 0, 73, 47, 38, 42, 0, 68, 9, 13, 77, 56, 24
|1, 25, 41, 0, 0, 0, 0, 39, 52, 60, 48, 68, 0, 46, 56, 47, 28, 23, 0, 19, 0, 16, 0, 0, 0, 0, 0, 0, 0, 57, 69, 73, 42, 0, 63, 15, 37, 0, 58, 0, 36, 0, 43, 0, 74, 29, 77, 0, 0, 31, 44, 0, 45, 13, 59, 64, 0, 2, 20, 0, 32, 24, 26, 0, 0, 34, 17, 18, 0, 3, 14, 70, 27, 71, 81, 30, 54, 0, 7, 75, 5
|15, 3, 73, 55, 71, 74, 61, 5, 30, 0, 8, 78, 0, 53, 62, 45, 57, 0, 0, 41, 0, 0, 2, 12, 64, 52, 0, 36, 17, 77, 20, 0, 25, 10, 18, 23, 0, 50, 22, 13, 0, 0, 60, 46, 68, 0, 69, 49, 19, 37, 0, 51, 0, 35, 44, 29, 72, 33, 48, 0, 0, 0, 32, 47, 16, 14, 54, 63, 56, 0, 0, 75, 0, 28, 0, 0, 0, 27, 0, 26, 1
|12, 21, 0, 35, 65, 0, 6, 37, 76, 33, 58, 0, 79, 0, 25, 22, 10, 44, 26, 49, 73, 0, 70, 16, 48, 0, 42, 28, 0, 2, 63, 47, 24, 52, 67, 62, 0, 72, 0, 14, 0, 4, 78, 20, 0, 71, 7, 53, 32, 45, 39, 29, 0, 31, 0, 68, 15, 9, 0, 5, 0, 0, 0, 55, 80, 17, 18, 81, 74, 1, 46, 77, 41, 43, 60, 0, 19, 0, 56, 0, 0
|54, 14, 79, 66, 0, 0, 0, 63, 26, 9, 0, 7, 0, 0, 81, 35, 36, 24, 44, 61, 68, 29, 37, 65, 0, 75, 0, 78, 5, 4, 11, 0, 40, 69, 76, 49, 0, 42, 56, 43, 57, 0, 23, 62, 67, 0, 18, 0, 38, 46, 0, 20, 0, 60, 0, 0, 71, 3, 39, 45, 0, 0, 52, 13, 32, 0, 8, 6, 59, 73, 21, 64, 58, 0, 15, 0, 16, 12, 74, 34, 31
|2, 16, 77, 36, 11, 27, 78, 0, 62, 26, 17, 0, 60, 0, 6, 29, 0, 0, 35, 5, 56, 0, 28, 0, 46, 0, 47, 57, 30, 0, 0, 0, 68, 32, 51, 0, 64, 59, 0, 79, 38, 81, 15, 0, 0, 0, 25, 80, 8, 23, 24, 52, 1, 41, 14, 0, 53, 12, 10, 21, 18, 43, 13, 0, 22, 9, 0, 0, 0, 31, 4, 7, 3, 48, 65, 50, 49, 75, 55, 73, 0
|25, 32, 81, 42, 0, 70, 13, 67, 69, 52, 0, 75, 43, 0, 0, 0, 65, 0, 63, 36, 74, 8, 4, 6, 59, 24, 19, 0, 39, 0, 0, 7, 9, 21, 0, 0, 27, 0, 1, 37, 26, 11, 80, 31, 47, 17, 0, 2, 16, 58, 12, 0, 0, 15, 0, 46, 34, 73, 50, 0, 35, 78, 22, 38, 41, 0, 53, 10, 28, 62, 60, 49, 0, 0, 14, 18, 68, 51, 57, 30, 0
|33, 60, 49, 40, 44, 0, 0, 58, 4, 0, 64, 80, 73, 0, 54, 0, 0, 32, 34, 0, 0, 0, 22, 0, 15, 0, 0, 0, 6, 72, 0, 38, 81, 66, 16, 1, 28, 63, 24, 65, 0, 0, 0, 0, 18, 57, 0, 75, 59, 68, 67, 0, 0, 76, 0, 26, 0, 37, 41, 56, 17, 0, 2, 29, 71, 39, 52, 30, 3, 61, 0, 48, 36, 25, 77, 21, 0, 45, 69, 62, 9
|0, 38, 0, 0, 0, 0, 0, 68, 0, 42, 23, 15, 56, 59, 0, 27, 34, 28, 69, 55, 0, 0, 31, 1, 7, 0, 32, 43, 0, 0, 0, 0, 60, 79, 12, 44, 71, 16, 5, 30, 0, 58, 0, 41, 49, 61, 13, 0, 64, 0, 14, 63, 0, 0, 8, 0, 24, 74, 0, 40, 36, 62, 0, 0, 0, 25, 70, 66, 35, 19, 78, 26, 22, 10, 2, 6, 76, 20, 0, 72, 0
|50, 47, 56, 0, 34, 46, 0, 0, 57, 19, 11, 0, 37, 0, 0, 63, 51, 68, 14, 58, 21, 17, 30, 60, 45, 10, 9, 35, 27, 8, 0, 31, 80, 61, 65, 3, 25, 74, 69, 0, 0, 54, 0, 0, 2, 70, 72, 0, 28, 0, 0, 0, 26, 78, 49, 38, 59, 1, 0, 67, 55, 6, 75, 79, 0, 0, 36, 0, 15, 40, 0, 76, 64, 13, 7, 0, 0, 52, 0, 32, 39
|19, 22, 23, 29, 39, 7, 0, 0, 72, 76, 13, 16, 48, 0, 1, 49, 30, 46, 0, 71, 57, 79, 0, 18, 27, 20, 0, 59, 56, 34, 0, 26, 41, 73, 15, 75, 45, 6, 8, 52, 0, 40, 0, 17, 32, 0, 0, 74, 0, 77, 0, 36, 0, 66, 47, 0, 60, 54, 69, 65, 11, 58, 0, 50, 51, 0, 12, 0, 42, 0, 68, 44, 63, 0, 5, 61, 35, 78, 0, 38, 53
|16, 0, 42, 47, 26, 63, 7, 4, 17, 0, 3, 35, 61, 79, 0, 11, 70, 2, 1, 40, 19, 0, 75, 64, 28, 0, 22, 0, 78, 0, 0, 6, 38, 36, 21, 39, 0, 14, 51, 76, 0, 27, 0, 25, 69, 15, 54, 41, 0, 67, 66, 23, 30, 0, 10, 31, 49, 56, 71, 24, 20, 73, 0, 0, 60, 80, 62, 74, 0, 55, 59, 0, 48, 0, 68, 43, 45, 0, 34, 33, 0
|35, 44, 0, 0, 50, 76, 49, 0, 78, 0, 37, 33, 67, 0, 34, 0, 0, 4, 0, 11, 30, 0, 27, 46, 0, 0, 0, 0, 40, 29, 0, 18, 10, 53, 79, 2, 63, 55, 71, 0, 74, 73, 0, 45, 0, 24, 20, 68, 0, 80, 0, 3, 8, 43, 23, 6, 16, 39, 0, 62, 25, 59, 19, 77, 0, 0, 51, 70, 0, 0, 64, 52, 0, 15, 17, 0, 57, 7, 60, 12, 14
|72, 56, 60, 37, 0, 75, 15, 27, 41, 6, 77, 17, 0, 63, 38, 46, 0, 0, 62, 76, 29, 50, 59, 79, 0, 61, 0, 0, 34, 0, 7, 52, 11, 13, 26, 0, 22, 57, 0, 4, 54, 0, 0, 65, 0, 58, 14, 5, 35, 55, 2, 48, 0, 25, 18, 0, 64, 0, 8, 53, 0, 44, 0, 0, 1, 12, 24, 45, 0, 67, 0, 10, 0, 0, 70, 0, 0, 47, 32, 36, 0
|0, 1, 22, 46, 0, 34, 0, 0, 55, 0, 32, 53, 19, 23, 0, 0, 78, 76, 0, 60, 43, 65, 73, 57, 66, 3, 31, 0, 72, 0, 30, 0, 0, 74, 37, 0, 21, 0, 17, 39, 61, 0, 38, 77, 0, 0, 12, 69, 79, 36, 0, 9, 0, 75, 48, 52, 0, 58, 0, 0, 68, 45, 54, 0, 81, 49, 13, 42, 6, 0, 0, 40, 50, 0, 20, 24, 0, 0, 67, 0, 27
|14, 24, 0, 28, 62, 38, 0, 25, 0, 44, 54, 0, 80, 56, 51, 0, 0, 65, 74, 20, 70, 71, 0, 55, 0, 45, 0, 0, 33, 35, 0, 75, 0, 76, 43, 81, 6, 26, 0, 1, 78, 36, 49, 67, 19, 63, 40, 27, 0, 64, 73, 32, 37, 50, 29, 22, 79, 0, 30, 0, 72, 0, 34, 31, 21, 47, 68, 41, 17, 7, 39, 9, 8, 23, 46, 0, 10, 59, 11, 2, 52
|20, 73, 43, 12, 21, 6, 0, 19, 39, 36, 42, 26, 81, 0, 24, 31, 47, 64, 0, 0, 10, 0, 7, 35, 52, 14, 2, 0, 77, 1, 25, 61, 23, 49, 0, 63, 0, 3, 16, 11, 60, 0, 0, 59, 13, 53, 33, 0, 34, 22, 56, 44, 0, 51, 0, 69, 17, 0, 55, 46, 74, 70, 0, 71, 75, 0, 58, 27, 29, 37, 0, 78, 54, 38, 80, 0, 5, 76, 18, 40, 0
|0, 0, 18, 0, 0, 8, 2, 81, 0, 0, 0, 29, 9, 60, 68, 50, 45, 0, 24, 0, 69, 0, 34, 63, 0, 0, 58, 17, 66, 5, 0, 15, 0, 41, 0, 12, 79, 43, 44, 0, 0, 0, 0, 80, 72, 52, 4, 19, 70, 0, 49, 31, 59, 39, 42, 13, 26, 0, 0, 51, 0, 0, 1, 0, 14, 35, 33, 57, 32, 38, 25, 30, 0, 0, 61, 71, 28, 62, 78, 64, 21
|31, 52, 69, 68, 45, 0, 9, 71, 64, 43, 49, 39, 57, 16, 40, 0, 8, 0, 0, 23, 0, 0, 17, 0, 54, 6, 0, 0, 14, 0, 44, 0, 27, 50, 0, 0, 0, 24, 53, 32, 48, 0, 34, 5, 0, 77, 28, 0, 0, 18, 60, 0, 72, 11, 33, 7, 35, 47, 0, 4, 0, 41, 38, 0, 73, 63, 79, 2, 76, 0, 0, 20, 65, 1, 0, 75, 29, 0, 0, 58, 0
|0, 0, 0, 48, 0, 66, 30, 65, 32, 14, 0, 55, 20, 0, 75, 0, 74, 12, 18, 0, 26, 72, 39, 51, 0, 25, 8, 0, 71, 68, 70, 0, 58, 24, 0, 60, 41, 0, 9, 40, 7, 62, 52, 47, 0, 21, 16, 0, 76, 17, 38, 45, 10, 0, 0, 57, 36, 11, 0, 0, 27, 37, 0, 34, 44, 0, 3, 0, 0, 54, 23, 0, 35, 56, 49, 69, 77, 31, 79, 0, 6
|53, 28, 9, 58, 70, 54, 36, 11, 0, 8, 20, 30, 68, 25, 0, 0, 0, 61, 0, 32, 27, 47, 46, 0, 0, 0, 55, 33, 0, 0, 0, 3, 63, 0, 14, 7, 18, 0, 60, 0, 37, 0, 56, 74, 40, 0, 79, 0, 31, 51, 16, 0, 0, 71, 34, 44, 38, 45, 0, 0, 41, 0, 35, 21, 50, 64, 65, 67, 26, 0, 77, 73, 23, 19, 0, 0, 48, 17, 10, 59, 42
|63, 0, 0, 0, 72, 81, 45, 0, 47, 0, 0, 23, 32, 0, 0, 15, 0, 79, 22, 77, 0, 44, 0, 17, 65, 28, 0, 48, 0, 60, 38, 53, 0, 68, 34, 78, 0, 69, 0, 50, 75, 10, 64, 12, 71, 1, 0, 0, 33, 0, 19, 40, 55, 54, 0, 80, 6, 0, 29, 16, 0, 74, 7, 18, 0, 8, 2, 59, 14, 51, 20, 0, 61, 39, 0, 76, 25, 3, 36, 37, 70
|44, 79, 75, 60, 18, 56, 0, 22, 0, 64, 0, 66, 16, 36, 45, 39, 0, 0, 76, 0, 0, 48, 53, 2, 51, 0, 74, 0, 20, 15, 67, 41, 54, 59, 72, 71, 65, 78, 6, 31, 63, 29, 61, 73, 30, 0, 34, 58, 0, 26, 57, 0, 43, 42, 46, 55, 47, 0, 0, 32, 50, 23, 0, 81, 35, 0, 0, 4, 0, 9, 69, 80, 12, 11, 0, 0, 8, 5, 33, 52, 62
|76, 0, 78, 0, 7, 31, 0, 0, 0, 41, 56, 18, 0, 74, 11, 65, 2, 0, 50, 80, 23, 63, 24, 0, 10, 19, 70, 81, 52, 13, 1, 8, 0, 28, 58, 0, 34, 33, 0, 57, 35, 32, 0, 0, 38, 64, 47, 0, 15, 4, 75, 0, 12, 22, 0, 21, 68, 0, 0, 60, 79, 53, 77, 44, 0, 6, 48, 16, 25, 71, 42, 0, 49, 14, 0, 0, 0, 54, 0, 20, 30
|32, 0, 80, 26, 13, 0, 0, 59, 49, 29, 6, 47, 58, 0, 0, 0, 77, 52, 60, 0, 0, 69, 1, 68, 0, 5, 4, 23, 70, 0, 45, 9, 0, 0, 22, 57, 2, 81, 0, 0, 79, 0, 66, 72, 0, 0, 39, 14, 0, 38, 18, 30, 0, 27, 0, 0, 0, 0, 0, 36, 0, 0, 31, 43, 34, 0, 74, 0, 10, 46, 0, 56, 51, 0, 71, 0, 78, 16, 28, 50, 7
|62, 12, 0, 4, 0, 25, 42, 52, 0, 0, 34, 0, 49, 54, 57, 71, 14, 51, 31, 59, 9, 0, 41, 0, 37, 64, 33, 0, 18, 0, 47, 76, 32, 0, 66, 0, 17, 45, 67, 22, 20, 3, 0, 55, 15, 46, 0, 50, 36, 10, 0, 60, 0, 23, 24, 8, 0, 81, 58, 48, 40, 1, 0, 75, 0, 38, 5, 0, 63, 0, 0, 11, 6, 77, 29, 53, 2, 44, 65, 0, 69
|69, 27, 0, 0, 51, 23, 71, 0, 33, 0, 10, 38, 0, 9, 17, 44, 35, 70, 0, 0, 0, 42, 0, 36, 0, 13, 43, 4, 0, 0, 19, 2, 0, 80, 0, 0, 39, 47, 21, 68, 16, 0, 53, 0, 54, 72, 48, 65, 25, 5, 0, 74, 63, 62, 0, 67, 0, 57, 0, 18, 28, 22, 0, 24, 37, 32, 0, 1, 0, 58, 0, 0, 34, 26, 75, 60, 40, 0, 46, 45, 81
|29, 46, 30, 2, 0, 37, 0, 34, 6, 78, 0, 50, 0, 0, 22, 62, 0, 0, 0, 0, 0, 18, 71, 0, 49, 73, 57, 77, 65, 42, 10, 44, 12, 51, 40, 27, 0, 7, 36, 0, 25, 80, 11, 19, 0, 32, 21, 20, 61, 0, 3, 68, 70, 9, 0, 43, 13, 5, 64, 54, 59, 69, 76, 33, 31, 60, 15, 52, 39, 41, 0, 0, 24, 47, 74, 63, 58, 0, 0, 1, 79
|8, 20, 38, 0, 74, 15, 0, 17, 10, 0, 60, 0, 40, 0, 80, 0, 63, 7, 79, 39, 58, 6, 0, 11, 0, 16, 34, 50, 61, 25, 31, 36, 21, 37, 0, 56, 14, 0, 46, 27, 51, 1, 0, 0, 59, 73, 0, 0, 0, 53, 69, 77, 2, 52, 0, 33, 3, 0, 26, 70, 0, 0, 62, 0, 47, 28, 0, 23, 49, 12, 22, 66, 9, 32, 55, 0, 0, 0, 4, 41, 68|];