order = 9;
grid = [|0, 17, 49, 81, 46, 15, 0, 34, 0, 61, 78, 0, 32, 12, 69, 36, 56, 74, 67, 72, 0, 8, 23, 20, 70, 52, 68, 47, 0, 44, 5, 21, 24, 80, 59, 54, 29, 57, 16, 33, 18, 0, 51, 27, 0, 75, 31, 41, 11, 9, 0, 60, 45, 0, 19, 62, 76, 73, 0, 50, 35, 14, 3, 25, 2, 0, 64, 38, 77, 0, 0, 7, 43, 0, 0, 30, 6, 65, 39, 55, 40
|26, 70, 39, 65, 10, 0, 4, 0, 1, 19, 48, 0, 0, 29, 9, 66, 62, 81, 42, 17, 54, 0, 27, 69, 47, 45, 61, 0, 71, 2, 0, 0, 14, 34, 7, 3, 5, 0, 15, 55, 64, 0, 67, 43, 78, 0, 0, 30, 40, 36, 0, 0, 16, 0, 80, 53, 0, 0, 20, 12, 46, 60, 21, 0, 57, 33, 52, 31, 13, 49, 73, 8, 0, 0, 22, 18, 24, 74, 59, 0, 0
|2, 76, 21, 53, 0, 3, 0, 0, 0, 6, 0, 23, 63, 0, 7, 0, 0, 70, 0, 0, 49, 15, 0, 74, 46, 31, 0, 16, 12, 20, 60, 0, 0, 73, 0, 13, 0, 1, 80, 0, 0, 22, 59, 9, 0, 61, 0, 10, 0, 47, 48, 29, 34, 62, 0, 33, 37, 0, 0, 8, 40, 38, 0, 0, 56, 71, 43, 44, 0, 39, 51, 0, 0, 58, 0, 0, 0, 19, 36, 26, 64
|62, 54, 5, 0, 30, 0, 73, 74, 13, 42, 22, 25, 0, 72, 17, 44, 0, 27, 29, 26, 18, 0, 81, 39, 7, 0, 14, 37, 66, 61, 53, 0, 9, 15, 36, 32, 47, 6, 0, 8, 0, 40, 50, 56, 0, 21, 0, 63, 65, 0, 3, 33, 0, 0, 59, 1, 0, 55, 31, 0, 57, 34, 68, 0, 76, 70, 78, 24, 20, 0, 4, 80, 52, 41, 38, 0, 45, 48, 67, 10, 71
|0, 71, 0, 12, 40, 51, 77, 0, 41, 15, 67, 18, 0, 0, 50, 2, 0, 0, 60, 4, 0, 80, 0, 0, 0, 19, 21, 0, 17, 30, 48, 38, 33, 0, 43, 27, 25, 0, 72, 61, 0, 45, 7, 10, 0, 0, 69, 79, 22, 56, 39, 76, 59, 0, 24, 36, 63, 75, 78, 74, 52, 49, 81, 62, 16, 68, 0, 0, 0, 26, 66, 29, 0, 44, 20, 23, 57, 1, 34, 0, 53
|52, 37, 60, 8, 29, 14, 33, 44, 56, 43, 0, 10, 58, 65, 71, 59, 0, 0, 0, 25, 1, 66, 55, 0, 24, 6, 63, 64, 0, 81, 0, 0, 67, 79, 0, 75, 76, 0, 0, 0, 73, 23, 31, 36, 0, 2, 13, 0, 5, 27, 50, 17, 0, 15, 0, 28, 0, 0, 0, 0, 70, 61, 32, 53, 72, 18, 0, 0, 48, 11, 34, 46, 7, 42, 49, 0, 0, 62, 4, 0, 0
|0, 0, 0, 47, 0, 0, 31, 59, 19, 0, 0, 80, 34, 0, 14, 20, 46, 21, 48, 41, 0, 13, 76, 3, 33, 30, 62, 10, 22, 0, 6, 0, 0, 63, 40, 8, 74, 38, 65, 0, 44, 0, 0, 32, 24, 53, 0, 70, 57, 73, 42, 0, 7, 0, 4, 67, 17, 54, 51, 18, 0, 64, 58, 0, 0, 1, 27, 0, 35, 28, 0, 0, 0, 81, 79, 29, 61, 0, 11, 56, 16
|50, 11, 68, 57, 58, 61, 0, 22, 69, 28, 40, 55, 39, 0, 0, 0, 0, 0, 78, 10, 71, 36, 0, 0, 64, 0, 44, 29, 77, 35, 56, 18, 46, 62, 0, 0, 0, 34, 21, 17, 70, 79, 4, 81, 49, 24, 0, 6, 0, 54, 26, 20, 51, 1, 48, 0, 25, 7, 65, 27, 0, 5, 0, 41, 32, 30, 42, 75, 67, 19, 9, 0, 60, 0, 14, 0, 0, 0, 66, 0, 47
|36, 25, 80, 7, 24, 20, 18, 0, 55, 64, 3, 26, 33, 41, 0, 5, 30, 0, 38, 22, 65, 56, 34, 43, 0, 0, 75, 0, 0, 0, 0, 0, 0, 68, 42, 4, 0, 60, 0, 62, 19, 53, 13, 12, 58, 81, 23, 35, 0, 0, 66, 14, 67, 0, 0, 71, 0, 0, 44, 16, 6, 29, 72, 59, 21, 61, 40, 54, 74, 45, 37, 63, 27, 17, 73, 0, 8, 0, 9, 46, 70
|0, 66, 17, 5, 16, 9, 51, 0, 0, 0, 14, 63, 18, 68, 30, 22, 50, 43, 4, 62, 25, 79, 0, 0, 27, 38, 0, 35, 7, 0, 0, 73, 20, 8, 0, 55, 12, 52, 24, 0, 75, 61, 0, 60, 0, 39, 6, 0, 1, 67, 77, 3, 64, 0, 0, 0, 72, 21, 11, 0, 13, 0, 53, 19, 36, 26, 44, 48, 59, 15, 32, 56, 0, 31, 42, 81, 34, 70, 37, 0, 58
|77, 0, 29, 79, 74, 23, 35, 0, 34, 47, 39, 76, 73, 40, 60, 10, 17, 69, 22, 65, 0, 41, 46, 0, 49, 0, 0, 0, 78, 0, 0, 81, 51, 54, 31, 72, 26, 0, 0, 0, 0, 0, 53, 0, 8, 27, 12, 75, 0, 7, 0, 0, 32, 66, 63, 0, 70, 38, 58, 52, 30, 55, 5, 16, 71, 62, 24, 0, 3, 50, 0, 9, 4, 18, 0, 6, 0, 0, 0, 11, 15
|0, 49, 81, 14, 0, 0, 1, 64, 62, 0, 59, 31, 21, 36, 0, 8, 0, 13, 16, 75, 50, 43, 42, 0, 0, 0, 0, 26, 61, 57, 0, 34, 0, 0, 0, 29, 37, 70, 0, 80, 0, 47, 66, 4, 39, 0, 58, 69, 71, 20, 11, 51, 15, 46, 3, 65, 0, 25, 60, 6, 0, 0, 73, 63, 54, 23, 0, 0, 18, 41, 38, 53, 79, 40, 0, 0, 74, 5, 0, 24, 0
|39, 38, 73, 68, 15, 0, 36, 48, 0, 0, 64, 27, 80, 6, 33, 41, 4, 0, 58, 11, 47, 20, 9, 0, 0, 26, 0, 60, 0, 70, 0, 0, 0, 44, 5, 19, 7, 51, 10, 0, 76, 28, 30, 74, 56, 13, 53, 22, 24, 0, 57, 63, 0, 16, 0, 0, 0, 0, 0, 0, 0, 43, 23, 77, 55, 0, 34, 37, 8, 1, 81, 65, 14, 49, 0, 12, 0, 35, 0, 71, 0
|0, 0, 0, 25, 0, 53, 63, 42, 0, 58, 29, 38, 9, 0, 45, 62, 78, 37, 7, 0, 40, 0, 8, 0, 15, 80, 10, 41, 52, 68, 50, 0, 0, 1, 23, 21, 18, 0, 0, 72, 0, 64, 0, 17, 54, 0, 76, 81, 31, 48, 30, 56, 0, 0, 22, 26, 28, 0, 0, 79, 0, 59, 35, 70, 33, 0, 13, 0, 0, 46, 39, 0, 47, 0, 65, 0, 66, 61, 55, 0, 0
|30, 6, 0, 0, 70, 41, 58, 0, 40, 0, 75, 28, 26, 44, 1, 79, 55, 34, 77, 73, 53, 0, 5, 0, 57, 71, 0, 14, 38, 11, 0, 16, 25, 0, 66, 0, 0, 62, 81, 42, 0, 13, 19, 68, 65, 0, 78, 4, 10, 80, 0, 23, 47, 61, 0, 48, 39, 0, 32, 56, 51, 33, 17, 0, 0, 0, 45, 0, 0, 2, 12, 0, 50, 0, 9, 59, 0, 7, 0, 64, 36
|0, 0, 24, 61, 54, 18, 52, 12, 0, 0, 20, 0, 19, 11, 5, 57, 0, 65, 35, 6, 0, 0, 0, 66, 0, 0, 76, 27, 9, 13, 64, 48, 0, 3, 58, 40, 0, 25, 46, 69, 59, 0, 63, 0, 0, 0, 0, 43, 0, 33, 68, 55, 0, 0, 47, 0, 29, 81, 41, 62, 14, 1, 75, 10, 28, 7, 49, 0, 73, 0, 72, 0, 22, 16, 0, 39, 0, 0, 0, 44, 67
|11, 78, 57, 0, 55, 0, 10, 0, 31, 56, 81, 0, 25, 42, 0, 48, 2, 7, 21, 28, 39, 68, 1, 0, 0, 0, 30, 80, 0, 62, 74, 22, 53, 4, 76, 77, 58, 0, 14, 0, 0, 33, 36, 79, 6, 54, 0, 9, 37, 59, 44, 0, 52, 18, 20, 8, 12, 34, 24, 66, 71, 15, 50, 61, 17, 0, 47, 27, 75, 43, 64, 5, 0, 26, 0, 0, 0, 23, 45, 63, 0
|47, 26, 0, 75, 0, 0, 59, 60, 22, 32, 0, 61, 12, 51, 49, 23, 15, 3, 0, 0, 0, 52, 13, 56, 19, 54, 17, 0, 46, 18, 39, 63, 65, 10, 6, 0, 27, 2, 73, 0, 0, 55, 0, 78, 0, 0, 14, 62, 35, 74, 70, 72, 21, 50, 68, 69, 45, 0, 4, 80, 64, 16, 36, 66, 67, 42, 0, 29, 11, 40, 79, 25, 0, 30, 76, 0, 1, 0, 48, 43, 0
|38, 34, 53, 0, 6, 12, 0, 0, 26, 63, 0, 44, 55, 0, 0, 30, 0, 29, 25, 45, 68, 75, 52, 11, 0, 57, 78, 39, 51, 10, 16, 31, 81, 13, 48, 41, 0, 7, 8, 19, 0, 2, 21, 40, 74, 35, 0, 0, 54, 0, 56, 79, 70, 17, 65, 76, 50, 0, 0, 0, 80, 67, 14, 0, 58, 43, 77, 18, 64, 3, 62, 32, 15, 24, 4, 22, 0, 27, 72, 69, 20
|44, 64, 7, 0, 0, 72, 37, 54, 0, 16, 12, 9, 15, 0, 10, 0, 71, 0, 51, 23, 22, 69, 0, 0, 77, 79, 40, 55, 30, 65, 24, 0, 0, 0, 0, 67, 0, 80, 60, 0, 0, 41, 57, 59, 81, 66, 33, 38, 0, 1, 0, 11, 75, 43, 5, 46, 18, 0, 0, 48, 4, 42, 61, 68, 0, 0, 0, 21, 29, 0, 19, 13, 63, 0, 39, 62, 31, 53, 0, 25, 8
|68, 0, 0, 20, 32, 67, 45, 30, 42, 0, 0, 43, 70, 8, 64, 40, 0, 2, 0, 55, 0, 0, 0, 0, 44, 17, 0, 62, 0, 0, 37, 12, 4, 0, 60, 66, 24, 75, 26, 78, 0, 77, 56, 39, 52, 72, 0, 0, 0, 0, 65, 6, 48, 9, 57, 0, 3, 22, 27, 59, 0, 71, 11, 5, 34, 79, 41, 0, 0, 0, 16, 51, 0, 0, 0, 61, 19, 0, 0, 0, 38
|10, 33, 8, 29, 80, 0, 55, 0, 0, 5, 25, 24, 38, 0, 68, 0, 65, 6, 0, 0, 70, 30, 0, 47, 31, 0, 46, 79, 72, 0, 75, 26, 40, 0, 0, 0, 16, 53, 51, 76, 9, 0, 0, 22, 66, 74, 49, 61, 21, 18, 64, 0, 13, 7, 0, 32, 23, 0, 34, 20, 0, 0, 62, 0, 60, 0, 0, 67, 0, 14, 36, 59, 11, 45, 0, 42, 71, 56, 0, 73, 12
|16, 0, 41, 2, 69, 74, 15, 43, 0, 0, 4, 77, 0, 23, 13, 0, 0, 31, 5, 0, 42, 0, 0, 61, 65, 76, 34, 0, 0, 0, 0, 6, 3, 0, 70, 53, 68, 67, 0, 0, 50, 0, 46, 71, 0, 44, 57, 12, 0, 40, 60, 59, 0, 14, 0, 51, 52, 49, 79, 30, 38, 0, 8, 0, 24, 75, 20, 0, 0, 0, 1, 0, 10, 66, 0, 17, 48, 64, 0, 80, 0
|0, 62, 56, 13, 35, 24, 28, 31, 57, 27, 19, 58, 66, 52, 0, 0, 22, 67, 33, 0, 0, 1, 41, 0, 32, 64, 60, 0, 0, 71, 61, 0, 0, 0, 0, 25, 14, 49, 23, 12, 10, 0, 79, 0, 0, 50, 77, 42, 81, 68, 0, 53, 3, 0, 45, 55, 44, 0, 17, 0, 69, 63, 9, 0, 37, 65, 0, 0, 0, 0, 48, 11, 0, 0, 0, 0, 59, 30, 51, 0, 43
|0, 0, 11, 70, 1, 0, 0, 19, 0, 36, 0, 57, 17, 0, 0, 0, 59, 0, 27, 66, 13, 67, 2, 0, 39, 0, 24, 68, 0, 64, 9, 50, 58, 22, 38, 46, 73, 45, 30, 18, 4, 44, 34, 63, 62, 51, 55, 25, 52, 8, 0, 47, 20, 0, 75, 0, 10, 15, 7, 37, 43, 26, 56, 71, 0, 80, 31, 42, 0, 35, 0, 33, 0, 79, 77, 0, 32, 0, 41, 65, 60
|65, 77, 78, 0, 52, 27, 21, 51, 39, 62, 80, 0, 53, 0, 0, 0, 48, 41, 0, 14, 0, 0, 18, 4, 71, 0, 38, 43, 33, 42, 8, 19, 76, 74, 1, 57, 54, 69, 61, 0, 25, 31, 0, 13, 64, 73, 34, 16, 26, 0, 10, 22, 29, 2, 0, 24, 81, 60, 40, 72, 36, 6, 0, 49, 0, 0, 0, 30, 0, 7, 17, 44, 0, 50, 35, 67, 55, 0, 0, 5, 28
|0, 79, 71, 0, 36, 60, 25, 17, 23, 11, 50, 39, 7, 0, 61, 0, 0, 0, 0, 56, 16, 0, 20, 62, 10, 72, 26, 34, 69, 5, 0, 0, 59, 0, 0, 45, 0, 0, 1, 43, 29, 37, 0, 55, 48, 41, 67, 0, 0, 15, 24, 0, 63, 27, 53, 74, 66, 31, 0, 68, 0, 0, 77, 0, 40, 0, 8, 73, 12, 70, 54, 0, 0, 2, 52, 44, 3, 78, 14, 9, 75
|1, 60, 65, 66, 25, 26, 0, 50, 59, 40, 2, 0, 0, 70, 57, 42, 31, 0, 18, 0, 72, 0, 49, 0, 0, 0, 3, 0, 19, 75, 0, 77, 69, 47, 0, 63, 32, 10, 48, 51, 5, 46, 71, 20, 36, 0, 0, 0, 0, 14, 35, 8, 39, 0, 0, 0, 16, 0, 61, 0, 62, 7, 27, 37, 12, 44, 0, 0, 30, 17, 13, 24, 28, 15, 55, 76, 54, 22, 0, 0, 11
|8, 0, 2, 0, 21, 5, 81, 33, 0, 0, 44, 50, 71, 0, 0, 72, 75, 53, 1, 7, 20, 0, 60, 63, 0, 0, 67, 0, 31, 0, 51, 24, 64, 41, 65, 0, 30, 79, 29, 73, 27, 80, 17, 70, 38, 0, 52, 28, 68, 16, 32, 58, 0, 12, 54, 22, 0, 48, 76, 36, 18, 0, 13, 39, 3, 40, 0, 77, 6, 0, 55, 0, 26, 23, 10, 66, 9, 0, 0, 57, 37
|3, 53, 0, 41, 61, 13, 54, 80, 0, 81, 76, 19, 60, 0, 0, 21, 52, 64, 24, 38, 0, 22, 77, 6, 48, 43, 47, 8, 68, 56, 10, 42, 1, 70, 20, 73, 35, 28, 44, 50, 0, 34, 12, 0, 4, 0, 62, 0, 29, 0, 27, 0, 26, 59, 51, 0, 0, 72, 66, 9, 58, 17, 71, 45, 63, 0, 65, 69, 23, 67, 0, 14, 0, 0, 0, 49, 40, 0, 0, 39, 79
|0, 20, 30, 31, 47, 10, 17, 0, 27, 48, 0, 13, 22, 69, 18, 1, 11, 0, 0, 70, 4, 0, 57, 65, 14, 81, 32, 76, 16, 58, 0, 0, 50, 40, 26, 52, 59, 54, 78, 23, 41, 0, 0, 75, 45, 42, 51, 0, 0, 38, 5, 7, 46, 24, 33, 0, 73, 12, 15, 3, 37, 77, 55, 2, 68, 0, 0, 0, 0, 0, 61, 72, 0, 8, 6, 56, 67, 0, 53, 60, 19
|40, 72, 75, 67, 19, 62, 0, 45, 24, 38, 35, 15, 0, 0, 0, 6, 34, 47, 41, 13, 0, 27, 0, 51, 80, 16, 58, 53, 0, 0, 43, 46, 30, 7, 18, 12, 0, 63, 76, 22, 69, 0, 68, 65, 61, 11, 0, 0, 74, 3, 0, 71, 0, 0, 10, 81, 0, 52, 28, 0, 0, 32, 0, 0, 0, 54, 70, 5, 0, 56, 33, 73, 0, 0, 59, 50, 0, 4, 0, 31, 0
|0, 0, 76, 11, 56, 68, 22, 63, 74, 78, 0, 0, 10, 0, 65, 9, 39, 58, 46, 8, 31, 71, 0, 2, 0, 0, 0, 3, 0, 55, 0, 29, 0, 5, 80, 61, 0, 13, 43, 77, 0, 16, 0, 0, 47, 18, 50, 1, 17, 44, 75, 0, 0, 30, 70, 0, 60, 57, 0, 35, 0, 40, 0, 7, 0, 64, 21, 15, 41, 0, 0, 4, 20, 51, 27, 24, 42, 38, 0, 48, 81
|23, 4, 0, 49, 12, 0, 57, 0, 38, 30, 33, 0, 68, 80, 62, 29, 0, 54, 76, 42, 0, 9, 61, 75, 0, 10, 25, 48, 14, 0, 2, 0, 0, 27, 11, 0, 39, 21, 18, 52, 0, 0, 24, 0, 55, 56, 0, 13, 20, 41, 72, 0, 77, 0, 50, 0, 46, 6, 74, 53, 31, 44, 43, 28, 0, 8, 19, 0, 60, 22, 35, 0, 64, 0, 34, 63, 0, 71, 69, 0, 65
|69, 0, 70, 71, 0, 52, 79, 55, 78, 51, 28, 0, 20, 16, 0, 0, 66, 0, 0, 39, 5, 53, 33, 26, 0, 15, 45, 4, 57, 59, 0, 54, 37, 72, 67, 38, 0, 0, 40, 60, 56, 0, 64, 62, 3, 22, 61, 23, 0, 0, 76, 10, 49, 63, 0, 68, 65, 29, 47, 24, 34, 21, 42, 48, 50, 0, 18, 0, 31, 9, 11, 0, 1, 46, 75, 14, 80, 13, 30, 77, 17
|0, 42, 0, 35, 0, 48, 34, 28, 64, 12, 74, 5, 0, 0, 24, 32, 8, 61, 17, 78, 30, 40, 19, 50, 55, 56, 29, 0, 0, 9, 22, 60, 21, 39, 13, 36, 0, 0, 53, 31, 11, 0, 49, 58, 2, 6, 0, 33, 15, 81, 79, 0, 54, 65, 0, 63, 67, 4, 23, 25, 1, 75, 0, 20, 0, 51, 10, 0, 38, 59, 43, 76, 72, 52, 41, 47, 68, 3, 0, 62, 18
|70, 27, 63, 28, 53, 4, 0, 66, 0, 0, 65, 36, 56, 13, 3, 33, 60, 0, 9, 0, 0, 0, 0, 81, 59, 22, 74, 0, 29, 26, 7, 47, 0, 0, 0, 34, 80, 41, 68, 21, 30, 25, 62, 44, 79, 52, 17, 0, 6, 0, 0, 61, 10, 0, 0, 16, 38, 0, 1, 55, 0, 69, 76, 64, 19, 0, 39, 50, 24, 0, 18, 67, 48, 11, 0, 0, 73, 2, 43, 23, 0
|34, 0, 0, 80, 59, 77, 40, 41, 6, 44, 0, 0, 28, 67, 75, 55, 57, 0, 61, 0, 60, 47, 0, 0, 23, 32, 0, 74, 42, 4, 3, 25, 0, 46, 69, 18, 81, 0, 17, 0, 16, 0, 48, 26, 1, 37, 0, 14, 0, 0, 13, 68, 43, 72, 0, 66, 24, 0, 62, 70, 10, 53, 0, 0, 30, 2, 36, 9, 76, 5, 49, 78, 19, 64, 50, 21, 0, 0, 58, 0, 22
|33, 0, 0, 26, 72, 30, 0, 23, 79, 50, 21, 54, 2, 0, 42, 0, 0, 71, 0, 0, 34, 10, 0, 0, 36, 0, 56, 73, 64, 52, 20, 0, 12, 16, 37, 60, 11, 65, 77, 0, 63, 49, 61, 0, 27, 69, 8, 67, 25, 28, 0, 0, 0, 0, 0, 6, 0, 17, 3, 13, 68, 0, 46, 74, 48, 59, 0, 70, 58, 57, 44, 0, 0, 35, 80, 9, 0, 0, 38, 66, 39
|74, 24, 15, 56, 38, 21, 0, 0, 17, 0, 73, 0, 11, 10, 0, 81, 51, 62, 3, 20, 8, 0, 26, 0, 5, 18, 0, 63, 67, 23, 40, 0, 48, 35, 0, 0, 43, 55, 69, 0, 57, 32, 52, 14, 19, 34, 36, 27, 16, 39, 58, 0, 65, 80, 25, 72, 0, 61, 12, 44, 50, 45, 59, 4, 77, 0, 0, 33, 54, 37, 0, 75, 0, 28, 60, 0, 30, 0, 0, 79, 6
|81, 35, 0, 52, 0, 73, 47, 8, 0, 14, 69, 68, 27, 22, 78, 49, 7, 39, 75, 0, 76, 28, 0, 44, 40, 77, 13, 72, 59, 0, 62, 58, 0, 55, 0, 50, 38, 64, 45, 36, 24, 0, 29, 0, 46, 9, 60, 66, 0, 2, 23, 0, 19, 0, 18, 0, 11, 26, 0, 54, 0, 48, 0, 34, 65, 0, 6, 80, 0, 31, 25, 12, 37, 4, 17, 1, 15, 42, 0, 3, 0
|0, 3, 0, 0, 64, 42, 44, 57, 60, 18, 9, 0, 29, 0, 26, 17, 19, 16, 0, 69, 0, 4, 0, 70, 30, 46, 0, 0, 0, 49, 0, 0, 68, 0, 79, 33, 8, 0, 0, 47, 34, 0, 28, 0, 0, 45, 40, 0, 32, 55, 22, 50, 31, 81, 77, 35, 0, 80, 56, 0, 21, 73, 37, 13, 0, 63, 0, 0, 0, 53, 7, 15, 25, 20, 0, 0, 65, 0, 24, 67, 0
|9, 0, 0, 55, 78, 46, 62, 11, 0, 0, 66, 0, 48, 61, 23, 12, 0, 45, 15, 63, 0, 42, 39, 1, 0, 68, 57, 0, 0, 8, 80, 0, 41, 21, 24, 0, 10, 4, 20, 37, 58, 0, 54, 3, 33, 76, 64, 0, 0, 79, 0, 38, 5, 35, 0, 75, 34, 43, 2, 32, 47, 31, 30, 69, 27, 81, 72, 28, 0, 71, 40, 0, 44, 77, 53, 13, 0, 52, 7, 14, 49
|58, 61, 0, 32, 0, 37, 0, 0, 43, 0, 15, 40, 0, 63, 38, 70, 76, 30, 0, 52, 0, 35, 0, 25, 17, 55, 0, 0, 6, 36, 0, 2, 10, 11, 0, 5, 13, 9, 7, 0, 66, 73, 72, 67, 31, 3, 1, 0, 75, 46, 74, 0, 44, 33, 0, 0, 19, 27, 0, 28, 0, 22, 64, 26, 0, 20, 14, 79, 0, 0, 47, 60, 56, 59, 78, 34, 69, 0, 8, 41, 29
|0, 0, 13, 0, 76, 25, 16, 0, 0, 34, 0, 46, 37, 35, 8, 0, 47, 0, 0, 64, 80, 50, 66, 0, 43, 21, 0, 17, 81, 0, 31, 30, 77, 28, 44, 9, 53, 18, 59, 40, 23, 0, 0, 0, 22, 26, 0, 48, 51, 4, 0, 24, 62, 49, 0, 0, 41, 36, 67, 33, 78, 65, 15, 1, 11, 56, 32, 68, 0, 73, 3, 55, 74, 70, 61, 72, 12, 0, 27, 45, 57
|24, 0, 19, 0, 26, 70, 6, 47, 71, 0, 36, 42, 50, 49, 12, 53, 0, 56, 57, 0, 0, 65, 45, 0, 60, 13, 1, 54, 35, 0, 63, 3, 31, 67, 0, 0, 0, 59, 0, 5, 0, 74, 0, 16, 0, 33, 66, 73, 44, 77, 62, 18, 11, 78, 17, 34, 32, 79, 72, 0, 75, 0, 0, 81, 43, 48, 15, 0, 0, 76, 10, 0, 55, 37, 0, 4, 41, 21, 46, 0, 61
|0, 0, 0, 0, 13, 0, 0, 10, 76, 57, 32, 81, 0, 33, 73, 26, 70, 78, 34, 0, 14, 11, 15, 40, 0, 9, 36, 28, 0, 16, 0, 74, 61, 0, 0, 0, 4, 48, 6, 0, 0, 75, 0, 52, 17, 55, 20, 58, 8, 60, 59, 5, 80, 37, 0, 43, 0, 45, 0, 47, 0, 46, 65, 0, 29, 72, 0, 64, 27, 0, 31, 23, 66, 56, 0, 0, 2, 63, 0, 19, 1
|54, 0, 0, 62, 0, 31, 0, 73, 21, 39, 0, 0, 74, 0, 19, 0, 24, 0, 68, 51, 0, 0, 63, 0, 0, 3, 23, 0, 45, 69, 36, 0, 22, 0, 0, 0, 2, 61, 37, 79, 80, 10, 55, 66, 67, 47, 0, 0, 50, 34, 0, 0, 0, 76, 0, 18, 0, 0, 8, 15, 11, 27, 0, 65, 75, 14, 7, 53, 4, 30, 70, 0, 0, 0, 57, 43, 81, 0, 40, 72, 25
|55, 80, 32, 50, 63, 66, 46, 25, 0, 0, 34, 0, 0, 5, 54, 37, 20, 0, 56, 61, 78, 31, 4, 42, 62, 0, 81, 38, 47, 1, 52, 70, 23, 60, 29, 76, 0, 27, 12, 64, 43, 0, 65, 0, 35, 15, 45, 0, 39, 69, 41, 26, 40, 0, 0, 59, 0, 71, 22, 0, 0, 0, 67, 58, 73, 3, 57, 0, 0, 16, 21, 18, 17, 0, 0, 11, 75, 14, 10, 30, 0
|43, 0, 33, 77, 65, 0, 23, 0, 8, 71, 63, 0, 40, 7, 80, 0, 0, 0, 37, 50, 0, 70, 79, 19, 72, 0, 0, 11, 0, 48, 27, 5, 75, 12, 10, 58, 34, 30, 38, 14, 0, 62, 76, 54, 26, 0, 0, 0, 46, 64, 21, 42, 0, 56, 74, 0, 4, 0, 25, 0, 44, 0, 60, 22, 41, 55, 0, 39, 0, 13, 0, 0, 0, 0, 0, 0, 0, 36, 20, 47, 0
|49, 0, 52, 0, 9, 69, 42, 40, 0, 29, 43, 0, 59, 0, 2, 51, 64, 0, 0, 0, 27, 38, 58, 41, 26, 5, 0, 44, 53, 72, 0, 0, 0, 65, 0, 68, 0, 47, 19, 57, 0, 36, 3, 25, 73, 7, 75, 24, 61, 0, 71, 16, 1, 48, 14, 0, 21, 66, 55, 0, 56, 0, 0, 35, 79, 46, 60, 62, 50, 33, 0, 0, 0, 39, 0, 80, 77, 8, 0, 70, 34
|0, 36, 22, 34, 5, 59, 30, 0, 7, 4, 46, 21, 61, 45, 25, 16, 13, 55, 80, 35, 6, 76, 17, 10, 8, 0, 77, 66, 62, 41, 33, 32, 0, 0, 0, 20, 56, 15, 0, 68, 39, 63, 11, 29, 28, 0, 0, 0, 67, 23, 51, 43, 81, 79, 73, 37, 53, 0, 69, 26, 0, 0, 2, 44, 47, 0, 0, 71, 0, 78, 0, 40, 0, 3, 64, 27, 52, 50, 60, 18, 42
|4, 0, 0, 0, 45, 28, 0, 0, 0, 17, 0, 62, 75, 18, 31, 65, 67, 0, 0, 53, 0, 0, 59, 22, 2, 0, 43, 9, 0, 0, 34, 37, 0, 0, 0, 0, 0, 71, 0, 44, 81, 21, 0, 0, 0, 30, 0, 72, 13, 0, 0, 36, 0, 3, 16, 0, 64, 0, 54, 76, 0, 41, 6, 32, 8, 0, 51, 12, 69, 61, 26, 66, 78, 48, 24, 0, 7, 58, 0, 49, 0
|0, 39, 58, 64, 3, 57, 20, 78, 61, 66, 47, 6, 44, 30, 48, 27, 14, 22, 28, 16, 75, 0, 67, 0, 21, 0, 54, 0, 8, 51, 26, 55, 73, 24, 81, 43, 41, 72, 33, 46, 0, 69, 32, 53, 0, 25, 65, 68, 0, 10, 17, 12, 0, 19, 0, 50, 5, 70, 0, 29, 63, 80, 0, 0, 59, 0, 11, 0, 56, 36, 2, 42, 0, 0, 74, 71, 23, 79, 0, 0, 0
|21, 0, 0, 30, 41, 0, 27, 0, 0, 0, 62, 0, 65, 39, 63, 15, 23, 40, 0, 0, 46, 5, 75, 28, 4, 0, 12, 1, 2, 0, 25, 67, 72, 0, 0, 48, 0, 20, 0, 10, 53, 81, 22, 64, 29, 49, 74, 0, 33, 76, 34, 0, 0, 0, 0, 38, 0, 51, 0, 19, 24, 37, 70, 0, 14, 0, 0, 0, 0, 18, 58, 0, 0, 54, 66, 55, 47, 59, 0, 7, 69
|63, 0, 0, 40, 28, 79, 0, 13, 12, 9, 11, 29, 16, 59, 76, 45, 36, 10, 66, 0, 62, 17, 38, 55, 3, 0, 0, 69, 75, 0, 57, 44, 0, 18, 46, 35, 0, 56, 34, 0, 31, 26, 60, 49, 25, 64, 30, 7, 27, 0, 81, 48, 58, 39, 71, 0, 14, 53, 33, 2, 73, 72, 54, 0, 0, 19, 61, 1, 70, 32, 67, 74, 0, 0, 23, 0, 37, 77, 15, 0, 0
|31, 19, 38, 0, 0, 0, 49, 2, 0, 21, 30, 66, 0, 58, 0, 0, 18, 46, 11, 0, 24, 0, 72, 54, 78, 67, 27, 77, 60, 53, 15, 68, 34, 71, 17, 14, 50, 3, 62, 6, 0, 57, 35, 33, 59, 32, 25, 37, 0, 12, 36, 0, 22, 13, 0, 61, 0, 47, 0, 81, 76, 23, 0, 0, 7, 0, 0, 43, 5, 0, 65, 0, 75, 63, 45, 26, 10, 0, 0, 20, 74
|0, 10, 34, 73, 39, 0, 72, 3, 0, 2, 0, 0, 0, 19, 27, 47, 0, 14, 0, 0, 51, 26, 0, 7, 35, 74, 8, 65, 0, 22, 23, 4, 0, 0, 0, 56, 61, 0, 70, 45, 0, 43, 38, 0, 0, 0, 28, 44, 69, 0, 40, 0, 55, 11, 0, 58, 31, 67, 6, 0, 0, 50, 25, 54, 64, 53, 63, 0, 78, 75, 76, 0, 16, 29, 32, 46, 60, 0, 0, 81, 0
|25, 18, 6, 4, 0, 81, 70, 53, 0, 55, 0, 73, 78, 75, 0, 80, 79, 0, 69, 31, 9, 64, 0, 0, 0, 34, 0, 0, 0, 28, 29, 61, 16, 37, 63, 42, 72, 14, 47, 0, 68, 1, 77, 0, 12, 19, 59, 54, 0, 26, 8, 0, 56, 38, 7, 60, 74, 65, 0, 21, 0, 11, 48, 3, 0, 22, 0, 0, 44, 27, 0, 36, 67, 71, 58, 57, 17, 51, 0, 35, 0
|64, 1, 47, 0, 0, 44, 76, 0, 77, 8, 6, 33, 0, 53, 0, 71, 61, 5, 13, 0, 57, 49, 0, 58, 0, 40, 0, 0, 3, 0, 59, 45, 0, 51, 62, 24, 0, 36, 9, 0, 0, 78, 39, 0, 7, 0, 0, 46, 79, 52, 20, 35, 18, 0, 15, 0, 55, 63, 29, 34, 26, 4, 69, 11, 0, 17, 0, 16, 25, 66, 68, 0, 80, 19, 28, 0, 43, 73, 65, 12, 0
|59, 75, 0, 60, 0, 0, 24, 65, 68, 31, 0, 48, 0, 64, 0, 38, 0, 42, 79, 0, 0, 81, 0, 32, 45, 0, 37, 12, 36, 0, 0, 11, 0, 0, 47, 39, 71, 17, 28, 4, 2, 76, 73, 69, 15, 63, 3, 5, 23, 61, 0, 0, 53, 0, 46, 77, 49, 0, 16, 0, 22, 8, 18, 30, 0, 29, 26, 55, 72, 10, 0, 0, 34, 27, 56, 70, 78, 40, 25, 33, 0
|48, 0, 61, 22, 37, 17, 0, 0, 0, 72, 7, 4, 0, 0, 43, 0, 0, 50, 10, 0, 77, 59, 25, 18, 63, 20, 80, 30, 40, 0, 55, 33, 0, 38, 78, 26, 0, 19, 0, 0, 51, 58, 0, 23, 0, 0, 0, 65, 73, 24, 47, 0, 71, 42, 27, 56, 1, 35, 5, 64, 79, 66, 44, 21, 0, 0, 28, 0, 0, 34, 45, 2, 0, 36, 3, 0, 49, 0, 6, 53, 0
|0, 55, 0, 78, 0, 56, 5, 58, 67, 70, 0, 34, 69, 17, 32, 54, 0, 77, 0, 60, 23, 0, 71, 0, 0, 0, 22, 81, 41, 0, 73, 49, 0, 64, 19, 0, 44, 8, 0, 65, 0, 0, 27, 30, 0, 16, 15, 51, 4, 0, 0, 1, 0, 0, 36, 20, 59, 28, 0, 0, 3, 10, 0, 47, 0, 13, 0, 46, 0, 12, 6, 0, 31, 61, 0, 0, 38, 39, 2, 21, 52
|53, 56, 0, 0, 0, 6, 68, 70, 66, 49, 0, 0, 0, 0, 39, 67, 43, 38, 0, 0, 0, 2, 0, 0, 41, 0, 48, 20, 37, 0, 77, 64, 78, 61, 72, 0, 0, 26, 35, 74, 54, 0, 0, 57, 80, 71, 16, 60, 47, 51, 0, 40, 30, 0, 34, 0, 75, 44, 36, 0, 12, 0, 52, 31, 15, 0, 79, 13, 65, 55, 29, 0, 0, 14, 0, 3, 4, 28, 19, 32, 24
|61, 0, 40, 24, 75, 34, 0, 76, 0, 13, 0, 3, 14, 0, 0, 7, 0, 32, 19, 0, 35, 57, 80, 0, 18, 1, 72, 23, 49, 0, 58, 0, 0, 26, 71, 11, 0, 0, 67, 81, 12, 4, 0, 47, 21, 38, 0, 0, 0, 65, 31, 46, 8, 28, 0, 0, 48, 59, 50, 10, 27, 70, 51, 0, 62, 37, 0, 45, 33, 44, 69, 41, 9, 68, 16, 74, 0, 15, 79, 0, 77
|41, 0, 42, 63, 0, 0, 0, 32, 28, 73, 57, 30, 47, 0, 4, 0, 9, 33, 0, 0, 0, 0, 0, 0, 75, 66, 69, 2, 55, 54, 38, 0, 52, 48, 3, 51, 77, 46, 71, 25, 6, 65, 78, 0, 0, 59, 39, 15, 0, 62, 1, 19, 0, 0, 37, 14, 13, 0, 0, 60, 16, 0, 49, 50, 0, 12, 67, 0, 68, 64, 0, 0, 36, 0, 40, 0, 5, 34, 56, 0, 44
|18, 59, 69, 1, 49, 39, 67, 52, 11, 20, 51, 78, 31, 62, 77, 50, 53, 26, 0, 43, 0, 61, 32, 0, 68, 58, 71, 42, 5, 47, 12, 0, 44, 45, 34, 0, 0, 29, 0, 28, 0, 38, 40, 8, 37, 0, 81, 0, 9, 35, 0, 0, 79, 36, 0, 0, 54, 0, 0, 7, 0, 56, 0, 72, 0, 0, 0, 0, 16, 0, 0, 0, 30, 80, 0, 0, 33, 41, 23, 22, 76
|27, 0, 55, 0, 0, 0, 78, 20, 0, 10, 79, 72, 0, 2, 0, 0, 40, 80, 0, 0, 28, 37, 44, 12, 16, 42, 0, 0, 0, 29, 13, 15, 62, 66, 0, 6, 60, 0, 0, 0, 0, 51, 0, 0, 68, 0, 4, 26, 63, 0, 0, 0, 57, 69, 64, 9, 33, 32, 53, 71, 77, 47, 22, 8, 38, 76, 0, 17, 0, 0, 30, 1, 0, 65, 31, 25, 46, 81, 18, 61, 54
|19, 51, 46, 33, 0, 0, 0, 72, 0, 60, 27, 75, 36, 0, 0, 76, 29, 59, 0, 77, 0, 55, 0, 79, 52, 0, 49, 67, 28, 14, 0, 40, 0, 25, 0, 22, 0, 23, 32, 30, 62, 20, 0, 0, 63, 12, 0, 50, 0, 70, 73, 54, 0, 68, 0, 15, 2, 0, 45, 4, 41, 58, 74, 80, 5, 47, 0, 0, 7, 48, 56, 61, 57, 38, 0, 0, 13, 0, 78, 6, 66
|35, 0, 74, 0, 17, 36, 60, 38, 0, 37, 16, 56, 5, 0, 15, 19, 0, 18, 0, 24, 64, 14, 40, 30, 50, 39, 51, 46, 4, 79, 0, 53, 0, 57, 0, 31, 66, 58, 52, 0, 61, 0, 75, 76, 44, 23, 32, 34, 3, 78, 45, 0, 33, 41, 26, 29, 0, 11, 0, 65, 67, 0, 28, 43, 22, 9, 81, 0, 2, 20, 71, 77, 59, 55, 0, 10, 0, 49, 42, 0, 0
|0, 2, 25, 48, 0, 80, 7, 62, 16, 65, 54, 0, 0, 71, 44, 0, 58, 12, 0, 74, 0, 60, 3, 34, 6, 73, 9, 21, 63, 19, 68, 0, 32, 33, 0, 0, 0, 0, 11, 53, 36, 39, 0, 0, 43, 20, 72, 77, 76, 37, 0, 66, 0, 0, 55, 31, 57, 0, 81, 69, 61, 79, 38, 18, 78, 52, 35, 49, 40, 24, 46, 26, 45, 0, 47, 64, 0, 0, 70, 17, 50
|57, 5, 0, 10, 31, 0, 0, 37, 15, 24, 70, 45, 52, 25, 55, 0, 41, 0, 0, 0, 38, 78, 36, 67, 13, 4, 33, 0, 0, 73, 76, 9, 74, 81, 50, 0, 0, 22, 49, 3, 0, 0, 69, 34, 0, 0, 11, 29, 7, 0, 0, 0, 0, 6, 23, 40, 80, 19, 35, 63, 72, 20, 1, 0, 42, 39, 0, 0, 32, 0, 0, 28, 12, 75, 0, 58, 0, 0, 71, 27, 0
|73, 0, 44, 45, 0, 0, 0, 0, 0, 1, 55, 60, 0, 50, 59, 0, 0, 19, 64, 49, 0, 0, 47, 57, 0, 41, 16, 32, 0, 12, 46, 8, 29, 0, 56, 79, 0, 31, 0, 58, 0, 5, 9, 35, 51, 62, 7, 0, 48, 30, 37, 27, 76, 75, 6, 0, 0, 0, 14, 67, 66, 0, 34, 0, 0, 24, 0, 3, 0, 23, 0, 0, 0, 10, 68, 0, 22, 0, 17, 40, 0
|0, 0, 66, 37, 22, 0, 0, 68, 58, 76, 24, 51, 0, 9, 0, 31, 0, 17, 0, 5, 0, 54, 21, 0, 20, 27, 65, 33, 11, 0, 72, 36, 18, 69, 77, 64, 49, 44, 0, 26, 0, 12, 81, 48, 10, 78, 2, 0, 14, 43, 15, 70, 0, 52, 32, 3, 0, 0, 0, 46, 53, 28, 4, 0, 45, 0, 1, 61, 79, 0, 74, 0, 41, 0, 30, 7, 50, 0, 73, 59, 56
|46, 41, 26, 42, 18, 38, 0, 0, 47, 0, 45, 71, 30, 73, 70, 39, 81, 36, 6, 34, 44, 0, 69, 59, 1, 0, 50, 0, 0, 0, 17, 35, 60, 53, 68, 28, 78, 0, 27, 2, 0, 3, 0, 0, 0, 10, 0, 32, 55, 13, 0, 64, 66, 51, 62, 0, 22, 0, 0, 0, 23, 25, 0, 12, 4, 11, 0, 0, 37, 65, 5, 0, 49, 43, 15, 8, 79, 20, 63, 0, 0
|20, 0, 59, 16, 0, 1, 80, 0, 2, 26, 8, 32, 42, 0, 0, 11, 72, 75, 0, 40, 43, 0, 78, 13, 81, 12, 0, 0, 73, 3, 21, 14, 63, 76, 0, 62, 64, 74, 0, 56, 65, 52, 0, 18, 77, 29, 71, 31, 49, 53, 46, 34, 0, 44, 0, 47, 36, 68, 9, 0, 0, 39, 19, 17, 10, 0, 30, 0, 22, 38, 50, 0, 24, 6, 54, 45, 0, 66, 5, 0, 35
|79, 57, 0, 15, 0, 54, 0, 4, 35, 33, 0, 12, 62, 28, 0, 14, 0, 0, 71, 36, 10, 24, 56, 76, 22, 8, 0, 75, 48, 66, 0, 23, 26, 0, 2, 47, 0, 39, 55, 0, 17, 29, 6, 0, 40, 65, 5, 3, 60, 0, 25, 74, 0, 73, 72, 64, 0, 18, 37, 0, 20, 30, 0, 78, 0, 27, 9, 0, 46, 68, 59, 21, 69, 0, 0, 0, 58, 32, 44, 13, 0
|32, 30, 27, 0, 33, 0, 14, 5, 10, 22, 56, 47, 77, 78, 40, 0, 0, 44, 52, 3, 67, 25, 0, 35, 38, 0, 66, 51, 0, 34, 71, 59, 42, 9, 4, 0, 46, 0, 75, 7, 37, 54, 15, 28, 53, 1, 0, 39, 0, 45, 0, 69, 72, 20, 43, 0, 79, 0, 63, 17, 65, 2, 41, 73, 26, 0, 0, 81, 36, 62, 8, 31, 61, 57, 0, 19, 0, 12, 76, 74, 23
|56, 63, 0, 36, 0, 50, 0, 0, 75, 0, 61, 37, 4, 20, 46, 43, 5, 0, 30, 18, 2, 23, 0, 17, 53, 51, 15, 0, 39, 0, 67, 0, 55, 49, 54, 16, 62, 0, 0, 34, 0, 19, 80, 73, 69, 0, 79, 47, 41, 0, 0, 0, 0, 0, 44, 27, 0, 1, 10, 77, 59, 76, 31, 40, 13, 28, 71, 35, 0, 6, 0, 52, 70, 72, 21, 65, 0, 9, 0, 42, 26
|0, 52, 9, 72, 71, 49, 61, 29, 70, 7, 53, 0, 6, 0, 66, 69, 10, 23, 63, 79, 74, 62, 14, 45, 0, 75, 19, 31, 43, 0, 65, 57, 0, 50, 27, 81, 0, 24, 0, 38, 22, 30, 0, 11, 20, 28, 26, 59, 36, 17, 67, 4, 0, 0, 13, 21, 35, 40, 0, 0, 54, 78, 12, 0, 0, 0, 16, 41, 47, 51, 80, 64, 33, 1, 46, 0, 39, 0, 3, 0, 55
|17, 8, 62, 0, 67, 55, 53, 0, 25, 68, 0, 65, 64, 3, 35, 0, 0, 48, 0, 9, 11, 46, 7, 77, 37, 28, 0, 22, 0, 38, 44, 41, 13, 0, 61, 0, 23, 0, 79, 59, 72, 70, 43, 1, 0, 40, 0, 0, 12, 0, 0, 80, 0, 57, 0, 45, 0, 5, 49, 0, 0, 24, 33, 76, 39, 58, 2, 0, 66, 29, 15, 54, 0, 78, 36, 52, 0, 0, 75, 0, 51|];