order = 9;
grid = [|38, 72, 0, 0, 21, 76, 37, 30, 0, 5, 48, 11, 17, 19, 23, 53, 0, 36, 73, 0, 0, 74, 7, 0, 2, 10, 71, 59, 9, 24, 3, 0, 0, 0, 0, 0, 22, 56, 0, 41, 20, 34, 0, 8, 63, 1, 0, 31, 0, 42, 61, 4, 0, 50, 46, 75, 45, 69, 68, 66, 0, 80, 60, 57, 70, 0, 15, 0, 81, 0, 0, 55, 79, 49, 0, 62, 0, 6, 40, 67, 0
|60, 0, 67, 68, 10, 20, 0, 62, 0, 30, 12, 33, 79, 16, 46, 22, 21, 40, 6, 17, 0, 64, 14, 4, 0, 0, 63, 32, 39, 73, 54, 74, 57, 61, 8, 37, 50, 0, 23, 0, 26, 36, 0, 18, 75, 29, 5, 0, 49, 47, 0, 71, 58, 55, 19, 44, 35, 15, 0, 70, 0, 0, 34, 9, 78, 13, 11, 7, 3, 0, 72, 41, 43, 0, 0, 0, 0, 42, 45, 0, 0
|46, 0, 54, 6, 47, 77, 22, 0, 49, 73, 51, 0, 0, 0, 75, 56, 0, 1, 62, 52, 38, 0, 43, 67, 0, 13, 0, 0, 0, 48, 34, 2, 21, 68, 7, 72, 60, 79, 27, 24, 19, 0, 42, 57, 29, 80, 17, 14, 0, 76, 0, 20, 10, 44, 5, 74, 0, 0, 28, 23, 4, 40, 30, 0, 65, 39, 18, 63, 53, 66, 64, 16, 25, 11, 15, 0, 37, 12, 8, 9, 36
|42, 41, 59, 57, 63, 0, 16, 0, 0, 81, 47, 74, 44, 0, 26, 27, 13, 18, 69, 22, 46, 55, 0, 30, 66, 0, 78, 0, 0, 60, 4, 0, 77, 45, 38, 1, 15, 39, 0, 9, 25, 11, 49, 65, 61, 34, 67, 68, 72, 0, 0, 0, 36, 79, 0, 20, 50, 0, 7, 0, 0, 71, 8, 14, 0, 43, 0, 31, 0, 0, 10, 40, 0, 70, 32, 51, 2, 21, 28, 0, 56
|34, 50, 0, 48, 52, 51, 0, 0, 0, 66, 39, 0, 0, 59, 0, 41, 0, 0, 15, 72, 29, 68, 8, 45, 0, 61, 1, 28, 0, 0, 42, 69, 23, 75, 36, 5, 0, 46, 73, 12, 7, 47, 71, 81, 78, 63, 26, 77, 70, 0, 0, 57, 0, 60, 13, 21, 64, 16, 67, 76, 31, 0, 3, 20, 33, 0, 62, 22, 0, 56, 54, 38, 80, 0, 53, 0, 19, 74, 0, 0, 0
|44, 0, 8, 71, 56, 74, 15, 81, 9, 0, 52, 29, 3, 0, 61, 77, 0, 60, 58, 42, 11, 49, 0, 12, 0, 79, 0, 50, 67, 0, 0, 0, 0, 13, 55, 14, 69, 66, 45, 0, 0, 68, 0, 43, 17, 19, 28, 21, 62, 37, 27, 39, 38, 40, 26, 53, 72, 0, 78, 0, 6, 51, 32, 73, 48, 0, 23, 0, 0, 75, 80, 0, 41, 59, 0, 22, 0, 1, 4, 24, 10
|0, 0, 0, 0, 0, 40, 1, 11, 70, 76, 2, 57, 0, 24, 0, 69, 6, 42, 81, 0, 0, 44, 36, 54, 0, 0, 0, 0, 31, 10, 62, 19, 25, 0, 12, 0, 0, 13, 48, 59, 0, 35, 3, 72, 0, 46, 0, 51, 0, 0, 74, 7, 0, 64, 27, 9, 39, 58, 65, 14, 0, 47, 0, 52, 79, 0, 0, 17, 71, 49, 32, 30, 0, 5, 23, 66, 50, 26, 0, 61, 0
|13, 69, 4, 23, 36, 7, 73, 61, 0, 0, 63, 55, 70, 10, 72, 49, 25, 0, 5, 9, 39, 76, 50, 48, 0, 41, 31, 0, 65, 35, 26, 15, 0, 66, 58, 0, 6, 0, 2, 80, 37, 14, 21, 0, 62, 0, 0, 78, 56, 33, 43, 32, 16, 12, 1, 42, 0, 77, 18, 0, 22, 0, 79, 0, 0, 28, 47, 59, 67, 0, 24, 68, 46, 57, 29, 54, 64, 3, 0, 0, 60
|64, 31, 0, 2, 43, 5, 0, 0, 39, 68, 28, 0, 0, 0, 78, 8, 80, 0, 57, 19, 0, 53, 23, 37, 24, 26, 0, 0, 76, 49, 56, 6, 46, 0, 81, 22, 0, 33, 58, 0, 4, 40, 52, 0, 0, 0, 0, 41, 66, 0, 59, 35, 54, 30, 0, 0, 0, 25, 12, 62, 0, 0, 61, 0, 77, 69, 0, 44, 50, 0, 0, 0, 47, 48, 63, 7, 14, 20, 71, 0, 0
|36, 52, 77, 42, 0, 32, 76, 39, 43, 9, 56, 45, 0, 0, 17, 0, 2, 37, 80, 11, 73, 0, 35, 0, 26, 33, 50, 69, 59, 13, 0, 22, 74, 0, 4, 53, 0, 24, 40, 16, 0, 1, 67, 47, 0, 0, 48, 57, 75, 63, 6, 0, 21, 68, 23, 46, 28, 0, 44, 60, 0, 78, 14, 8, 0, 58, 66, 41, 5, 25, 0, 70, 62, 72, 0, 19, 0, 30, 15, 79, 55
|15, 0, 41, 0, 6, 8, 0, 38, 2, 78, 0, 19, 0, 0, 71, 32, 0, 0, 0, 16, 18, 5, 48, 68, 0, 0, 75, 31, 0, 80, 47, 56, 60, 20, 52, 46, 0, 74, 0, 29, 0, 0, 0, 0, 12, 24, 0, 49, 0, 28, 55, 54, 37, 0, 0, 13, 4, 34, 39, 61, 0, 25, 77, 0, 0, 45, 7, 0, 22, 51, 0, 9, 0, 0, 0, 65, 0, 11, 64, 0, 17
|48, 67, 45, 20, 0, 80, 46, 75, 71, 0, 77, 0, 12, 76, 0, 0, 60, 16, 0, 47, 49, 43, 0, 24, 0, 8, 19, 7, 0, 78, 55, 0, 40, 35, 42, 68, 65, 0, 25, 69, 10, 30, 64, 0, 23, 41, 14, 50, 38, 72, 39, 0, 15, 11, 0, 2, 81, 0, 9, 57, 66, 0, 27, 56, 0, 6, 17, 0, 0, 0, 3, 59, 0, 44, 74, 4, 34, 28, 58, 0, 0
|40, 1, 51, 0, 13, 55, 7, 58, 63, 47, 74, 75, 0, 43, 0, 57, 29, 64, 4, 0, 59, 77, 76, 23, 45, 78, 72, 0, 0, 14, 32, 17, 30, 34, 0, 18, 0, 28, 52, 54, 15, 33, 27, 79, 2, 22, 25, 61, 71, 9, 0, 73, 56, 67, 8, 0, 0, 6, 0, 80, 21, 12, 53, 36, 0, 16, 44, 69, 37, 0, 0, 10, 0, 46, 24, 39, 70, 0, 31, 0, 0
|16, 0, 31, 79, 0, 78, 54, 57, 37, 72, 1, 23, 13, 51, 0, 62, 42, 80, 30, 0, 44, 0, 25, 40, 15, 66, 64, 0, 0, 0, 0, 0, 58, 19, 43, 81, 0, 22, 53, 0, 49, 0, 0, 14, 11, 4, 60, 0, 34, 27, 0, 33, 70, 74, 68, 0, 24, 29, 0, 41, 0, 3, 18, 76, 0, 0, 63, 35, 32, 39, 28, 52, 56, 0, 67, 0, 71, 38, 59, 20, 0
|56, 60, 33, 66, 61, 64, 0, 0, 30, 55, 11, 63, 46, 67, 0, 65, 0, 34, 71, 12, 28, 62, 81, 0, 9, 57, 36, 25, 29, 0, 21, 49, 6, 37, 0, 79, 38, 5, 0, 45, 8, 0, 76, 20, 48, 0, 13, 32, 0, 0, 58, 53, 0, 31, 74, 54, 19, 22, 0, 0, 40, 0, 70, 0, 80, 42, 24, 15, 2, 4, 73, 14, 23, 52, 10, 18, 51, 0, 1, 43, 27
|19, 81, 17, 0, 34, 22, 74, 25, 11, 41, 0, 15, 6, 0, 28, 0, 44, 0, 67, 58, 0, 56, 0, 14, 0, 51, 27, 72, 0, 77, 16, 54, 63, 10, 0, 8, 43, 68, 80, 3, 39, 0, 62, 32, 0, 35, 0, 79, 0, 23, 30, 0, 5, 0, 20, 64, 69, 75, 76, 50, 65, 42, 73, 71, 0, 0, 57, 53, 29, 55, 0, 60, 33, 21, 49, 0, 0, 78, 0, 47, 26
|28, 68, 0, 24, 23, 0, 62, 0, 0, 4, 73, 20, 14, 58, 25, 36, 33, 8, 3, 13, 1, 0, 52, 0, 60, 55, 42, 64, 0, 5, 48, 65, 26, 39, 0, 0, 66, 78, 61, 71, 0, 0, 9, 6, 34, 17, 47, 43, 80, 81, 10, 46, 44, 51, 0, 32, 63, 37, 79, 45, 7, 35, 72, 27, 38, 49, 0, 77, 54, 30, 40, 19, 22, 16, 69, 0, 57, 50, 0, 76, 53
|0, 10, 9, 14, 50, 4, 0, 0, 0, 7, 59, 0, 22, 49, 69, 48, 0, 31, 37, 0, 0, 0, 54, 6, 39, 38, 0, 0, 73, 62, 0, 44, 28, 57, 33, 0, 13, 0, 81, 21, 0, 0, 0, 0, 60, 0, 0, 20, 42, 77, 66, 0, 65, 52, 51, 58, 17, 0, 15, 0, 0, 67, 56, 78, 0, 0, 46, 12, 64, 68, 79, 43, 0, 0, 0, 0, 8, 80, 61, 0, 35
|6, 0, 23, 0, 0, 14, 12, 0, 24, 0, 66, 56, 32, 35, 55, 17, 65, 19, 11, 54, 31, 0, 5, 42, 28, 0, 41, 75, 61, 16, 63, 79, 0, 53, 45, 0, 0, 71, 69, 0, 18, 37, 0, 0, 47, 78, 0, 44, 50, 74, 0, 25, 73, 15, 40, 0, 0, 0, 0, 0, 57, 1, 80, 46, 43, 0, 58, 30, 34, 81, 9, 0, 51, 60, 21, 77, 29, 64, 7, 39, 68
|0, 38, 78, 0, 0, 0, 40, 0, 69, 42, 0, 70, 0, 4, 48, 72, 0, 26, 27, 14, 55, 81, 0, 0, 67, 21, 0, 0, 77, 2, 0, 31, 19, 0, 1, 50, 20, 80, 10, 23, 0, 79, 74, 0, 65, 0, 51, 9, 33, 29, 64, 0, 0, 28, 16, 60, 0, 66, 11, 75, 46, 68, 49, 24, 32, 3, 0, 37, 63, 0, 53, 36, 17, 34, 0, 30, 62, 0, 41, 5, 0
|21, 73, 81, 0, 0, 58, 55, 1, 0, 0, 49, 7, 51, 0, 27, 6, 3, 69, 0, 37, 79, 0, 30, 60, 35, 50, 24, 33, 42, 59, 0, 0, 64, 80, 65, 48, 54, 11, 29, 39, 68, 0, 78, 28, 76, 32, 16, 0, 57, 20, 0, 2, 22, 26, 52, 63, 31, 45, 14, 38, 47, 34, 13, 18, 0, 0, 67, 62, 0, 70, 0, 0, 44, 43, 71, 74, 66, 56, 0, 53, 0
|39, 16, 0, 10, 37, 70, 64, 71, 74, 79, 23, 76, 0, 36, 8, 50, 63, 9, 68, 51, 57, 0, 53, 26, 38, 22, 34, 0, 58, 17, 15, 55, 0, 43, 28, 0, 45, 21, 49, 62, 30, 13, 44, 31, 81, 5, 66, 75, 27, 0, 14, 24, 0, 48, 77, 29, 78, 35, 0, 12, 42, 72, 65, 4, 41, 61, 2, 40, 0, 73, 11, 0, 0, 32, 0, 25, 33, 59, 18, 46, 69
|31, 29, 0, 0, 0, 0, 19, 0, 15, 0, 57, 44, 43, 1, 73, 34, 0, 77, 20, 0, 10, 4, 49, 66, 0, 0, 0, 62, 0, 81, 41, 71, 0, 24, 13, 54, 0, 0, 56, 50, 58, 3, 48, 53, 9, 0, 0, 12, 0, 40, 0, 63, 59, 21, 0, 67, 6, 7, 64, 5, 25, 39, 36, 17, 0, 22, 80, 55, 0, 0, 68, 42, 78, 26, 38, 28, 0, 27, 65, 23, 61
|51, 0, 0, 0, 66, 0, 0, 0, 17, 0, 61, 38, 0, 81, 15, 0, 0, 0, 0, 71, 0, 0, 0, 0, 19, 1, 9, 76, 8, 21, 44, 34, 0, 0, 0, 35, 12, 2, 0, 32, 59, 0, 73, 55, 41, 79, 10, 0, 68, 62, 7, 0, 67, 46, 0, 37, 43, 28, 0, 53, 27, 0, 23, 33, 26, 78, 14, 56, 57, 77, 74, 64, 0, 24, 42, 0, 58, 36, 0, 48, 22
|62, 48, 79, 0, 0, 41, 0, 42, 5, 80, 29, 30, 0, 64, 0, 67, 0, 0, 13, 0, 12, 0, 0, 77, 8, 65, 0, 14, 72, 57, 66, 68, 51, 18, 20, 27, 52, 0, 36, 63, 1, 46, 24, 75, 22, 71, 81, 58, 19, 53, 49, 0, 61, 0, 17, 10, 26, 0, 33, 32, 9, 44, 69, 45, 28, 38, 0, 60, 0, 50, 15, 76, 4, 35, 47, 0, 31, 40, 3, 55, 54
|61, 49, 0, 13, 27, 47, 63, 4, 57, 24, 33, 0, 0, 28, 60, 12, 62, 5, 0, 36, 69, 0, 0, 56, 0, 0, 0, 0, 0, 39, 25, 11, 22, 46, 26, 30, 64, 38, 17, 0, 0, 15, 0, 77, 42, 0, 3, 35, 0, 54, 0, 41, 55, 0, 0, 0, 51, 50, 0, 58, 0, 74, 20, 48, 71, 66, 16, 1, 65, 0, 52, 79, 75, 80, 0, 9, 0, 37, 67, 8, 0
|18, 0, 0, 28, 0, 26, 0, 34, 60, 40, 21, 53, 75, 46, 22, 0, 0, 0, 63, 0, 0, 33, 78, 62, 80, 2, 0, 0, 0, 3, 37, 23, 4, 36, 9, 6, 67, 7, 66, 0, 0, 8, 0, 19, 0, 77, 0, 0, 0, 69, 65, 0, 45, 17, 0, 0, 0, 0, 41, 24, 73, 0, 55, 31, 0, 0, 54, 39, 0, 0, 29, 0, 50, 81, 1, 57, 10, 0, 0, 12, 0
|32, 0, 46, 75, 25, 0, 51, 43, 31, 67, 55, 21, 20, 11, 0, 7, 30, 48, 35, 38, 65, 0, 22, 8, 0, 4, 77, 0, 64, 52, 61, 28, 33, 6, 0, 0, 72, 53, 39, 47, 76, 74, 0, 0, 50, 37, 0, 34, 0, 10, 41, 66, 12, 9, 78, 0, 60, 42, 1, 68, 70, 0, 54, 79, 5, 14, 0, 0, 23, 0, 71, 63, 69, 0, 36, 0, 17, 0, 16, 15, 24
|59, 70, 64, 9, 60, 69, 27, 80, 23, 29, 36, 0, 15, 65, 2, 0, 0, 0, 66, 0, 0, 7, 26, 0, 10, 0, 49, 24, 40, 37, 76, 18, 0, 0, 63, 19, 14, 1, 41, 25, 43, 6, 68, 0, 56, 50, 21, 52, 54, 78, 0, 45, 53, 0, 0, 61, 34, 74, 35, 79, 0, 0, 0, 38, 0, 0, 30, 0, 0, 0, 8, 0, 0, 31, 0, 13, 0, 67, 11, 0, 28
|0, 0, 50, 0, 72, 0, 4, 0, 42, 26, 46, 0, 23, 66, 34, 0, 69, 57, 39, 48, 54, 41, 37, 0, 31, 11, 0, 51, 2, 15, 0, 81, 14, 0, 0, 9, 73, 60, 65, 22, 70, 0, 0, 38, 5, 58, 0, 18, 79, 17, 0, 0, 28, 24, 30, 0, 71, 76, 62, 0, 75, 0, 0, 68, 0, 0, 0, 32, 0, 3, 1, 25, 20, 74, 56, 47, 43, 8, 63, 40, 21
|14, 17, 58, 41, 29, 0, 0, 3, 0, 37, 80, 0, 73, 68, 24, 59, 12, 76, 53, 56, 0, 78, 71, 27, 55, 0, 0, 70, 38, 0, 22, 0, 5, 1, 66, 21, 36, 0, 4, 18, 77, 0, 33, 63, 0, 0, 32, 0, 0, 8, 0, 0, 7, 61, 0, 0, 65, 64, 50, 20, 13, 26, 0, 74, 9, 0, 28, 42, 60, 31, 6, 75, 30, 0, 48, 0, 0, 0, 62, 0, 44
|26, 28, 0, 0, 68, 0, 0, 0, 67, 56, 0, 0, 0, 74, 0, 44, 75, 50, 70, 24, 34, 0, 1, 61, 0, 18, 47, 53, 41, 0, 0, 13, 79, 0, 23, 69, 16, 57, 35, 20, 21, 49, 0, 2, 10, 0, 0, 5, 22, 0, 38, 36, 3, 0, 7, 31, 52, 63, 0, 8, 15, 48, 0, 81, 76, 55, 0, 80, 17, 59, 0, 37, 9, 0, 14, 0, 42, 29, 0, 64, 45
|20, 0, 2, 0, 0, 15, 66, 49, 65, 3, 41, 43, 33, 39, 0, 64, 61, 78, 76, 44, 14, 79, 0, 25, 29, 36, 52, 16, 54, 0, 50, 67, 0, 58, 48, 12, 0, 75, 13, 0, 71, 31, 23, 17, 0, 47, 30, 0, 0, 19, 60, 74, 0, 0, 57, 24, 32, 18, 69, 0, 53, 0, 45, 21, 62, 56, 10, 11, 35, 22, 0, 0, 70, 51, 34, 1, 4, 7, 0, 68, 73
|0, 78, 0, 0, 5, 52, 79, 40, 19, 0, 4, 32, 72, 18, 42, 1, 0, 49, 0, 0, 68, 51, 9, 20, 0, 0, 0, 71, 0, 0, 80, 0, 39, 60, 77, 31, 34, 0, 0, 0, 0, 0, 11, 0, 66, 62, 73, 63, 0, 0, 0, 59, 14, 0, 22, 28, 0, 12, 2, 21, 23, 29, 37, 65, 0, 50, 27, 43, 70, 58, 44, 69, 0, 6, 0, 35, 3, 0, 53, 41, 75
|0, 8, 44, 0, 48, 0, 36, 13, 0, 0, 54, 52, 0, 31, 79, 71, 22, 6, 21, 69, 32, 0, 60, 59, 63, 0, 0, 0, 0, 74, 73, 57, 0, 0, 35, 0, 37, 0, 0, 61, 78, 9, 0, 3, 51, 0, 0, 42, 46, 39, 20, 70, 23, 29, 0, 40, 0, 0, 47, 0, 14, 56, 4, 0, 2, 0, 19, 0, 7, 53, 77, 66, 0, 65, 80, 0, 0, 55, 0, 0, 50
|0, 21, 30, 0, 74, 18, 0, 35, 7, 14, 8, 81, 0, 0, 9, 0, 38, 63, 50, 2, 58, 16, 40, 5, 75, 62, 6, 27, 0, 0, 59, 42, 36, 56, 3, 0, 19, 15, 0, 26, 79, 32, 12, 64, 55, 43, 31, 69, 76, 71, 0, 0, 0, 1, 0, 80, 25, 0, 77, 72, 0, 0, 17, 51, 20, 0, 0, 0, 13, 0, 0, 0, 0, 33, 78, 52, 60, 0, 0, 54, 23
|1, 0, 71, 0, 0, 73, 10, 7, 44, 0, 25, 17, 69, 78, 53, 21, 66, 0, 54, 39, 0, 48, 61, 0, 12, 45, 67, 2, 52, 46, 0, 0, 31, 0, 76, 24, 62, 50, 0, 0, 28, 23, 0, 0, 30, 49, 6, 74, 0, 79, 0, 19, 0, 58, 47, 56, 59, 0, 60, 0, 36, 0, 40, 29, 0, 0, 0, 72, 38, 9, 0, 80, 81, 0, 8, 42, 22, 70, 0, 16, 11
|58, 0, 32, 0, 8, 66, 33, 22, 0, 0, 7, 26, 57, 77, 45, 73, 0, 35, 42, 68, 64, 0, 0, 51, 0, 0, 2, 0, 0, 79, 6, 59, 34, 0, 0, 0, 80, 31, 0, 0, 40, 81, 63, 11, 0, 56, 62, 0, 0, 12, 0, 0, 0, 0, 55, 5, 0, 17, 30, 39, 18, 13, 16, 25, 0, 70, 36, 52, 24, 0, 0, 0, 28, 41, 3, 0, 0, 0, 9, 0, 46
|23, 43, 27, 62, 69, 39, 35, 0, 38, 0, 0, 0, 8, 54, 20, 0, 68, 0, 59, 30, 13, 0, 47, 0, 0, 60, 74, 12, 0, 71, 19, 50, 0, 3, 17, 0, 42, 55, 22, 0, 24, 0, 65, 1, 36, 0, 9, 0, 52, 25, 73, 5, 81, 16, 49, 77, 61, 0, 6, 0, 0, 64, 0, 40, 58, 53, 45, 48, 33, 28, 41, 67, 72, 7, 79, 34, 78, 18, 26, 0, 63
|2, 0, 70, 53, 42, 3, 26, 51, 45, 6, 65, 5, 0, 40, 47, 0, 1, 67, 34, 0, 7, 0, 80, 0, 0, 49, 0, 9, 33, 55, 36, 62, 37, 64, 27, 13, 68, 12, 0, 0, 38, 0, 16, 21, 46, 61, 0, 0, 41, 0, 0, 77, 72, 0, 14, 23, 79, 32, 52, 28, 20, 22, 0, 0, 17, 0, 59, 0, 39, 43, 0, 0, 19, 0, 0, 56, 44, 0, 74, 4, 25
|0, 80, 0, 0, 67, 0, 0, 64, 75, 0, 0, 61, 0, 72, 0, 0, 23, 13, 0, 18, 37, 35, 55, 0, 79, 52, 4, 65, 22, 56, 0, 20, 1, 0, 0, 58, 0, 0, 14, 0, 41, 71, 19, 49, 44, 40, 63, 3, 0, 0, 15, 51, 17, 7, 69, 0, 42, 0, 57, 0, 26, 73, 48, 32, 68, 0, 0, 0, 66, 78, 5, 6, 27, 12, 59, 24, 36, 76, 43, 0, 62
|74, 46, 49, 31, 0, 11, 13, 0, 59, 0, 0, 0, 55, 60, 80, 0, 0, 0, 8, 75, 6, 24, 77, 0, 0, 25, 0, 81, 69, 0, 72, 78, 0, 0, 5, 28, 2, 0, 43, 64, 32, 73, 47, 0, 57, 0, 36, 0, 29, 4, 45, 22, 0, 14, 0, 68, 9, 38, 66, 0, 37, 58, 0, 23, 19, 65, 20, 79, 56, 15, 34, 0, 48, 0, 52, 53, 40, 51, 21, 30, 0
|29, 57, 0, 56, 0, 68, 30, 17, 16, 70, 24, 0, 48, 44, 62, 0, 19, 14, 38, 0, 23, 0, 0, 43, 0, 27, 0, 49, 45, 0, 51, 77, 11, 25, 32, 0, 53, 18, 9, 0, 35, 54, 79, 52, 0, 75, 33, 64, 21, 55, 0, 65, 0, 0, 81, 0, 0, 3, 46, 31, 8, 15, 71, 13, 10, 63, 0, 2, 42, 76, 7, 50, 61, 20, 0, 80, 0, 60, 6, 37, 39
|24, 14, 40, 65, 0, 25, 0, 0, 48, 0, 43, 36, 64, 34, 31, 9, 0, 0, 46, 53, 50, 22, 0, 69, 62, 28, 56, 21, 0, 0, 0, 16, 42, 44, 57, 7, 27, 0, 60, 10, 33, 59, 45, 0, 39, 0, 0, 23, 0, 68, 37, 0, 0, 0, 72, 76, 67, 51, 0, 0, 35, 0, 0, 1, 30, 74, 0, 8, 26, 47, 12, 0, 66, 0, 55, 15, 0, 77, 5, 73, 38
|72, 63, 6, 52, 77, 0, 9, 78, 79, 51, 0, 2, 58, 50, 59, 39, 76, 0, 29, 40, 19, 0, 20, 32, 5, 0, 0, 0, 53, 67, 60, 35, 43, 41, 0, 0, 61, 48, 15, 0, 74, 7, 17, 13, 0, 10, 44, 27, 1, 18, 28, 0, 46, 8, 0, 34, 12, 70, 24, 54, 0, 21, 0, 69, 55, 57, 0, 0, 0, 14, 16, 4, 64, 45, 0, 23, 65, 47, 68, 31, 71
|63, 32, 57, 1, 0, 6, 70, 76, 20, 49, 75, 22, 41, 9, 18, 0, 58, 0, 45, 25, 30, 46, 2, 0, 37, 64, 0, 56, 48, 38, 13, 0, 62, 65, 80, 16, 0, 0, 0, 17, 53, 0, 31, 0, 73, 14, 43, 59, 0, 0, 0, 3, 74, 0, 0, 0, 0, 0, 0, 55, 78, 0, 0, 39, 67, 68, 5, 61, 72, 12, 60, 71, 26, 0, 35, 27, 0, 0, 50, 19, 4
|67, 24, 0, 17, 31, 33, 78, 48, 41, 62, 16, 65, 26, 57, 66, 35, 0, 0, 10, 0, 40, 60, 11, 79, 0, 54, 21, 43, 0, 69, 0, 61, 68, 0, 73, 74, 23, 34, 38, 75, 0, 22, 50, 0, 0, 0, 58, 0, 25, 0, 0, 0, 47, 2, 0, 72, 20, 39, 71, 64, 0, 46, 59, 37, 0, 0, 8, 28, 36, 0, 51, 29, 1, 9, 0, 3, 80, 53, 76, 70, 0
|0, 27, 36, 43, 80, 0, 0, 0, 56, 23, 34, 67, 0, 0, 3, 60, 74, 0, 0, 76, 8, 0, 66, 7, 0, 19, 68, 0, 46, 0, 70, 0, 10, 71, 21, 26, 59, 30, 20, 65, 62, 12, 0, 0, 18, 53, 45, 0, 77, 50, 17, 0, 49, 39, 54, 0, 47, 14, 61, 4, 0, 0, 6, 0, 57, 81, 48, 13, 9, 42, 0, 0, 16, 28, 0, 33, 0, 72, 55, 63, 52
|75, 2, 69, 0, 65, 46, 58, 55, 26, 53, 27, 8, 21, 63, 0, 5, 70, 71, 23, 31, 36, 0, 56, 0, 14, 0, 39, 0, 79, 30, 77, 32, 3, 72, 25, 0, 0, 45, 51, 68, 52, 67, 0, 29, 49, 60, 0, 28, 0, 0, 9, 0, 0, 78, 37, 33, 13, 62, 40, 17, 0, 43, 0, 16, 73, 0, 34, 50, 74, 0, 18, 20, 24, 0, 0, 10, 48, 66, 0, 81, 57
|0, 9, 0, 30, 0, 21, 0, 29, 22, 12, 0, 0, 2, 55, 14, 0, 79, 54, 72, 43, 4, 67, 51, 58, 61, 34, 0, 19, 5, 0, 0, 0, 78, 0, 37, 0, 0, 26, 33, 0, 36, 39, 0, 69, 6, 48, 23, 8, 73, 70, 0, 0, 80, 63, 53, 52, 49, 24, 25, 74, 28, 50, 7, 0, 0, 44, 0, 27, 1, 0, 66, 77, 0, 42, 60, 17, 20, 45, 0, 65, 41
|11, 4, 42, 73, 45, 61, 52, 14, 10, 69, 0, 72, 56, 47, 30, 25, 31, 0, 0, 26, 9, 0, 0, 71, 20, 12, 59, 0, 0, 53, 0, 51, 0, 0, 0, 39, 55, 0, 3, 0, 5, 58, 46, 66, 74, 65, 34, 0, 32, 0, 13, 81, 68, 0, 80, 0, 0, 0, 0, 67, 2, 57, 0, 0, 24, 19, 0, 0, 43, 23, 35, 22, 0, 8, 40, 36, 54, 44, 79, 7, 0
|7, 40, 35, 3, 62, 23, 0, 50, 8, 38, 45, 77, 10, 6, 0, 42, 4, 0, 0, 0, 70, 65, 0, 22, 49, 44, 0, 54, 66, 11, 67, 0, 12, 76, 0, 55, 71, 9, 0, 48, 0, 0, 61, 24, 0, 72, 29, 0, 20, 75, 0, 0, 0, 19, 0, 30, 0, 27, 51, 18, 0, 31, 81, 0, 0, 0, 26, 25, 15, 17, 63, 58, 21, 68, 43, 2, 5, 0, 78, 0, 34
|68, 77, 25, 74, 39, 53, 0, 0, 0, 13, 0, 40, 50, 20, 43, 19, 48, 33, 16, 55, 63, 6, 32, 0, 27, 0, 0, 34, 81, 58, 0, 8, 0, 0, 44, 52, 1, 0, 54, 57, 0, 0, 41, 0, 79, 26, 61, 22, 67, 0, 4, 30, 64, 0, 65, 69, 36, 0, 42, 73, 5, 60, 12, 49, 0, 11, 70, 76, 80, 62, 46, 0, 0, 56, 75, 0, 0, 15, 38, 0, 0
|0, 51, 13, 38, 15, 49, 34, 66, 81, 44, 17, 78, 0, 61, 7, 80, 46, 59, 48, 29, 0, 0, 74, 57, 41, 47, 53, 20, 0, 0, 28, 40, 0, 33, 2, 42, 0, 72, 63, 60, 0, 27, 43, 0, 19, 0, 0, 16, 5, 0, 24, 37, 0, 71, 70, 22, 68, 9, 10, 0, 77, 0, 26, 0, 54, 0, 0, 0, 4, 0, 14, 65, 31, 25, 0, 67, 23, 0, 32, 0, 58
|10, 22, 75, 0, 35, 12, 45, 0, 0, 59, 0, 41, 52, 0, 40, 24, 73, 4, 36, 49, 43, 0, 68, 29, 33, 0, 0, 11, 20, 0, 0, 30, 0, 0, 6, 17, 28, 23, 76, 2, 54, 0, 0, 0, 58, 0, 50, 7, 0, 64, 48, 0, 77, 81, 9, 0, 55, 47, 0, 56, 0, 18, 42, 63, 25, 60, 53, 0, 14, 79, 0, 0, 3, 71, 65, 0, 21, 62, 0, 32, 0
|0, 0, 34, 19, 0, 81, 49, 0, 61, 0, 0, 0, 36, 21, 10, 0, 55, 25, 0, 73, 0, 57, 4, 75, 48, 77, 60, 0, 0, 23, 0, 0, 0, 74, 47, 0, 9, 32, 0, 42, 0, 70, 29, 0, 27, 13, 0, 0, 0, 30, 33, 0, 79, 56, 3, 7, 22, 52, 31, 78, 76, 65, 1, 2, 45, 15, 41, 54, 11, 0, 39, 24, 53, 67, 44, 40, 0, 0, 35, 0, 80
|17, 25, 0, 0, 78, 60, 2, 0, 51, 0, 5, 3, 77, 71, 56, 74, 43, 0, 61, 32, 0, 70, 31, 19, 52, 0, 0, 8, 28, 0, 0, 45, 0, 67, 34, 29, 47, 0, 0, 49, 48, 65, 0, 0, 14, 0, 41, 73, 12, 58, 68, 72, 9, 0, 6, 0, 66, 23, 37, 0, 0, 4, 64, 80, 0, 0, 0, 75, 30, 0, 13, 0, 0, 38, 57, 63, 15, 0, 69, 50, 0
|0, 58, 26, 0, 30, 9, 32, 31, 0, 48, 35, 54, 27, 0, 19, 81, 0, 0, 1, 45, 3, 38, 39, 0, 0, 76, 37, 46, 0, 42, 57, 0, 2, 59, 71, 0, 21, 0, 6, 15, 0, 56, 80, 67, 4, 0, 69, 53, 36, 0, 0, 40, 0, 23, 34, 11, 77, 0, 0, 25, 62, 0, 0, 64, 0, 8, 73, 0, 0, 0, 0, 0, 14, 61, 7, 0, 52, 79, 22, 0, 74
|43, 53, 0, 33, 0, 42, 0, 0, 28, 0, 0, 0, 0, 14, 32, 0, 0, 20, 0, 15, 22, 11, 13, 2, 18, 69, 0, 4, 63, 19, 9, 0, 7, 48, 79, 49, 0, 81, 62, 0, 73, 24, 38, 0, 77, 0, 0, 0, 17, 66, 5, 52, 25, 0, 71, 0, 41, 0, 16, 30, 50, 0, 58, 47, 27, 72, 0, 23, 31, 37, 67, 21, 0, 64, 46, 55, 75, 0, 0, 0, 12
|52, 18, 48, 0, 11, 38, 0, 73, 14, 64, 26, 0, 62, 23, 0, 51, 15, 7, 24, 41, 17, 63, 0, 0, 0, 0, 79, 0, 0, 65, 0, 76, 81, 21, 40, 0, 75, 10, 0, 0, 72, 66, 53, 50, 25, 3, 80, 0, 0, 32, 57, 61, 20, 27, 2, 43, 54, 49, 8, 0, 69, 28, 35, 12, 74, 0, 0, 70, 58, 6, 59, 78, 0, 0, 68, 31, 56, 4, 0, 0, 47
|57, 0, 0, 0, 79, 65, 8, 23, 0, 39, 9, 69, 61, 2, 0, 38, 18, 53, 7, 6, 20, 0, 64, 78, 0, 0, 28, 0, 50, 68, 52, 10, 66, 55, 0, 3, 11, 0, 31, 5, 0, 41, 0, 33, 26, 21, 19, 70, 24, 0, 0, 60, 0, 54, 0, 73, 75, 59, 29, 0, 17, 0, 0, 0, 0, 40, 32, 4, 44, 0, 0, 56, 77, 27, 76, 48, 30, 81, 25, 1, 72
|4, 0, 0, 70, 40, 24, 0, 0, 50, 65, 31, 42, 47, 30, 58, 0, 34, 75, 55, 66, 56, 9, 72, 44, 0, 46, 0, 80, 0, 0, 0, 12, 73, 26, 0, 32, 57, 43, 0, 0, 0, 63, 37, 0, 45, 28, 59, 29, 0, 0, 22, 0, 35, 76, 10, 19, 0, 68, 0, 13, 39, 0, 0, 0, 69, 7, 51, 3, 20, 48, 38, 61, 2, 0, 17, 41, 0, 0, 60, 11, 0
|0, 64, 0, 39, 0, 0, 29, 63, 0, 11, 67, 13, 49, 45, 0, 0, 72, 68, 12, 50, 0, 0, 21, 35, 59, 23, 62, 18, 43, 41, 0, 0, 56, 77, 61, 15, 74, 40, 16, 79, 3, 0, 0, 30, 0, 6, 65, 2, 37, 46, 31, 47, 4, 38, 60, 0, 0, 80, 0, 0, 32, 5, 0, 26, 0, 0, 52, 66, 10, 0, 55, 28, 34, 0, 19, 73, 24, 9, 42, 0, 8
|0, 7, 0, 25, 1, 19, 81, 0, 78, 0, 30, 49, 4, 75, 65, 40, 39, 27, 2, 67, 71, 58, 0, 21, 64, 48, 35, 0, 0, 9, 0, 41, 0, 23, 0, 34, 0, 0, 12, 0, 22, 0, 13, 60, 54, 74, 70, 0, 11, 6, 72, 0, 0, 47, 15, 18, 57, 36, 55, 26, 3, 0, 50, 66, 63, 80, 68, 24, 46, 0, 45, 31, 10, 0, 62, 79, 53, 5, 17, 33, 59
|66, 54, 47, 18, 70, 31, 75, 24, 55, 77, 15, 73, 76, 5, 33, 14, 56, 0, 43, 46, 81, 13, 59, 53, 34, 72, 12, 0, 62, 29, 79, 4, 0, 0, 0, 25, 32, 64, 30, 0, 0, 80, 36, 0, 68, 0, 40, 60, 48, 26, 50, 0, 27, 0, 0, 0, 7, 0, 0, 0, 51, 10, 52, 3, 0, 0, 38, 20, 78, 0, 58, 17, 11, 63, 0, 0, 6, 23, 0, 35, 1
|77, 56, 60, 69, 17, 63, 53, 0, 0, 19, 58, 0, 38, 22, 0, 10, 0, 24, 47, 80, 41, 0, 27, 0, 0, 16, 0, 74, 49, 1, 81, 66, 13, 0, 18, 64, 0, 52, 11, 0, 61, 72, 0, 70, 43, 76, 46, 0, 0, 2, 34, 28, 51, 0, 75, 6, 40, 0, 23, 44, 12, 0, 31, 0, 59, 25, 37, 73, 0, 8, 50, 33, 45, 0, 26, 29, 7, 0, 20, 0, 78
|3, 6, 0, 51, 4, 13, 14, 45, 68, 63, 44, 50, 66, 0, 64, 47, 32, 2, 19, 62, 42, 0, 38, 31, 17, 9, 30, 0, 21, 28, 0, 26, 53, 12, 46, 73, 76, 59, 71, 34, 75, 57, 0, 27, 16, 7, 0, 81, 55, 0, 1, 8, 41, 10, 56, 25, 80, 78, 58, 43, 0, 54, 0, 0, 61, 0, 69, 5, 0, 11, 0, 74, 0, 40, 0, 0, 72, 65, 52, 0, 0
|35, 79, 12, 0, 46, 67, 42, 2, 40, 45, 0, 18, 0, 0, 37, 78, 0, 72, 44, 33, 0, 10, 0, 28, 56, 0, 0, 6, 17, 51, 20, 48, 65, 0, 19, 11, 0, 63, 74, 58, 0, 53, 4, 62, 8, 38, 71, 0, 15, 61, 0, 68, 0, 69, 39, 0, 30, 0, 27, 1, 16, 0, 0, 0, 60, 0, 0, 57, 77, 21, 76, 81, 0, 50, 41, 64, 13, 0, 36, 80, 0
|80, 59, 39, 50, 0, 29, 0, 16, 64, 43, 68, 62, 71, 69, 67, 46, 0, 0, 49, 77, 0, 15, 0, 1, 6, 20, 61, 3, 57, 0, 45, 60, 75, 40, 0, 0, 0, 41, 47, 81, 0, 0, 26, 56, 0, 25, 18, 66, 0, 5, 0, 13, 0, 53, 0, 65, 37, 72, 38, 35, 33, 0, 63, 44, 12, 0, 42, 0, 79, 2, 0, 27, 8, 73, 28, 0, 74, 19, 30, 0, 0
|8, 5, 10, 0, 41, 0, 0, 9, 62, 0, 20, 0, 0, 0, 16, 3, 57, 0, 0, 0, 66, 32, 45, 0, 78, 0, 0, 36, 44, 50, 43, 7, 38, 0, 15, 63, 49, 0, 0, 0, 0, 77, 6, 25, 0, 39, 35, 0, 64, 52, 12, 17, 33, 65, 59, 47, 2, 0, 0, 71, 34, 14, 68, 0, 0, 26, 72, 29, 18, 19, 22, 0, 54, 75, 51, 0, 27, 46, 0, 69, 70
|37, 0, 0, 0, 0, 28, 71, 0, 0, 35, 6, 51, 0, 0, 0, 0, 11, 74, 40, 65, 60, 0, 57, 0, 4, 73, 0, 0, 10, 61, 27, 58, 80, 31, 68, 59, 79, 20, 78, 33, 0, 2, 69, 39, 21, 0, 77, 54, 0, 16, 0, 75, 29, 22, 0, 41, 70, 19, 48, 42, 67, 53, 0, 0, 49, 32, 13, 0, 47, 64, 0, 1, 15, 0, 12, 38, 25, 24, 0, 66, 0
|0, 11, 0, 27, 57, 0, 20, 74, 0, 0, 0, 12, 0, 80, 0, 0, 0, 0, 25, 63, 51, 23, 3, 18, 0, 5, 0, 55, 24, 76, 78, 39, 35, 52, 72, 2, 40, 0, 0, 14, 0, 10, 66, 37, 1, 59, 49, 19, 0, 0, 79, 56, 62, 73, 64, 0, 46, 60, 81, 22, 0, 77, 21, 75, 0, 0, 65, 6, 28, 34, 36, 7, 0, 0, 0, 0, 0, 48, 0, 0, 32
|0, 0, 66, 8, 0, 2, 0, 0, 46, 61, 62, 39, 0, 0, 49, 37, 7, 30, 77, 35, 75, 25, 28, 0, 11, 58, 0, 40, 0, 12, 69, 52, 27, 0, 0, 4, 0, 29, 1, 73, 0, 0, 56, 0, 72, 0, 68, 17, 14, 67, 21, 0, 18, 3, 0, 59, 76, 0, 0, 34, 63, 79, 0, 5, 53, 33, 55, 0, 45, 0, 0, 57, 13, 78, 0, 0, 41, 0, 23, 60, 0
|70, 0, 20, 47, 0, 62, 56, 68, 0, 50, 18, 46, 63, 0, 35, 0, 40, 73, 0, 0, 76, 0, 69, 9, 0, 0, 57, 39, 19, 32, 24, 0, 41, 0, 75, 36, 78, 27, 0, 74, 0, 38, 8, 0, 59, 0, 15, 65, 53, 44, 11, 48, 66, 37, 0, 4, 14, 0, 45, 0, 0, 55, 43, 0, 3, 0, 79, 71, 51, 60, 0, 34, 0, 1, 5, 0, 12, 2, 80, 10, 77
|0, 75, 22, 7, 0, 57, 0, 69, 0, 60, 79, 4, 45, 0, 0, 0, 77, 21, 0, 27, 0, 47, 12, 46, 0, 63, 0, 0, 14, 0, 58, 73, 76, 81, 0, 0, 0, 65, 0, 67, 0, 43, 0, 0, 32, 0, 0, 36, 0, 34, 70, 0, 0, 5, 0, 8, 53, 0, 17, 0, 49, 0, 2, 11, 35, 0, 1, 74, 0, 80, 0, 54, 59, 15, 25, 50, 61, 31, 29, 44, 64
|0, 0, 72, 0, 0, 0, 31, 0, 3, 0, 69, 0, 11, 13, 81, 15, 5, 41, 14, 59, 48, 20, 19, 0, 0, 29, 0, 44, 0, 6, 74, 80, 18, 0, 67, 0, 51, 54, 28, 36, 47, 0, 60, 0, 33, 2, 7, 0, 0, 22, 26, 79, 63, 0, 0, 78, 1, 0, 56, 10, 0, 16, 38, 0, 52, 0, 77, 65, 0, 27, 30, 73, 0, 0, 4, 0, 76, 17, 0, 21, 42
|0, 26, 0, 0, 14, 0, 77, 12, 0, 32, 53, 25, 9, 0, 6, 2, 10, 0, 60, 4, 78, 71, 65, 49, 23, 0, 66, 0, 35, 0, 46, 21, 0, 5, 51, 0, 63, 58, 57, 0, 69, 64, 7, 0, 3, 16, 0, 40, 43, 31, 0, 0, 24, 75, 0, 27, 62, 11, 70, 0, 0, 0, 47, 0, 13, 36, 50, 38, 8, 72, 42, 39, 74, 79, 18, 20, 0, 0, 48, 0, 0
|81, 71, 74, 0, 58, 0, 48, 33, 76, 36, 22, 0, 65, 8, 12, 0, 0, 23, 18, 34, 67, 72, 44, 52, 50, 39, 51, 26, 0, 0, 17, 0, 54, 28, 10, 78, 0, 0, 0, 53, 0, 21, 75, 16, 13, 73, 42, 1, 4, 59, 80, 62, 30, 35, 0, 57, 0, 0, 0, 77, 60, 0, 25, 70, 0, 2, 0, 0, 0, 24, 69, 0, 7, 3, 11, 0, 45, 63, 0, 56, 14
|49, 0, 63, 16, 18, 27, 28, 10, 52, 0, 0, 59, 19, 56, 54, 31, 67, 44, 22, 21, 62, 0, 79, 73, 36, 0, 45, 57, 60, 7, 0, 37, 0, 9, 0, 77, 25, 4, 0, 0, 0, 5, 2, 23, 71, 64, 12, 47, 74, 41, 0, 0, 76, 0, 42, 15, 3, 0, 0, 51, 0, 69, 66, 43, 46, 20, 61, 78, 68, 0, 75, 26, 35, 30, 72, 8, 55, 33, 24, 0, 0
|79, 23, 0, 40, 59, 0, 41, 60, 35, 58, 3, 71, 0, 0, 76, 43, 0, 38, 33, 7, 53, 1, 70, 74, 81, 68, 0, 15, 55, 0, 11, 72, 8, 0, 0, 45, 30, 61, 46, 37, 0, 62, 0, 34, 80, 0, 0, 25, 51, 0, 77, 78, 0, 32, 18, 50, 5, 13, 0, 9, 64, 75, 39, 28, 14, 0, 56, 0, 12, 0, 0, 0, 65, 0, 6, 49, 47, 22, 54, 26, 0
|25, 36, 0, 0, 0, 0, 0, 54, 34, 16, 72, 80, 1, 70, 57, 55, 78, 47, 56, 0, 2, 37, 15, 64, 0, 0, 5, 0, 30, 43, 0, 3, 0, 79, 22, 62, 31, 0, 0, 40, 17, 0, 14, 35, 52, 33, 0, 45, 61, 38, 71, 9, 60, 0, 0, 0, 44, 0, 0, 48, 74, 7, 28, 59, 66, 0, 76, 10, 0, 63, 49, 23, 58, 0, 0, 69, 0, 0, 51, 27, 0|];