order = 9;
grid = [|0, 18, 0, 42, 69, 12, 8, 10, 29, 1, 44, 71, 0, 0, 0, 0, 46, 64, 35, 3, 49, 51, 0, 56, 65, 0, 24, 0, 43, 54, 15, 57, 66, 0, 16, 0, 63, 0, 31, 28, 14, 0, 53, 58, 0, 0, 0, 0, 5, 81, 0, 0, 0, 36, 62, 0, 2, 0, 47, 0, 67, 9, 68, 0, 76, 17, 74, 59, 41, 50, 40, 13, 0, 55, 77, 11, 60, 25, 27, 39, 21
|60, 61, 14, 0, 17, 23, 76, 20, 65, 29, 32, 79, 48, 35, 24, 80, 18, 56, 0, 73, 62, 47, 39, 0, 0, 4, 11, 59, 0, 0, 0, 0, 44, 67, 37, 72, 69, 0, 68, 41, 0, 0, 0, 0, 0, 0, 55, 49, 64, 0, 34, 38, 6, 74, 0, 13, 43, 21, 58, 0, 0, 66, 19, 0, 28, 12, 53, 0, 0, 30, 27, 0, 26, 70, 50, 2, 31, 81, 5, 15, 8
|0, 74, 78, 73, 79, 36, 43, 1, 0, 14, 7, 22, 0, 0, 42, 0, 53, 60, 13, 52, 0, 50, 32, 0, 67, 0, 8, 70, 10, 18, 39, 0, 81, 35, 20, 0, 61, 66, 38, 11, 15, 77, 27, 5, 57, 0, 0, 2, 47, 16, 0, 0, 58, 0, 0, 80, 0, 41, 0, 56, 0, 76, 46, 64, 55, 49, 65, 0, 0, 9, 34, 69, 63, 75, 19, 0, 40, 0, 62, 48, 0
|0, 0, 15, 41, 6, 0, 28, 9, 44, 0, 47, 57, 54, 0, 0, 58, 26, 34, 20, 27, 45, 37, 0, 0, 60, 81, 0, 0, 80, 0, 0, 49, 0, 0, 0, 31, 22, 0, 0, 33, 74, 0, 32, 64, 0, 23, 0, 0, 0, 0, 69, 12, 14, 0, 73, 52, 48, 65, 50, 36, 24, 0, 7, 11, 70, 0, 18, 71, 4, 0, 77, 19, 0, 0, 78, 59, 56, 38, 67, 42, 43
|30, 47, 72, 45, 37, 0, 0, 50, 0, 0, 66, 67, 0, 49, 28, 0, 0, 77, 33, 5, 22, 0, 61, 40, 38, 12, 0, 58, 21, 0, 1, 0, 76, 51, 0, 19, 6, 24, 3, 13, 56, 18, 0, 81, 65, 54, 0, 0, 70, 25, 32, 4, 0, 79, 59, 14, 0, 23, 0, 42, 44, 0, 0, 62, 16, 68, 43, 48, 31, 26, 2, 75, 17, 0, 41, 34, 36, 0, 69, 71, 80
|11, 25, 26, 0, 55, 53, 0, 39, 0, 0, 63, 0, 17, 4, 13, 65, 23, 40, 68, 29, 31, 66, 80, 74, 48, 0, 75, 42, 0, 2, 60, 50, 56, 27, 0, 77, 47, 8, 34, 21, 78, 19, 73, 0, 62, 45, 28, 0, 71, 37, 1, 20, 0, 15, 0, 3, 49, 0, 22, 18, 10, 6, 12, 36, 58, 51, 0, 0, 5, 52, 35, 33, 7, 46, 76, 0, 9, 57, 54, 14, 0
|51, 0, 80, 38, 27, 34, 16, 56, 46, 69, 37, 45, 41, 0, 5, 2, 55, 74, 63, 0, 71, 28, 0, 0, 10, 79, 0, 7, 8, 68, 78, 0, 0, 13, 11, 47, 49, 17, 30, 59, 0, 44, 60, 48, 23, 19, 0, 0, 0, 62, 21, 43, 52, 3, 81, 0, 40, 0, 4, 39, 0, 31, 0, 25, 29, 0, 0, 67, 20, 24, 57, 1, 22, 33, 53, 0, 12, 35, 0, 32, 0
|48, 0, 33, 49, 0, 66, 13, 0, 3, 31, 0, 0, 6, 36, 30, 0, 59, 62, 0, 17, 0, 72, 69, 58, 2, 19, 7, 61, 55, 0, 0, 40, 63, 9, 14, 41, 25, 0, 39, 43, 67, 0, 50, 0, 79, 80, 0, 56, 0, 0, 35, 0, 0, 42, 32, 16, 0, 57, 8, 0, 0, 53, 0, 37, 23, 38, 0, 22, 0, 0, 46, 0, 29, 74, 0, 28, 45, 51, 68, 18, 24
|40, 22, 19, 0, 31, 59, 0, 67, 5, 0, 81, 8, 16, 76, 33, 27, 51, 11, 57, 23, 18, 14, 9, 0, 0, 0, 34, 75, 6, 0, 52, 0, 28, 36, 48, 0, 46, 42, 20, 0, 4, 10, 29, 12, 0, 44, 0, 0, 0, 41, 0, 0, 53, 50, 0, 0, 0, 25, 69, 37, 26, 35, 0, 0, 56, 73, 7, 32, 0, 0, 0, 0, 58, 47, 30, 0, 72, 61, 13, 79, 49
|77, 0, 36, 53, 8, 29, 78, 61, 43, 39, 51, 0, 72, 57, 81, 74, 47, 23, 69, 0, 38, 59, 0, 73, 49, 40, 0, 27, 33, 35, 45, 48, 21, 58, 63, 6, 79, 75, 24, 10, 0, 0, 0, 0, 60, 76, 17, 15, 52, 80, 70, 56, 25, 30, 14, 0, 41, 42, 67, 0, 4, 20, 65, 3, 13, 64, 22, 46, 1, 0, 66, 11, 0, 50, 44, 0, 62, 26, 7, 54, 0
|58, 72, 75, 79, 60, 73, 0, 23, 27, 33, 0, 0, 0, 71, 64, 21, 16, 0, 5, 68, 57, 0, 63, 11, 0, 32, 44, 80, 76, 59, 62, 18, 7, 2, 31, 70, 55, 67, 61, 12, 0, 29, 0, 34, 0, 48, 69, 36, 50, 0, 0, 35, 0, 13, 22, 37, 0, 53, 0, 77, 46, 3, 45, 0, 26, 0, 0, 81, 0, 54, 0, 4, 0, 0, 74, 41, 0, 24, 49, 0, 39
|42, 46, 20, 0, 24, 0, 41, 0, 21, 80, 30, 12, 63, 0, 36, 0, 0, 28, 0, 35, 64, 8, 0, 52, 66, 27, 72, 22, 0, 61, 26, 55, 0, 78, 0, 81, 53, 47, 0, 0, 45, 17, 0, 39, 0, 51, 1, 0, 0, 19, 0, 0, 32, 57, 29, 0, 0, 43, 0, 69, 59, 34, 18, 50, 5, 37, 0, 79, 62, 0, 76, 0, 71, 67, 75, 10, 48, 68, 0, 33, 56
|0, 0, 0, 63, 35, 0, 40, 0, 66, 54, 0, 0, 11, 62, 18, 24, 25, 75, 74, 0, 43, 0, 51, 33, 0, 0, 0, 77, 19, 0, 56, 10, 23, 0, 68, 0, 0, 41, 50, 58, 13, 3, 37, 22, 0, 0, 4, 0, 0, 42, 0, 0, 45, 60, 0, 27, 0, 78, 0, 8, 16, 0, 55, 38, 34, 72, 0, 53, 57, 29, 69, 59, 79, 80, 32, 31, 65, 1, 2, 64, 46
|0, 0, 74, 0, 0, 0, 22, 65, 31, 0, 10, 14, 49, 53, 0, 46, 41, 13, 37, 0, 60, 7, 62, 3, 30, 77, 81, 17, 0, 15, 64, 25, 9, 0, 29, 0, 40, 43, 56, 48, 0, 73, 6, 33, 0, 18, 0, 68, 0, 58, 79, 2, 26, 24, 66, 0, 75, 19, 70, 32, 54, 23, 0, 0, 12, 35, 39, 63, 0, 20, 21, 0, 0, 0, 0, 0, 42, 36, 52, 72, 38
|0, 19, 0, 0, 0, 0, 48, 0, 6, 0, 77, 40, 42, 0, 8, 26, 78, 0, 22, 80, 50, 55, 46, 45, 31, 10, 9, 0, 73, 69, 0, 0, 0, 12, 0, 53, 4, 59, 21, 30, 57, 63, 62, 2, 81, 0, 5, 72, 0, 0, 16, 0, 20, 37, 0, 76, 38, 60, 0, 58, 35, 17, 64, 41, 24, 47, 75, 43, 32, 0, 0, 27, 34, 15, 0, 0, 61, 0, 0, 3, 70
|50, 26, 64, 69, 39, 14, 49, 0, 76, 37, 2, 0, 59, 15, 22, 32, 35, 3, 0, 0, 65, 41, 0, 79, 70, 29, 0, 47, 60, 0, 20, 8, 4, 75, 0, 67, 0, 0, 80, 51, 52, 72, 31, 0, 0, 63, 53, 0, 46, 55, 0, 27, 34, 21, 0, 24, 0, 10, 44, 81, 5, 0, 61, 74, 0, 18, 19, 16, 17, 48, 33, 0, 0, 78, 0, 0, 58, 73, 11, 0, 77
|18, 3, 62, 47, 0, 0, 5, 2, 0, 4, 0, 76, 50, 1, 73, 55, 0, 0, 0, 48, 36, 0, 53, 42, 17, 0, 61, 41, 54, 0, 37, 0, 11, 32, 52, 0, 0, 78, 26, 66, 49, 38, 35, 9, 70, 12, 22, 64, 28, 43, 29, 75, 81, 0, 74, 63, 72, 13, 0, 0, 51, 56, 57, 23, 68, 71, 45, 0, 77, 10, 67, 6, 8, 0, 59, 0, 20, 0, 16, 40, 60
|0, 55, 12, 59, 32, 0, 0, 33, 54, 5, 29, 48, 0, 27, 0, 61, 58, 0, 4, 13, 75, 24, 28, 23, 16, 0, 14, 38, 40, 0, 36, 0, 57, 72, 34, 0, 20, 74, 69, 0, 11, 1, 76, 65, 46, 39, 0, 10, 77, 0, 0, 0, 62, 0, 0, 26, 47, 50, 49, 25, 2, 68, 30, 7, 0, 0, 52, 31, 0, 60, 0, 9, 66, 19, 35, 53, 0, 43, 0, 22, 81
|64, 0, 25, 57, 42, 80, 17, 0, 56, 59, 0, 74, 20, 0, 23, 8, 0, 67, 29, 66, 63, 3, 0, 53, 14, 60, 0, 55, 31, 0, 40, 32, 12, 0, 39, 11, 51, 68, 0, 0, 81, 0, 61, 0, 54, 0, 76, 38, 33, 35, 26, 0, 0, 43, 15, 72, 44, 22, 71, 2, 77, 75, 49, 13, 47, 7, 73, 69, 27, 18, 70, 36, 28, 0, 46, 50, 0, 79, 0, 52, 58
|70, 0, 6, 0, 19, 32, 39, 0, 60, 30, 0, 0, 29, 22, 57, 53, 43, 14, 59, 72, 23, 81, 44, 0, 42, 0, 58, 69, 18, 74, 68, 0, 62, 0, 0, 16, 0, 26, 65, 78, 50, 8, 71, 0, 63, 3, 61, 0, 0, 47, 27, 9, 4, 52, 37, 67, 0, 80, 76, 40, 0, 45, 56, 54, 0, 0, 15, 0, 0, 25, 41, 66, 73, 34, 0, 0, 24, 49, 77, 7, 51
|73, 0, 58, 0, 0, 40, 1, 7, 72, 0, 13, 36, 32, 54, 79, 0, 0, 71, 11, 10, 52, 0, 0, 41, 56, 30, 0, 25, 9, 0, 66, 37, 5, 0, 50, 27, 14, 0, 19, 4, 0, 22, 39, 0, 0, 0, 65, 60, 0, 0, 62, 80, 0, 8, 69, 0, 51, 35, 81, 21, 0, 59, 0, 57, 33, 28, 17, 0, 24, 68, 12, 0, 18, 0, 61, 47, 2, 0, 44, 43, 0
|0, 66, 23, 50, 41, 71, 0, 0, 0, 58, 60, 11, 0, 2, 26, 0, 0, 61, 0, 22, 0, 6, 68, 19, 0, 35, 0, 72, 29, 4, 49, 13, 47, 8, 0, 0, 0, 15, 77, 52, 10, 0, 70, 3, 20, 0, 40, 24, 0, 0, 28, 25, 42, 59, 18, 5, 0, 0, 39, 34, 0, 0, 0, 78, 67, 79, 0, 9, 43, 75, 0, 37, 0, 0, 0, 80, 81, 0, 76, 27, 30
|68, 0, 46, 43, 0, 49, 52, 81, 38, 0, 76, 15, 51, 63, 27, 3, 28, 0, 26, 45, 77, 0, 25, 2, 50, 31, 0, 0, 36, 65, 41, 64, 58, 34, 71, 22, 0, 48, 53, 0, 40, 0, 0, 0, 11, 37, 67, 16, 0, 12, 44, 66, 0, 0, 0, 0, 0, 6, 0, 17, 70, 0, 73, 8, 0, 59, 61, 35, 0, 23, 29, 62, 0, 32, 42, 54, 74, 33, 39, 60, 20
|27, 0, 8, 0, 51, 75, 34, 0, 0, 44, 50, 0, 0, 66, 0, 18, 6, 24, 15, 54, 61, 20, 40, 43, 9, 0, 28, 21, 45, 7, 81, 80, 42, 0, 0, 0, 67, 57, 5, 0, 58, 41, 49, 73, 59, 64, 72, 48, 36, 0, 14, 32, 39, 0, 68, 60, 16, 47, 25, 11, 0, 63, 29, 0, 71, 19, 0, 76, 53, 56, 0, 74, 0, 26, 22, 62, 35, 4, 38, 37, 65
|59, 0, 31, 61, 47, 0, 26, 36, 9, 0, 0, 77, 37, 0, 80, 10, 38, 25, 7, 18, 70, 0, 0, 0, 24, 8, 13, 0, 0, 79, 0, 35, 20, 0, 73, 15, 0, 62, 0, 32, 28, 60, 0, 27, 44, 49, 0, 0, 0, 34, 22, 11, 51, 29, 50, 41, 0, 66, 0, 52, 3, 74, 43, 16, 39, 4, 40, 0, 0, 42, 30, 58, 0, 12, 64, 75, 71, 63, 0, 56, 0
|20, 24, 0, 54, 45, 77, 0, 4, 28, 40, 0, 0, 0, 0, 0, 75, 42, 0, 36, 0, 37, 80, 47, 67, 0, 0, 0, 3, 0, 0, 0, 70, 26, 0, 30, 17, 0, 18, 2, 74, 66, 69, 38, 43, 64, 71, 0, 31, 0, 0, 19, 0, 79, 0, 57, 0, 0, 61, 0, 0, 7, 27, 48, 34, 1, 0, 0, 65, 72, 55, 52, 32, 59, 41, 6, 29, 5, 9, 0, 0, 25
|0, 0, 0, 0, 0, 0, 69, 14, 35, 19, 39, 81, 47, 52, 41, 73, 64, 49, 0, 0, 76, 34, 12, 65, 0, 74, 0, 0, 0, 1, 0, 54, 61, 0, 60, 0, 29, 36, 0, 80, 7, 9, 0, 37, 0, 17, 0, 21, 68, 23, 0, 0, 75, 0, 38, 4, 58, 0, 0, 28, 53, 0, 79, 20, 3, 50, 48, 0, 26, 63, 0, 45, 0, 8, 72, 66, 67, 70, 15, 13, 31
|29, 14, 0, 44, 76, 0, 50, 78, 4, 0, 35, 68, 58, 79, 0, 40, 21, 37, 51, 46, 1, 0, 20, 0, 45, 16, 0, 0, 59, 0, 27, 0, 53, 69, 64, 56, 0, 32, 28, 19, 0, 62, 24, 0, 9, 36, 38, 66, 13, 49, 0, 57, 11, 0, 8, 34, 42, 0, 7, 0, 0, 0, 47, 0, 0, 77, 54, 12, 22, 74, 0, 73, 0, 3, 0, 71, 10, 0, 0, 31, 72
|19, 5, 43, 22, 48, 64, 0, 80, 79, 47, 0, 23, 56, 26, 0, 42, 77, 57, 67, 34, 3, 54, 0, 60, 73, 61, 25, 0, 50, 66, 71, 68, 75, 65, 72, 35, 8, 30, 12, 0, 69, 53, 0, 0, 0, 10, 0, 39, 0, 31, 17, 21, 24, 45, 55, 40, 11, 58, 36, 63, 0, 13, 4, 0, 6, 16, 76, 49, 37, 0, 62, 18, 41, 51, 20, 0, 33, 0, 0, 74, 59
|66, 8, 68, 15, 26, 0, 45, 25, 2, 53, 0, 27, 28, 0, 54, 0, 0, 1, 31, 70, 42, 17, 23, 30, 35, 65, 41, 39, 81, 40, 14, 7, 0, 73, 21, 49, 11, 10, 37, 76, 80, 36, 51, 29, 0, 0, 79, 78, 16, 56, 20, 71, 0, 63, 0, 57, 0, 75, 18, 0, 69, 67, 24, 58, 0, 0, 0, 72, 0, 43, 38, 64, 61, 13, 0, 19, 0, 77, 47, 0, 0
|3, 9, 61, 0, 16, 62, 0, 49, 17, 51, 0, 0, 0, 11, 59, 29, 20, 45, 75, 79, 0, 0, 0, 0, 55, 0, 19, 2, 46, 57, 58, 36, 41, 0, 77, 18, 65, 73, 0, 0, 31, 0, 0, 13, 42, 25, 0, 34, 32, 72, 0, 47, 37, 12, 0, 39, 6, 14, 56, 35, 68, 5, 21, 0, 0, 63, 23, 15, 52, 33, 0, 71, 50, 81, 60, 0, 66, 67, 43, 44, 53
|24, 0, 65, 37, 73, 0, 18, 47, 32, 49, 14, 2, 39, 0, 60, 15, 50, 6, 56, 78, 68, 29, 36, 0, 22, 26, 27, 74, 63, 33, 76, 19, 43, 0, 8, 30, 3, 54, 41, 0, 0, 67, 40, 44, 52, 0, 77, 0, 4, 69, 0, 46, 28, 35, 10, 51, 31, 70, 20, 64, 17, 61, 71, 0, 11, 0, 1, 0, 45, 80, 59, 0, 0, 0, 16, 0, 0, 7, 34, 0, 12
|12, 53, 0, 40, 77, 74, 27, 60, 69, 7, 33, 65, 30, 0, 10, 67, 36, 0, 71, 57, 8, 62, 58, 59, 18, 11, 0, 0, 38, 44, 13, 0, 51, 0, 0, 20, 15, 35, 47, 46, 75, 66, 56, 0, 17, 0, 3, 81, 23, 0, 0, 0, 68, 9, 0, 22, 29, 28, 16, 0, 0, 2, 41, 0, 25, 70, 50, 19, 21, 78, 4, 5, 24, 0, 49, 42, 0, 76, 45, 26, 64
|67, 51, 0, 20, 52, 55, 36, 42, 13, 73, 5, 70, 25, 44, 62, 0, 0, 81, 53, 0, 39, 32, 72, 24, 4, 0, 0, 28, 16, 26, 54, 47, 0, 48, 0, 3, 34, 22, 64, 0, 2, 79, 43, 18, 49, 6, 0, 58, 19, 27, 8, 41, 0, 80, 1, 45, 50, 12, 66, 60, 76, 77, 33, 31, 75, 0, 57, 29, 68, 0, 14, 0, 0, 0, 23, 15, 17, 65, 37, 69, 0
|10, 35, 28, 0, 0, 58, 0, 0, 57, 63, 48, 16, 71, 0, 0, 66, 69, 76, 64, 0, 81, 44, 14, 50, 0, 38, 2, 12, 0, 37, 0, 11, 0, 17, 0, 45, 77, 0, 55, 0, 0, 61, 59, 4, 39, 15, 54, 51, 30, 0, 0, 0, 0, 70, 0, 23, 0, 0, 65, 0, 74, 0, 0, 0, 20, 34, 13, 26, 0, 67, 7, 0, 21, 73, 27, 36, 1, 80, 75, 78, 29
|21, 56, 7, 1, 54, 11, 38, 59, 75, 0, 19, 61, 64, 8, 3, 0, 24, 43, 52, 49, 66, 12, 13, 9, 77, 63, 69, 0, 70, 67, 0, 31, 0, 55, 23, 29, 0, 5, 57, 72, 71, 0, 48, 45, 58, 0, 50, 42, 0, 0, 0, 0, 44, 0, 78, 53, 25, 62, 73, 15, 0, 0, 0, 0, 51, 0, 0, 41, 36, 35, 0, 47, 0, 0, 0, 0, 14, 2, 30, 46, 40
|74, 7, 48, 12, 4, 0, 51, 0, 0, 0, 79, 0, 0, 17, 63, 36, 2, 72, 50, 31, 19, 56, 0, 27, 76, 0, 18, 46, 57, 32, 25, 22, 55, 11, 13, 64, 42, 0, 0, 0, 0, 40, 21, 15, 0, 58, 0, 80, 66, 67, 0, 0, 0, 16, 0, 70, 39, 33, 60, 0, 23, 65, 0, 0, 0, 81, 0, 0, 49, 37, 68, 0, 0, 0, 71, 73, 78, 62, 0, 0, 3
|62, 42, 39, 27, 53, 0, 70, 17, 55, 11, 0, 3, 0, 61, 47, 49, 68, 0, 81, 0, 78, 75, 26, 15, 63, 0, 45, 29, 0, 52, 0, 72, 36, 21, 0, 12, 54, 2, 0, 34, 19, 23, 57, 20, 0, 0, 0, 25, 69, 64, 6, 0, 60, 18, 24, 35, 66, 71, 0, 5, 79, 8, 0, 33, 0, 31, 56, 38, 0, 13, 1, 46, 44, 0, 67, 4, 0, 0, 80, 28, 41
|0, 36, 0, 9, 0, 30, 0, 0, 0, 64, 40, 56, 0, 77, 67, 54, 22, 19, 38, 37, 55, 0, 5, 13, 0, 39, 29, 53, 28, 27, 8, 0, 68, 0, 61, 10, 52, 0, 60, 0, 0, 0, 3, 49, 31, 73, 42, 70, 48, 51, 15, 76, 23, 71, 58, 7, 81, 1, 0, 74, 62, 0, 11, 18, 0, 80, 34, 0, 0, 4, 63, 41, 75, 0, 0, 24, 0, 66, 33, 20, 50
|41, 29, 0, 80, 25, 56, 0, 13, 45, 26, 0, 0, 7, 51, 37, 60, 81, 53, 28, 65, 32, 0, 0, 66, 0, 23, 0, 34, 79, 31, 70, 76, 0, 14, 49, 75, 68, 44, 9, 71, 8, 50, 22, 78, 74, 62, 63, 0, 43, 0, 39, 0, 47, 0, 0, 48, 55, 0, 59, 12, 0, 0, 16, 0, 72, 58, 0, 0, 69, 19, 64, 2, 11, 40, 0, 5, 0, 27, 42, 21, 17
|8, 0, 0, 31, 0, 52, 6, 32, 23, 27, 16, 9, 0, 0, 12, 43, 0, 21, 3, 71, 67, 0, 34, 4, 68, 0, 0, 0, 0, 39, 0, 73, 17, 38, 44, 0, 5, 51, 11, 0, 47, 56, 66, 10, 37, 22, 0, 0, 79, 30, 0, 74, 7, 2, 13, 0, 20, 54, 80, 14, 45, 69, 77, 59, 60, 0, 0, 0, 25, 53, 50, 29, 19, 61, 81, 0, 0, 72, 35, 63, 57
|49, 71, 0, 0, 0, 0, 0, 44, 18, 0, 78, 0, 74, 0, 34, 0, 31, 73, 14, 58, 0, 2, 0, 57, 0, 62, 47, 0, 0, 3, 69, 65, 59, 5, 0, 9, 0, 0, 0, 17, 36, 39, 28, 0, 0, 27, 0, 52, 35, 0, 12, 8, 56, 81, 61, 0, 0, 68, 37, 53, 19, 0, 50, 48, 45, 75, 30, 20, 0, 66, 79, 70, 13, 22, 55, 51, 77, 15, 64, 0, 7
|47, 0, 22, 67, 63, 21, 79, 34, 0, 0, 0, 1, 0, 20, 66, 0, 80, 35, 61, 0, 12, 0, 60, 72, 0, 42, 0, 24, 7, 81, 18, 43, 19, 50, 0, 37, 0, 33, 59, 65, 0, 4, 77, 46, 55, 78, 49, 75, 17, 0, 0, 28, 29, 0, 9, 56, 15, 2, 0, 30, 41, 0, 0, 27, 32, 5, 71, 23, 0, 0, 26, 8, 14, 0, 0, 0, 39, 10, 31, 0, 0
|0, 0, 57, 0, 58, 54, 0, 15, 64, 50, 0, 32, 23, 0, 55, 0, 45, 5, 17, 40, 0, 0, 11, 77, 41, 43, 70, 0, 78, 16, 35, 20, 2, 0, 6, 66, 75, 61, 62, 27, 79, 80, 81, 0, 26, 0, 0, 1, 0, 68, 13, 0, 36, 0, 42, 0, 10, 0, 72, 44, 18, 0, 0, 12, 74, 0, 21, 0, 0, 3, 9, 22, 60, 0, 65, 49, 8, 0, 0, 34, 48
|75, 65, 81, 66, 50, 20, 3, 68, 19, 0, 0, 42, 69, 33, 0, 30, 71, 39, 8, 25, 0, 10, 59, 0, 44, 7, 35, 23, 4, 60, 48, 0, 80, 26, 0, 54, 45, 64, 0, 0, 16, 70, 13, 67, 41, 0, 0, 32, 34, 0, 55, 37, 21, 72, 43, 49, 0, 27, 31, 22, 78, 47, 0, 0, 57, 52, 0, 51, 0, 0, 61, 40, 53, 79, 58, 74, 18, 6, 0, 2, 9
|17, 0, 0, 60, 0, 42, 20, 43, 52, 78, 67, 30, 21, 40, 25, 69, 0, 7, 0, 0, 27, 0, 81, 64, 26, 0, 77, 66, 34, 0, 0, 0, 33, 0, 35, 55, 0, 0, 63, 0, 32, 13, 0, 68, 5, 47, 74, 44, 37, 36, 58, 22, 70, 28, 0, 65, 59, 38, 0, 0, 0, 71, 0, 51, 9, 61, 3, 50, 0, 0, 0, 80, 39, 0, 0, 48, 6, 31, 23, 76, 14
|28, 49, 0, 8, 44, 68, 9, 35, 58, 79, 11, 50, 53, 12, 0, 77, 17, 0, 6, 0, 2, 31, 0, 14, 0, 71, 5, 60, 26, 72, 0, 52, 0, 37, 36, 78, 48, 38, 66, 22, 0, 0, 64, 30, 34, 20, 43, 3, 0, 1, 65, 7, 18, 0, 27, 74, 70, 0, 45, 13, 0, 80, 69, 40, 54, 23, 0, 62, 0, 47, 0, 56, 67, 0, 33, 0, 0, 0, 25, 16, 0
|26, 0, 3, 10, 67, 76, 24, 66, 61, 0, 54, 47, 68, 55, 0, 14, 57, 0, 21, 0, 15, 0, 33, 7, 11, 52, 0, 0, 32, 28, 44, 12, 25, 80, 70, 0, 62, 45, 0, 0, 59, 65, 74, 19, 73, 0, 2, 0, 8, 71, 51, 77, 0, 0, 4, 75, 0, 46, 0, 16, 43, 58, 39, 72, 0, 48, 0, 13, 34, 38, 22, 0, 36, 18, 63, 40, 37, 64, 9, 81, 42
|56, 50, 4, 34, 70, 13, 65, 22, 63, 0, 0, 60, 1, 0, 39, 41, 73, 0, 79, 16, 0, 58, 38, 0, 0, 0, 0, 54, 0, 76, 59, 51, 0, 19, 0, 0, 9, 49, 0, 37, 24, 25, 0, 17, 28, 69, 21, 67, 0, 75, 33, 26, 57, 55, 7, 12, 23, 0, 11, 3, 64, 48, 0, 0, 14, 29, 27, 36, 6, 32, 81, 31, 0, 0, 0, 43, 80, 74, 71, 68, 52
|0, 21, 0, 18, 74, 0, 0, 12, 39, 76, 64, 52, 0, 0, 70, 23, 3, 58, 62, 0, 0, 9, 29, 55, 0, 0, 66, 65, 47, 45, 4, 0, 22, 57, 0, 61, 10, 14, 36, 56, 20, 0, 72, 80, 2, 0, 0, 0, 40, 0, 31, 17, 0, 0, 0, 0, 68, 5, 0, 0, 50, 41, 37, 53, 59, 60, 0, 0, 79, 71, 75, 43, 38, 0, 0, 0, 0, 8, 1, 35, 69
|15, 6, 29, 51, 0, 0, 0, 0, 33, 16, 49, 0, 22, 48, 71, 81, 62, 44, 76, 32, 69, 0, 37, 70, 0, 56, 54, 20, 27, 0, 38, 9, 0, 1, 18, 0, 43, 0, 67, 0, 3, 21, 58, 75, 77, 35, 68, 0, 0, 0, 0, 24, 0, 4, 0, 66, 0, 17, 0, 0, 47, 40, 36, 52, 0, 74, 0, 28, 0, 11, 8, 0, 0, 65, 0, 0, 13, 34, 0, 50, 5
|38, 32, 53, 2, 71, 69, 0, 11, 81, 75, 80, 66, 34, 19, 0, 63, 0, 29, 47, 0, 40, 0, 0, 68, 0, 0, 42, 13, 49, 0, 0, 0, 8, 0, 17, 39, 23, 50, 6, 54, 0, 0, 44, 41, 0, 56, 27, 12, 62, 9, 72, 48, 5, 76, 0, 61, 0, 18, 77, 31, 0, 0, 0, 1, 7, 15, 70, 57, 0, 0, 0, 20, 10, 60, 73, 30, 51, 55, 0, 0, 4
|16, 0, 40, 77, 0, 37, 62, 55, 0, 0, 0, 0, 0, 0, 15, 5, 10, 36, 0, 0, 0, 61, 22, 0, 1, 0, 48, 73, 23, 0, 0, 53, 0, 68, 7, 0, 81, 11, 71, 70, 39, 31, 79, 0, 12, 42, 52, 0, 38, 0, 59, 63, 13, 0, 76, 30, 32, 8, 14, 0, 9, 33, 44, 24, 46, 45, 4, 25, 0, 65, 0, 21, 54, 0, 0, 0, 29, 0, 58, 41, 19
|5, 0, 41, 0, 0, 46, 59, 0, 36, 32, 0, 0, 2, 6, 38, 37, 0, 9, 25, 0, 0, 65, 49, 12, 74, 75, 0, 40, 3, 58, 31, 0, 0, 15, 43, 71, 35, 0, 4, 69, 60, 76, 47, 61, 0, 66, 80, 29, 14, 79, 23, 81, 54, 39, 34, 0, 0, 52, 0, 19, 0, 21, 42, 63, 77, 26, 68, 18, 10, 16, 73, 67, 0, 0, 7, 20, 0, 0, 0, 0, 22
|0, 52, 0, 39, 22, 16, 54, 69, 53, 28, 0, 0, 19, 72, 76, 68, 74, 0, 49, 4, 9, 0, 0, 44, 64, 20, 17, 51, 0, 48, 79, 61, 71, 7, 0, 60, 0, 0, 0, 45, 73, 14, 0, 32, 24, 38, 0, 26, 0, 63, 0, 23, 33, 40, 30, 0, 62, 0, 0, 29, 0, 0, 3, 46, 36, 41, 67, 47, 50, 5, 56, 12, 70, 2, 10, 0, 55, 13, 8, 0, 18
|79, 20, 77, 26, 0, 65, 25, 19, 15, 22, 9, 54, 0, 43, 45, 0, 0, 38, 60, 2, 5, 13, 0, 47, 34, 0, 62, 31, 66, 8, 67, 1, 70, 0, 0, 73, 59, 0, 35, 50, 37, 0, 36, 40, 18, 81, 16, 4, 44, 0, 11, 72, 0, 64, 0, 68, 53, 7, 12, 80, 52, 57, 76, 75, 0, 24, 69, 0, 74, 51, 55, 78, 33, 29, 0, 39, 41, 46, 0, 6, 71
|61, 33, 0, 56, 0, 4, 42, 37, 48, 77, 36, 18, 8, 46, 40, 35, 75, 30, 0, 69, 16, 0, 45, 63, 0, 70, 68, 11, 0, 0, 0, 0, 0, 0, 0, 0, 60, 55, 49, 20, 43, 64, 10, 53, 0, 0, 0, 19, 0, 14, 0, 0, 12, 22, 0, 2, 26, 9, 0, 38, 0, 51, 0, 0, 0, 0, 58, 66, 7, 79, 0, 76, 31, 72, 0, 67, 0, 5, 0, 59, 62
|32, 70, 9, 7, 5, 45, 64, 8, 68, 52, 0, 4, 3, 60, 2, 47, 0, 0, 12, 28, 72, 0, 50, 78, 23, 0, 10, 18, 0, 0, 55, 0, 0, 44, 19, 21, 0, 0, 79, 62, 76, 0, 25, 0, 66, 0, 0, 30, 42, 53, 0, 0, 0, 46, 33, 59, 24, 0, 61, 67, 27, 54, 0, 26, 65, 1, 37, 0, 0, 57, 0, 81, 0, 43, 0, 17, 0, 0, 51, 11, 0
|71, 10, 60, 58, 81, 0, 0, 24, 40, 0, 73, 25, 0, 0, 0, 0, 0, 42, 48, 0, 79, 0, 65, 32, 8, 0, 0, 4, 0, 5, 0, 0, 37, 16, 3, 57, 26, 29, 52, 75, 44, 0, 67, 51, 7, 9, 47, 0, 0, 0, 45, 0, 43, 1, 41, 0, 21, 0, 63, 0, 72, 36, 0, 22, 0, 11, 20, 0, 35, 0, 23, 61, 64, 0, 0, 0, 68, 50, 19, 77, 15
|80, 31, 47, 36, 66, 50, 2, 74, 0, 81, 6, 55, 5, 24, 0, 0, 49, 0, 0, 0, 0, 22, 75, 0, 0, 0, 0, 0, 35, 23, 9, 15, 45, 20, 76, 43, 30, 70, 17, 8, 38, 48, 12, 69, 61, 68, 7, 13, 0, 0, 57, 67, 0, 73, 60, 18, 19, 39, 42, 79, 37, 4, 78, 0, 62, 0, 29, 0, 40, 72, 10, 52, 32, 54, 28, 0, 34, 16, 65, 58, 27
|72, 0, 55, 0, 0, 6, 0, 57, 0, 0, 26, 69, 33, 0, 50, 79, 0, 16, 19, 74, 7, 15, 66, 0, 29, 53, 31, 30, 0, 34, 46, 81, 0, 40, 0, 0, 41, 56, 0, 47, 22, 0, 68, 0, 0, 70, 0, 35, 76, 18, 60, 51, 0, 61, 0, 10, 0, 73, 0, 0, 8, 0, 0, 9, 0, 0, 63, 77, 64, 0, 0, 48, 42, 4, 38, 44, 52, 12, 0, 0, 1
|35, 0, 21, 30, 1, 17, 46, 0, 73, 12, 61, 0, 0, 80, 11, 71, 29, 51, 0, 36, 0, 77, 67, 38, 0, 0, 3, 0, 0, 6, 2, 78, 49, 22, 0, 62, 0, 81, 15, 0, 72, 42, 0, 54, 4, 50, 0, 69, 56, 66, 5, 79, 0, 0, 0, 32, 0, 48, 64, 65, 13, 43, 58, 70, 19, 8, 0, 68, 59, 0, 53, 0, 0, 0, 25, 9, 23, 0, 74, 47, 76
|0, 63, 0, 0, 75, 41, 29, 76, 51, 17, 0, 58, 15, 0, 0, 1, 0, 27, 42, 81, 24, 73, 6, 18, 61, 57, 56, 36, 0, 77, 12, 14, 72, 25, 10, 52, 0, 3, 0, 0, 46, 5, 34, 0, 19, 0, 37, 8, 0, 74, 0, 0, 65, 20, 0, 0, 22, 44, 55, 47, 40, 0, 0, 0, 49, 0, 32, 0, 54, 28, 60, 38, 69, 45, 48, 0, 79, 30, 0, 53, 26
|9, 4, 0, 25, 29, 78, 56, 40, 0, 71, 46, 39, 60, 16, 32, 22, 70, 26, 55, 30, 0, 52, 79, 62, 27, 0, 0, 45, 0, 50, 17, 38, 0, 76, 67, 28, 31, 12, 75, 15, 68, 0, 33, 42, 3, 0, 6, 7, 80, 73, 74, 0, 0, 49, 0, 58, 0, 63, 19, 51, 34, 0, 72, 0, 37, 36, 24, 1, 2, 0, 5, 23, 0, 11, 8, 13, 21, 0, 66, 61, 0
|23, 0, 0, 0, 0, 28, 75, 46, 41, 43, 3, 62, 18, 42, 0, 64, 1, 0, 80, 12, 0, 21, 19, 81, 7, 25, 32, 5, 2, 0, 57, 69, 79, 71, 58, 36, 37, 20, 70, 0, 34, 0, 0, 0, 10, 67, 35, 63, 22, 52, 0, 39, 78, 11, 40, 17, 9, 31, 0, 0, 48, 55, 8, 0, 30, 0, 33, 0, 0, 27, 6, 14, 47, 77, 0, 76, 15, 0, 72, 49, 73
|31, 43, 51, 0, 30, 8, 0, 0, 67, 0, 0, 49, 77, 81, 0, 0, 14, 59, 65, 0, 35, 23, 3, 29, 40, 50, 6, 0, 12, 42, 16, 0, 13, 70, 74, 33, 0, 72, 22, 0, 62, 0, 9, 28, 48, 0, 19, 0, 58, 15, 0, 5, 69, 0, 47, 73, 0, 64, 0, 10, 56, 32, 52, 68, 66, 55, 0, 44, 0, 0, 20, 0, 0, 57, 37, 18, 4, 39, 0, 38, 0
|39, 0, 0, 35, 59, 0, 0, 53, 0, 9, 72, 0, 67, 65, 19, 0, 27, 80, 0, 0, 0, 70, 77, 0, 0, 47, 0, 44, 52, 11, 0, 23, 30, 43, 0, 32, 24, 58, 0, 0, 0, 45, 41, 21, 0, 0, 57, 0, 20, 0, 37, 55, 38, 0, 0, 69, 78, 0, 2, 1, 42, 0, 0, 49, 31, 62, 64, 4, 75, 40, 48, 0, 74, 71, 34, 0, 3, 56, 0, 0, 54
|6, 77, 0, 17, 61, 60, 47, 64, 80, 13, 75, 63, 73, 58, 31, 33, 0, 0, 45, 38, 56, 67, 74, 0, 0, 2, 71, 0, 0, 0, 7, 0, 3, 0, 0, 0, 0, 0, 0, 40, 35, 0, 0, 59, 53, 1, 0, 0, 26, 21, 4, 14, 0, 23, 0, 25, 0, 0, 29, 50, 57, 28, 81, 0, 10, 39, 12, 52, 51, 69, 18, 72, 30, 24, 62, 78, 44, 42, 0, 0, 16
|36, 54, 42, 48, 12, 24, 55, 0, 0, 21, 34, 29, 0, 0, 51, 57, 40, 50, 41, 11, 0, 69, 78, 0, 37, 64, 63, 0, 39, 49, 80, 77, 31, 81, 0, 68, 66, 0, 18, 0, 17, 74, 14, 79, 71, 65, 44, 45, 10, 0, 61, 30, 2, 0, 6, 0, 4, 59, 35, 75, 0, 0, 23, 19, 15, 0, 9, 8, 0, 22, 0, 3, 0, 0, 0, 0, 43, 53, 28, 5, 32
|0, 0, 52, 5, 38, 3, 0, 70, 0, 48, 4, 24, 78, 0, 0, 25, 66, 0, 10, 0, 33, 18, 42, 17, 0, 9, 22, 35, 56, 19, 65, 34, 0, 59, 55, 14, 0, 0, 43, 61, 77, 49, 0, 0, 0, 72, 51, 47, 12, 32, 71, 0, 27, 54, 16, 20, 37, 0, 68, 46, 0, 0, 62, 73, 79, 0, 0, 60, 0, 7, 58, 63, 2, 0, 0, 0, 64, 0, 0, 0, 36
|0, 27, 37, 14, 0, 0, 33, 73, 62, 0, 8, 35, 55, 0, 0, 76, 79, 41, 0, 61, 0, 49, 54, 39, 58, 5, 36, 78, 15, 0, 72, 0, 6, 0, 75, 51, 0, 0, 44, 1, 0, 0, 16, 52, 0, 34, 0, 28, 29, 46, 0, 70, 77, 31, 3, 43, 0, 0, 0, 0, 71, 18, 53, 0, 38, 0, 0, 0, 67, 81, 45, 65, 9, 59, 68, 0, 0, 0, 22, 12, 23
|22, 0, 0, 32, 13, 79, 21, 58, 34, 2, 53, 28, 52, 0, 6, 0, 30, 10, 72, 0, 4, 68, 31, 0, 75, 0, 0, 37, 1, 29, 47, 66, 73, 64, 9, 25, 36, 19, 23, 26, 0, 78, 0, 63, 56, 16, 0, 33, 60, 3, 41, 0, 8, 62, 11, 0, 61, 49, 0, 45, 12, 39, 15, 0, 35, 0, 59, 74, 0, 76, 42, 0, 27, 17, 14, 7, 70, 48, 0, 65, 67
|69, 0, 56, 72, 20, 0, 61, 30, 0, 45, 74, 80, 0, 34, 58, 28, 11, 0, 78, 0, 47, 0, 8, 22, 32, 0, 0, 0, 0, 0, 24, 0, 60, 79, 0, 44, 19, 4, 0, 0, 1, 33, 0, 66, 67, 57, 23, 0, 0, 29, 0, 68, 0, 0, 26, 64, 0, 0, 0, 76, 75, 50, 0, 5, 63, 0, 0, 37, 0, 0, 3, 7, 77, 0, 0, 52, 27, 0, 46, 55, 13
|33, 0, 0, 0, 0, 0, 0, 54, 8, 0, 0, 19, 0, 38, 0, 39, 76, 0, 0, 41, 20, 46, 27, 49, 0, 34, 51, 0, 37, 55, 0, 71, 69, 3, 1, 0, 64, 21, 48, 0, 0, 30, 2, 72, 35, 74, 0, 43, 78, 0, 36, 0, 73, 0, 52, 47, 18, 0, 0, 68, 81, 0, 6, 32, 50, 0, 0, 40, 0, 61, 13, 0, 65, 28, 31, 70, 7, 58, 0, 67, 45
|46, 0, 0, 78, 9, 57, 7, 0, 22, 0, 0, 0, 36, 0, 0, 0, 0, 70, 0, 0, 29, 11, 0, 0, 81, 55, 0, 8, 77, 13, 0, 59, 0, 0, 12, 0, 0, 0, 0, 31, 41, 6, 0, 60, 69, 21, 62, 27, 45, 0, 0, 42, 64, 47, 49, 44, 0, 20, 0, 4, 66, 0, 25, 17, 52, 76, 38, 10, 19, 1, 72, 24, 5, 0, 0, 79, 30, 54, 32, 73, 0
|76, 41, 0, 0, 10, 27, 58, 0, 59, 65, 71, 5, 24, 73, 35, 51, 7, 0, 30, 0, 53, 42, 52, 69, 0, 66, 50, 0, 0, 20, 23, 6, 54, 49, 45, 0, 38, 9, 0, 44, 63, 0, 26, 62, 13, 55, 33, 79, 67, 0, 0, 1, 0, 48, 80, 0, 8, 0, 43, 0, 39, 22, 17, 0, 4, 56, 16, 75, 46, 31, 36, 0, 81, 64, 21, 0, 57, 19, 40, 0, 74
|1, 0, 0, 28, 36, 15, 73, 48, 0, 57, 25, 0, 0, 41, 9, 0, 0, 33, 70, 59, 58, 63, 76, 71, 0, 68, 40, 16, 64, 0, 75, 67, 78, 66, 0, 0, 17, 34, 0, 49, 0, 46, 54, 0, 45, 0, 60, 37, 51, 0, 81, 0, 80, 14, 77, 62, 69, 30, 5, 7, 0, 10, 0, 29, 0, 20, 26, 27, 55, 12, 0, 39, 3, 23, 0, 0, 0, 18, 0, 4, 35
|55, 0, 50, 19, 64, 51, 0, 6, 0, 68, 69, 37, 0, 30, 49, 20, 52, 47, 23, 77, 28, 38, 0, 31, 79, 13, 33, 0, 72, 62, 0, 39, 46, 18, 57, 80, 71, 0, 0, 3, 12, 0, 0, 14, 40, 0, 70, 5, 65, 0, 56, 58, 15, 0, 35, 78, 36, 45, 21, 27, 0, 0, 54, 67, 41, 0, 66, 0, 48, 0, 0, 0, 16, 0, 29, 0, 53, 75, 26, 17, 61
|43, 0, 35, 74, 11, 0, 44, 52, 37, 0, 15, 26, 46, 67, 29, 62, 63, 0, 0, 64, 0, 57, 0, 61, 3, 36, 39, 81, 14, 70, 51, 58, 0, 0, 4, 76, 73, 28, 25, 5, 18, 59, 7, 56, 16, 13, 0, 40, 75, 6, 0, 0, 0, 77, 12, 19, 33, 0, 1, 55, 31, 60, 32, 71, 22, 65, 79, 45, 23, 21, 0, 68, 72, 20, 0, 38, 0, 78, 41, 0, 0
|0, 34, 5, 24, 65, 26, 66, 29, 16, 0, 0, 75, 0, 10, 21, 0, 12, 32, 2, 56, 74, 45, 7, 0, 62, 80, 4, 19, 25, 36, 30, 17, 50, 0, 41, 0, 39, 0, 0, 23, 0, 68, 52, 55, 22, 28, 31, 71, 49, 20, 3, 53, 0, 44, 46, 0, 0, 40, 48, 61, 58, 0, 67, 0, 0, 0, 11, 64, 0, 73, 47, 15, 0, 37, 69, 60, 76, 59, 63, 1, 0
|53, 0, 45, 0, 0, 18, 68, 21, 49, 0, 1, 64, 4, 0, 0, 16, 54, 0, 0, 0, 0, 60, 17, 37, 6, 72, 67, 52, 0, 0, 0, 5, 35, 31, 22, 7, 0, 79, 0, 0, 65, 0, 0, 74, 29, 0, 9, 76, 39, 59, 46, 61, 19, 66, 0, 0, 28, 56, 0, 41, 73, 0, 2, 0, 81, 0, 80, 70, 33, 58, 0, 77, 15, 0, 0, 0, 50, 44, 48, 0, 47|];