order = 9;
grid = [|0, 72, 0, 0, 0, 10, 13, 29, 73, 30, 41, 63, 43, 34, 0, 37, 28, 53, 12, 3, 0, 23, 75, 0, 38, 0, 0, 55, 46, 40, 64, 0, 54, 52, 0, 31, 59, 49, 80, 11, 1, 0, 2, 45, 0, 0, 6, 74, 79, 47, 27, 56, 32, 69, 0, 33, 0, 9, 0, 36, 76, 15, 50, 0, 17, 21, 57, 26, 0, 77, 8, 68, 35, 81, 0, 0, 48, 22, 0, 71, 0
|48, 36, 0, 5, 81, 12, 0, 9, 0, 42, 74, 76, 0, 38, 69, 14, 65, 35, 63, 8, 0, 0, 50, 55, 44, 67, 53, 0, 7, 29, 16, 49, 0, 70, 34, 0, 57, 32, 37, 4, 21, 25, 28, 71, 30, 0, 18, 0, 43, 0, 62, 45, 61, 0, 80, 0, 22, 72, 0, 54, 0, 2, 40, 10, 15, 0, 79, 24, 1, 0, 19, 78, 11, 23, 27, 73, 75, 0, 64, 60, 17
|2, 11, 76, 27, 0, 0, 0, 0, 16, 22, 0, 0, 0, 73, 18, 60, 0, 51, 78, 15, 19, 0, 48, 0, 0, 0, 29, 28, 5, 0, 81, 50, 74, 61, 58, 0, 35, 41, 0, 0, 3, 39, 8, 44, 65, 4, 23, 68, 64, 33, 24, 0, 0, 38, 0, 0, 34, 25, 62, 0, 0, 56, 47, 43, 12, 52, 0, 49, 54, 7, 67, 0, 66, 0, 0, 0, 30, 40, 0, 10, 37
|66, 49, 25, 68, 0, 15, 32, 52, 39, 20, 0, 0, 29, 0, 1, 0, 0, 2, 0, 56, 46, 0, 54, 0, 28, 60, 33, 27, 36, 0, 12, 23, 72, 10, 0, 57, 0, 7, 13, 63, 24, 18, 0, 0, 75, 48, 73, 0, 8, 41, 17, 0, 0, 0, 0, 45, 42, 11, 0, 0, 14, 64, 19, 61, 22, 40, 4, 9, 74, 0, 80, 35, 5, 69, 43, 65, 78, 38, 47, 0, 62
|65, 0, 51, 62, 53, 69, 46, 0, 31, 72, 0, 0, 54, 52, 47, 15, 4, 58, 0, 43, 73, 66, 81, 49, 26, 41, 30, 33, 0, 2, 0, 19, 32, 0, 77, 24, 23, 0, 76, 0, 0, 17, 22, 61, 10, 36, 70, 0, 0, 44, 0, 0, 21, 7, 20, 0, 79, 0, 13, 0, 75, 38, 39, 71, 0, 64, 5, 0, 42, 59, 27, 37, 12, 18, 3, 0, 80, 28, 50, 63, 67
|50, 71, 0, 70, 20, 0, 17, 0, 0, 81, 75, 0, 21, 10, 68, 0, 23, 66, 64, 1, 0, 27, 34, 0, 14, 24, 5, 62, 0, 63, 0, 56, 35, 0, 4, 11, 26, 15, 31, 79, 19, 6, 55, 0, 0, 80, 29, 25, 0, 9, 78, 37, 76, 0, 74, 0, 60, 0, 12, 73, 59, 32, 53, 0, 0, 0, 47, 38, 3, 0, 45, 39, 51, 42, 44, 0, 8, 77, 0, 49, 33
|58, 79, 0, 0, 67, 0, 34, 38, 8, 49, 5, 39, 61, 32, 0, 59, 0, 77, 0, 37, 0, 9, 17, 0, 10, 7, 36, 0, 26, 0, 0, 75, 0, 14, 1, 20, 73, 66, 56, 60, 48, 64, 54, 0, 47, 42, 0, 55, 53, 0, 40, 28, 0, 50, 27, 78, 43, 4, 21, 68, 29, 0, 0, 72, 11, 31, 6, 25, 63, 23, 46, 0, 74, 0, 57, 52, 0, 24, 0, 0, 0
|23, 64, 0, 59, 0, 0, 28, 40, 21, 0, 36, 17, 19, 0, 70, 0, 62, 0, 22, 2, 80, 0, 0, 74, 11, 32, 0, 51, 13, 25, 9, 48, 60, 66, 37, 0, 67, 0, 0, 68, 27, 43, 77, 0, 69, 49, 0, 5, 39, 0, 0, 75, 46, 0, 18, 10, 7, 58, 31, 35, 6, 0, 0, 0, 0, 65, 55, 34, 0, 50, 44, 73, 14, 53, 76, 72, 54, 0, 0, 1, 56
|4, 0, 0, 60, 22, 0, 0, 74, 56, 50, 0, 0, 0, 0, 0, 0, 12, 48, 0, 31, 0, 0, 0, 0, 40, 52, 58, 0, 0, 69, 0, 71, 15, 0, 0, 38, 14, 16, 0, 70, 33, 0, 29, 36, 46, 77, 65, 72, 19, 0, 3, 57, 10, 1, 67, 37, 81, 41, 17, 23, 63, 44, 49, 0, 0, 2, 66, 32, 0, 75, 0, 51, 21, 55, 68, 0, 39, 6, 59, 0, 26
|0, 16, 57, 0, 0, 44, 67, 8, 26, 74, 63, 58, 72, 27, 20, 47, 64, 80, 11, 25, 43, 0, 53, 35, 0, 0, 0, 15, 4, 77, 54, 0, 22, 39, 0, 79, 56, 1, 68, 9, 0, 0, 0, 48, 21, 0, 14, 24, 50, 60, 0, 65, 0, 62, 37, 34, 32, 7, 0, 6, 0, 0, 29, 51, 55, 0, 0, 41, 0, 76, 0, 33, 0, 13, 31, 0, 36, 12, 40, 0, 3
|77, 21, 24, 49, 0, 60, 10, 80, 40, 70, 50, 71, 42, 68, 34, 43, 18, 0, 0, 22, 62, 12, 9, 0, 0, 16, 72, 53, 2, 0, 25, 0, 75, 0, 36, 0, 51, 57, 19, 58, 17, 27, 31, 11, 0, 0, 45, 32, 13, 4, 35, 78, 1, 0, 0, 0, 0, 0, 0, 8, 0, 26, 65, 0, 63, 37, 38, 0, 67, 47, 29, 30, 0, 39, 0, 0, 66, 73, 0, 0, 0
|61, 0, 81, 74, 0, 0, 22, 76, 0, 54, 79, 49, 2, 40, 59, 67, 38, 8, 20, 41, 71, 57, 0, 77, 66, 58, 0, 24, 29, 52, 0, 0, 73, 0, 51, 0, 0, 65, 12, 62, 0, 60, 25, 34, 45, 55, 43, 16, 31, 10, 68, 53, 0, 44, 0, 5, 21, 70, 0, 0, 27, 0, 0, 39, 18, 0, 1, 6, 0, 64, 13, 0, 48, 0, 30, 47, 50, 37, 23, 0, 0
|25, 9, 0, 54, 0, 33, 0, 32, 2, 56, 66, 0, 7, 37, 13, 0, 44, 17, 0, 0, 47, 73, 0, 0, 24, 46, 18, 58, 0, 0, 31, 57, 0, 0, 0, 43, 64, 22, 10, 61, 72, 14, 59, 38, 0, 6, 41, 77, 40, 0, 26, 39, 70, 0, 0, 30, 48, 36, 0, 0, 0, 76, 60, 79, 4, 23, 78, 69, 28, 8, 71, 5, 63, 35, 15, 62, 49, 52, 65, 75, 0
|73, 51, 0, 66, 0, 3, 0, 0, 0, 78, 14, 0, 52, 33, 9, 29, 16, 0, 55, 61, 56, 36, 0, 0, 31, 0, 26, 23, 44, 0, 1, 0, 70, 21, 10, 65, 77, 0, 40, 0, 20, 76, 0, 46, 53, 74, 48, 8, 12, 25, 0, 17, 0, 27, 39, 19, 47, 0, 0, 71, 24, 13, 54, 0, 68, 45, 7, 43, 57, 49, 34, 0, 0, 0, 0, 67, 5, 32, 4, 42, 0
|17, 1, 0, 41, 45, 64, 0, 65, 34, 69, 28, 4, 31, 77, 48, 39, 60, 5, 19, 74, 0, 67, 80, 37, 68, 23, 27, 76, 0, 0, 56, 0, 26, 0, 13, 33, 0, 70, 0, 50, 29, 36, 49, 0, 0, 0, 21, 47, 7, 46, 9, 0, 58, 18, 72, 0, 2, 75, 40, 11, 0, 0, 0, 0, 0, 3, 10, 12, 59, 32, 62, 0, 71, 43, 61, 38, 24, 25, 53, 57, 0
|5, 31, 14, 13, 0, 52, 0, 0, 29, 25, 51, 0, 10, 30, 46, 12, 0, 75, 0, 38, 7, 48, 65, 44, 32, 42, 0, 0, 0, 16, 0, 0, 64, 71, 81, 74, 78, 0, 79, 26, 47, 73, 24, 0, 0, 19, 33, 0, 67, 69, 0, 63, 2, 72, 45, 43, 0, 35, 50, 3, 4, 58, 57, 54, 77, 27, 9, 61, 11, 40, 0, 0, 80, 17, 0, 21, 6, 76, 0, 20, 0
|0, 53, 0, 0, 0, 78, 38, 79, 42, 0, 0, 6, 73, 0, 24, 11, 32, 76, 0, 49, 0, 40, 0, 39, 60, 0, 15, 17, 69, 34, 61, 30, 0, 41, 0, 9, 54, 13, 0, 23, 0, 3, 0, 0, 2, 57, 66, 37, 81, 0, 80, 22, 52, 51, 62, 28, 0, 68, 67, 14, 64, 55, 0, 0, 48, 70, 25, 75, 20, 0, 0, 26, 0, 0, 0, 0, 27, 0, 0, 29, 45
|56, 0, 0, 39, 43, 68, 4, 12, 46, 53, 57, 81, 23, 26, 0, 3, 61, 22, 29, 69, 0, 21, 8, 0, 0, 0, 0, 19, 45, 47, 40, 72, 38, 0, 0, 37, 41, 0, 15, 7, 42, 30, 67, 0, 0, 0, 75, 20, 0, 71, 64, 0, 49, 59, 25, 18, 1, 31, 10, 0, 44, 63, 74, 66, 80, 24, 65, 58, 0, 16, 0, 50, 70, 0, 55, 0, 60, 34, 14, 51, 9
|41, 62, 0, 17, 71, 73, 68, 49, 12, 75, 29, 0, 33, 0, 23, 4, 34, 10, 58, 0, 42, 0, 0, 64, 57, 79, 0, 0, 0, 78, 21, 37, 0, 0, 0, 0, 46, 48, 25, 0, 81, 0, 20, 47, 7, 0, 0, 0, 61, 0, 0, 8, 69, 70, 11, 35, 27, 74, 72, 38, 0, 6, 26, 5, 0, 30, 13, 54, 18, 0, 0, 28, 36, 63, 80, 14, 77, 44, 9, 16, 0
|1, 0, 42, 77, 15, 11, 30, 0, 55, 3, 46, 79, 0, 0, 61, 13, 36, 0, 5, 0, 0, 45, 12, 60, 0, 81, 54, 0, 10, 18, 41, 4, 80, 0, 57, 56, 19, 51, 0, 67, 26, 31, 0, 70, 38, 25, 2, 7, 0, 28, 21, 66, 0, 49, 29, 68, 16, 62, 44, 32, 50, 0, 0, 9, 59, 47, 39, 22, 0, 0, 0, 0, 6, 65, 0, 0, 17, 0, 24, 35, 75
|29, 0, 0, 0, 46, 59, 0, 51, 74, 60, 22, 50, 24, 80, 0, 17, 30, 73, 13, 71, 0, 0, 23, 38, 63, 35, 48, 40, 58, 62, 28, 0, 16, 6, 33, 81, 0, 10, 44, 77, 0, 0, 0, 37, 72, 32, 55, 0, 0, 3, 18, 42, 20, 31, 0, 9, 0, 0, 76, 47, 2, 0, 15, 12, 65, 0, 75, 4, 26, 0, 0, 34, 7, 64, 21, 0, 0, 53, 0, 39, 49
|0, 0, 33, 7, 34, 36, 24, 47, 57, 0, 72, 59, 41, 2, 81, 0, 0, 18, 75, 32, 0, 76, 0, 9, 56, 30, 0, 0, 15, 46, 26, 0, 50, 27, 17, 22, 45, 60, 0, 12, 78, 49, 0, 0, 13, 0, 0, 62, 0, 0, 39, 1, 65, 23, 55, 80, 0, 77, 48, 0, 37, 54, 0, 21, 0, 0, 63, 64, 66, 0, 0, 31, 43, 25, 28, 0, 79, 0, 20, 52, 0
|0, 61, 0, 0, 0, 9, 0, 20, 0, 7, 48, 16, 77, 76, 65, 44, 14, 56, 34, 27, 21, 0, 67, 46, 0, 6, 0, 0, 49, 0, 29, 0, 69, 60, 53, 8, 11, 33, 41, 3, 0, 0, 15, 59, 18, 45, 35, 58, 26, 51, 47, 71, 0, 73, 24, 42, 63, 43, 75, 12, 28, 0, 66, 0, 0, 0, 0, 81, 17, 0, 0, 0, 0, 38, 74, 68, 0, 2, 0, 30, 22
|27, 0, 21, 25, 3, 0, 76, 0, 43, 0, 55, 9, 0, 0, 5, 69, 54, 0, 74, 16, 66, 78, 18, 17, 33, 22, 65, 44, 73, 0, 47, 61, 31, 19, 0, 0, 0, 64, 39, 0, 62, 57, 63, 30, 50, 24, 37, 0, 46, 6, 36, 60, 0, 0, 58, 0, 4, 0, 56, 0, 13, 52, 51, 0, 8, 0, 41, 72, 49, 0, 0, 79, 67, 15, 32, 0, 34, 81, 1, 23, 0
|10, 26, 2, 63, 0, 0, 0, 0, 5, 0, 27, 64, 0, 8, 21, 0, 6, 0, 43, 28, 37, 11, 73, 3, 69, 0, 0, 12, 9, 42, 0, 0, 23, 20, 38, 13, 75, 52, 32, 24, 0, 55, 34, 56, 0, 0, 44, 79, 77, 0, 0, 0, 48, 0, 31, 61, 40, 0, 33, 0, 53, 45, 81, 0, 36, 67, 68, 74, 0, 78, 7, 16, 0, 0, 60, 0, 70, 47, 62, 0, 46
|0, 0, 0, 81, 0, 37, 23, 31, 54, 71, 32, 12, 0, 62, 0, 63, 0, 0, 50, 52, 49, 0, 10, 1, 2, 0, 47, 59, 0, 30, 11, 0, 79, 77, 68, 0, 27, 8, 74, 17, 4, 53, 0, 6, 0, 43, 78, 0, 9, 16, 22, 72, 34, 75, 64, 36, 19, 73, 25, 18, 41, 65, 0, 35, 0, 33, 24, 0, 44, 0, 60, 0, 3, 0, 51, 57, 13, 5, 0, 76, 0
|0, 6, 16, 40, 0, 56, 60, 0, 35, 0, 43, 1, 37, 0, 38, 0, 53, 52, 0, 0, 15, 0, 0, 0, 80, 0, 62, 70, 0, 72, 7, 0, 34, 25, 0, 51, 21, 36, 0, 42, 61, 29, 0, 28, 0, 81, 67, 27, 0, 5, 0, 0, 0, 0, 0, 0, 17, 0, 22, 30, 49, 0, 20, 50, 2, 73, 0, 57, 0, 48, 0, 0, 19, 54, 45, 33, 0, 78, 55, 11, 58
|64, 12, 5, 0, 80, 51, 14, 0, 27, 45, 1, 78, 56, 0, 72, 55, 48, 0, 60, 81, 67, 50, 33, 29, 8, 17, 0, 0, 32, 10, 57, 0, 77, 24, 16, 0, 61, 0, 11, 76, 0, 20, 58, 0, 41, 26, 38, 6, 69, 49, 0, 7, 4, 0, 52, 0, 9, 22, 36, 0, 0, 0, 34, 44, 37, 0, 54, 0, 35, 42, 63, 25, 15, 0, 2, 75, 53, 39, 74, 0, 0
|31, 39, 38, 32, 2, 57, 16, 0, 6, 0, 73, 66, 20, 0, 0, 0, 0, 40, 80, 44, 0, 65, 52, 0, 74, 62, 3, 0, 21, 0, 0, 0, 68, 63, 15, 70, 49, 0, 8, 56, 37, 0, 0, 0, 54, 28, 24, 43, 0, 23, 14, 0, 25, 5, 0, 0, 0, 0, 55, 48, 0, 17, 0, 41, 47, 78, 50, 1, 75, 0, 79, 0, 0, 76, 71, 81, 0, 0, 12, 0, 13
|0, 13, 0, 78, 77, 71, 75, 55, 0, 57, 58, 0, 32, 9, 30, 68, 10, 12, 0, 19, 0, 1, 0, 45, 0, 63, 0, 0, 80, 56, 59, 22, 33, 0, 0, 62, 24, 0, 0, 0, 70, 0, 0, 79, 0, 44, 17, 41, 27, 0, 66, 74, 64, 11, 26, 50, 76, 15, 0, 28, 0, 31, 37, 36, 29, 53, 3, 23, 81, 34, 6, 2, 18, 4, 0, 8, 14, 0, 73, 5, 38
|0, 74, 0, 8, 0, 0, 0, 0, 0, 0, 35, 0, 69, 43, 36, 25, 0, 47, 15, 18, 22, 16, 66, 59, 0, 78, 7, 11, 37, 79, 53, 38, 49, 0, 23, 0, 80, 26, 6, 28, 0, 40, 64, 0, 17, 75, 77, 39, 54, 67, 19, 0, 81, 55, 14, 44, 30, 13, 0, 65, 0, 0, 0, 57, 9, 0, 0, 71, 0, 73, 33, 32, 61, 0, 52, 0, 72, 51, 3, 0, 21
|30, 18, 53, 24, 0, 61, 29, 45, 81, 76, 2, 0, 8, 5, 37, 0, 0, 70, 0, 12, 0, 14, 55, 0, 0, 11, 57, 20, 54, 71, 78, 52, 17, 51, 9, 50, 0, 25, 36, 13, 0, 62, 0, 0, 44, 33, 80, 1, 58, 35, 15, 21, 47, 3, 79, 63, 0, 38, 77, 49, 68, 10, 42, 7, 0, 69, 0, 0, 22, 4, 0, 59, 65, 67, 0, 43, 56, 48, 66, 0, 32
|0, 60, 28, 56, 66, 76, 58, 46, 0, 62, 59, 23, 81, 49, 15, 0, 17, 29, 27, 36, 0, 5, 0, 54, 53, 0, 0, 7, 6, 43, 0, 40, 18, 0, 61, 73, 68, 0, 0, 0, 0, 0, 33, 39, 67, 22, 0, 13, 51, 50, 57, 70, 31, 10, 32, 3, 0, 0, 1, 41, 80, 47, 72, 0, 0, 8, 21, 52, 0, 24, 0, 45, 79, 44, 0, 0, 9, 0, 0, 0, 0
|33, 41, 79, 3, 73, 7, 11, 35, 9, 44, 54, 0, 38, 63, 16, 75, 22, 60, 30, 0, 70, 0, 71, 0, 0, 0, 10, 14, 64, 39, 19, 0, 0, 34, 72, 76, 53, 43, 27, 32, 45, 0, 0, 0, 59, 37, 61, 0, 0, 0, 2, 12, 40, 48, 0, 57, 23, 78, 0, 0, 67, 46, 8, 77, 28, 13, 49, 65, 15, 66, 55, 20, 0, 6, 62, 0, 31, 0, 68, 58, 50
|0, 67, 49, 36, 40, 65, 21, 23, 1, 0, 64, 7, 18, 0, 53, 74, 0, 3, 37, 79, 48, 31, 0, 2, 9, 0, 41, 0, 47, 0, 8, 0, 42, 44, 60, 0, 0, 38, 78, 0, 50, 63, 0, 15, 4, 68, 0, 71, 52, 45, 32, 0, 72, 0, 0, 58, 0, 6, 39, 0, 66, 0, 35, 0, 27, 61, 17, 0, 62, 0, 0, 70, 29, 10, 16, 24, 59, 57, 0, 55, 77
|59, 37, 0, 50, 0, 22, 44, 15, 0, 39, 11, 19, 0, 28, 0, 0, 0, 0, 32, 21, 23, 42, 0, 58, 0, 13, 34, 0, 66, 0, 2, 0, 81, 35, 0, 5, 18, 30, 3, 52, 0, 75, 0, 57, 9, 60, 0, 78, 76, 65, 0, 0, 62, 63, 0, 71, 12, 24, 61, 29, 0, 25, 27, 14, 0, 48, 72, 16, 31, 0, 43, 0, 0, 49, 20, 45, 0, 36, 7, 33, 47
|60, 0, 50, 0, 16, 42, 62, 0, 36, 23, 15, 0, 0, 75, 25, 21, 19, 0, 0, 0, 65, 74, 24, 30, 0, 64, 35, 0, 0, 61, 52, 78, 37, 1, 2, 10, 55, 31, 0, 39, 54, 11, 44, 80, 0, 3, 27, 0, 6, 0, 71, 69, 68, 14, 51, 76, 0, 33, 32, 4, 72, 0, 45, 59, 0, 34, 20, 73, 38, 56, 28, 47, 8, 46, 13, 49, 29, 0, 70, 0, 41
|76, 0, 0, 21, 26, 0, 56, 34, 72, 59, 53, 14, 35, 0, 0, 0, 67, 0, 0, 63, 33, 0, 5, 42, 1, 36, 50, 16, 70, 68, 0, 8, 43, 0, 0, 25, 0, 24, 0, 30, 0, 81, 23, 0, 0, 46, 12, 0, 0, 73, 41, 0, 17, 32, 47, 0, 78, 44, 64, 9, 0, 0, 10, 4, 0, 7, 27, 18, 77, 54, 58, 74, 52, 66, 0, 0, 51, 3, 45, 37, 15
|79, 43, 6, 57, 23, 70, 0, 7, 66, 0, 24, 37, 5, 54, 27, 62, 78, 34, 38, 60, 0, 29, 32, 41, 0, 15, 22, 9, 28, 21, 0, 17, 40, 31, 49, 0, 74, 0, 0, 0, 56, 0, 19, 0, 0, 8, 50, 53, 0, 76, 75, 0, 39, 13, 36, 73, 71, 20, 2, 80, 3, 12, 63, 42, 0, 10, 51, 48, 0, 0, 0, 52, 0, 47, 26, 1, 0, 65, 81, 4, 61
|51, 20, 48, 0, 0, 2, 81, 77, 0, 0, 47, 42, 76, 0, 0, 10, 68, 4, 40, 54, 0, 0, 0, 11, 62, 0, 0, 63, 74, 32, 0, 67, 0, 0, 56, 23, 25, 21, 59, 18, 36, 33, 75, 66, 37, 78, 72, 49, 15, 19, 1, 79, 0, 43, 0, 0, 26, 0, 35, 0, 31, 0, 13, 8, 0, 41, 16, 39, 46, 0, 61, 9, 73, 60, 24, 0, 0, 30, 0, 17, 0
|0, 10, 37, 73, 14, 67, 0, 39, 22, 0, 69, 55, 40, 20, 45, 56, 2, 44, 68, 0, 12, 28, 19, 43, 0, 66, 0, 47, 51, 41, 75, 27, 76, 58, 0, 35, 38, 0, 17, 0, 49, 16, 6, 0, 0, 29, 54, 4, 70, 0, 0, 0, 0, 60, 1, 0, 59, 0, 0, 52, 0, 0, 0, 13, 21, 63, 64, 31, 53, 5, 26, 0, 77, 72, 0, 18, 33, 9, 78, 32, 34
|40, 63, 1, 61, 27, 5, 0, 69, 80, 79, 0, 72, 71, 0, 29, 0, 0, 39, 9, 14, 0, 47, 44, 0, 23, 55, 56, 54, 0, 22, 36, 64, 46, 30, 73, 0, 43, 34, 0, 0, 58, 8, 0, 51, 70, 2, 74, 66, 0, 0, 31, 20, 0, 77, 16, 21, 28, 0, 6, 0, 17, 49, 0, 68, 35, 15, 33, 0, 65, 57, 0, 62, 0, 75, 0, 12, 0, 11, 10, 25, 59
|0, 68, 0, 52, 8, 4, 41, 25, 11, 48, 17, 0, 28, 64, 57, 65, 66, 31, 72, 13, 16, 10, 39, 26, 75, 0, 0, 69, 3, 33, 6, 44, 0, 79, 45, 34, 15, 27, 20, 0, 0, 0, 0, 0, 1, 0, 59, 21, 0, 40, 0, 61, 51, 9, 0, 53, 37, 0, 0, 43, 30, 29, 56, 0, 70, 0, 0, 0, 76, 71, 12, 60, 0, 5, 63, 35, 0, 80, 38, 14, 36
|53, 0, 30, 0, 47, 0, 59, 75, 78, 0, 49, 70, 63, 0, 0, 73, 7, 16, 71, 17, 27, 0, 3, 31, 0, 21, 0, 0, 0, 38, 66, 42, 14, 12, 5, 26, 76, 79, 50, 41, 77, 45, 72, 9, 29, 11, 34, 0, 0, 52, 10, 0, 0, 0, 0, 62, 74, 0, 0, 0, 39, 0, 67, 37, 6, 1, 0, 0, 25, 81, 40, 36, 0, 0, 64, 58, 2, 54, 28, 0, 0
|28, 54, 35, 38, 55, 0, 9, 18, 0, 33, 8, 3, 0, 41, 50, 1, 51, 30, 52, 73, 0, 37, 57, 76, 34, 20, 69, 0, 53, 11, 0, 59, 0, 7, 24, 15, 10, 61, 67, 0, 60, 0, 47, 26, 62, 64, 25, 42, 0, 0, 5, 58, 44, 16, 0, 81, 70, 66, 65, 27, 77, 0, 46, 17, 14, 79, 2, 80, 23, 19, 78, 0, 31, 0, 0, 0, 0, 68, 0, 21, 0
|12, 0, 74, 43, 36, 8, 0, 62, 59, 0, 0, 53, 0, 70, 32, 58, 25, 38, 0, 6, 28, 20, 56, 40, 73, 0, 0, 68, 0, 24, 34, 31, 0, 18, 30, 60, 0, 0, 0, 57, 5, 0, 10, 4, 64, 51, 0, 19, 23, 13, 44, 3, 0, 65, 46, 1, 33, 29, 7, 76, 11, 41, 77, 22, 72, 66, 0, 0, 39, 67, 16, 0, 27, 0, 49, 54, 0, 50, 75, 0, 0
|0, 22, 0, 0, 52, 81, 64, 17, 0, 43, 4, 8, 75, 44, 0, 24, 0, 0, 66, 29, 0, 63, 46, 25, 47, 0, 38, 61, 48, 0, 76, 35, 0, 59, 0, 36, 65, 54, 0, 74, 55, 0, 12, 27, 19, 0, 49, 10, 41, 1, 45, 0, 6, 0, 73, 69, 53, 71, 0, 0, 78, 42, 0, 0, 57, 0, 31, 77, 0, 18, 30, 0, 0, 0, 11, 16, 67, 0, 0, 62, 5
|49, 80, 0, 0, 57, 26, 33, 0, 20, 36, 52, 48, 74, 66, 64, 0, 1, 0, 44, 55, 0, 81, 27, 69, 18, 71, 9, 29, 16, 0, 0, 65, 11, 0, 19, 0, 37, 56, 0, 31, 0, 0, 38, 0, 0, 15, 0, 46, 0, 2, 0, 67, 7, 8, 4, 25, 3, 0, 45, 0, 34, 0, 14, 78, 76, 6, 35, 5, 0, 60, 0, 0, 0, 24, 53, 0, 10, 13, 22, 12, 39
|0, 44, 0, 0, 31, 0, 70, 56, 0, 37, 0, 0, 55, 72, 54, 79, 73, 46, 4, 39, 0, 62, 58, 22, 0, 0, 0, 0, 0, 0, 14, 6, 21, 38, 27, 52, 69, 81, 28, 34, 0, 41, 60, 53, 78, 59, 0, 64, 63, 17, 77, 18, 24, 80, 35, 75, 68, 32, 0, 50, 26, 61, 12, 29, 0, 0, 19, 13, 40, 36, 0, 48, 0, 0, 65, 42, 47, 0, 25, 66, 0
|55, 2, 66, 0, 13, 28, 65, 27, 50, 9, 81, 0, 12, 45, 0, 49, 0, 68, 16, 10, 17, 80, 26, 14, 37, 0, 76, 64, 25, 5, 51, 33, 7, 69, 41, 0, 32, 40, 0, 6, 73, 22, 0, 0, 0, 0, 0, 61, 71, 39, 70, 52, 29, 20, 44, 56, 72, 54, 30, 67, 15, 60, 31, 34, 79, 0, 23, 53, 47, 38, 59, 1, 0, 3, 0, 0, 19, 43, 21, 18, 8
|0, 0, 4, 30, 5, 34, 47, 0, 41, 10, 76, 29, 0, 0, 26, 0, 42, 0, 77, 78, 24, 0, 36, 0, 0, 57, 70, 32, 0, 15, 0, 0, 53, 0, 0, 72, 71, 20, 49, 0, 0, 46, 11, 3, 0, 27, 68, 9, 66, 0, 0, 0, 0, 12, 59, 64, 62, 39, 8, 63, 52, 19, 6, 33, 0, 75, 37, 21, 0, 0, 51, 65, 0, 73, 35, 44, 28, 1, 60, 81, 55
|0, 0, 60, 46, 39, 38, 63, 0, 0, 65, 0, 0, 0, 14, 71, 22, 0, 57, 8, 75, 1, 52, 7, 19, 45, 49, 23, 50, 40, 74, 0, 66, 78, 0, 47, 0, 13, 67, 18, 80, 25, 35, 36, 0, 26, 72, 5, 0, 56, 53, 42, 62, 0, 33, 17, 27, 10, 51, 0, 0, 0, 0, 55, 2, 81, 68, 0, 28, 69, 44, 0, 0, 32, 0, 0, 76, 4, 29, 15, 59, 70
|78, 32, 58, 79, 0, 21, 0, 0, 14, 0, 40, 33, 0, 0, 0, 18, 41, 0, 42, 0, 34, 0, 59, 68, 65, 61, 12, 46, 39, 70, 71, 0, 10, 49, 0, 0, 0, 0, 62, 1, 76, 44, 17, 29, 0, 0, 11, 75, 0, 81, 60, 48, 16, 37, 2, 0, 5, 0, 24, 66, 0, 80, 0, 27, 25, 54, 26, 3, 45, 9, 4, 0, 0, 77, 23, 63, 52, 0, 0, 31, 64
|0, 25, 29, 16, 0, 40, 19, 10, 24, 6, 80, 27, 60, 3, 63, 0, 47, 0, 0, 0, 41, 0, 0, 0, 0, 31, 64, 77, 42, 23, 79, 1, 0, 0, 0, 12, 0, 68, 0, 59, 0, 61, 39, 0, 0, 0, 4, 26, 0, 22, 76, 0, 55, 78, 65, 49, 38, 0, 18, 81, 70, 28, 9, 58, 50, 71, 73, 11, 8, 62, 0, 17, 0, 14, 48, 0, 45, 74, 51, 0, 0
|42, 78, 12, 34, 29, 0, 20, 0, 63, 0, 38, 31, 0, 59, 49, 64, 0, 14, 25, 9, 76, 0, 69, 75, 0, 0, 0, 30, 0, 57, 0, 81, 0, 0, 11, 27, 70, 62, 53, 0, 0, 23, 16, 0, 39, 67, 0, 2, 3, 43, 65, 0, 45, 15, 5, 0, 55, 80, 0, 37, 79, 21, 48, 26, 74, 51, 0, 0, 10, 1, 0, 6, 24, 33, 0, 17, 46, 61, 71, 8, 0
|0, 33, 0, 55, 21, 30, 54, 2, 45, 4, 34, 22, 0, 6, 0, 19, 72, 0, 14, 80, 0, 0, 0, 0, 12, 0, 74, 0, 41, 73, 0, 0, 5, 29, 70, 0, 20, 37, 71, 51, 68, 78, 40, 0, 0, 9, 0, 18, 25, 59, 16, 32, 35, 17, 13, 38, 46, 56, 66, 42, 0, 0, 0, 0, 39, 57, 0, 0, 61, 63, 47, 0, 23, 48, 77, 0, 15, 26, 44, 43, 81
|0, 8, 9, 11, 35, 0, 66, 0, 77, 61, 13, 32, 47, 79, 75, 28, 0, 78, 23, 42, 0, 55, 37, 73, 67, 38, 0, 49, 43, 36, 68, 0, 39, 17, 0, 0, 3, 5, 52, 72, 65, 0, 80, 74, 34, 20, 22, 0, 44, 70, 29, 46, 60, 54, 76, 4, 14, 45, 26, 0, 33, 24, 0, 31, 41, 16, 0, 0, 2, 12, 48, 81, 58, 57, 69, 10, 64, 18, 0, 50, 53
|0, 73, 0, 58, 0, 39, 0, 81, 0, 21, 0, 0, 0, 0, 41, 33, 0, 54, 0, 0, 31, 46, 45, 0, 43, 40, 66, 0, 50, 44, 13, 20, 0, 72, 0, 0, 0, 6, 0, 55, 0, 32, 27, 0, 12, 71, 8, 76, 24, 78, 0, 77, 26, 4, 19, 0, 64, 65, 0, 2, 47, 35, 11, 69, 30, 38, 34, 59, 0, 15, 70, 23, 0, 0, 25, 79, 22, 0, 5, 67, 0
|14, 75, 41, 80, 0, 0, 79, 68, 48, 16, 0, 40, 0, 17, 0, 81, 5, 0, 7, 65, 20, 0, 2, 27, 35, 39, 0, 0, 31, 58, 55, 21, 0, 0, 63, 18, 47, 11, 0, 8, 67, 24, 0, 22, 73, 12, 42, 0, 62, 72, 6, 36, 66, 30, 50, 23, 15, 59, 51, 57, 71, 70, 69, 46, 54, 19, 44, 0, 0, 13, 0, 77, 37, 34, 9, 28, 38, 0, 0, 45, 76
|0, 4, 56, 0, 0, 0, 0, 60, 0, 0, 39, 30, 58, 29, 74, 77, 46, 7, 17, 68, 63, 8, 0, 0, 0, 0, 24, 0, 67, 65, 42, 10, 48, 64, 6, 71, 9, 69, 21, 15, 0, 0, 43, 35, 25, 0, 51, 11, 49, 79, 53, 5, 27, 19, 0, 0, 54, 40, 73, 16, 36, 81, 0, 0, 45, 0, 32, 50, 0, 33, 75, 22, 55, 0, 66, 70, 20, 41, 0, 0, 80
|16, 0, 15, 69, 0, 32, 53, 37, 70, 67, 0, 65, 0, 0, 0, 66, 8, 24, 33, 26, 3, 0, 22, 71, 30, 0, 0, 38, 0, 0, 0, 76, 62, 75, 54, 80, 79, 14, 46, 0, 64, 4, 57, 0, 48, 0, 40, 28, 21, 74, 50, 41, 0, 0, 0, 0, 31, 52, 34, 60, 10, 72, 7, 0, 0, 55, 0, 27, 0, 43, 9, 0, 39, 12, 42, 2, 73, 59, 35, 78, 63
|26, 57, 40, 44, 24, 46, 51, 0, 13, 0, 71, 0, 0, 23, 12, 36, 37, 20, 28, 70, 64, 0, 0, 62, 29, 56, 0, 0, 34, 0, 4, 0, 47, 33, 0, 32, 0, 76, 54, 0, 41, 66, 45, 2, 81, 0, 63, 52, 38, 75, 55, 80, 73, 0, 0, 39, 0, 49, 43, 77, 9, 22, 0, 67, 0, 0, 53, 35, 79, 0, 17, 0, 68, 19, 0, 31, 65, 21, 27, 74, 60
|74, 0, 0, 0, 28, 31, 0, 5, 65, 0, 42, 60, 0, 0, 55, 70, 43, 26, 61, 58, 0, 0, 41, 10, 50, 19, 0, 35, 79, 8, 46, 2, 0, 0, 12, 45, 0, 0, 29, 0, 38, 0, 1, 49, 0, 69, 39, 14, 48, 57, 37, 0, 23, 34, 63, 0, 25, 0, 53, 75, 18, 68, 17, 24, 0, 0, 11, 76, 78, 21, 66, 0, 0, 36, 0, 51, 7, 72, 54, 3, 6
|43, 0, 77, 26, 60, 79, 57, 0, 49, 0, 12, 54, 1, 78, 6, 0, 45, 42, 51, 34, 55, 41, 30, 0, 17, 0, 0, 0, 62, 0, 48, 0, 36, 0, 0, 29, 33, 4, 61, 25, 0, 80, 35, 32, 22, 0, 7, 0, 20, 11, 46, 24, 0, 0, 0, 31, 0, 0, 9, 10, 21, 71, 0, 0, 13, 0, 67, 40, 72, 0, 0, 75, 64, 59, 39, 3, 69, 63, 18, 27, 19
|0, 0, 0, 22, 33, 0, 8, 50, 0, 34, 70, 0, 39, 69, 31, 2, 0, 21, 1, 46, 32, 15, 63, 65, 16, 0, 42, 73, 12, 54, 37, 0, 61, 9, 75, 17, 29, 0, 51, 38, 40, 26, 0, 0, 0, 23, 0, 0, 0, 27, 52, 44, 18, 0, 81, 55, 56, 79, 0, 0, 0, 59, 78, 0, 58, 49, 77, 0, 0, 41, 0, 19, 0, 45, 0, 0, 57, 0, 6, 47, 0
|46, 0, 0, 51, 69, 6, 0, 70, 0, 64, 60, 73, 0, 48, 10, 0, 76, 72, 0, 0, 2, 56, 29, 0, 0, 12, 81, 45, 38, 31, 22, 0, 8, 78, 79, 7, 58, 0, 14, 0, 15, 71, 0, 67, 24, 63, 1, 3, 57, 0, 25, 35, 0, 39, 61, 11, 0, 18, 0, 44, 0, 30, 0, 23, 34, 0, 0, 36, 0, 0, 42, 0, 0, 21, 33, 0, 0, 16, 37, 26, 0
|72, 23, 65, 0, 9, 29, 0, 0, 0, 0, 44, 0, 66, 0, 14, 46, 57, 0, 69, 33, 26, 61, 13, 48, 58, 0, 79, 5, 24, 67, 43, 51, 55, 15, 74, 49, 0, 63, 34, 0, 12, 1, 30, 54, 27, 0, 56, 59, 17, 21, 38, 6, 78, 76, 75, 41, 39, 19, 47, 45, 8, 7, 0, 16, 32, 4, 71, 10, 64, 22, 0, 11, 0, 52, 0, 50, 40, 0, 80, 0, 35
|34, 45, 75, 0, 32, 0, 39, 59, 28, 38, 0, 67, 65, 53, 58, 61, 26, 71, 0, 77, 9, 72, 0, 36, 70, 0, 0, 0, 35, 4, 10, 80, 0, 3, 64, 44, 5, 42, 0, 47, 0, 19, 41, 0, 0, 0, 13, 12, 14, 37, 49, 50, 15, 74, 0, 0, 66, 63, 0, 22, 40, 0, 73, 0, 62, 0, 29, 0, 7, 79, 69, 0, 78, 11, 0, 48, 81, 23, 0, 54, 0
|52, 14, 44, 48, 0, 74, 0, 78, 0, 13, 20, 0, 4, 47, 0, 30, 0, 0, 24, 35, 0, 64, 0, 6, 27, 0, 71, 0, 72, 76, 33, 0, 0, 57, 28, 0, 62, 23, 0, 46, 11, 70, 7, 77, 36, 73, 9, 45, 32, 55, 0, 0, 41, 26, 3, 0, 49, 60, 29, 0, 65, 53, 68, 25, 0, 0, 81, 63, 0, 37, 0, 18, 1, 31, 10, 66, 12, 0, 17, 38, 43
|63, 76, 47, 0, 64, 0, 0, 0, 53, 77, 62, 75, 17, 0, 7, 0, 0, 50, 67, 11, 54, 0, 78, 0, 19, 0, 0, 0, 56, 27, 58, 0, 20, 23, 71, 41, 44, 45, 81, 0, 0, 79, 9, 65, 52, 0, 31, 60, 4, 61, 0, 51, 0, 28, 48, 0, 6, 12, 69, 25, 1, 0, 38, 0, 73, 74, 30, 46, 24, 80, 68, 57, 49, 8, 0, 13, 42, 15, 0, 34, 14
|0, 0, 0, 10, 12, 0, 1, 41, 4, 0, 23, 15, 68, 35, 8, 5, 3, 0, 0, 76, 50, 38, 0, 7, 39, 0, 73, 25, 0, 13, 0, 0, 30, 11, 0, 66, 17, 18, 64, 49, 0, 21, 78, 0, 6, 0, 79, 0, 65, 34, 54, 19, 0, 29, 77, 16, 51, 67, 42, 0, 74, 0, 52, 47, 26, 60, 45, 33, 48, 0, 0, 61, 28, 71, 75, 56, 0, 58, 2, 9, 24
|21, 38, 13, 15, 7, 0, 27, 30, 0, 11, 0, 0, 0, 36, 0, 51, 24, 33, 0, 45, 0, 53, 74, 0, 22, 44, 0, 0, 19, 0, 63, 70, 6, 0, 0, 16, 48, 73, 57, 43, 59, 56, 0, 31, 3, 66, 58, 69, 0, 0, 72, 2, 0, 0, 34, 17, 0, 26, 14, 46, 62, 5, 64, 76, 1, 28, 0, 78, 9, 0, 65, 0, 4, 20, 0, 29, 0, 0, 61, 68, 25
|11, 0, 73, 28, 70, 0, 26, 24, 44, 66, 0, 25, 0, 1, 43, 0, 49, 37, 0, 0, 45, 22, 20, 8, 55, 47, 31, 57, 0, 19, 0, 3, 27, 16, 29, 0, 0, 0, 23, 21, 0, 74, 56, 18, 71, 79, 52, 40, 78, 38, 0, 0, 0, 0, 33, 46, 0, 34, 15, 0, 42, 0, 0, 32, 0, 9, 0, 0, 0, 72, 14, 0, 81, 0, 12, 41, 68, 0, 67, 53, 0
|0, 42, 0, 0, 0, 0, 0, 33, 0, 29, 65, 47, 3, 60, 73, 0, 75, 15, 0, 66, 40, 58, 28, 67, 21, 0, 46, 80, 23, 48, 35, 12, 0, 45, 0, 63, 0, 19, 1, 81, 0, 50, 62, 8, 49, 14, 0, 31, 72, 68, 0, 59, 37, 53, 0, 70, 44, 0, 11, 26, 5, 74, 71, 0, 0, 22, 18, 79, 27, 0, 57, 13, 34, 9, 38, 39, 25, 4, 43, 56, 0
|57, 50, 0, 0, 59, 0, 7, 0, 52, 41, 16, 10, 14, 0, 51, 42, 58, 0, 0, 0, 0, 0, 70, 0, 71, 53, 1, 60, 0, 37, 38, 43, 0, 28, 31, 68, 0, 9, 33, 27, 22, 15, 65, 0, 61, 0, 26, 0, 0, 0, 69, 55, 75, 0, 49, 2, 8, 0, 54, 0, 12, 73, 79, 30, 23, 81, 0, 47, 4, 46, 25, 0, 0, 78, 29, 19, 0, 35, 77, 6, 18
|0, 0, 8, 0, 68, 17, 0, 21, 75, 0, 61, 0, 0, 71, 19, 72, 0, 62, 73, 0, 0, 43, 11, 0, 5, 65, 60, 0, 20, 50, 0, 9, 51, 53, 0, 78, 34, 0, 16, 69, 13, 67, 32, 64, 79, 0, 46, 30, 2, 66, 0, 27, 12, 36, 0, 14, 52, 3, 37, 0, 0, 0, 0, 63, 24, 0, 0, 70, 33, 39, 54, 0, 47, 80, 0, 0, 58, 42, 0, 28, 44
|19, 34, 0, 71, 76, 58, 49, 4, 30, 5, 77, 20, 0, 0, 79, 48, 0, 9, 59, 0, 78, 0, 0, 18, 7, 10, 0, 0, 33, 81, 70, 0, 41, 0, 62, 2, 31, 0, 55, 29, 0, 68, 0, 0, 43, 39, 28, 0, 1, 64, 74, 54, 11, 45, 40, 0, 65, 0, 60, 51, 0, 23, 0, 75, 44, 12, 0, 67, 0, 0, 0, 0, 72, 61, 37, 0, 0, 14, 0, 36, 52
|35, 0, 69, 9, 0, 80, 15, 54, 0, 55, 18, 38, 34, 31, 17, 78, 21, 0, 39, 0, 52, 33, 0, 0, 79, 0, 37, 6, 71, 0, 44, 46, 58, 36, 32, 64, 0, 53, 47, 5, 0, 0, 0, 20, 51, 65, 62, 67, 73, 8, 13, 10, 50, 57, 68, 22, 45, 0, 0, 61, 0, 0, 4, 19, 49, 77, 48, 0, 43, 0, 1, 7, 76, 40, 59, 0, 11, 0, 26, 24, 74
|36, 66, 0, 29, 74, 0, 0, 1, 47, 63, 30, 28, 0, 50, 4, 54, 69, 64, 56, 57, 0, 17, 68, 0, 61, 76, 14, 34, 52, 26, 39, 79, 25, 13, 22, 0, 72, 0, 7, 73, 75, 10, 48, 41, 11, 0, 3, 0, 0, 0, 33, 49, 0, 6, 9, 67, 35, 81, 19, 0, 0, 0, 24, 40, 0, 58, 59, 0, 0, 51, 53, 71, 45, 2, 0, 0, 62, 0, 8, 0, 31
|39, 46, 63, 64, 79, 14, 0, 13, 0, 80, 33, 2, 27, 11, 44, 53, 40, 81, 26, 23, 35, 0, 0, 0, 41, 9, 0, 72, 0, 0, 15, 0, 0, 0, 76, 21, 28, 78, 24, 0, 52, 0, 3, 60, 0, 0, 0, 17, 18, 42, 56, 0, 0, 22, 10, 6, 29, 1, 59, 58, 0, 50, 62, 0, 31, 5, 0, 68, 0, 65, 36, 0, 20, 51, 70, 32, 55, 66, 48, 73, 57
|22, 5, 72, 53, 56, 0, 0, 16, 0, 8, 67, 68, 59, 0, 39, 52, 70, 0, 0, 0, 6, 0, 51, 0, 0, 0, 63, 0, 0, 49, 74, 14, 65, 54, 0, 61, 0, 0, 30, 0, 0, 0, 4, 76, 0, 0, 60, 44, 29, 48, 7, 0, 0, 25, 28, 47, 0, 0, 57, 0, 43, 18, 0, 0, 78, 0, 0, 20, 34, 55, 11, 41, 33, 0, 17, 0, 3, 71, 79, 64, 10|];