order = 9;
grid = [|0, 59, 61, 46, 32, 7, 74, 0, 8, 63, 16, 12, 80, 17, 55, 25, 1, 43, 0, 57, 0, 0, 10, 6, 54, 37, 3, 0, 14, 23, 33, 69, 51, 36, 0, 44, 67, 0, 35, 13, 0, 0, 40, 77, 56, 68, 64, 79, 4, 0, 11, 78, 0, 0, 34, 70, 0, 0, 5, 21, 45, 52, 50, 15, 0, 58, 0, 65, 0, 53, 27, 0, 28, 49, 0, 18, 0, 30, 72, 0, 47
|0, 41, 63, 75, 0, 13, 43, 0, 0, 0, 0, 51, 22, 5, 8, 49, 0, 14, 0, 7, 19, 80, 18, 0, 21, 31, 23, 32, 42, 45, 2, 20, 54, 29, 30, 58, 70, 6, 64, 0, 65, 0, 78, 57, 0, 76, 62, 0, 0, 27, 0, 35, 12, 0, 24, 9, 0, 0, 0, 11, 36, 74, 38, 34, 37, 47, 55, 1, 0, 69, 44, 68, 0, 4, 26, 48, 46, 0, 3, 0, 16
|60, 14, 33, 0, 48, 50, 0, 0, 0, 0, 0, 32, 26, 0, 77, 0, 75, 68, 0, 59, 72, 0, 0, 74, 71, 79, 0, 25, 0, 0, 0, 28, 0, 55, 0, 0, 29, 73, 44, 0, 4, 24, 0, 36, 20, 66, 30, 13, 34, 0, 17, 67, 0, 80, 18, 57, 51, 8, 23, 7, 49, 0, 61, 0, 11, 64, 0, 21, 45, 38, 43, 31, 69, 27, 19, 76, 6, 15, 54, 53, 2
|69, 0, 76, 0, 37, 6, 58, 80, 72, 4, 0, 57, 29, 30, 44, 3, 79, 34, 0, 8, 38, 50, 0, 16, 66, 20, 5, 62, 53, 68, 0, 11, 0, 0, 60, 47, 19, 59, 33, 28, 49, 55, 61, 45, 0, 73, 10, 40, 81, 15, 74, 48, 0, 32, 12, 43, 27, 42, 46, 64, 1, 35, 63, 2, 0, 0, 54, 0, 22, 77, 25, 18, 31, 0, 67, 71, 0, 0, 21, 75, 17
|0, 2, 0, 0, 0, 68, 0, 70, 0, 24, 19, 0, 10, 0, 0, 65, 36, 15, 52, 17, 25, 0, 0, 9, 61, 63, 62, 0, 67, 72, 79, 78, 7, 0, 31, 13, 41, 0, 27, 1, 23, 0, 30, 74, 21, 53, 0, 0, 55, 3, 5, 28, 0, 0, 39, 14, 0, 60, 0, 66, 48, 0, 47, 20, 71, 26, 6, 33, 75, 49, 32, 16, 58, 12, 0, 38, 22, 34, 64, 59, 0
|0, 16, 0, 5, 0, 10, 31, 35, 26, 0, 0, 64, 50, 0, 47, 18, 0, 42, 0, 41, 30, 0, 73, 56, 27, 0, 0, 17, 40, 43, 34, 0, 4, 0, 49, 0, 54, 0, 53, 0, 0, 0, 0, 0, 25, 1, 45, 75, 36, 24, 7, 63, 21, 19, 37, 0, 69, 32, 0, 59, 20, 72, 78, 0, 48, 0, 62, 60, 0, 39, 57, 67, 51, 13, 68, 77, 70, 52, 61, 74, 14
|0, 27, 0, 30, 1, 0, 17, 0, 79, 56, 78, 48, 20, 0, 69, 7, 59, 0, 32, 13, 0, 34, 64, 0, 0, 0, 12, 0, 21, 6, 0, 26, 0, 0, 71, 57, 76, 68, 0, 0, 42, 0, 46, 58, 0, 0, 22, 49, 72, 37, 29, 18, 8, 0, 80, 53, 0, 33, 41, 16, 3, 0, 25, 14, 63, 0, 61, 0, 50, 0, 0, 0, 36, 65, 0, 66, 5, 0, 0, 9, 55
|55, 45, 25, 24, 78, 0, 0, 0, 0, 21, 73, 0, 46, 11, 31, 72, 41, 76, 43, 0, 68, 51, 36, 2, 0, 0, 14, 0, 12, 50, 0, 70, 16, 77, 0, 64, 52, 17, 0, 18, 26, 0, 48, 60, 0, 23, 6, 0, 33, 0, 9, 0, 38, 0, 30, 0, 67, 29, 28, 0, 58, 15, 81, 0, 8, 0, 7, 0, 3, 0, 56, 0, 63, 1, 0, 80, 37, 79, 35, 32, 10
|66, 11, 49, 3, 0, 0, 4, 0, 34, 74, 54, 38, 39, 67, 0, 71, 60, 28, 0, 77, 0, 22, 0, 0, 24, 0, 55, 18, 0, 0, 35, 10, 48, 59, 73, 27, 7, 63, 9, 37, 15, 0, 80, 0, 43, 47, 25, 52, 0, 0, 16, 2, 58, 61, 75, 62, 0, 31, 6, 0, 0, 26, 0, 70, 30, 17, 0, 81, 13, 5, 72, 79, 0, 33, 56, 0, 40, 45, 78, 29, 57
|5, 0, 66, 34, 30, 0, 51, 37, 0, 10, 12, 0, 42, 15, 64, 16, 22, 0, 0, 55, 33, 79, 0, 50, 62, 0, 0, 0, 6, 78, 0, 0, 56, 74, 0, 59, 0, 67, 11, 0, 61, 63, 0, 0, 54, 0, 60, 68, 70, 38, 0, 4, 17, 0, 0, 0, 43, 20, 0, 0, 0, 19, 0, 0, 32, 0, 0, 2, 72, 1, 35, 28, 80, 8, 77, 41, 0, 65, 0, 47, 0
|50, 0, 68, 31, 0, 79, 26, 1, 0, 47, 0, 43, 4, 0, 30, 69, 21, 66, 46, 45, 0, 14, 53, 0, 13, 0, 2, 57, 20, 76, 0, 0, 32, 34, 0, 16, 28, 70, 0, 0, 0, 0, 23, 0, 33, 44, 73, 11, 54, 41, 24, 12, 0, 0, 77, 42, 38, 0, 67, 0, 0, 65, 59, 0, 52, 78, 25, 9, 0, 18, 36, 80, 0, 55, 0, 39, 63, 61, 75, 0, 51
|0, 61, 6, 70, 72, 78, 39, 0, 0, 0, 53, 9, 36, 32, 45, 24, 77, 0, 8, 0, 1, 75, 63, 59, 81, 52, 58, 41, 55, 11, 17, 67, 0, 79, 0, 25, 0, 0, 0, 19, 50, 48, 7, 4, 0, 2, 51, 69, 27, 74, 0, 43, 5, 40, 73, 0, 0, 0, 22, 31, 0, 68, 30, 0, 0, 57, 0, 10, 62, 47, 0, 0, 14, 34, 38, 33, 23, 0, 0, 64, 0
|0, 48, 13, 36, 45, 65, 0, 42, 19, 26, 75, 50, 0, 52, 18, 61, 0, 63, 0, 72, 66, 43, 34, 11, 68, 0, 54, 5, 60, 0, 30, 1, 0, 0, 28, 4, 0, 14, 0, 74, 46, 32, 2, 59, 77, 33, 76, 71, 0, 49, 31, 3, 0, 64, 44, 0, 0, 78, 9, 24, 23, 0, 0, 37, 15, 39, 38, 8, 0, 0, 69, 51, 0, 17, 73, 58, 81, 0, 22, 0, 0
|23, 0, 22, 20, 33, 60, 38, 32, 12, 0, 11, 34, 2, 51, 70, 0, 0, 17, 24, 39, 49, 67, 30, 0, 0, 48, 0, 42, 66, 0, 40, 31, 0, 62, 54, 45, 53, 0, 15, 0, 9, 36, 8, 0, 47, 0, 0, 0, 0, 26, 1, 0, 0, 65, 0, 79, 57, 7, 0, 0, 56, 0, 0, 3, 81, 75, 68, 14, 0, 0, 21, 0, 6, 78, 0, 43, 76, 44, 5, 69, 46
|43, 69, 59, 67, 71, 3, 64, 75, 28, 68, 56, 40, 5, 44, 79, 14, 0, 0, 0, 51, 20, 0, 65, 0, 32, 57, 76, 63, 80, 35, 50, 27, 77, 9, 0, 19, 6, 49, 0, 38, 0, 22, 81, 18, 0, 0, 47, 15, 0, 0, 0, 34, 78, 39, 0, 54, 72, 0, 17, 0, 0, 0, 0, 16, 60, 0, 0, 70, 11, 23, 45, 61, 0, 0, 0, 0, 31, 0, 24, 26, 0
|4, 40, 18, 81, 0, 15, 8, 46, 63, 0, 7, 74, 0, 58, 76, 78, 55, 0, 0, 9, 0, 64, 38, 28, 56, 47, 71, 33, 68, 24, 0, 12, 65, 22, 0, 23, 80, 75, 17, 30, 3, 39, 20, 0, 26, 16, 52, 0, 50, 6, 10, 61, 0, 21, 51, 49, 0, 48, 11, 0, 32, 36, 14, 0, 31, 0, 0, 0, 42, 44, 0, 53, 37, 0, 27, 0, 13, 66, 67, 1, 0
|14, 29, 11, 25, 44, 0, 0, 2, 56, 81, 35, 62, 27, 0, 13, 33, 65, 8, 6, 0, 5, 78, 61, 70, 36, 0, 77, 75, 39, 0, 53, 73, 69, 26, 51, 38, 0, 16, 76, 0, 0, 68, 58, 12, 57, 0, 0, 42, 0, 48, 22, 72, 32, 79, 40, 74, 21, 47, 18, 46, 0, 0, 34, 30, 24, 54, 0, 0, 19, 17, 64, 66, 4, 15, 50, 0, 71, 60, 49, 45, 0
|77, 21, 47, 35, 17, 54, 0, 53, 0, 0, 38, 0, 73, 28, 0, 0, 31, 39, 0, 23, 3, 26, 42, 0, 80, 0, 18, 72, 44, 52, 15, 43, 81, 49, 0, 0, 60, 0, 45, 78, 24, 51, 65, 0, 0, 29, 9, 0, 0, 75, 63, 14, 67, 20, 0, 69, 8, 70, 33, 62, 0, 61, 76, 56, 58, 22, 48, 0, 34, 27, 7, 41, 0, 40, 79, 19, 0, 12, 11, 0, 59
|0, 34, 62, 64, 60, 0, 0, 72, 0, 7, 2, 24, 61, 8, 22, 20, 68, 58, 78, 70, 17, 57, 0, 1, 46, 26, 0, 30, 49, 4, 81, 0, 0, 0, 23, 0, 0, 9, 19, 15, 35, 40, 71, 0, 41, 27, 75, 29, 21, 42, 6, 16, 50, 33, 38, 0, 52, 69, 45, 80, 51, 53, 56, 59, 13, 10, 77, 18, 66, 65, 63, 14, 0, 76, 3, 0, 54, 5, 36, 44, 79
|78, 0, 57, 55, 80, 11, 41, 68, 52, 45, 0, 0, 54, 31, 62, 0, 29, 37, 0, 0, 0, 28, 69, 13, 14, 65, 0, 9, 2, 59, 76, 40, 0, 67, 50, 0, 8, 30, 56, 53, 0, 0, 1, 51, 0, 0, 20, 0, 43, 0, 66, 23, 44, 0, 21, 81, 0, 17, 0, 42, 64, 4, 0, 32, 39, 36, 0, 16, 24, 0, 48, 0, 34, 60, 12, 7, 0, 74, 70, 49, 25
|30, 43, 14, 19, 0, 46, 44, 9, 0, 66, 15, 60, 35, 10, 0, 0, 51, 32, 0, 0, 41, 0, 12, 0, 6, 2, 24, 58, 11, 0, 16, 33, 36, 0, 20, 0, 45, 0, 0, 73, 78, 26, 0, 76, 3, 8, 5, 72, 56, 0, 69, 74, 80, 0, 63, 47, 75, 18, 54, 0, 0, 70, 0, 0, 0, 42, 53, 68, 0, 55, 0, 0, 61, 0, 0, 0, 57, 29, 77, 0, 0
|0, 4, 12, 50, 13, 2, 36, 59, 38, 33, 25, 26, 0, 41, 0, 0, 27, 23, 0, 0, 53, 16, 9, 0, 5, 0, 0, 70, 56, 14, 51, 39, 21, 71, 52, 29, 0, 28, 80, 0, 47, 60, 31, 22, 24, 35, 34, 76, 73, 67, 0, 0, 3, 30, 72, 0, 0, 57, 19, 0, 0, 43, 55, 0, 62, 0, 0, 64, 61, 74, 8, 0, 11, 63, 18, 6, 32, 1, 69, 0, 20
|0, 0, 17, 10, 70, 0, 0, 67, 58, 0, 59, 47, 6, 0, 0, 30, 5, 46, 45, 0, 81, 0, 56, 0, 0, 34, 52, 35, 25, 7, 0, 63, 0, 54, 41, 0, 11, 32, 37, 57, 14, 43, 62, 39, 65, 51, 15, 0, 13, 68, 18, 64, 4, 71, 8, 36, 12, 27, 76, 0, 9, 31, 48, 44, 0, 29, 60, 22, 1, 72, 0, 69, 66, 0, 0, 0, 0, 38, 23, 0, 33
|8, 51, 0, 0, 0, 69, 7, 63, 0, 1, 0, 0, 0, 39, 0, 67, 17, 65, 0, 80, 74, 42, 47, 36, 0, 0, 25, 0, 62, 0, 43, 34, 45, 73, 77, 66, 68, 46, 50, 64, 58, 81, 59, 0, 75, 70, 54, 9, 26, 11, 57, 0, 14, 0, 0, 33, 29, 0, 0, 41, 61, 3, 32, 0, 4, 56, 23, 71, 28, 0, 40, 0, 0, 0, 0, 0, 16, 31, 48, 35, 27
|0, 1, 0, 53, 22, 75, 56, 23, 31, 48, 76, 14, 16, 0, 71, 19, 28, 69, 0, 67, 0, 54, 49, 51, 3, 33, 72, 26, 38, 27, 0, 18, 60, 0, 32, 0, 0, 4, 0, 0, 66, 13, 36, 0, 79, 40, 0, 0, 65, 25, 0, 45, 81, 0, 0, 44, 24, 39, 78, 34, 30, 59, 74, 0, 6, 0, 0, 11, 0, 57, 0, 0, 8, 0, 0, 68, 15, 9, 50, 0, 42
|21, 3, 48, 45, 25, 37, 81, 65, 49, 36, 0, 0, 40, 53, 4, 75, 70, 0, 30, 0, 73, 0, 43, 63, 35, 0, 0, 10, 57, 0, 72, 68, 0, 5, 8, 0, 0, 23, 0, 44, 27, 29, 0, 0, 74, 61, 0, 60, 31, 0, 38, 0, 39, 17, 1, 16, 62, 11, 58, 71, 0, 0, 0, 51, 80, 67, 76, 54, 20, 12, 33, 78, 47, 0, 46, 22, 19, 0, 0, 0, 41
|0, 0, 71, 28, 79, 61, 0, 66, 0, 11, 72, 80, 44, 73, 0, 57, 0, 0, 76, 0, 0, 77, 29, 48, 4, 19, 8, 64, 24, 42, 0, 6, 47, 3, 53, 65, 21, 69, 0, 12, 0, 54, 0, 70, 16, 0, 0, 46, 78, 36, 37, 10, 63, 62, 60, 0, 20, 50, 0, 0, 14, 0, 23, 0, 0, 30, 31, 35, 0, 9, 0, 5, 59, 0, 0, 0, 51, 26, 17, 0, 39
|3, 0, 0, 66, 2, 39, 18, 0, 54, 0, 23, 0, 38, 0, 0, 15, 0, 31, 55, 0, 0, 21, 0, 27, 0, 30, 45, 69, 64, 13, 0, 0, 35, 10, 80, 41, 50, 26, 68, 71, 70, 33, 32, 43, 6, 0, 81, 0, 76, 0, 47, 0, 25, 8, 61, 0, 5, 75, 0, 0, 0, 37, 46, 63, 65, 12, 0, 79, 53, 62, 60, 17, 0, 77, 34, 0, 48, 22, 0, 51, 11
|10, 38, 20, 9, 28, 22, 0, 26, 53, 0, 43, 6, 65, 3, 48, 0, 54, 75, 4, 64, 0, 24, 60, 29, 0, 25, 57, 23, 0, 51, 71, 0, 19, 1, 74, 0, 12, 0, 62, 69, 7, 49, 0, 0, 67, 5, 16, 44, 0, 0, 0, 31, 59, 35, 14, 30, 66, 0, 34, 36, 39, 8, 72, 76, 50, 77, 0, 0, 0, 32, 13, 58, 0, 68, 0, 0, 27, 17, 41, 15, 78
|46, 68, 0, 15, 0, 33, 23, 0, 45, 13, 20, 71, 37, 61, 24, 27, 39, 0, 0, 76, 42, 38, 48, 0, 0, 14, 34, 28, 4, 79, 67, 49, 30, 78, 22, 52, 16, 77, 65, 31, 59, 8, 0, 21, 63, 0, 0, 0, 7, 60, 51, 80, 11, 10, 54, 50, 19, 41, 2, 1, 25, 0, 35, 73, 74, 5, 0, 6, 29, 0, 55, 40, 53, 18, 9, 72, 12, 57, 32, 36, 0
|63, 50, 65, 51, 19, 73, 37, 5, 69, 0, 47, 55, 0, 16, 29, 35, 0, 40, 36, 54, 6, 71, 31, 62, 9, 72, 0, 24, 15, 12, 8, 32, 11, 81, 0, 0, 10, 80, 0, 75, 0, 52, 42, 0, 27, 64, 53, 23, 39, 34, 0, 46, 2, 48, 0, 67, 58, 68, 0, 0, 70, 0, 43, 78, 28, 45, 4, 7, 33, 61, 14, 38, 79, 44, 25, 74, 3, 0, 30, 0, 13
|0, 0, 77, 7, 0, 71, 48, 11, 24, 44, 0, 66, 32, 45, 72, 0, 46, 21, 3, 0, 12, 0, 20, 0, 0, 70, 16, 39, 59, 0, 9, 47, 0, 58, 62, 53, 15, 0, 81, 23, 19, 61, 76, 0, 4, 37, 40, 0, 0, 0, 30, 38, 54, 67, 57, 31, 0, 65, 0, 28, 29, 42, 51, 0, 35, 2, 43, 75, 26, 8, 0, 22, 33, 0, 64, 0, 52, 0, 80, 60, 63
|0, 6, 16, 74, 59, 0, 76, 4, 80, 12, 5, 0, 0, 0, 49, 42, 30, 0, 0, 0, 35, 32, 28, 43, 40, 41, 0, 31, 0, 0, 18, 29, 2, 72, 0, 77, 0, 39, 0, 14, 60, 57, 13, 0, 0, 45, 69, 0, 0, 56, 0, 58, 20, 0, 79, 63, 33, 21, 0, 0, 11, 0, 22, 64, 0, 19, 24, 36, 81, 48, 0, 9, 1, 0, 70, 0, 62, 0, 0, 0, 0
|41, 30, 32, 1, 47, 62, 35, 0, 78, 0, 0, 0, 59, 26, 68, 36, 18, 22, 7, 0, 0, 0, 0, 77, 33, 0, 63, 55, 65, 60, 73, 3, 37, 38, 0, 70, 0, 72, 25, 66, 45, 11, 74, 28, 5, 0, 71, 24, 42, 0, 49, 6, 0, 14, 23, 76, 0, 4, 44, 20, 0, 48, 0, 0, 67, 27, 39, 34, 69, 54, 15, 10, 0, 0, 0, 0, 61, 40, 31, 19, 0
|0, 42, 55, 17, 31, 21, 12, 0, 75, 76, 69, 53, 0, 74, 11, 60, 81, 62, 15, 73, 39, 66, 1, 0, 19, 23, 61, 0, 45, 0, 6, 44, 0, 0, 56, 0, 2, 20, 0, 0, 29, 79, 22, 0, 9, 28, 70, 0, 68, 65, 43, 0, 0, 63, 0, 7, 10, 77, 0, 0, 38, 78, 13, 0, 59, 49, 0, 37, 30, 51, 16, 57, 24, 0, 14, 0, 67, 4, 26, 71, 58
|52, 0, 60, 27, 43, 29, 61, 40, 44, 70, 8, 33, 0, 19, 2, 0, 0, 0, 0, 11, 18, 69, 46, 65, 74, 68, 51, 48, 36, 57, 0, 16, 26, 0, 21, 14, 73, 0, 24, 0, 0, 3, 37, 38, 30, 75, 12, 4, 9, 13, 15, 0, 66, 22, 49, 55, 32, 6, 81, 17, 53, 62, 0, 1, 72, 20, 0, 25, 0, 0, 47, 71, 35, 39, 28, 42, 0, 59, 76, 5, 0
|0, 80, 0, 62, 0, 63, 0, 29, 32, 20, 0, 35, 34, 38, 57, 0, 43, 0, 0, 0, 79, 18, 0, 64, 42, 11, 44, 0, 0, 0, 58, 0, 0, 39, 0, 17, 71, 0, 0, 50, 36, 7, 0, 49, 37, 0, 0, 47, 0, 9, 68, 0, 10, 0, 2, 0, 14, 0, 21, 72, 65, 13, 0, 52, 69, 0, 0, 0, 16, 70, 0, 0, 25, 0, 1, 0, 0, 67, 4, 3, 0
|38, 71, 8, 77, 0, 27, 25, 73, 0, 0, 0, 0, 0, 0, 41, 23, 66, 74, 0, 58, 70, 0, 62, 33, 0, 59, 43, 22, 3, 49, 11, 0, 0, 24, 6, 37, 69, 0, 16, 4, 51, 34, 39, 13, 29, 17, 0, 61, 45, 57, 0, 54, 76, 81, 0, 0, 28, 19, 36, 32, 79, 46, 10, 26, 5, 0, 50, 0, 68, 80, 67, 0, 65, 72, 2, 9, 75, 63, 0, 0, 48
|76, 26, 72, 79, 0, 0, 3, 21, 0, 60, 51, 0, 33, 50, 32, 54, 11, 16, 0, 36, 22, 30, 0, 15, 12, 9, 49, 67, 0, 2, 62, 64, 61, 20, 44, 0, 1, 0, 73, 0, 77, 14, 27, 25, 10, 24, 0, 58, 71, 4, 80, 53, 70, 6, 0, 78, 18, 35, 0, 74, 59, 0, 42, 28, 7, 38, 0, 23, 40, 13, 37, 75, 17, 41, 47, 0, 0, 0, 0, 52, 34
|40, 55, 15, 61, 53, 16, 0, 0, 33, 39, 81, 17, 0, 27, 63, 5, 0, 73, 48, 0, 28, 0, 0, 0, 0, 10, 31, 59, 70, 34, 0, 13, 0, 60, 75, 9, 65, 74, 22, 80, 0, 30, 52, 26, 23, 0, 67, 0, 18, 0, 3, 0, 0, 2, 68, 0, 45, 24, 62, 50, 41, 0, 54, 0, 29, 1, 78, 0, 79, 43, 46, 0, 76, 32, 0, 36, 42, 64, 12, 0, 7
|0, 78, 50, 47, 52, 0, 68, 60, 36, 30, 62, 0, 72, 0, 46, 0, 3, 18, 0, 2, 65, 19, 0, 0, 7, 61, 21, 0, 0, 16, 12, 77, 25, 15, 55, 35, 17, 43, 54, 67, 0, 28, 57, 66, 11, 49, 13, 48, 63, 0, 0, 20, 79, 0, 26, 1, 80, 38, 0, 9, 69, 44, 4, 0, 73, 59, 64, 0, 32, 0, 71, 39, 40, 51, 0, 0, 14, 58, 6, 23, 0
|31, 75, 0, 49, 24, 4, 20, 0, 81, 29, 36, 44, 48, 0, 0, 0, 58, 0, 41, 0, 52, 63, 66, 32, 16, 40, 37, 0, 47, 0, 0, 30, 0, 80, 72, 79, 9, 15, 2, 3, 6, 59, 0, 78, 53, 77, 38, 5, 25, 0, 62, 60, 0, 51, 76, 22, 39, 0, 70, 67, 33, 34, 7, 11, 0, 0, 0, 17, 0, 21, 0, 19, 0, 61, 35, 0, 0, 13, 27, 8, 18
|22, 70, 0, 48, 54, 57, 0, 7, 11, 78, 0, 65, 76, 2, 15, 37, 69, 12, 0, 0, 0, 29, 23, 26, 0, 80, 17, 1, 71, 73, 68, 0, 33, 45, 4, 36, 0, 42, 0, 0, 0, 21, 5, 24, 38, 52, 46, 39, 59, 0, 55, 75, 27, 50, 0, 60, 0, 0, 0, 8, 0, 81, 58, 31, 0, 0, 18, 0, 63, 0, 66, 0, 19, 0, 30, 49, 28, 20, 44, 0, 53
|59, 9, 37, 44, 42, 19, 0, 58, 0, 61, 4, 28, 52, 0, 0, 56, 0, 10, 38, 69, 0, 68, 14, 0, 76, 0, 0, 7, 0, 32, 66, 65, 50, 0, 26, 0, 47, 0, 72, 46, 0, 18, 70, 63, 0, 43, 0, 1, 29, 30, 0, 40, 34, 0, 0, 0, 77, 23, 57, 27, 0, 75, 64, 0, 22, 51, 0, 49, 0, 0, 0, 0, 0, 79, 16, 62, 33, 39, 0, 24, 0
|0, 0, 74, 39, 0, 0, 14, 30, 0, 42, 31, 25, 45, 0, 67, 13, 47, 59, 27, 46, 50, 4, 5, 55, 77, 24, 0, 78, 54, 10, 57, 21, 53, 18, 0, 8, 44, 62, 58, 81, 0, 64, 19, 33, 40, 65, 32, 0, 16, 0, 0, 7, 0, 0, 0, 52, 71, 0, 49, 0, 0, 0, 0, 60, 34, 9, 2, 3, 15, 76, 12, 0, 70, 22, 80, 11, 29, 69, 0, 73, 0
|65, 0, 0, 37, 0, 0, 0, 41, 17, 34, 6, 8, 12, 69, 0, 0, 0, 78, 0, 25, 75, 0, 79, 0, 57, 36, 11, 54, 22, 0, 74, 0, 0, 76, 19, 7, 24, 0, 0, 0, 40, 15, 3, 5, 0, 71, 14, 27, 53, 21, 45, 0, 64, 18, 52, 4, 50, 13, 0, 33, 31, 0, 60, 0, 0, 66, 16, 38, 0, 29, 0, 62, 46, 81, 72, 35, 0, 70, 56, 61, 1
|53, 46, 80, 56, 57, 0, 50, 69, 21, 38, 30, 2, 64, 76, 33, 0, 40, 0, 0, 48, 0, 0, 0, 31, 1, 0, 47, 0, 77, 65, 24, 0, 6, 0, 29, 60, 81, 22, 4, 41, 0, 17, 26, 67, 66, 10, 8, 20, 0, 39, 19, 62, 0, 72, 27, 59, 0, 0, 0, 75, 35, 63, 5, 68, 0, 44, 0, 52, 12, 0, 28, 45, 15, 9, 78, 0, 0, 0, 0, 42, 0
|73, 7, 39, 71, 0, 55, 5, 79, 14, 52, 67, 68, 9, 0, 75, 0, 13, 45, 2, 34, 61, 46, 6, 80, 63, 64, 29, 27, 0, 1, 0, 0, 0, 35, 42, 62, 0, 58, 0, 72, 12, 69, 0, 16, 0, 11, 50, 66, 15, 78, 0, 37, 36, 54, 0, 77, 26, 0, 32, 53, 8, 47, 3, 74, 57, 40, 22, 4, 31, 56, 0, 0, 60, 30, 76, 0, 25, 21, 51, 0, 23
|0, 52, 29, 26, 0, 76, 9, 78, 16, 77, 27, 0, 0, 18, 50, 0, 32, 0, 72, 74, 24, 0, 58, 0, 17, 8, 42, 51, 0, 44, 25, 0, 66, 14, 0, 39, 20, 54, 0, 45, 0, 0, 73, 11, 0, 48, 56, 57, 75, 40, 0, 30, 33, 3, 6, 64, 0, 0, 71, 38, 0, 0, 12, 47, 61, 69, 37, 46, 60, 67, 5, 65, 62, 53, 7, 28, 36, 55, 10, 80, 22
|6, 0, 2, 33, 0, 0, 15, 0, 3, 0, 39, 70, 23, 29, 61, 46, 0, 71, 59, 0, 21, 40, 45, 0, 53, 0, 0, 13, 5, 9, 26, 55, 0, 0, 57, 43, 42, 1, 74, 0, 75, 0, 0, 14, 52, 25, 63, 81, 22, 0, 0, 69, 60, 12, 67, 10, 0, 0, 0, 19, 0, 79, 73, 24, 18, 8, 32, 78, 0, 34, 17, 0, 0, 66, 4, 20, 0, 50, 47, 48, 49
|34, 0, 40, 0, 8, 0, 22, 18, 64, 0, 60, 72, 17, 0, 0, 0, 16, 44, 50, 5, 0, 9, 37, 78, 65, 35, 66, 68, 30, 38, 47, 0, 59, 21, 67, 0, 0, 51, 79, 49, 55, 53, 0, 71, 46, 32, 41, 77, 80, 0, 0, 73, 52, 0, 29, 20, 70, 36, 61, 25, 57, 0, 62, 48, 19, 11, 26, 76, 0, 42, 3, 0, 75, 58, 74, 14, 69, 54, 63, 33, 0
|36, 60, 51, 0, 75, 25, 0, 0, 0, 3, 65, 58, 11, 0, 81, 0, 53, 20, 14, 28, 77, 41, 32, 0, 67, 0, 73, 37, 18, 33, 0, 50, 0, 40, 0, 34, 61, 0, 29, 8, 62, 44, 0, 31, 48, 4, 17, 70, 38, 0, 79, 0, 0, 7, 15, 0, 46, 0, 0, 22, 0, 0, 66, 13, 54, 6, 0, 72, 10, 63, 23, 1, 0, 0, 57, 64, 26, 0, 2, 39, 68
|0, 20, 10, 72, 61, 48, 24, 54, 66, 0, 37, 49, 14, 62, 19, 73, 35, 55, 22, 60, 26, 0, 0, 71, 0, 0, 4, 0, 75, 0, 3, 81, 8, 0, 64, 0, 0, 57, 7, 0, 63, 78, 77, 0, 36, 6, 68, 67, 0, 5, 34, 76, 1, 16, 74, 0, 0, 51, 0, 40, 44, 39, 69, 0, 0, 21, 27, 0, 0, 15, 80, 2, 0, 31, 17, 45, 65, 0, 79, 13, 12
|1, 44, 19, 32, 0, 70, 42, 45, 0, 5, 57, 63, 47, 66, 0, 22, 0, 36, 20, 81, 51, 3, 15, 76, 39, 12, 69, 16, 0, 58, 78, 46, 80, 61, 11, 73, 25, 50, 13, 56, 21, 0, 60, 0, 28, 0, 29, 0, 24, 55, 23, 59, 0, 74, 41, 48, 9, 37, 72, 68, 0, 0, 2, 75, 43, 0, 14, 0, 0, 64, 53, 33, 77, 6, 40, 0, 8, 71, 0, 0, 67
|49, 65, 75, 22, 55, 59, 0, 0, 42, 43, 0, 78, 74, 0, 20, 0, 52, 70, 0, 12, 58, 10, 72, 81, 15, 6, 32, 38, 13, 46, 0, 0, 14, 2, 25, 0, 0, 18, 69, 0, 1, 71, 0, 19, 35, 63, 27, 8, 3, 23, 0, 0, 28, 77, 17, 37, 48, 79, 0, 57, 60, 80, 36, 0, 0, 50, 47, 45, 56, 73, 30, 11, 41, 7, 0, 5, 21, 68, 29, 16, 4
|27, 19, 0, 0, 3, 30, 45, 13, 0, 16, 79, 31, 60, 0, 9, 63, 23, 0, 47, 26, 14, 52, 7, 39, 64, 46, 74, 0, 51, 80, 29, 0, 0, 50, 34, 20, 4, 0, 8, 77, 0, 67, 24, 15, 32, 0, 0, 37, 11, 10, 36, 68, 72, 0, 0, 28, 25, 0, 0, 0, 5, 33, 21, 53, 12, 71, 66, 59, 0, 2, 42, 54, 57, 73, 44, 17, 35, 0, 55, 22, 76
|24, 0, 0, 54, 10, 74, 0, 12, 39, 6, 26, 0, 67, 0, 0, 32, 50, 53, 44, 20, 0, 0, 51, 21, 0, 0, 0, 36, 8, 30, 65, 0, 15, 75, 0, 56, 0, 78, 57, 61, 2, 23, 29, 17, 76, 0, 58, 0, 52, 45, 59, 0, 71, 0, 0, 38, 0, 72, 35, 69, 42, 41, 0, 33, 16, 0, 0, 0, 5, 7, 77, 55, 64, 43, 48, 63, 34, 37, 13, 27, 70
|0, 56, 0, 2, 0, 0, 28, 33, 60, 49, 0, 15, 30, 65, 40, 17, 72, 0, 42, 78, 37, 0, 19, 3, 18, 71, 50, 73, 0, 0, 0, 45, 0, 27, 68, 0, 64, 12, 46, 20, 39, 0, 43, 0, 22, 0, 79, 53, 51, 47, 76, 0, 0, 0, 10, 61, 0, 9, 16, 0, 74, 0, 52, 0, 25, 14, 63, 0, 58, 24, 29, 32, 26, 38, 0, 23, 1, 0, 59, 0, 80
|44, 81, 0, 16, 15, 53, 32, 0, 46, 18, 42, 0, 28, 0, 59, 68, 33, 80, 0, 29, 43, 0, 41, 38, 0, 0, 0, 77, 78, 67, 61, 0, 0, 64, 5, 72, 40, 21, 63, 0, 37, 9, 0, 0, 58, 69, 39, 6, 35, 7, 65, 55, 0, 0, 0, 73, 0, 14, 66, 0, 76, 0, 0, 4, 70, 13, 74, 26, 48, 22, 49, 23, 10, 11, 20, 24, 45, 3, 0, 12, 19
|9, 23, 1, 80, 66, 36, 72, 0, 0, 37, 0, 41, 3, 56, 0, 62, 24, 0, 61, 0, 59, 2, 0, 0, 73, 0, 68, 21, 17, 26, 0, 7, 0, 0, 76, 33, 27, 11, 0, 6, 0, 5, 55, 52, 49, 42, 78, 0, 32, 29, 70, 19, 74, 38, 43, 8, 63, 45, 0, 12, 22, 54, 44, 57, 20, 34, 81, 0, 0, 28, 0, 15, 0, 14, 0, 0, 79, 53, 58, 18, 0
|37, 64, 0, 6, 50, 17, 29, 0, 51, 2, 22, 5, 55, 75, 27, 0, 14, 57, 77, 53, 56, 45, 35, 0, 49, 0, 0, 0, 58, 63, 0, 19, 0, 0, 59, 54, 0, 38, 36, 0, 0, 25, 28, 7, 60, 20, 4, 0, 12, 80, 73, 33, 62, 9, 81, 0, 13, 26, 0, 23, 67, 11, 15, 10, 68, 79, 3, 39, 8, 0, 18, 76, 78, 47, 66, 31, 0, 0, 0, 30, 61
|68, 0, 26, 43, 14, 35, 63, 38, 0, 71, 1, 81, 0, 13, 7, 12, 45, 19, 5, 27, 76, 0, 22, 0, 11, 0, 33, 79, 0, 3, 23, 0, 55, 32, 37, 28, 59, 44, 70, 42, 80, 31, 34, 50, 73, 0, 2, 17, 30, 66, 25, 24, 16, 0, 62, 18, 53, 64, 20, 77, 4, 29, 0, 61, 36, 52, 72, 0, 0, 6, 78, 0, 9, 56, 39, 40, 49, 0, 0, 46, 8
|0, 73, 0, 0, 0, 0, 79, 57, 0, 69, 0, 0, 66, 36, 39, 8, 76, 35, 9, 63, 16, 23, 55, 34, 31, 60, 13, 4, 48, 18, 42, 22, 1, 11, 0, 0, 33, 47, 26, 0, 53, 74, 14, 0, 45, 41, 61, 0, 40, 44, 0, 21, 43, 49, 46, 51, 3, 59, 56, 30, 0, 32, 70, 65, 38, 80, 17, 27, 64, 75, 0, 0, 0, 2, 0, 25, 0, 81, 28, 67, 71
|19, 0, 9, 42, 0, 49, 60, 24, 55, 31, 0, 22, 15, 78, 21, 28, 37, 30, 0, 0, 57, 13, 68, 46, 52, 3, 0, 2, 0, 56, 0, 75, 0, 53, 16, 1, 74, 27, 32, 76, 41, 77, 66, 0, 8, 0, 72, 45, 48, 61, 26, 79, 0, 34, 20, 0, 59, 12, 47, 70, 62, 6, 17, 29, 64, 63, 0, 58, 0, 71, 11, 25, 44, 0, 23, 69, 39, 80, 73, 7, 5
|0, 10, 27, 12, 74, 18, 0, 50, 5, 65, 0, 39, 1, 0, 6, 0, 56, 24, 0, 61, 0, 76, 26, 42, 0, 81, 64, 15, 0, 54, 46, 38, 58, 0, 0, 30, 0, 19, 0, 40, 31, 0, 21, 9, 78, 67, 49, 0, 0, 59, 71, 70, 73, 43, 13, 29, 0, 0, 4, 44, 37, 0, 41, 69, 0, 0, 28, 20, 47, 68, 22, 0, 3, 36, 51, 2, 17, 33, 34, 57, 52
|81, 32, 28, 0, 4, 77, 71, 47, 73, 23, 34, 69, 68, 42, 0, 0, 20, 2, 49, 33, 44, 74, 21, 40, 79, 43, 60, 6, 0, 48, 0, 24, 0, 25, 27, 55, 0, 64, 14, 70, 30, 0, 67, 80, 0, 39, 36, 16, 19, 62, 0, 0, 15, 75, 0, 0, 61, 54, 8, 78, 18, 22, 11, 7, 1, 72, 65, 0, 51, 0, 52, 3, 13, 35, 10, 12, 59, 76, 46, 63, 0
|45, 8, 46, 0, 67, 26, 75, 39, 68, 0, 70, 77, 81, 57, 66, 76, 12, 49, 35, 24, 9, 0, 25, 53, 0, 0, 0, 47, 52, 62, 13, 59, 0, 0, 14, 0, 22, 0, 0, 29, 0, 1, 0, 37, 7, 30, 11, 0, 5, 0, 0, 56, 6, 78, 42, 19, 2, 0, 38, 0, 72, 0, 80, 21, 23, 0, 34, 61, 44, 79, 0, 50, 74, 54, 0, 0, 20, 28, 43, 65, 0
|15, 54, 38, 0, 65, 72, 11, 61, 25, 0, 50, 0, 75, 0, 5, 0, 0, 0, 70, 0, 63, 6, 2, 18, 23, 27, 0, 3, 33, 17, 49, 57, 0, 68, 0, 80, 58, 0, 55, 26, 69, 47, 12, 73, 0, 9, 44, 0, 74, 22, 0, 8, 42, 76, 32, 24, 7, 0, 64, 0, 52, 0, 0, 35, 0, 31, 30, 19, 78, 0, 39, 13, 0, 0, 81, 0, 77, 41, 16, 37, 0
|48, 0, 0, 78, 0, 51, 0, 0, 29, 54, 41, 16, 8, 0, 26, 0, 19, 67, 31, 0, 62, 0, 0, 58, 0, 28, 80, 11, 32, 0, 0, 79, 0, 0, 0, 74, 49, 52, 23, 59, 0, 0, 25, 61, 34, 0, 57, 0, 2, 50, 0, 65, 0, 13, 0, 0, 36, 15, 69, 60, 77, 14, 39, 0, 45, 24, 75, 0, 0, 0, 0, 27, 18, 42, 0, 1, 68, 0, 0, 0, 64
|0, 0, 34, 57, 16, 0, 2, 0, 23, 51, 74, 36, 0, 35, 53, 9, 64, 33, 0, 32, 47, 5, 75, 0, 59, 56, 15, 0, 41, 0, 0, 71, 0, 44, 0, 67, 0, 24, 6, 60, 11, 65, 0, 54, 39, 3, 1, 7, 0, 28, 77, 0, 55, 52, 45, 21, 68, 66, 26, 0, 43, 50, 40, 8, 46, 48, 80, 73, 18, 37, 62, 42, 0, 0, 0, 29, 38, 78, 19, 0, 30
|70, 53, 58, 21, 6, 0, 0, 0, 59, 46, 3, 4, 0, 47, 25, 0, 38, 7, 0, 1, 34, 39, 0, 20, 29, 78, 30, 0, 0, 28, 36, 72, 64, 63, 0, 26, 13, 0, 0, 43, 16, 0, 10, 0, 0, 0, 37, 12, 23, 54, 41, 66, 68, 0, 33, 75, 31, 0, 48, 0, 27, 73, 57, 0, 49, 81, 40, 0, 0, 0, 0, 74, 45, 62, 0, 79, 0, 14, 8, 50, 32
|35, 0, 0, 13, 0, 66, 1, 44, 37, 40, 32, 0, 0, 72, 17, 0, 73, 61, 10, 0, 7, 12, 16, 54, 48, 0, 38, 8, 19, 77, 60, 5, 0, 42, 39, 51, 36, 33, 28, 0, 0, 20, 68, 0, 15, 0, 21, 0, 0, 31, 0, 0, 0, 4, 53, 0, 0, 0, 65, 0, 71, 23, 67, 0, 0, 70, 9, 41, 0, 59, 76, 0, 49, 26, 0, 75, 24, 47, 0, 11, 6
|0, 0, 0, 0, 0, 80, 0, 16, 0, 55, 0, 73, 0, 33, 38, 47, 0, 51, 54, 18, 10, 15, 0, 66, 69, 0, 1, 34, 0, 41, 0, 35, 67, 37, 78, 0, 14, 5, 60, 0, 44, 19, 0, 8, 71, 0, 3, 43, 64, 81, 40, 0, 30, 0, 0, 6, 42, 49, 0, 29, 46, 17, 0, 22, 27, 0, 13, 62, 65, 0, 0, 48, 68, 0, 32, 0, 0, 0, 53, 76, 36
|75, 0, 54, 63, 0, 0, 19, 0, 0, 0, 64, 30, 7, 0, 36, 2, 25, 27, 71, 0, 23, 60, 3, 0, 0, 21, 46, 0, 9, 47, 56, 14, 17, 28, 79, 0, 18, 0, 38, 48, 67, 0, 0, 0, 0, 74, 0, 0, 44, 76, 72, 51, 22, 0, 0, 80, 0, 53, 0, 4, 34, 57, 24, 0, 10, 0, 20, 29, 70, 52, 0, 0, 0, 0, 0, 13, 78, 62, 33, 0, 37
|0, 66, 0, 60, 34, 81, 21, 36, 47, 79, 17, 37, 0, 0, 78, 39, 9, 48, 13, 68, 31, 0, 24, 0, 70, 67, 20, 0, 0, 74, 55, 15, 18, 51, 0, 10, 62, 61, 49, 25, 54, 4, 41, 40, 0, 57, 42, 38, 6, 73, 75, 5, 0, 29, 35, 26, 56, 63, 50, 0, 0, 2, 28, 72, 0, 3, 0, 32, 71, 0, 0, 0, 0, 0, 0, 0, 64, 19, 0, 43, 45
|42, 62, 45, 18, 51, 28, 78, 0, 0, 14, 68, 76, 24, 0, 74, 0, 15, 81, 11, 75, 8, 0, 0, 12, 2, 0, 48, 53, 0, 29, 0, 54, 0, 6, 38, 0, 0, 56, 0, 7, 0, 16, 63, 46, 0, 34, 0, 35, 67, 58, 39, 9, 0, 27, 70, 41, 37, 22, 0, 0, 21, 40, 65, 36, 0, 23, 19, 43, 0, 30, 73, 64, 55, 0, 60, 0, 0, 10, 71, 25, 72
|58, 37, 5, 68, 9, 0, 0, 52, 71, 22, 0, 0, 57, 4, 1, 0, 62, 72, 64, 0, 0, 35, 80, 0, 25, 0, 59, 60, 43, 70, 0, 2, 24, 0, 0, 42, 23, 3, 0, 0, 0, 0, 0, 27, 17, 78, 48, 26, 20, 0, 61, 0, 0, 56, 11, 45, 54, 44, 77, 76, 10, 0, 18, 50, 0, 7, 46, 55, 0, 81, 31, 63, 38, 28, 49, 34, 0, 8, 40, 0, 0
|0, 12, 79, 0, 46, 0, 0, 55, 35, 0, 21, 0, 18, 80, 0, 77, 34, 0, 0, 56, 0, 33, 17, 7, 38, 0, 81, 52, 72, 0, 27, 66, 44, 0, 0, 50, 0, 10, 39, 0, 43, 76, 0, 29, 0, 31, 28, 0, 37, 63, 0, 0, 49, 70, 16, 23, 78, 62, 0, 0, 47, 30, 0, 42, 51, 25, 0, 0, 67, 14, 24, 60, 22, 3, 54, 26, 9, 48, 0, 6, 69
|0, 49, 69, 73, 0, 0, 10, 3, 0, 35, 45, 61, 0, 12, 52, 31, 44, 0, 57, 42, 40, 53, 4, 0, 41, 0, 9, 19, 81, 71, 59, 23, 62, 0, 65, 0, 0, 13, 51, 11, 22, 80, 72, 0, 0, 0, 33, 54, 0, 79, 60, 50, 7, 0, 0, 0, 64, 67, 0, 0, 66, 38, 20, 0, 77, 15, 5, 28, 2, 16, 26, 34, 39, 24, 63, 27, 18, 46, 1, 14, 75
|7, 25, 53, 8, 26, 0, 27, 48, 0, 75, 0, 42, 70, 54, 60, 50, 0, 11, 28, 62, 0, 0, 0, 30, 72, 0, 6, 45, 76, 36, 63, 80, 22, 57, 40, 3, 32, 0, 77, 34, 52, 58, 35, 65, 64, 0, 19, 14, 17, 0, 4, 0, 0, 0, 31, 68, 0, 0, 43, 0, 13, 55, 33, 66, 47, 0, 59, 0, 9, 0, 38, 0, 0, 16, 21, 51, 41, 2, 15, 79, 81
|64, 0, 44, 38, 76, 67, 6, 0, 13, 0, 71, 3, 0, 46, 16, 58, 26, 5, 63, 43, 0, 0, 50, 14, 0, 51, 0, 20, 73, 31, 7, 25, 0, 48, 33, 68, 75, 45, 47, 21, 28, 70, 0, 0, 0, 18, 59, 62, 10, 8, 52, 0, 0, 0, 36, 72, 81, 1, 60, 61, 19, 9, 0, 0, 40, 74, 49, 80, 0, 4, 54, 12, 0, 29, 0, 56, 30, 0, 0, 17, 0|];