order = 9;
grid = [|69, 73, 61, 68, 27, 0, 58, 1, 78, 0, 57, 62, 0, 0, 23, 79, 74, 0, 60, 50, 0, 4, 75, 25, 8, 35, 9, 24, 43, 32, 13, 34, 29, 40, 0, 52, 33, 55, 26, 47, 54, 36, 64, 0, 70, 0, 31, 0, 53, 22, 6, 3, 15, 80, 17, 65, 11, 72, 0, 56, 0, 77, 49, 45, 71, 5, 19, 0, 0, 48, 81, 41, 0, 63, 0, 10, 0, 39, 18, 37, 7
|63, 0, 2, 0, 15, 33, 0, 37, 0, 0, 8, 3, 78, 45, 0, 0, 19, 70, 42, 0, 0, 74, 0, 62, 53, 22, 0, 31, 54, 26, 51, 50, 49, 0, 64, 69, 0, 7, 4, 25, 0, 14, 72, 59, 21, 48, 9, 5, 0, 35, 34, 30, 75, 0, 27, 79, 0, 76, 1, 0, 0, 0, 23, 0, 40, 65, 0, 56, 66, 0, 38, 13, 61, 24, 0, 77, 68, 71, 0, 32, 52
|0, 0, 40, 71, 72, 0, 46, 0, 24, 2, 0, 49, 0, 69, 6, 33, 61, 1, 0, 55, 80, 45, 51, 20, 0, 0, 37, 59, 70, 16, 65, 62, 48, 0, 27, 39, 68, 3, 8, 23, 30, 15, 0, 73, 9, 77, 43, 0, 81, 0, 19, 13, 0, 32, 18, 54, 0, 0, 74, 12, 44, 60, 50, 26, 0, 78, 0, 7, 52, 58, 29, 34, 35, 75, 5, 0, 53, 76, 22, 31, 0
|22, 8, 52, 0, 43, 0, 19, 53, 42, 11, 68, 77, 13, 9, 32, 5, 30, 64, 0, 3, 48, 0, 38, 0, 0, 29, 56, 0, 28, 14, 74, 0, 0, 18, 72, 0, 76, 0, 2, 39, 69, 50, 10, 16, 40, 7, 21, 58, 0, 20, 62, 0, 70, 0, 26, 46, 0, 57, 81, 24, 25, 0, 31, 35, 36, 0, 4, 0, 12, 37, 0, 80, 79, 17, 66, 54, 23, 0, 51, 0, 34
|0, 0, 54, 0, 0, 0, 21, 6, 77, 0, 27, 65, 51, 10, 22, 0, 7, 0, 26, 69, 66, 40, 0, 13, 68, 0, 0, 58, 15, 0, 53, 63, 5, 42, 0, 55, 0, 49, 81, 44, 18, 37, 57, 75, 62, 0, 0, 0, 46, 25, 59, 36, 29, 0, 80, 64, 0, 67, 52, 0, 8, 2, 0, 50, 0, 0, 28, 0, 0, 0, 73, 72, 4, 70, 30, 38, 19, 0, 47, 78, 0
|48, 75, 17, 9, 45, 39, 0, 0, 0, 72, 60, 18, 50, 26, 76, 47, 35, 0, 0, 23, 31, 0, 1, 46, 0, 78, 28, 0, 10, 77, 0, 0, 0, 0, 0, 6, 22, 0, 5, 0, 79, 74, 38, 0, 56, 37, 0, 42, 16, 54, 24, 0, 11, 0, 0, 63, 0, 15, 0, 0, 0, 61, 0, 25, 49, 0, 68, 62, 8, 53, 69, 0, 0, 0, 55, 0, 67, 81, 21, 2, 27
|0, 26, 0, 36, 62, 34, 10, 29, 0, 80, 17, 43, 0, 0, 0, 21, 52, 25, 0, 0, 0, 18, 64, 0, 67, 76, 0, 9, 0, 30, 0, 41, 0, 0, 79, 78, 58, 53, 0, 48, 71, 0, 24, 13, 77, 0, 50, 0, 69, 0, 74, 4, 61, 0, 0, 5, 45, 55, 0, 0, 14, 0, 6, 57, 2, 27, 39, 0, 0, 0, 22, 51, 0, 15, 59, 8, 1, 60, 49, 3, 0
|3, 28, 31, 79, 12, 38, 47, 70, 0, 39, 53, 37, 55, 44, 58, 73, 40, 15, 0, 11, 0, 72, 10, 24, 2, 21, 7, 17, 81, 75, 0, 0, 46, 56, 22, 61, 78, 0, 27, 0, 42, 51, 0, 0, 52, 68, 0, 45, 0, 0, 67, 66, 63, 18, 34, 41, 0, 9, 29, 16, 30, 62, 0, 32, 74, 60, 77, 0, 0, 0, 0, 0, 57, 0, 25, 13, 48, 80, 0, 0, 0
|4, 50, 51, 16, 67, 14, 0, 18, 59, 81, 36, 0, 71, 48, 31, 41, 34, 75, 0, 52, 30, 77, 15, 0, 0, 0, 0, 68, 0, 21, 38, 7, 0, 0, 60, 25, 32, 0, 61, 65, 0, 6, 63, 0, 17, 0, 0, 0, 12, 8, 56, 40, 0, 78, 0, 35, 66, 0, 0, 53, 13, 70, 0, 42, 43, 0, 10, 55, 0, 24, 46, 33, 74, 73, 26, 62, 9, 0, 44, 72, 69
|41, 4, 0, 0, 81, 47, 33, 0, 79, 55, 63, 0, 0, 37, 45, 0, 44, 0, 62, 0, 0, 0, 46, 60, 0, 0, 75, 71, 51, 25, 0, 70, 15, 14, 26, 2, 23, 8, 48, 53, 38, 22, 0, 3, 11, 0, 5, 65, 1, 0, 18, 9, 0, 19, 64, 20, 34, 58, 0, 10, 78, 0, 30, 59, 39, 35, 66, 24, 67, 7, 74, 0, 0, 0, 0, 76, 73, 21, 52, 56, 80
|57, 53, 25, 0, 64, 10, 69, 0, 35, 19, 56, 0, 81, 58, 52, 60, 33, 67, 0, 78, 72, 26, 80, 9, 48, 0, 40, 45, 66, 3, 0, 49, 43, 0, 36, 0, 27, 0, 0, 2, 62, 0, 44, 6, 0, 11, 0, 0, 59, 0, 38, 61, 54, 0, 0, 39, 8, 0, 77, 76, 18, 74, 79, 34, 0, 22, 75, 0, 0, 0, 4, 28, 37, 23, 0, 24, 0, 20, 13, 41, 68
|0, 0, 37, 56, 38, 11, 77, 45, 2, 0, 24, 36, 43, 15, 10, 0, 0, 6, 76, 0, 32, 0, 53, 4, 0, 0, 0, 19, 0, 59, 0, 0, 0, 52, 1, 64, 9, 25, 0, 28, 40, 0, 65, 31, 73, 69, 46, 41, 0, 21, 7, 58, 0, 20, 75, 12, 71, 0, 0, 80, 16, 5, 29, 8, 70, 51, 78, 81, 72, 61, 0, 0, 0, 67, 14, 35, 66, 0, 0, 30, 0
|0, 0, 3, 32, 65, 70, 0, 9, 0, 59, 18, 61, 64, 54, 0, 0, 42, 40, 73, 28, 69, 0, 44, 10, 41, 15, 68, 0, 27, 56, 81, 0, 0, 37, 38, 0, 0, 35, 46, 0, 52, 43, 51, 0, 12, 0, 30, 0, 78, 0, 45, 50, 71, 53, 67, 24, 49, 0, 47, 0, 0, 48, 63, 80, 55, 29, 23, 0, 77, 57, 0, 0, 2, 22, 0, 58, 4, 79, 34, 25, 0
|68, 0, 15, 73, 22, 0, 0, 0, 43, 0, 3, 75, 2, 0, 7, 0, 32, 77, 20, 0, 25, 51, 42, 0, 0, 0, 74, 0, 0, 29, 0, 18, 12, 61, 80, 30, 0, 54, 58, 59, 21, 0, 0, 63, 0, 16, 33, 79, 8, 13, 0, 0, 64, 60, 81, 66, 41, 35, 0, 19, 0, 50, 11, 46, 17, 0, 0, 37, 65, 0, 49, 62, 72, 40, 78, 48, 45, 27, 38, 0, 0
|30, 78, 59, 58, 80, 6, 0, 0, 0, 70, 0, 66, 0, 50, 71, 35, 0, 22, 0, 0, 0, 7, 3, 0, 33, 0, 18, 0, 21, 53, 79, 11, 60, 54, 4, 8, 39, 81, 0, 67, 64, 0, 26, 0, 0, 0, 23, 0, 31, 34, 47, 52, 17, 0, 61, 44, 37, 14, 72, 65, 27, 25, 38, 2, 0, 0, 43, 69, 56, 68, 41, 9, 0, 0, 28, 0, 0, 74, 46, 5, 55
|52, 1, 0, 0, 24, 54, 49, 0, 0, 0, 34, 21, 53, 11, 16, 30, 65, 5, 0, 0, 19, 61, 0, 66, 0, 27, 0, 7, 0, 73, 67, 0, 32, 0, 0, 0, 0, 68, 69, 0, 37, 41, 29, 0, 0, 0, 35, 6, 0, 0, 4, 80, 22, 62, 3, 43, 9, 36, 0, 42, 57, 0, 51, 0, 31, 0, 0, 40, 15, 64, 14, 44, 0, 8, 0, 0, 70, 50, 63, 81, 26
|0, 0, 0, 0, 61, 0, 74, 16, 0, 62, 69, 76, 0, 0, 0, 27, 80, 4, 1, 0, 70, 38, 0, 0, 54, 0, 22, 0, 39, 0, 9, 0, 20, 44, 0, 34, 19, 42, 17, 66, 0, 45, 0, 78, 0, 2, 0, 75, 63, 10, 3, 49, 0, 37, 56, 60, 0, 6, 68, 0, 23, 46, 0, 21, 25, 58, 13, 79, 71, 18, 5, 52, 15, 43, 57, 0, 64, 32, 11, 51, 47
|36, 66, 13, 17, 0, 19, 18, 55, 63, 46, 51, 0, 0, 38, 79, 25, 47, 78, 14, 67, 0, 11, 37, 8, 29, 64, 2, 65, 41, 33, 0, 0, 0, 74, 42, 0, 77, 15, 0, 34, 72, 16, 80, 0, 5, 43, 24, 81, 70, 26, 44, 68, 56, 57, 40, 0, 62, 0, 21, 0, 0, 59, 45, 0, 27, 32, 48, 50, 54, 60, 10, 6, 31, 53, 1, 61, 49, 7, 69, 39, 3
|0, 77, 76, 0, 0, 0, 0, 3, 30, 0, 75, 51, 31, 46, 27, 37, 23, 42, 39, 7, 64, 62, 9, 32, 60, 58, 5, 38, 69, 81, 47, 0, 0, 73, 59, 0, 67, 21, 35, 36, 10, 19, 79, 0, 0, 34, 0, 0, 15, 0, 1, 24, 2, 0, 16, 53, 22, 43, 45, 8, 0, 41, 26, 0, 29, 49, 65, 71, 40, 0, 0, 68, 66, 4, 12, 17, 54, 52, 0, 74, 0
|0, 17, 56, 0, 21, 22, 0, 79, 16, 68, 0, 59, 70, 77, 0, 0, 0, 47, 31, 13, 63, 57, 55, 0, 71, 0, 24, 26, 0, 0, 36, 0, 18, 78, 20, 29, 40, 74, 9, 1, 53, 0, 39, 49, 66, 75, 12, 11, 58, 72, 54, 73, 35, 52, 30, 69, 32, 0, 33, 4, 0, 19, 0, 44, 0, 41, 80, 15, 0, 81, 23, 10, 48, 46, 0, 6, 14, 45, 61, 0, 50
|29, 68, 39, 0, 35, 51, 15, 5, 65, 0, 0, 67, 0, 32, 0, 80, 14, 54, 0, 0, 56, 0, 0, 0, 0, 28, 41, 21, 0, 9, 40, 64, 79, 49, 31, 57, 52, 0, 60, 70, 16, 17, 75, 0, 59, 0, 0, 0, 4, 19, 0, 0, 69, 3, 0, 74, 2, 0, 11, 71, 0, 18, 0, 0, 0, 48, 45, 66, 0, 30, 0, 20, 0, 0, 81, 0, 0, 0, 0, 53, 22
|11, 2, 24, 0, 0, 74, 57, 19, 0, 0, 9, 50, 72, 64, 49, 78, 58, 69, 79, 0, 3, 54, 29, 53, 14, 25, 0, 62, 17, 52, 0, 43, 61, 0, 13, 0, 65, 45, 42, 51, 80, 0, 30, 26, 0, 20, 56, 38, 66, 0, 22, 32, 21, 0, 48, 68, 60, 27, 0, 35, 12, 44, 67, 7, 47, 76, 59, 36, 70, 55, 37, 5, 23, 0, 8, 73, 75, 40, 39, 28, 0
|71, 18, 0, 81, 0, 42, 7, 0, 0, 57, 0, 13, 65, 0, 38, 44, 15, 0, 66, 43, 26, 0, 70, 0, 77, 67, 16, 5, 0, 63, 0, 37, 0, 0, 35, 23, 69, 0, 73, 4, 56, 20, 28, 33, 64, 0, 49, 48, 10, 27, 79, 41, 45, 76, 9, 50, 29, 0, 14, 58, 0, 75, 40, 0, 19, 54, 34, 1, 0, 2, 8, 0, 24, 3, 80, 0, 30, 55, 32, 0, 31
|66, 9, 0, 10, 55, 0, 0, 0, 58, 0, 0, 0, 36, 6, 0, 43, 0, 0, 80, 51, 73, 1, 22, 47, 40, 69, 61, 3, 67, 0, 32, 2, 70, 0, 8, 0, 0, 11, 38, 68, 25, 23, 0, 0, 0, 17, 81, 7, 57, 29, 53, 18, 44, 0, 31, 13, 0, 0, 5, 59, 52, 15, 54, 12, 33, 75, 74, 0, 0, 62, 50, 4, 63, 20, 0, 78, 0, 16, 0, 79, 49
|34, 80, 47, 23, 53, 0, 0, 36, 0, 0, 0, 56, 0, 0, 33, 29, 11, 71, 19, 0, 20, 17, 78, 74, 4, 37, 46, 66, 0, 22, 0, 45, 50, 10, 65, 0, 62, 0, 0, 13, 81, 24, 32, 41, 44, 14, 0, 0, 64, 30, 16, 42, 0, 26, 73, 28, 6, 1, 7, 49, 39, 76, 3, 52, 38, 18, 58, 0, 35, 0, 21, 0, 68, 77, 69, 2, 59, 5, 27, 0, 70
|44, 49, 70, 0, 6, 75, 4, 32, 69, 10, 7, 40, 74, 0, 53, 0, 0, 21, 0, 48, 59, 52, 0, 0, 38, 2, 45, 14, 30, 68, 0, 0, 0, 0, 24, 0, 0, 47, 12, 61, 0, 5, 71, 29, 63, 28, 0, 13, 0, 0, 33, 78, 37, 43, 0, 80, 65, 81, 0, 77, 66, 0, 0, 16, 22, 42, 79, 46, 26, 73, 3, 0, 0, 34, 36, 0, 58, 51, 0, 0, 60
|73, 0, 67, 78, 0, 0, 50, 40, 0, 66, 45, 0, 24, 16, 81, 17, 12, 48, 72, 15, 36, 0, 35, 0, 0, 0, 30, 0, 0, 0, 27, 0, 0, 0, 71, 41, 0, 46, 0, 0, 0, 2, 14, 8, 54, 62, 60, 0, 68, 70, 5, 0, 47, 55, 20, 61, 38, 64, 0, 0, 21, 42, 57, 51, 53, 11, 0, 0, 0, 28, 0, 0, 76, 1, 44, 0, 18, 0, 0, 19, 65
|0, 0, 64, 60, 63, 7, 25, 0, 12, 3, 74, 8, 0, 18, 62, 42, 78, 23, 9, 6, 0, 0, 0, 0, 35, 0, 14, 0, 79, 61, 41, 15, 57, 0, 28, 76, 53, 17, 49, 5, 0, 80, 0, 0, 33, 31, 54, 0, 37, 51, 68, 21, 66, 46, 19, 10, 0, 16, 0, 38, 0, 69, 65, 47, 52, 77, 2, 45, 39, 40, 0, 50, 0, 0, 0, 1, 13, 0, 55, 44, 0
|21, 0, 0, 22, 0, 0, 71, 68, 0, 17, 30, 79, 52, 66, 43, 0, 67, 0, 0, 41, 0, 0, 28, 64, 13, 5, 34, 49, 0, 0, 18, 48, 54, 29, 63, 74, 0, 16, 7, 73, 58, 44, 31, 0, 23, 1, 59, 19, 75, 57, 61, 20, 38, 47, 77, 0, 0, 0, 53, 70, 0, 3, 0, 60, 4, 62, 26, 0, 78, 0, 80, 37, 50, 35, 11, 0, 32, 8, 10, 9, 0
|0, 15, 0, 0, 31, 24, 0, 72, 73, 9, 28, 0, 35, 56, 0, 1, 81, 34, 0, 0, 0, 33, 20, 67, 37, 0, 49, 52, 16, 17, 59, 78, 75, 7, 21, 66, 0, 0, 19, 77, 12, 76, 48, 22, 36, 64, 40, 18, 0, 41, 0, 0, 80, 0, 0, 42, 74, 62, 60, 0, 43, 14, 39, 13, 0, 68, 25, 0, 0, 6, 51, 0, 0, 0, 0, 0, 5, 2, 0, 58, 57
|77, 0, 65, 33, 0, 43, 0, 0, 9, 0, 0, 0, 0, 70, 48, 0, 20, 0, 57, 54, 74, 27, 7, 0, 0, 0, 31, 0, 60, 50, 2, 0, 44, 5, 0, 36, 11, 0, 62, 26, 1, 78, 55, 67, 0, 0, 6, 56, 0, 24, 0, 0, 53, 69, 28, 81, 46, 29, 49, 18, 45, 58, 76, 72, 0, 8, 0, 12, 0, 22, 0, 75, 3, 61, 42, 47, 41, 0, 0, 0, 0
|18, 48, 75, 0, 0, 16, 0, 0, 50, 25, 31, 19, 32, 33, 0, 0, 37, 0, 51, 72, 78, 15, 0, 0, 56, 0, 0, 0, 62, 4, 71, 0, 6, 8, 53, 70, 0, 10, 0, 29, 35, 0, 52, 2, 3, 0, 0, 60, 76, 7, 36, 55, 58, 81, 0, 0, 27, 44, 12, 79, 5, 17, 22, 20, 0, 61, 49, 59, 0, 63, 1, 43, 73, 74, 40, 80, 77, 24, 14, 0, 64
|0, 3, 49, 0, 57, 36, 0, 0, 32, 7, 47, 71, 14, 73, 29, 15, 75, 0, 50, 17, 38, 0, 19, 0, 21, 23, 0, 34, 0, 0, 0, 27, 10, 68, 81, 0, 0, 63, 24, 18, 46, 0, 9, 72, 42, 35, 22, 70, 0, 77, 13, 65, 26, 0, 78, 25, 64, 30, 59, 1, 80, 51, 0, 0, 0, 0, 5, 11, 0, 67, 55, 0, 0, 39, 62, 79, 0, 4, 6, 20, 0
|19, 61, 0, 37, 1, 0, 35, 47, 53, 77, 0, 16, 0, 0, 0, 0, 2, 49, 52, 42, 62, 8, 0, 18, 0, 4, 60, 56, 0, 46, 0, 0, 0, 38, 0, 65, 28, 70, 41, 75, 51, 40, 74, 71, 0, 12, 32, 27, 79, 0, 25, 0, 43, 11, 0, 73, 0, 68, 6, 57, 48, 7, 34, 81, 0, 0, 29, 0, 21, 54, 0, 36, 45, 31, 0, 26, 76, 0, 33, 66, 0
|10, 42, 0, 34, 66, 40, 44, 13, 62, 0, 0, 57, 0, 61, 55, 0, 59, 0, 0, 76, 58, 2, 65, 0, 0, 0, 0, 0, 9, 1, 30, 0, 80, 32, 51, 0, 25, 60, 64, 81, 6, 27, 0, 79, 38, 0, 0, 50, 49, 74, 28, 14, 0, 33, 0, 0, 63, 0, 8, 54, 4, 11, 35, 15, 24, 71, 41, 31, 0, 3, 0, 0, 0, 29, 0, 19, 7, 36, 0, 0, 0
|70, 30, 23, 2, 26, 81, 0, 0, 0, 36, 0, 6, 4, 0, 0, 58, 0, 10, 3, 12, 0, 29, 0, 1, 22, 46, 0, 43, 19, 0, 0, 14, 39, 11, 25, 0, 20, 0, 0, 15, 0, 32, 0, 57, 8, 71, 16, 9, 45, 0, 72, 62, 5, 34, 0, 33, 56, 61, 66, 31, 50, 67, 0, 53, 7, 74, 0, 27, 0, 42, 35, 0, 0, 28, 38, 75, 0, 18, 78, 48, 59
|40, 57, 19, 0, 17, 4, 80, 0, 41, 15, 0, 1, 23, 0, 60, 31, 21, 73, 0, 79, 33, 48, 25, 63, 18, 51, 29, 54, 65, 74, 0, 36, 0, 62, 69, 16, 66, 67, 0, 6, 0, 35, 0, 38, 72, 0, 78, 0, 14, 45, 52, 28, 8, 0, 24, 0, 0, 77, 0, 50, 55, 0, 42, 71, 0, 81, 37, 2, 5, 75, 30, 7, 10, 0, 43, 0, 0, 58, 70, 22, 32
|16, 0, 9, 72, 0, 13, 31, 0, 6, 35, 10, 0, 58, 7, 14, 4, 0, 0, 27, 0, 0, 37, 11, 0, 50, 26, 21, 0, 61, 0, 12, 42, 30, 80, 48, 79, 0, 0, 39, 55, 32, 25, 70, 52, 47, 0, 44, 69, 18, 64, 46, 63, 0, 71, 43, 75, 0, 5, 73, 51, 0, 22, 20, 65, 0, 0, 0, 29, 23, 0, 67, 0, 56, 81, 0, 0, 2, 17, 76, 0, 0
|79, 0, 0, 0, 0, 35, 32, 69, 49, 45, 0, 72, 0, 19, 20, 52, 43, 50, 0, 59, 77, 75, 54, 2, 42, 0, 73, 0, 0, 0, 57, 53, 33, 24, 0, 15, 8, 27, 18, 74, 3, 1, 12, 60, 22, 51, 0, 26, 0, 4, 29, 31, 13, 21, 58, 0, 47, 66, 30, 0, 0, 0, 0, 36, 0, 16, 61, 63, 80, 25, 76, 17, 0, 48, 6, 23, 46, 37, 41, 55, 0
|0, 36, 45, 55, 0, 0, 37, 26, 64, 6, 0, 0, 17, 80, 0, 81, 51, 44, 38, 71, 22, 23, 0, 3, 0, 0, 76, 0, 68, 58, 0, 39, 2, 0, 46, 0, 0, 78, 79, 0, 59, 28, 62, 42, 19, 65, 0, 0, 11, 0, 0, 12, 30, 7, 0, 0, 31, 0, 0, 0, 40, 0, 9, 54, 0, 0, 1, 41, 0, 72, 60, 0, 67, 0, 35, 0, 57, 0, 73, 4, 0
|1, 0, 0, 0, 0, 0, 60, 8, 3, 67, 37, 47, 42, 2, 75, 63, 0, 74, 69, 16, 0, 30, 39, 31, 32, 52, 0, 6, 4, 11, 0, 0, 0, 0, 0, 18, 61, 5, 71, 10, 20, 57, 23, 0, 0, 41, 0, 43, 0, 73, 70, 38, 50, 0, 33, 45, 44, 49, 28, 15, 0, 35, 36, 0, 64, 46, 40, 51, 9, 21, 79, 26, 13, 80, 29, 68, 25, 12, 0, 62, 53
|20, 39, 48, 61, 28, 0, 2, 30, 38, 76, 64, 0, 0, 0, 0, 0, 16, 8, 46, 60, 24, 12, 41, 0, 47, 0, 6, 29, 56, 7, 14, 0, 71, 0, 0, 0, 81, 0, 40, 50, 43, 33, 53, 0, 0, 42, 0, 34, 0, 0, 37, 0, 0, 0, 0, 17, 13, 79, 18, 11, 68, 0, 0, 0, 58, 10, 69, 70, 22, 0, 77, 15, 0, 51, 19, 0, 26, 9, 0, 63, 0
|25, 0, 81, 0, 52, 0, 11, 43, 33, 0, 54, 22, 38, 71, 18, 0, 46, 65, 0, 10, 0, 68, 40, 35, 5, 45, 20, 44, 63, 70, 49, 75, 19, 21, 23, 0, 0, 0, 36, 17, 14, 26, 13, 0, 34, 55, 15, 0, 27, 3, 80, 2, 32, 48, 62, 0, 7, 41, 37, 72, 56, 1, 0, 73, 8, 50, 42, 4, 0, 78, 39, 53, 0, 59, 74, 69, 79, 61, 0, 47, 0
|15, 0, 50, 70, 42, 0, 73, 67, 0, 12, 0, 5, 0, 24, 40, 11, 55, 57, 43, 74, 28, 14, 72, 56, 58, 9, 19, 8, 52, 0, 0, 22, 0, 0, 47, 27, 21, 0, 30, 41, 65, 0, 45, 0, 51, 0, 61, 0, 0, 62, 0, 17, 81, 36, 29, 48, 16, 0, 80, 0, 0, 6, 4, 31, 13, 33, 18, 35, 68, 66, 32, 49, 38, 78, 7, 64, 44, 75, 0, 71, 20
|76, 22, 0, 51, 0, 0, 68, 7, 71, 0, 41, 39, 0, 25, 26, 61, 9, 0, 0, 0, 4, 0, 0, 15, 66, 0, 8, 37, 0, 0, 20, 1, 31, 28, 17, 0, 54, 73, 80, 11, 2, 48, 0, 0, 0, 0, 0, 0, 0, 0, 60, 75, 79, 74, 38, 27, 57, 10, 70, 0, 67, 0, 12, 3, 0, 14, 56, 43, 24, 52, 44, 59, 30, 21, 50, 0, 0, 34, 16, 18, 0
|6, 45, 43, 18, 0, 80, 53, 74, 36, 71, 66, 15, 10, 0, 61, 0, 31, 79, 59, 9, 2, 0, 0, 78, 51, 40, 72, 46, 23, 0, 1, 12, 0, 76, 49, 20, 37, 44, 0, 62, 0, 0, 0, 77, 41, 0, 13, 22, 0, 0, 69, 8, 0, 0, 60, 67, 25, 54, 0, 55, 75, 64, 48, 0, 0, 70, 33, 38, 32, 29, 58, 47, 0, 16, 68, 34, 0, 57, 30, 42, 14
|51, 58, 41, 48, 0, 15, 66, 33, 0, 52, 23, 34, 0, 5, 28, 70, 0, 30, 0, 56, 79, 13, 0, 29, 0, 20, 26, 0, 36, 0, 0, 0, 62, 39, 0, 0, 38, 14, 75, 21, 22, 0, 73, 54, 35, 10, 0, 53, 0, 76, 42, 44, 6, 0, 0, 0, 0, 11, 50, 2, 0, 40, 47, 0, 65, 0, 0, 0, 25, 69, 31, 1, 0, 7, 4, 18, 0, 49, 37, 12, 61
|28, 0, 8, 27, 54, 69, 63, 81, 0, 26, 33, 41, 9, 0, 2, 7, 0, 16, 53, 0, 37, 66, 6, 58, 62, 57, 15, 13, 5, 0, 0, 0, 72, 30, 14, 0, 4, 59, 1, 49, 67, 70, 78, 23, 48, 0, 75, 68, 0, 0, 0, 0, 46, 51, 79, 19, 42, 45, 71, 0, 35, 0, 0, 0, 77, 55, 0, 39, 20, 36, 0, 74, 0, 44, 0, 3, 0, 47, 80, 0, 11
|38, 35, 14, 21, 49, 1, 78, 61, 52, 0, 58, 25, 76, 17, 57, 50, 13, 62, 48, 19, 68, 47, 0, 55, 36, 73, 69, 18, 2, 0, 0, 44, 41, 0, 11, 7, 6, 32, 0, 9, 15, 29, 43, 51, 0, 5, 0, 54, 0, 0, 20, 64, 39, 27, 22, 34, 0, 0, 0, 63, 31, 4, 0, 0, 79, 0, 12, 75, 30, 56, 0, 0, 53, 45, 24, 0, 60, 28, 40, 59, 0
|42, 40, 0, 46, 77, 57, 20, 0, 34, 0, 11, 35, 45, 43, 51, 19, 0, 39, 30, 0, 27, 50, 0, 75, 74, 24, 4, 15, 25, 0, 33, 54, 16, 22, 6, 67, 63, 0, 65, 56, 66, 0, 0, 0, 18, 0, 72, 0, 0, 55, 81, 47, 78, 59, 5, 7, 0, 0, 0, 61, 49, 28, 73, 37, 68, 0, 0, 0, 0, 41, 2, 21, 62, 13, 31, 0, 0, 29, 64, 0, 36
|0, 13, 60, 11, 0, 62, 72, 22, 0, 78, 49, 55, 0, 53, 47, 0, 0, 20, 32, 0, 17, 0, 67, 42, 0, 61, 0, 0, 59, 37, 35, 29, 0, 3, 0, 81, 0, 0, 0, 0, 74, 52, 0, 40, 26, 58, 1, 12, 41, 2, 0, 43, 57, 28, 0, 21, 36, 65, 38, 0, 0, 27, 14, 0, 0, 0, 15, 34, 45, 16, 63, 0, 25, 69, 79, 5, 33, 77, 0, 6, 23
|0, 64, 10, 3, 29, 65, 17, 2, 19, 60, 1, 38, 0, 0, 80, 22, 27, 56, 54, 14, 23, 81, 76, 7, 45, 44, 0, 47, 0, 71, 4, 66, 0, 70, 55, 0, 36, 0, 34, 0, 50, 30, 46, 0, 16, 0, 18, 73, 33, 61, 15, 0, 0, 31, 12, 0, 0, 20, 62, 9, 72, 43, 0, 67, 5, 6, 0, 13, 0, 49, 40, 78, 51, 32, 0, 0, 0, 41, 8, 75, 0
|50, 47, 30, 12, 23, 71, 0, 24, 70, 73, 81, 14, 0, 36, 42, 0, 4, 0, 0, 25, 0, 0, 60, 0, 0, 41, 0, 0, 31, 78, 0, 0, 0, 0, 32, 26, 5, 0, 72, 76, 0, 64, 17, 7, 20, 80, 48, 0, 40, 38, 11, 0, 34, 29, 51, 0, 52, 33, 0, 0, 0, 57, 0, 22, 54, 0, 0, 44, 62, 0, 0, 61, 0, 19, 67, 9, 0, 65, 2, 0, 58
|0, 55, 16, 76, 37, 25, 0, 39, 0, 63, 59, 69, 67, 0, 44, 8, 72, 0, 12, 22, 52, 0, 31, 0, 0, 34, 65, 28, 0, 51, 0, 79, 0, 27, 57, 0, 47, 0, 45, 42, 68, 0, 2, 0, 0, 36, 0, 74, 0, 32, 0, 35, 14, 0, 70, 0, 77, 18, 13, 41, 0, 0, 0, 11, 0, 0, 3, 80, 46, 4, 24, 0, 20, 71, 56, 0, 21, 10, 0, 1, 66
|81, 31, 42, 63, 0, 73, 48, 17, 40, 33, 0, 44, 0, 0, 70, 53, 0, 38, 0, 45, 10, 0, 2, 27, 20, 0, 79, 30, 0, 0, 7, 80, 64, 35, 61, 0, 1, 13, 32, 78, 0, 0, 0, 58, 15, 0, 66, 25, 0, 0, 0, 34, 36, 0, 49, 11, 72, 0, 0, 28, 47, 71, 62, 0, 26, 43, 0, 0, 74, 0, 16, 65, 39, 41, 0, 55, 0, 0, 0, 0, 0
|46, 0, 0, 0, 18, 50, 9, 0, 51, 64, 40, 63, 39, 35, 0, 57, 1, 11, 34, 47, 71, 0, 0, 0, 0, 0, 3, 0, 8, 54, 62, 0, 0, 65, 2, 0, 79, 76, 0, 37, 28, 81, 7, 0, 27, 0, 38, 78, 80, 75, 0, 60, 49, 23, 53, 77, 14, 0, 26, 25, 0, 45, 0, 5, 0, 21, 52, 33, 36, 31, 0, 0, 17, 72, 0, 32, 0, 0, 0, 0, 67
|0, 38, 32, 59, 0, 53, 0, 52, 27, 4, 25, 48, 0, 0, 68, 77, 10, 17, 0, 0, 44, 0, 73, 23, 0, 54, 36, 81, 50, 55, 0, 0, 1, 9, 43, 37, 71, 80, 0, 69, 0, 66, 11, 5, 65, 0, 74, 35, 22, 14, 31, 0, 0, 45, 42, 30, 12, 60, 0, 39, 46, 33, 8, 0, 0, 28, 0, 3, 49, 79, 7, 0, 64, 57, 58, 21, 0, 19, 0, 0, 16
|56, 69, 33, 5, 0, 0, 0, 25, 66, 49, 43, 80, 60, 0, 19, 59, 76, 9, 68, 8, 0, 39, 52, 0, 0, 0, 51, 32, 29, 6, 21, 38, 0, 46, 0, 0, 0, 0, 0, 54, 0, 47, 36, 20, 10, 50, 0, 57, 0, 67, 27, 53, 65, 42, 63, 70, 0, 0, 0, 74, 15, 0, 0, 4, 78, 0, 14, 0, 81, 11, 64, 45, 0, 2, 77, 0, 34, 0, 71, 0, 48
|0, 70, 77, 39, 0, 0, 16, 10, 0, 0, 67, 28, 5, 34, 24, 54, 36, 61, 11, 66, 21, 53, 26, 81, 0, 0, 57, 0, 72, 18, 23, 0, 0, 4, 0, 71, 50, 22, 56, 31, 75, 9, 0, 0, 0, 19, 20, 0, 32, 0, 48, 0, 73, 30, 7, 40, 79, 0, 78, 68, 65, 37, 64, 41, 62, 2, 0, 6, 55, 12, 47, 42, 80, 52, 15, 0, 43, 46, 59, 69, 0
|0, 0, 1, 54, 7, 26, 0, 71, 74, 37, 50, 45, 47, 30, 66, 6, 8, 81, 0, 64, 43, 16, 32, 0, 0, 48, 35, 60, 0, 15, 42, 0, 40, 19, 39, 63, 0, 52, 0, 12, 41, 68, 0, 53, 67, 0, 0, 46, 0, 0, 77, 79, 28, 10, 2, 23, 5, 31, 27, 20, 29, 80, 0, 9, 59, 73, 17, 72, 57, 51, 0, 22, 33, 49, 18, 4, 11, 0, 75, 0, 0
|37, 21, 0, 13, 30, 23, 12, 20, 68, 14, 55, 31, 41, 52, 0, 18, 0, 2, 0, 80, 29, 9, 17, 0, 0, 0, 0, 0, 44, 49, 11, 0, 0, 79, 33, 3, 57, 38, 59, 0, 0, 73, 0, 0, 0, 15, 8, 0, 5, 0, 0, 81, 72, 4, 6, 51, 0, 24, 76, 43, 61, 54, 75, 63, 35, 1, 71, 32, 0, 34, 27, 67, 0, 65, 53, 22, 0, 0, 50, 45, 0
|45, 19, 4, 57, 41, 0, 0, 0, 0, 42, 21, 73, 27, 0, 13, 0, 71, 0, 28, 31, 60, 0, 18, 40, 1, 74, 59, 25, 20, 0, 0, 24, 34, 75, 77, 68, 72, 2, 16, 46, 49, 3, 33, 0, 43, 0, 7, 17, 26, 9, 0, 0, 0, 61, 50, 38, 0, 52, 44, 36, 22, 10, 81, 23, 0, 80, 0, 76, 37, 0, 53, 8, 6, 0, 47, 14, 63, 0, 0, 54, 0
|49, 0, 0, 28, 14, 79, 64, 75, 72, 0, 16, 7, 15, 20, 0, 0, 0, 3, 77, 0, 0, 0, 0, 22, 69, 63, 67, 0, 26, 47, 17, 0, 0, 41, 12, 53, 30, 0, 0, 45, 8, 21, 0, 70, 0, 0, 2, 37, 43, 59, 71, 0, 68, 54, 66, 4, 1, 32, 0, 48, 0, 34, 13, 0, 50, 38, 46, 58, 29, 0, 0, 24, 27, 0, 60, 81, 31, 73, 0, 35, 0
|14, 81, 0, 0, 36, 0, 5, 31, 80, 0, 15, 60, 0, 0, 0, 38, 62, 0, 70, 2, 9, 3, 0, 19, 24, 0, 0, 0, 33, 72, 25, 10, 17, 43, 75, 0, 51, 71, 0, 7, 63, 4, 76, 28, 55, 0, 41, 29, 61, 39, 12, 57, 42, 35, 65, 58, 0, 73, 32, 23, 54, 0, 46, 0, 34, 40, 67, 18, 0, 8, 26, 48, 0, 0, 45, 0, 47, 22, 77, 49, 1
|0, 76, 0, 0, 0, 0, 0, 12, 0, 47, 29, 33, 59, 31, 4, 0, 6, 0, 17, 62, 11, 5, 45, 41, 73, 75, 23, 51, 13, 0, 0, 40, 42, 53, 0, 0, 44, 0, 0, 0, 9, 8, 19, 74, 0, 22, 27, 0, 52, 0, 26, 54, 60, 0, 69, 0, 70, 7, 35, 21, 0, 38, 1, 0, 46, 25, 81, 68, 0, 80, 78, 30, 71, 36, 64, 57, 0, 56, 24, 0, 2
|0, 46, 53, 66, 25, 68, 38, 73, 48, 27, 78, 12, 69, 13, 0, 2, 50, 80, 22, 4, 0, 0, 0, 72, 34, 18, 54, 0, 49, 0, 37, 26, 74, 0, 29, 45, 75, 56, 0, 40, 0, 77, 0, 65, 60, 32, 79, 8, 0, 11, 0, 0, 3, 0, 10, 0, 0, 39, 36, 30, 17, 0, 55, 0, 15, 24, 16, 42, 43, 23, 59, 19, 21, 9, 51, 31, 0, 35, 20, 0, 0
|17, 56, 35, 75, 0, 0, 1, 59, 22, 21, 19, 0, 16, 0, 36, 23, 66, 18, 47, 30, 46, 65, 48, 12, 7, 55, 38, 11, 3, 76, 0, 0, 0, 0, 68, 58, 73, 34, 14, 20, 31, 53, 81, 62, 2, 0, 4, 0, 74, 0, 0, 71, 51, 24, 57, 49, 0, 80, 43, 6, 26, 72, 44, 70, 0, 37, 64, 54, 41, 0, 28, 29, 32, 60, 27, 67, 0, 13, 25, 52, 0
|58, 0, 62, 0, 0, 72, 0, 77, 29, 0, 32, 26, 0, 63, 17, 0, 0, 24, 74, 44, 0, 80, 0, 39, 64, 0, 78, 12, 18, 36, 56, 0, 47, 6, 0, 0, 42, 1, 54, 0, 45, 13, 35, 0, 30, 53, 0, 28, 38, 81, 0, 69, 16, 0, 76, 0, 40, 25, 0, 0, 0, 8, 0, 0, 60, 52, 0, 49, 0, 0, 65, 2, 70, 0, 73, 0, 55, 0, 3, 43, 0
|0, 60, 11, 42, 9, 2, 43, 41, 45, 0, 65, 58, 40, 75, 77, 0, 39, 76, 13, 0, 0, 0, 56, 0, 81, 0, 1, 70, 0, 62, 22, 73, 7, 67, 0, 0, 10, 0, 47, 52, 0, 38, 16, 12, 49, 46, 80, 64, 0, 0, 66, 0, 33, 0, 68, 31, 3, 48, 61, 27, 37, 53, 59, 14, 0, 4, 63, 74, 51, 32, 57, 35, 29, 50, 0, 0, 72, 0, 0, 23, 17
|0, 20, 7, 0, 8, 37, 70, 21, 47, 54, 22, 0, 25, 1, 11, 0, 0, 35, 29, 40, 49, 0, 43, 0, 57, 0, 52, 2, 71, 79, 0, 65, 0, 0, 41, 28, 0, 24, 67, 3, 23, 0, 18, 0, 69, 0, 14, 55, 36, 0, 9, 76, 19, 13, 74, 0, 51, 34, 4, 5, 0, 0, 56, 27, 61, 12, 0, 53, 0, 44, 45, 66, 0, 0, 48, 42, 6, 0, 58, 33, 39
|39, 0, 18, 69, 0, 0, 67, 0, 0, 43, 0, 53, 0, 14, 0, 45, 28, 55, 37, 21, 51, 0, 0, 6, 0, 16, 27, 20, 24, 35, 52, 23, 0, 60, 9, 38, 0, 0, 70, 0, 57, 11, 22, 0, 25, 44, 65, 31, 77, 0, 73, 7, 40, 49, 41, 29, 0, 50, 42, 62, 79, 66, 2, 0, 3, 0, 47, 17, 75, 71, 0, 76, 8, 12, 54, 0, 78, 63, 74, 80, 30
|0, 71, 74, 52, 19, 0, 40, 0, 0, 41, 73, 70, 0, 0, 9, 49, 3, 7, 35, 77, 0, 42, 0, 69, 31, 0, 25, 78, 0, 80, 46, 0, 4, 0, 0, 32, 0, 0, 33, 58, 61, 72, 66, 0, 0, 0, 47, 30, 0, 68, 23, 0, 0, 2, 45, 15, 0, 28, 64, 0, 81, 0, 24, 38, 0, 36, 55, 22, 11, 39, 62, 0, 0, 37, 0, 53, 10, 14, 0, 76, 0
|80, 0, 34, 43, 0, 3, 52, 49, 54, 40, 42, 0, 0, 0, 37, 9, 0, 66, 0, 24, 0, 0, 62, 28, 19, 14, 64, 0, 0, 0, 15, 0, 67, 0, 18, 11, 16, 0, 53, 72, 39, 56, 6, 0, 71, 8, 69, 77, 30, 23, 0, 48, 1, 58, 0, 0, 4, 12, 65, 13, 60, 20, 70, 29, 0, 31, 0, 0, 61, 59, 68, 25, 22, 0, 0, 0, 51, 38, 17, 0, 0
|12, 59, 21, 77, 0, 9, 0, 63, 0, 0, 14, 23, 30, 0, 25, 0, 0, 26, 0, 46, 41, 0, 61, 17, 0, 6, 55, 39, 53, 57, 0, 32, 8, 71, 0, 72, 74, 64, 22, 0, 33, 69, 3, 19, 28, 67, 76, 0, 50, 80, 0, 0, 27, 5, 36, 0, 68, 42, 0, 0, 38, 31, 66, 49, 37, 47, 51, 0, 2, 0, 20, 0, 1, 11, 10, 7, 0, 0, 81, 40, 43
|53, 10, 68, 64, 0, 0, 30, 0, 23, 50, 5, 11, 0, 60, 73, 0, 70, 43, 2, 0, 8, 67, 12, 0, 72, 3, 42, 4, 58, 40, 77, 0, 21, 25, 0, 13, 49, 51, 0, 14, 17, 0, 15, 47, 45, 0, 71, 61, 0, 0, 32, 37, 0, 66, 0, 57, 26, 19, 48, 0, 0, 9, 27, 74, 44, 39, 22, 16, 76, 0, 0, 55, 69, 33, 0, 20, 0, 78, 0, 0, 6
|31, 5, 38, 24, 69, 20, 0, 27, 81, 22, 62, 2, 3, 68, 34, 64, 0, 0, 65, 37, 53, 0, 0, 71, 76, 39, 33, 0, 35, 48, 0, 46, 56, 0, 16, 12, 0, 18, 77, 8, 0, 42, 21, 0, 75, 13, 11, 49, 28, 0, 55, 70, 7, 6, 25, 0, 50, 23, 15, 78, 0, 52, 43, 0, 0, 0, 57, 10, 19, 45, 66, 0, 44, 47, 0, 63, 0, 67, 0, 14, 0
|0, 51, 72, 47, 0, 0, 55, 42, 25, 16, 0, 20, 19, 0, 0, 32, 29, 27, 4, 57, 50, 0, 81, 0, 0, 0, 13, 61, 6, 38, 68, 59, 14, 17, 0, 24, 12, 0, 31, 30, 0, 10, 0, 36, 80, 63, 0, 62, 0, 44, 2, 26, 41, 0, 0, 3, 28, 37, 22, 0, 64, 49, 0, 0, 75, 69, 9, 0, 33, 0, 71, 73, 58, 0, 39, 60, 52, 53, 0, 8, 35
|65, 16, 0, 0, 48, 8, 6, 78, 1, 61, 0, 0, 0, 4, 21, 36, 49, 58, 23, 68, 18, 63, 27, 51, 11, 31, 77, 41, 74, 0, 80, 30, 66, 64, 44, 0, 2, 0, 29, 60, 0, 0, 0, 81, 37, 73, 10, 0, 54, 0, 43, 22, 12, 75, 35, 47, 76, 0, 17, 14, 33, 79, 0, 62, 0, 67, 0, 28, 42, 38, 34, 0, 0, 26, 13, 71, 50, 72, 15, 0, 5
|32, 67, 71, 7, 50, 60, 36, 4, 13, 0, 6, 24, 0, 0, 0, 72, 0, 31, 40, 0, 0, 0, 30, 73, 0, 0, 43, 10, 34, 19, 29, 3, 51, 0, 62, 49, 0, 20, 78, 63, 0, 65, 0, 27, 46, 0, 45, 21, 0, 0, 57, 59, 52, 0, 8, 55, 0, 74, 75, 0, 41, 16, 5, 0, 80, 64, 0, 48, 0, 0, 0, 11, 42, 25, 2, 37, 61, 0, 0, 77, 76
|33, 14, 22, 19, 40, 17, 62, 76, 0, 0, 71, 46, 0, 67, 35, 55, 45, 0, 49, 0, 7, 60, 69, 0, 0, 47, 70, 42, 0, 0, 78, 28, 65, 81, 52, 43, 0, 61, 66, 38, 34, 0, 5, 0, 68, 9, 36, 72, 20, 0, 0, 74, 31, 0, 54, 6, 30, 21, 10, 73, 24, 0, 18, 58, 0, 63, 0, 8, 0, 50, 0, 0, 0, 64, 23, 0, 3, 48, 56, 57, 75
|2, 37, 0, 0, 79, 0, 0, 0, 39, 53, 0, 74, 8, 47, 41, 12, 17, 13, 0, 29, 0, 20, 16, 45, 0, 32, 48, 75, 22, 69, 0, 55, 63, 33, 70, 0, 7, 4, 44, 43, 76, 67, 58, 11, 57, 0, 64, 0, 0, 0, 14, 19, 25, 68, 0, 56, 0, 0, 46, 40, 51, 81, 61, 6, 0, 3, 21, 0, 18, 65, 0, 54, 59, 30, 49, 66, 0, 31, 0, 27, 0|];