order = 9;
grid = [|31, 75, 76, 66, 0, 71, 80, 0, 0, 0, 68, 73, 7, 0, 11, 17, 0, 0, 30, 0, 16, 0, 0, 53, 41, 1, 27, 62, 33, 0, 5, 22, 77, 0, 24, 51, 59, 0, 0, 69, 20, 6, 67, 70, 26, 0, 0, 0, 57, 0, 3, 65, 0, 52, 61, 44, 40, 79, 29, 78, 45, 37, 14, 0, 64, 23, 43, 35, 0, 2, 0, 19, 0, 0, 47, 0, 0, 13, 56, 15, 42
|37, 30, 0, 0, 0, 0, 72, 41, 3, 0, 0, 8, 10, 71, 49, 42, 62, 0, 48, 34, 0, 19, 76, 20, 0, 0, 59, 0, 27, 57, 70, 21, 14, 75, 6, 67, 53, 0, 0, 31, 18, 0, 0, 0, 38, 12, 22, 78, 64, 39, 7, 0, 23, 50, 2, 15, 9, 81, 35, 0, 0, 24, 17, 4, 0, 61, 54, 29, 1, 5, 26, 13, 0, 79, 36, 0, 46, 73, 0, 0, 77
|12, 23, 0, 8, 0, 63, 78, 32, 11, 9, 0, 0, 5, 0, 0, 27, 26, 13, 15, 67, 28, 0, 0, 22, 0, 0, 0, 0, 41, 79, 76, 2, 10, 0, 52, 1, 19, 0, 75, 45, 77, 17, 24, 0, 72, 55, 42, 20, 18, 68, 40, 44, 30, 59, 0, 0, 4, 47, 0, 0, 65, 0, 48, 69, 33, 0, 57, 0, 80, 46, 7, 0, 53, 25, 60, 62, 54, 0, 71, 0, 0
|22, 14, 0, 25, 0, 0, 61, 35, 77, 19, 23, 40, 46, 67, 0, 24, 0, 2, 70, 9, 0, 0, 3, 80, 18, 29, 54, 64, 11, 7, 60, 47, 48, 0, 71, 42, 37, 30, 52, 0, 15, 0, 76, 56, 28, 51, 0, 62, 63, 0, 5, 1, 21, 0, 0, 0, 10, 43, 69, 36, 55, 0, 75, 45, 0, 17, 8, 34, 68, 0, 16, 20, 0, 49, 32, 65, 78, 59, 57, 0, 26
|48, 43, 49, 18, 59, 64, 7, 44, 0, 0, 0, 0, 0, 54, 20, 0, 29, 0, 24, 75, 2, 68, 51, 33, 0, 73, 37, 0, 15, 9, 30, 0, 50, 35, 38, 4, 3, 27, 34, 63, 25, 23, 74, 46, 57, 0, 56, 61, 17, 0, 47, 11, 60, 10, 0, 22, 32, 16, 0, 0, 13, 5, 52, 6, 42, 0, 65, 36, 71, 72, 62, 31, 14, 39, 0, 0, 0, 0, 0, 58, 40
|26, 17, 0, 0, 0, 0, 38, 29, 58, 0, 64, 61, 65, 15, 0, 47, 78, 6, 72, 49, 32, 52, 56, 5, 0, 57, 63, 0, 0, 0, 28, 23, 0, 16, 0, 0, 22, 0, 13, 71, 9, 0, 0, 0, 39, 37, 0, 67, 0, 43, 53, 0, 77, 0, 21, 25, 0, 18, 59, 0, 7, 42, 8, 24, 11, 0, 79, 66, 0, 48, 0, 51, 75, 1, 4, 31, 35, 0, 20, 0, 0
|0, 55, 9, 0, 0, 39, 40, 54, 0, 76, 57, 30, 48, 75, 36, 66, 45, 37, 0, 0, 8, 64, 79, 23, 7, 50, 13, 59, 0, 0, 29, 0, 31, 73, 69, 0, 62, 65, 1, 2, 0, 61, 42, 16, 0, 81, 35, 58, 25, 14, 32, 0, 0, 71, 0, 60, 20, 67, 38, 70, 77, 3, 0, 27, 56, 63, 10, 15, 44, 22, 78, 52, 41, 12, 5, 24, 74, 0, 33, 18, 72
|0, 0, 68, 0, 24, 0, 79, 0, 16, 58, 63, 0, 0, 25, 59, 32, 41, 0, 61, 71, 42, 62, 26, 81, 0, 65, 47, 72, 17, 54, 0, 0, 39, 8, 36, 56, 78, 35, 10, 66, 43, 48, 0, 64, 0, 15, 33, 0, 29, 74, 6, 31, 0, 13, 53, 30, 0, 12, 76, 1, 57, 27, 23, 75, 77, 40, 50, 0, 18, 0, 0, 14, 21, 51, 38, 0, 69, 3, 11, 9, 0
|4, 0, 57, 15, 51, 0, 0, 5, 42, 0, 79, 50, 33, 0, 0, 1, 77, 60, 0, 6, 0, 43, 12, 78, 14, 35, 10, 61, 0, 45, 65, 25, 0, 0, 13, 37, 8, 40, 21, 0, 0, 7, 0, 29, 0, 49, 41, 75, 0, 26, 0, 24, 36, 34, 66, 39, 71, 64, 74, 63, 19, 72, 46, 0, 59, 0, 0, 0, 0, 47, 28, 0, 22, 2, 70, 0, 0, 17, 16, 52, 48
|42, 46, 59, 61, 71, 0, 66, 38, 45, 55, 60, 10, 0, 0, 64, 0, 0, 51, 0, 44, 47, 67, 1, 30, 56, 0, 29, 7, 53, 0, 32, 14, 5, 69, 2, 0, 12, 6, 0, 48, 0, 0, 0, 34, 37, 19, 4, 43, 74, 0, 50, 8, 63, 77, 35, 79, 57, 0, 81, 31, 0, 17, 22, 40, 9, 78, 23, 75, 0, 0, 24, 65, 68, 62, 0, 21, 0, 36, 13, 76, 0
|77, 51, 65, 0, 43, 9, 0, 10, 0, 0, 42, 66, 38, 72, 0, 62, 56, 0, 34, 81, 27, 46, 55, 17, 78, 76, 40, 35, 0, 63, 79, 73, 22, 60, 0, 0, 0, 0, 23, 18, 21, 59, 0, 69, 0, 29, 0, 39, 48, 0, 0, 2, 24, 0, 44, 49, 0, 14, 0, 33, 32, 0, 0, 52, 41, 1, 0, 74, 31, 57, 67, 5, 54, 4, 71, 50, 0, 0, 80, 0, 53
|16, 76, 15, 81, 73, 0, 0, 0, 13, 2, 53, 3, 39, 68, 21, 0, 30, 25, 0, 0, 0, 45, 36, 0, 4, 69, 72, 0, 59, 64, 67, 6, 0, 0, 77, 44, 0, 74, 65, 42, 0, 56, 66, 50, 40, 20, 0, 26, 28, 34, 33, 49, 31, 75, 1, 19, 27, 0, 70, 54, 23, 80, 78, 63, 29, 0, 0, 10, 32, 0, 14, 60, 79, 55, 0, 8, 48, 0, 24, 22, 0
|56, 8, 55, 79, 74, 0, 41, 4, 0, 0, 0, 54, 32, 0, 0, 0, 52, 0, 0, 42, 65, 0, 33, 31, 0, 5, 49, 0, 47, 0, 78, 10, 12, 0, 75, 28, 67, 43, 19, 30, 0, 25, 0, 0, 0, 0, 15, 14, 53, 81, 35, 0, 68, 21, 0, 45, 24, 61, 9, 76, 3, 16, 58, 70, 37, 11, 46, 0, 13, 0, 66, 34, 38, 23, 0, 0, 17, 2, 69, 57, 60
|0, 80, 0, 0, 21, 78, 67, 26, 28, 5, 0, 0, 9, 11, 81, 34, 27, 31, 0, 14, 54, 0, 35, 71, 75, 53, 64, 57, 29, 25, 74, 19, 0, 0, 8, 58, 38, 13, 76, 22, 41, 46, 2, 10, 60, 0, 61, 16, 0, 0, 23, 47, 17, 0, 40, 0, 0, 0, 77, 72, 20, 4, 0, 44, 79, 0, 73, 33, 0, 51, 3, 62, 0, 66, 52, 59, 32, 0, 49, 0, 7
|32, 12, 0, 1, 60, 0, 29, 33, 31, 0, 40, 0, 74, 65, 22, 20, 0, 43, 0, 25, 61, 0, 11, 66, 37, 58, 0, 45, 42, 24, 4, 55, 0, 50, 18, 23, 0, 14, 0, 15, 16, 49, 9, 44, 0, 30, 76, 52, 54, 5, 57, 0, 64, 51, 67, 62, 0, 73, 26, 7, 0, 48, 21, 80, 71, 0, 38, 69, 72, 77, 0, 68, 10, 70, 81, 3, 19, 0, 0, 0, 78
|52, 58, 70, 50, 0, 0, 34, 69, 23, 57, 0, 76, 0, 49, 0, 73, 0, 67, 0, 0, 0, 3, 19, 0, 68, 7, 15, 30, 1, 0, 17, 72, 71, 0, 0, 11, 32, 0, 62, 0, 51, 35, 28, 24, 31, 0, 60, 66, 0, 13, 0, 0, 80, 46, 0, 0, 29, 0, 0, 55, 0, 65, 39, 43, 4, 8, 42, 64, 0, 12, 36, 47, 44, 33, 0, 0, 40, 77, 9, 0, 56
|3, 57, 0, 75, 11, 30, 22, 0, 27, 63, 0, 0, 0, 23, 0, 0, 0, 26, 0, 12, 24, 21, 0, 10, 51, 41, 77, 0, 38, 52, 34, 40, 13, 68, 0, 0, 80, 8, 0, 33, 78, 36, 79, 0, 0, 0, 67, 0, 37, 62, 44, 32, 0, 0, 43, 69, 74, 0, 47, 50, 2, 28, 25, 0, 15, 49, 6, 0, 81, 58, 20, 0, 39, 45, 35, 61, 31, 29, 65, 72, 1
|49, 40, 6, 0, 0, 54, 63, 0, 18, 8, 0, 0, 44, 48, 24, 0, 0, 69, 22, 28, 9, 23, 0, 32, 2, 59, 50, 0, 80, 76, 41, 0, 81, 31, 0, 43, 0, 0, 27, 29, 0, 0, 57, 52, 77, 3, 10, 36, 11, 65, 79, 72, 0, 45, 34, 46, 5, 0, 60, 0, 71, 38, 12, 0, 35, 25, 56, 26, 55, 7, 30, 21, 0, 0, 74, 0, 42, 75, 14, 67, 20
|15, 9, 0, 31, 55, 10, 24, 0, 49, 29, 66, 64, 18, 30, 0, 65, 0, 36, 0, 0, 0, 69, 8, 0, 0, 80, 0, 0, 50, 5, 0, 54, 2, 0, 28, 0, 42, 7, 11, 46, 0, 22, 19, 0, 16, 21, 72, 0, 0, 0, 17, 48, 0, 63, 20, 26, 51, 0, 32, 52, 0, 43, 71, 34, 70, 0, 25, 68, 61, 59, 37, 77, 0, 0, 0, 0, 4, 35, 41, 0, 0
|0, 39, 48, 37, 23, 29, 0, 12, 36, 51, 70, 0, 0, 42, 69, 25, 81, 55, 53, 0, 11, 18, 28, 35, 22, 4, 44, 56, 62, 59, 57, 34, 61, 63, 16, 26, 0, 0, 66, 0, 75, 9, 0, 32, 0, 79, 0, 31, 43, 50, 0, 0, 58, 7, 45, 24, 33, 54, 0, 17, 0, 0, 30, 2, 52, 0, 40, 78, 0, 6, 0, 3, 65, 67, 10, 68, 77, 74, 76, 71, 19
|44, 1, 0, 34, 64, 41, 0, 0, 63, 0, 5, 0, 31, 4, 74, 0, 22, 57, 76, 79, 26, 20, 0, 0, 0, 19, 68, 39, 66, 69, 21, 32, 27, 7, 0, 0, 28, 51, 71, 0, 62, 58, 0, 72, 17, 0, 65, 77, 30, 11, 0, 6, 29, 0, 23, 0, 0, 0, 0, 18, 0, 50, 70, 55, 67, 36, 13, 46, 0, 0, 8, 56, 0, 42, 3, 33, 38, 0, 0, 53, 80
|45, 0, 56, 35, 0, 81, 46, 0, 65, 1, 2, 39, 0, 0, 32, 72, 0, 61, 41, 30, 37, 75, 21, 0, 67, 38, 0, 0, 0, 18, 0, 80, 0, 14, 0, 0, 23, 0, 15, 77, 4, 0, 33, 0, 43, 0, 73, 71, 0, 42, 0, 10, 53, 0, 0, 34, 13, 0, 0, 68, 78, 36, 6, 12, 0, 28, 76, 0, 51, 79, 31, 22, 64, 0, 0, 63, 66, 7, 0, 17, 0
|54, 72, 77, 59, 17, 76, 71, 80, 51, 68, 37, 0, 0, 0, 79, 78, 0, 7, 23, 46, 0, 1, 0, 50, 3, 70, 34, 42, 8, 33, 0, 30, 0, 24, 0, 9, 40, 39, 6, 49, 10, 0, 48, 63, 0, 0, 0, 56, 0, 2, 45, 57, 0, 35, 15, 14, 69, 62, 73, 58, 28, 55, 61, 65, 81, 16, 19, 53, 38, 4, 0, 74, 18, 0, 20, 0, 60, 44, 36, 32, 11
|0, 0, 66, 14, 47, 52, 19, 75, 6, 38, 48, 0, 26, 20, 76, 71, 0, 0, 32, 43, 25, 42, 5, 59, 17, 78, 36, 0, 0, 11, 31, 4, 73, 46, 3, 0, 0, 0, 0, 0, 0, 2, 30, 0, 0, 0, 0, 80, 34, 41, 0, 13, 74, 23, 7, 16, 0, 77, 65, 0, 44, 67, 27, 35, 24, 10, 18, 0, 39, 64, 0, 0, 51, 57, 28, 49, 37, 40, 79, 54, 15
|30, 0, 4, 11, 69, 74, 57, 67, 8, 45, 0, 15, 59, 0, 35, 19, 0, 62, 0, 0, 66, 7, 64, 6, 61, 10, 58, 0, 76, 0, 36, 77, 53, 0, 23, 0, 0, 41, 12, 73, 52, 44, 18, 68, 1, 14, 9, 0, 51, 0, 27, 55, 20, 78, 81, 0, 25, 31, 3, 0, 22, 0, 63, 50, 5, 33, 29, 60, 0, 80, 0, 42, 0, 43, 0, 70, 21, 48, 72, 39, 24
|0, 25, 7, 26, 38, 0, 18, 20, 32, 0, 41, 9, 28, 10, 56, 0, 73, 0, 0, 51, 63, 0, 0, 15, 0, 24, 48, 0, 71, 65, 22, 52, 6, 29, 45, 78, 35, 59, 3, 0, 76, 57, 0, 0, 0, 68, 0, 4, 0, 67, 70, 19, 61, 1, 0, 66, 72, 42, 53, 0, 64, 2, 80, 17, 0, 0, 49, 54, 11, 30, 0, 23, 13, 46, 50, 14, 0, 81, 55, 0, 0
|0, 0, 62, 0, 0, 68, 50, 53, 70, 0, 11, 33, 34, 17, 23, 44, 6, 77, 0, 55, 73, 9, 0, 0, 0, 0, 0, 0, 37, 67, 51, 0, 35, 0, 0, 0, 64, 0, 56, 65, 0, 14, 69, 0, 45, 36, 18, 25, 0, 3, 46, 76, 54, 49, 60, 4, 21, 0, 5, 0, 12, 0, 0, 32, 7, 48, 41, 63, 20, 0, 47, 66, 0, 27, 31, 30, 0, 0, 22, 0, 52
|0, 0, 40, 13, 49, 0, 0, 0, 0, 41, 30, 37, 29, 61, 0, 59, 42, 75, 0, 0, 31, 24, 0, 57, 1, 0, 66, 26, 44, 0, 68, 58, 0, 45, 35, 0, 21, 76, 7, 0, 19, 70, 62, 0, 52, 53, 51, 0, 3, 4, 0, 39, 73, 80, 12, 38, 17, 22, 64, 27, 74, 9, 81, 16, 48, 0, 20, 56, 0, 43, 11, 71, 0, 36, 65, 77, 0, 8, 0, 79, 47
|41, 38, 0, 68, 0, 16, 59, 2, 53, 0, 78, 0, 76, 0, 0, 0, 25, 32, 0, 23, 58, 14, 7, 0, 60, 79, 0, 0, 31, 0, 80, 0, 66, 13, 0, 27, 71, 3, 0, 47, 0, 73, 56, 75, 6, 0, 0, 72, 24, 54, 0, 63, 0, 57, 37, 70, 19, 0, 45, 0, 0, 77, 5, 0, 0, 51, 36, 30, 67, 18, 0, 44, 0, 0, 62, 0, 0, 55, 48, 0, 0
|0, 0, 8, 0, 63, 4, 26, 0, 69, 0, 28, 0, 45, 40, 19, 22, 0, 0, 68, 33, 39, 53, 0, 52, 71, 13, 35, 77, 25, 21, 61, 16, 15, 0, 73, 76, 66, 17, 37, 0, 5, 60, 41, 51, 36, 78, 0, 0, 0, 70, 9, 50, 59, 0, 14, 43, 23, 32, 79, 46, 34, 49, 0, 10, 12, 38, 0, 0, 0, 65, 54, 0, 81, 24, 72, 0, 6, 11, 0, 0, 2
|47, 0, 12, 55, 0, 48, 15, 0, 79, 0, 73, 7, 66, 0, 62, 0, 9, 23, 64, 0, 81, 41, 10, 42, 0, 61, 5, 0, 75, 2, 8, 51, 38, 11, 50, 0, 0, 25, 0, 80, 27, 63, 20, 0, 0, 0, 0, 49, 0, 37, 26, 30, 35, 68, 36, 72, 3, 65, 33, 0, 0, 40, 0, 0, 0, 74, 0, 13, 0, 53, 52, 76, 34, 56, 0, 44, 70, 69, 0, 1, 0
|0, 78, 31, 76, 22, 0, 43, 0, 0, 52, 0, 51, 14, 60, 0, 38, 44, 53, 74, 47, 56, 6, 4, 21, 73, 32, 45, 0, 5, 17, 20, 0, 0, 0, 7, 3, 61, 24, 8, 16, 0, 10, 77, 0, 11, 64, 12, 18, 41, 33, 0, 79, 0, 0, 0, 80, 30, 48, 0, 59, 0, 66, 62, 46, 0, 68, 0, 9, 40, 0, 34, 15, 27, 71, 23, 75, 67, 63, 29, 26, 57
|80, 66, 0, 64, 0, 0, 21, 0, 74, 0, 0, 12, 77, 55, 68, 10, 0, 54, 0, 22, 0, 0, 0, 37, 0, 18, 26, 6, 0, 0, 49, 79, 0, 0, 32, 41, 0, 0, 38, 50, 1, 65, 43, 30, 78, 0, 23, 7, 61, 0, 0, 0, 0, 0, 47, 35, 76, 8, 0, 75, 0, 13, 53, 72, 2, 70, 24, 0, 0, 42, 33, 57, 20, 40, 58, 19, 73, 4, 0, 59, 45
|62, 70, 0, 52, 9, 58, 51, 0, 73, 0, 0, 13, 27, 6, 2, 31, 11, 34, 0, 20, 75, 38, 30, 0, 25, 12, 17, 18, 81, 78, 39, 24, 69, 59, 60, 0, 0, 0, 74, 55, 40, 67, 26, 22, 0, 47, 29, 10, 46, 77, 21, 36, 14, 15, 57, 54, 0, 0, 0, 42, 1, 41, 44, 66, 23, 64, 5, 45, 19, 0, 4, 37, 28, 0, 0, 0, 0, 33, 0, 0, 0
|27, 54, 35, 65, 72, 7, 0, 30, 75, 50, 81, 4, 56, 0, 0, 0, 17, 70, 0, 0, 34, 29, 0, 8, 59, 0, 0, 0, 57, 0, 53, 36, 0, 74, 67, 12, 0, 48, 0, 0, 46, 13, 15, 0, 23, 0, 0, 76, 32, 0, 0, 40, 0, 43, 11, 78, 60, 0, 0, 73, 18, 51, 20, 61, 3, 0, 0, 0, 77, 14, 1, 69, 0, 0, 68, 0, 0, 39, 0, 0, 0
|0, 0, 0, 67, 6, 19, 0, 0, 33, 15, 47, 24, 0, 64, 48, 5, 0, 0, 16, 77, 3, 0, 0, 72, 36, 0, 76, 4, 0, 43, 54, 29, 1, 23, 0, 14, 68, 0, 0, 0, 44, 81, 59, 0, 53, 45, 11, 42, 22, 0, 56, 0, 0, 2, 26, 61, 0, 0, 52, 71, 63, 21, 50, 0, 0, 41, 78, 0, 73, 62, 0, 0, 49, 31, 37, 38, 9, 0, 74, 0, 18
|43, 42, 0, 47, 37, 0, 3, 66, 30, 6, 7, 2, 54, 24, 8, 77, 39, 50, 0, 35, 4, 0, 17, 0, 5, 64, 60, 0, 69, 36, 12, 0, 11, 48, 51, 80, 57, 22, 9, 0, 0, 38, 27, 65, 32, 76, 58, 0, 14, 44, 78, 18, 41, 72, 70, 20, 63, 53, 46, 0, 75, 74, 0, 0, 0, 0, 0, 0, 10, 67, 0, 0, 0, 0, 0, 52, 55, 26, 68, 16, 0
|18, 0, 0, 53, 0, 12, 0, 25, 52, 26, 0, 0, 36, 19, 1, 67, 51, 35, 37, 62, 22, 0, 41, 0, 70, 55, 0, 0, 7, 31, 14, 27, 33, 6, 72, 2, 81, 0, 79, 43, 60, 66, 21, 23, 0, 48, 75, 65, 0, 63, 28, 0, 47, 0, 0, 17, 59, 76, 4, 10, 8, 0, 0, 9, 46, 0, 45, 5, 78, 34, 0, 0, 24, 0, 64, 15, 11, 58, 54, 0, 3
|0, 0, 0, 63, 19, 51, 11, 78, 0, 0, 65, 28, 0, 81, 0, 37, 31, 15, 46, 80, 0, 33, 0, 68, 21, 43, 57, 0, 64, 60, 58, 18, 0, 0, 79, 8, 30, 77, 35, 0, 0, 39, 72, 40, 74, 1, 0, 27, 9, 52, 62, 0, 67, 0, 13, 23, 47, 26, 54, 34, 0, 45, 3, 0, 22, 66, 53, 14, 59, 70, 12, 36, 0, 29, 17, 48, 71, 50, 0, 0, 25
|0, 0, 80, 10, 0, 0, 70, 31, 22, 27, 33, 5, 0, 0, 47, 76, 0, 14, 49, 54, 0, 65, 15, 77, 0, 8, 0, 24, 78, 29, 40, 0, 44, 0, 74, 45, 0, 0, 51, 0, 26, 16, 75, 18, 13, 17, 39, 35, 4, 53, 73, 0, 11, 25, 0, 81, 37, 0, 72, 38, 58, 0, 19, 3, 61, 7, 21, 55, 64, 20, 57, 2, 63, 0, 34, 0, 41, 12, 46, 69, 36
|36, 26, 38, 32, 16, 59, 35, 74, 24, 72, 20, 42, 11, 9, 4, 0, 0, 66, 3, 45, 12, 58, 34, 14, 76, 0, 79, 81, 0, 46, 0, 13, 0, 0, 65, 77, 2, 73, 53, 78, 17, 0, 31, 0, 47, 0, 57, 15, 10, 55, 29, 71, 22, 30, 39, 33, 0, 21, 49, 0, 51, 68, 41, 0, 0, 27, 28, 0, 0, 1, 0, 54, 7, 80, 75, 56, 61, 0, 5, 0, 67
|64, 0, 60, 77, 1, 49, 23, 0, 0, 25, 0, 0, 69, 0, 30, 68, 0, 78, 38, 26, 20, 0, 66, 24, 0, 72, 75, 0, 0, 22, 10, 67, 76, 0, 56, 5, 7, 4, 0, 11, 59, 8, 70, 71, 33, 32, 0, 34, 79, 46, 42, 51, 0, 54, 0, 0, 16, 40, 0, 65, 0, 73, 0, 58, 0, 47, 0, 39, 0, 0, 13, 41, 19, 18, 9, 0, 0, 14, 44, 27, 62
|0, 0, 34, 0, 0, 6, 44, 62, 0, 0, 0, 0, 13, 29, 71, 21, 3, 0, 10, 18, 78, 63, 50, 36, 0, 30, 52, 41, 0, 0, 9, 75, 0, 43, 39, 70, 46, 0, 48, 76, 14, 69, 54, 45, 0, 38, 26, 19, 23, 61, 12, 59, 5, 0, 24, 77, 0, 0, 27, 15, 42, 11, 0, 31, 72, 56, 68, 0, 0, 32, 0, 35, 4, 53, 51, 60, 1, 66, 0, 33, 49
|0, 28, 0, 40, 0, 46, 76, 73, 9, 64, 0, 0, 79, 0, 0, 70, 80, 58, 0, 16, 67, 51, 48, 19, 69, 44, 0, 0, 35, 0, 1, 68, 30, 53, 15, 71, 20, 49, 0, 62, 3, 12, 0, 5, 29, 0, 24, 37, 2, 60, 36, 7, 0, 0, 50, 56, 55, 0, 0, 66, 0, 78, 0, 11, 18, 42, 26, 0, 0, 0, 63, 81, 45, 0, 8, 39, 0, 31, 23, 0, 65
|65, 69, 5, 0, 27, 14, 4, 13, 55, 62, 56, 46, 61, 53, 0, 41, 0, 0, 73, 7, 0, 81, 59, 0, 0, 47, 11, 50, 19, 66, 0, 20, 23, 54, 42, 0, 1, 37, 0, 0, 63, 64, 68, 0, 0, 6, 31, 3, 0, 80, 49, 45, 8, 70, 48, 12, 0, 9, 18, 60, 67, 22, 36, 0, 43, 44, 0, 40, 17, 24, 51, 33, 0, 0, 79, 0, 10, 72, 77, 0, 35
|0, 65, 79, 39, 30, 43, 6, 9, 0, 0, 0, 59, 70, 58, 60, 81, 67, 0, 56, 41, 68, 0, 45, 0, 0, 62, 0, 0, 16, 0, 18, 0, 26, 33, 12, 47, 0, 10, 0, 0, 50, 15, 0, 0, 7, 0, 0, 5, 20, 49, 8, 0, 71, 28, 77, 55, 0, 34, 0, 0, 53, 0, 0, 0, 0, 0, 74, 0, 42, 0, 2, 0, 57, 3, 78, 66, 0, 21, 40, 35, 0
|0, 3, 0, 72, 4, 0, 47, 0, 37, 0, 75, 25, 0, 28, 17, 16, 35, 22, 26, 76, 7, 12, 6, 0, 58, 33, 0, 0, 0, 39, 50, 65, 79, 42, 0, 0, 73, 0, 64, 0, 0, 0, 0, 59, 56, 0, 68, 51, 40, 1, 19, 9, 0, 0, 80, 48, 2, 44, 0, 69, 54, 81, 0, 67, 0, 0, 71, 52, 0, 66, 0, 27, 60, 77, 18, 10, 36, 23, 0, 0, 8
|34, 10, 63, 7, 56, 70, 33, 0, 29, 0, 80, 0, 64, 0, 0, 52, 43, 24, 19, 11, 50, 73, 0, 0, 0, 0, 3, 54, 60, 0, 71, 0, 4, 67, 57, 66, 75, 44, 30, 26, 48, 76, 0, 14, 18, 35, 6, 21, 58, 45, 81, 22, 78, 0, 17, 13, 62, 74, 42, 9, 47, 25, 0, 59, 39, 0, 0, 51, 36, 23, 68, 0, 0, 20, 0, 27, 0, 79, 38, 55, 28
|78, 35, 69, 5, 0, 67, 31, 40, 41, 73, 18, 29, 0, 0, 61, 0, 0, 49, 9, 21, 36, 0, 23, 54, 0, 20, 38, 0, 32, 27, 72, 48, 52, 77, 68, 74, 0, 2, 55, 60, 66, 0, 58, 19, 0, 39, 17, 0, 65, 47, 0, 80, 4, 62, 76, 0, 14, 0, 16, 0, 0, 1, 0, 25, 0, 79, 81, 0, 0, 45, 0, 70, 46, 75, 0, 0, 24, 0, 26, 64, 63
|25, 68, 64, 45, 66, 77, 0, 0, 0, 23, 0, 31, 30, 0, 72, 56, 36, 0, 42, 0, 0, 10, 65, 0, 8, 39, 0, 5, 2, 80, 69, 0, 0, 9, 20, 0, 0, 0, 0, 4, 67, 24, 0, 49, 21, 73, 46, 13, 0, 0, 0, 29, 76, 32, 3, 57, 70, 27, 0, 22, 60, 26, 38, 0, 47, 6, 12, 19, 0, 11, 0, 16, 48, 81, 15, 0, 0, 0, 0, 51, 0
|28, 49, 1, 0, 18, 42, 75, 52, 14, 48, 9, 6, 4, 32, 66, 2, 0, 45, 0, 70, 80, 0, 13, 0, 72, 60, 25, 0, 0, 0, 3, 17, 59, 51, 31, 29, 0, 11, 20, 0, 81, 0, 0, 0, 0, 16, 0, 0, 0, 0, 38, 33, 15, 36, 0, 8, 46, 68, 21, 23, 73, 0, 65, 54, 63, 26, 34, 77, 35, 40, 0, 0, 71, 0, 0, 67, 0, 53, 0, 61, 44
|0, 44, 23, 27, 2, 60, 0, 55, 71, 74, 69, 68, 1, 51, 54, 39, 33, 38, 28, 59, 0, 78, 0, 47, 30, 0, 81, 0, 34, 70, 0, 41, 0, 10, 0, 0, 63, 16, 0, 0, 65, 72, 0, 57, 79, 67, 0, 50, 56, 64, 75, 42, 43, 26, 4, 0, 66, 0, 0, 0, 24, 19, 35, 20, 62, 32, 0, 7, 22, 0, 61, 8, 0, 0, 73, 0, 0, 37, 0, 11, 0
|11, 20, 73, 0, 0, 13, 81, 22, 0, 0, 0, 19, 0, 0, 3, 0, 57, 40, 52, 66, 35, 0, 24, 67, 27, 0, 61, 0, 14, 6, 25, 78, 62, 64, 0, 36, 39, 0, 29, 38, 23, 51, 34, 41, 46, 44, 37, 0, 12, 48, 77, 53, 0, 79, 0, 32, 0, 45, 7, 56, 33, 58, 59, 28, 0, 65, 0, 80, 30, 10, 18, 0, 0, 54, 69, 0, 68, 5, 4, 42, 31
|51, 24, 16, 0, 36, 80, 0, 8, 17, 0, 77, 21, 12, 26, 50, 14, 0, 5, 0, 2, 71, 0, 69, 1, 49, 48, 53, 73, 45, 0, 0, 0, 7, 0, 81, 63, 47, 9, 61, 0, 0, 0, 35, 42, 0, 0, 59, 11, 60, 31, 25, 0, 0, 66, 30, 0, 67, 15, 10, 41, 40, 0, 79, 37, 0, 0, 64, 58, 57, 56, 0, 43, 0, 65, 39, 13, 0, 6, 0, 0, 22
|50, 74, 10, 22, 12, 25, 65, 0, 57, 32, 0, 44, 0, 0, 55, 49, 5, 11, 81, 58, 0, 36, 0, 62, 63, 34, 0, 0, 0, 47, 16, 31, 0, 30, 0, 15, 0, 56, 26, 39, 13, 0, 46, 3, 41, 42, 0, 0, 77, 20, 0, 75, 18, 27, 51, 0, 6, 17, 37, 40, 52, 0, 0, 60, 80, 21, 0, 61, 0, 0, 71, 0, 69, 59, 19, 79, 43, 38, 0, 70, 0
|59, 33, 13, 70, 0, 40, 14, 48, 35, 22, 19, 69, 0, 0, 0, 3, 28, 12, 65, 10, 49, 0, 38, 56, 44, 27, 0, 0, 21, 4, 52, 60, 64, 0, 26, 34, 0, 1, 80, 23, 0, 75, 0, 0, 25, 46, 0, 24, 31, 0, 66, 0, 0, 0, 55, 74, 78, 20, 71, 30, 43, 0, 73, 0, 0, 0, 67, 11, 63, 9, 0, 29, 42, 8, 57, 0, 0, 41, 53, 68, 51
|0, 73, 72, 0, 8, 0, 77, 79, 4, 10, 38, 0, 0, 18, 0, 54, 0, 41, 67, 0, 21, 15, 80, 75, 29, 42, 39, 58, 36, 35, 81, 11, 70, 37, 0, 0, 76, 0, 68, 74, 2, 52, 0, 66, 69, 63, 25, 28, 5, 51, 71, 34, 33, 14, 59, 0, 0, 57, 0, 19, 27, 60, 64, 13, 16, 0, 31, 12, 0, 26, 0, 7, 0, 30, 24, 22, 0, 49, 78, 47, 61
|0, 36, 0, 23, 76, 0, 0, 81, 64, 0, 26, 0, 58, 73, 16, 0, 0, 4, 55, 13, 79, 35, 0, 28, 6, 66, 41, 51, 20, 74, 45, 39, 72, 0, 62, 24, 0, 63, 0, 34, 30, 18, 50, 0, 0, 0, 43, 68, 0, 15, 2, 37, 0, 22, 8, 29, 80, 33, 44, 0, 38, 14, 0, 77, 57, 19, 27, 42, 46, 52, 59, 25, 0, 0, 67, 5, 56, 0, 0, 60, 0
|66, 62, 18, 30, 0, 0, 0, 34, 43, 42, 0, 63, 21, 0, 0, 60, 68, 0, 0, 0, 77, 0, 46, 16, 52, 71, 0, 67, 12, 0, 7, 76, 57, 0, 5, 13, 29, 70, 24, 59, 73, 45, 17, 0, 19, 61, 36, 44, 72, 9, 80, 0, 0, 0, 79, 53, 0, 0, 58, 4, 0, 75, 10, 38, 40, 54, 51, 0, 0, 81, 39, 78, 0, 64, 0, 0, 20, 65, 2, 48, 6
|0, 31, 58, 29, 78, 17, 20, 6, 15, 59, 0, 72, 52, 0, 9, 0, 37, 47, 45, 0, 0, 0, 60, 70, 57, 3, 19, 68, 0, 0, 77, 33, 41, 0, 0, 10, 5, 67, 14, 35, 28, 62, 71, 27, 61, 0, 48, 23, 73, 30, 64, 54, 79, 40, 42, 7, 39, 0, 25, 0, 36, 63, 56, 1, 65, 2, 22, 18, 49, 75, 0, 55, 16, 74, 21, 12, 26, 34, 81, 4, 13
|61, 53, 24, 80, 0, 0, 60, 16, 19, 0, 31, 0, 35, 1, 0, 46, 13, 0, 33, 0, 59, 0, 0, 0, 32, 14, 20, 25, 6, 71, 2, 63, 0, 44, 49, 0, 15, 72, 57, 0, 22, 0, 36, 0, 0, 10, 52, 38, 70, 0, 55, 0, 26, 29, 9, 65, 41, 5, 12, 21, 0, 18, 34, 0, 0, 4, 3, 73, 0, 8, 45, 0, 40, 0, 77, 0, 62, 0, 0, 23, 66
|71, 37, 0, 0, 3, 1, 54, 0, 5, 0, 0, 0, 0, 34, 0, 36, 0, 64, 69, 4, 23, 26, 22, 12, 48, 9, 73, 27, 18, 14, 43, 8, 19, 28, 0, 59, 79, 21, 44, 0, 0, 40, 0, 0, 0, 62, 32, 0, 0, 57, 74, 81, 6, 60, 0, 2, 0, 50, 66, 61, 46, 0, 11, 33, 68, 53, 72, 70, 0, 41, 76, 0, 17, 0, 55, 25, 58, 0, 39, 63, 29
|0, 63, 44, 0, 0, 47, 0, 27, 2, 81, 29, 0, 50, 78, 0, 23, 76, 48, 0, 5, 30, 61, 37, 11, 0, 0, 18, 32, 40, 3, 42, 38, 55, 65, 66, 73, 0, 64, 31, 10, 54, 0, 0, 0, 58, 8, 21, 0, 0, 19, 41, 12, 0, 17, 68, 1, 26, 13, 22, 0, 0, 70, 16, 56, 74, 20, 14, 0, 34, 69, 0, 0, 36, 0, 46, 35, 75, 9, 7, 80, 33
|2, 47, 54, 0, 33, 0, 0, 51, 0, 0, 0, 16, 0, 70, 0, 80, 60, 0, 0, 0, 76, 32, 77, 44, 42, 25, 0, 14, 10, 13, 11, 0, 34, 0, 63, 39, 48, 55, 28, 5, 0, 30, 61, 67, 62, 4, 0, 12, 0, 0, 24, 43, 52, 38, 0, 0, 0, 58, 23, 35, 17, 0, 74, 0, 19, 0, 7, 3, 0, 0, 56, 53, 0, 50, 29, 40, 0, 18, 64, 46, 0
|53, 0, 0, 0, 0, 24, 0, 23, 0, 54, 39, 0, 40, 31, 29, 0, 49, 21, 14, 48, 45, 79, 20, 61, 35, 16, 0, 0, 77, 75, 62, 81, 17, 2, 58, 0, 0, 0, 0, 0, 8, 37, 0, 11, 9, 56, 0, 0, 50, 76, 30, 0, 10, 0, 46, 41, 0, 4, 51, 3, 26, 59, 60, 15, 78, 52, 80, 6, 12, 0, 64, 63, 25, 44, 42, 57, 28, 0, 34, 0, 70
|70, 21, 42, 4, 0, 0, 45, 37, 46, 11, 0, 38, 67, 47, 34, 58, 2, 68, 0, 0, 62, 0, 0, 0, 0, 75, 6, 0, 65, 0, 35, 7, 78, 0, 22, 50, 24, 52, 40, 0, 56, 71, 32, 25, 76, 57, 0, 41, 81, 23, 0, 3, 55, 0, 5, 64, 44, 72, 43, 0, 9, 12, 18, 51, 28, 30, 77, 59, 0, 0, 73, 17, 0, 0, 0, 16, 0, 0, 15, 19, 10
|0, 0, 0, 9, 0, 27, 17, 28, 0, 65, 43, 62, 0, 0, 25, 8, 64, 56, 0, 19, 10, 30, 0, 0, 26, 0, 71, 16, 0, 0, 6, 69, 3, 40, 0, 55, 49, 75, 42, 70, 34, 77, 80, 0, 35, 13, 20, 74, 1, 0, 72, 21, 7, 18, 0, 0, 0, 11, 0, 53, 0, 32, 0, 36, 54, 46, 61, 0, 0, 29, 0, 0, 76, 14, 0, 81, 5, 0, 73, 45, 0
|35, 6, 22, 73, 0, 0, 74, 77, 62, 0, 0, 23, 57, 3, 0, 75, 79, 76, 0, 68, 5, 0, 81, 40, 43, 46, 28, 36, 0, 37, 19, 64, 0, 15, 0, 32, 0, 78, 0, 17, 33, 41, 7, 0, 66, 70, 0, 54, 42, 0, 39, 0, 0, 0, 0, 71, 50, 80, 0, 2, 0, 0, 45, 48, 55, 72, 60, 20, 65, 0, 25, 0, 47, 63, 53, 0, 0, 67, 0, 8, 12
|55, 0, 0, 0, 7, 18, 39, 0, 80, 61, 32, 26, 53, 52, 73, 45, 15, 0, 0, 0, 41, 50, 47, 4, 23, 0, 51, 12, 72, 0, 0, 5, 21, 0, 0, 54, 10, 0, 59, 6, 0, 20, 65, 60, 81, 0, 0, 2, 0, 0, 68, 64, 46, 8, 0, 76, 77, 70, 0, 13, 0, 62, 28, 57, 58, 71, 37, 24, 9, 16, 22, 1, 0, 48, 49, 17, 30, 0, 0, 75, 74
|10, 11, 0, 78, 0, 75, 49, 0, 56, 0, 59, 0, 19, 0, 46, 13, 14, 30, 17, 0, 70, 72, 0, 18, 0, 67, 65, 20, 51, 53, 73, 1, 8, 0, 4, 52, 16, 0, 43, 58, 0, 29, 0, 0, 50, 0, 77, 33, 44, 22, 34, 0, 32, 37, 54, 47, 42, 0, 0, 25, 15, 0, 66, 26, 0, 45, 0, 0, 69, 76, 5, 0, 9, 38, 0, 2, 3, 24, 61, 36, 27
|69, 0, 30, 3, 52, 0, 0, 65, 0, 0, 4, 0, 71, 77, 5, 0, 48, 72, 58, 0, 60, 0, 53, 0, 15, 54, 12, 0, 9, 42, 0, 46, 68, 57, 76, 0, 44, 0, 2, 14, 45, 0, 0, 0, 63, 80, 79, 17, 0, 35, 51, 0, 75, 0, 0, 0, 81, 0, 19, 67, 21, 29, 33, 0, 8, 34, 0, 0, 0, 74, 0, 32, 62, 26, 22, 78, 0, 0, 0, 41, 55
|81, 59, 29, 0, 57, 0, 12, 76, 72, 0, 10, 17, 0, 41, 33, 50, 63, 9, 0, 64, 0, 8, 52, 73, 0, 22, 78, 43, 0, 0, 47, 28, 60, 0, 0, 25, 0, 26, 46, 0, 36, 74, 51, 53, 15, 58, 5, 0, 45, 71, 0, 62, 40, 0, 69, 27, 75, 1, 20, 0, 61, 34, 37, 18, 14, 0, 0, 2, 79, 44, 42, 39, 77, 0, 7, 0, 65, 32, 21, 0, 68
|40, 7, 41, 6, 0, 65, 30, 47, 0, 34, 0, 43, 23, 2, 37, 0, 0, 73, 0, 0, 15, 55, 27, 60, 54, 63, 46, 53, 61, 16, 0, 12, 67, 0, 14, 0, 0, 62, 50, 75, 39, 0, 4, 33, 0, 31, 81, 22, 71, 25, 11, 0, 3, 0, 0, 68, 0, 49, 17, 26, 29, 69, 77, 64, 0, 13, 52, 72, 76, 19, 48, 0, 5, 9, 44, 36, 0, 0, 0, 10, 59
|13, 2, 0, 24, 0, 50, 0, 1, 12, 71, 54, 49, 72, 0, 42, 0, 59, 0, 0, 69, 53, 0, 0, 58, 0, 0, 30, 0, 0, 10, 66, 56, 18, 5, 19, 35, 51, 32, 60, 61, 37, 26, 29, 74, 68, 0, 80, 64, 0, 17, 67, 52, 57, 39, 38, 11, 48, 28, 36, 0, 62, 15, 31, 0, 45, 0, 0, 27, 0, 0, 40, 0, 3, 34, 41, 73, 33, 78, 47, 65, 23
|0, 77, 0, 0, 0, 55, 64, 57, 10, 0, 62, 80, 68, 0, 53, 0, 38, 29, 1, 40, 18, 47, 0, 26, 65, 6, 0, 52, 58, 81, 46, 71, 45, 0, 0, 31, 14, 15, 0, 9, 7, 28, 44, 0, 0, 50, 0, 60, 27, 66, 0, 70, 51, 48, 73, 0, 35, 78, 67, 79, 16, 23, 4, 0, 75, 69, 11, 8, 5, 3, 0, 12, 2, 19, 56, 32, 76, 0, 63, 0, 0
|14, 29, 52, 0, 75, 22, 0, 11, 59, 21, 3, 32, 0, 69, 65, 63, 19, 0, 7, 72, 33, 0, 0, 0, 0, 2, 4, 0, 0, 77, 23, 0, 54, 76, 30, 0, 55, 47, 18, 81, 80, 0, 38, 35, 10, 26, 78, 73, 0, 0, 0, 61, 42, 58, 27, 40, 0, 0, 41, 0, 37, 44, 13, 74, 51, 0, 39, 17, 60, 0, 53, 0, 8, 0, 0, 71, 0, 25, 0, 0, 50
|60, 18, 36, 0, 5, 0, 16, 45, 48, 7, 76, 67, 0, 0, 14, 61, 66, 44, 0, 0, 0, 22, 42, 41, 50, 52, 74, 0, 39, 0, 63, 43, 32, 34, 0, 62, 0, 23, 0, 0, 0, 11, 0, 17, 0, 0, 0, 0, 55, 24, 54, 0, 0, 12, 6, 10, 0, 59, 0, 81, 30, 0, 9, 68, 0, 80, 0, 28, 0, 0, 77, 46, 0, 0, 0, 20, 49, 0, 75, 31, 21
|0, 19, 0, 0, 58, 0, 0, 70, 78, 77, 27, 48, 81, 0, 0, 26, 40, 10, 5, 29, 64, 0, 71, 3, 79, 0, 67, 11, 13, 0, 24, 50, 0, 55, 0, 0, 0, 57, 16, 8, 6, 0, 49, 76, 0, 41, 44, 63, 62, 75, 0, 0, 9, 0, 72, 42, 34, 2, 0, 0, 0, 54, 7, 23, 0, 35, 4, 38, 0, 0, 32, 59, 0, 0, 12, 1, 0, 0, 0, 14, 46
|63, 0, 0, 38, 35, 3, 0, 49, 0, 39, 55, 0, 47, 0, 0, 4, 20, 18, 62, 61, 0, 11, 14, 48, 0, 45, 23, 0, 79, 68, 15, 74, 9, 72, 0, 0, 0, 0, 67, 0, 12, 34, 52, 36, 0, 59, 0, 46, 16, 0, 43, 77, 37, 53, 25, 75, 22, 0, 0, 0, 80, 33, 76, 0, 0, 57, 30, 71, 0, 0, 29, 50, 70, 13, 54, 0, 81, 64, 17, 0, 0
|39, 32, 81, 0, 68, 0, 53, 0, 67, 24, 52, 60, 78, 12, 13, 64, 0, 1, 35, 73, 17, 59, 75, 76, 66, 56, 70, 2, 26, 0, 0, 42, 28, 27, 25, 6, 0, 46, 54, 40, 69, 43, 22, 0, 48, 23, 19, 8, 0, 0, 65, 15, 38, 74, 63, 51, 18, 0, 55, 5, 14, 57, 47, 0, 10, 9, 0, 37, 0, 31, 0, 61, 11, 7, 80, 0, 0, 30, 0, 0, 4
|23, 0, 28, 44, 31, 0, 42, 46, 0, 75, 58, 11, 15, 56, 51, 6, 0, 17, 0, 0, 13, 37, 49, 9, 81, 0, 80, 69, 0, 73, 59, 3, 20, 0, 40, 0, 25, 66, 0, 27, 79, 1, 63, 77, 64, 2, 30, 29, 0, 10, 14, 5, 45, 47, 0, 52, 61, 0, 0, 0, 70, 53, 32, 41, 0, 43, 33, 65, 16, 54, 21, 26, 67, 72, 48, 0, 39, 0, 18, 24, 0|];