order = 9;
grid = [|0, 20, 0, 0, 48, 43, 0, 0, 0, 0, 80, 17, 0, 42, 78, 81, 74, 73, 36, 57, 0, 33, 0, 56, 23, 0, 75, 0, 16, 28, 0, 79, 21, 35, 9, 3, 32, 1, 34, 50, 65, 0, 0, 0, 38, 29, 51, 8, 26, 0, 25, 0, 44, 0, 13, 11, 30, 19, 22, 0, 12, 53, 0, 0, 0, 66, 31, 27, 0, 37, 46, 0, 63, 0, 0, 2, 0, 70, 0, 0, 4
|0, 0, 32, 0, 15, 63, 66, 40, 52, 34, 37, 5, 9, 28, 64, 4, 0, 0, 49, 0, 41, 0, 44, 0, 55, 0, 73, 0, 47, 20, 0, 45, 75, 0, 29, 76, 31, 3, 0, 74, 56, 80, 69, 16, 0, 62, 0, 54, 1, 0, 77, 6, 0, 13, 65, 60, 48, 61, 0, 81, 0, 39, 0, 0, 71, 18, 78, 8, 51, 0, 0, 70, 30, 42, 0, 0, 33, 27, 21, 0, 72
|51, 9, 70, 58, 2, 0, 0, 64, 0, 0, 0, 20, 3, 63, 52, 0, 21, 0, 0, 59, 71, 81, 34, 48, 68, 38, 5, 7, 77, 60, 0, 22, 78, 0, 14, 25, 0, 33, 0, 35, 4, 0, 44, 72, 23, 0, 45, 0, 15, 37, 40, 76, 79, 0, 0, 8, 0, 66, 47, 18, 0, 43, 0, 13, 0, 42, 28, 16, 54, 30, 19, 61, 0, 57, 29, 24, 36, 0, 0, 0, 0
|30, 79, 59, 68, 38, 44, 39, 0, 0, 49, 53, 0, 0, 19, 16, 0, 0, 61, 4, 67, 29, 25, 51, 0, 65, 74, 70, 37, 40, 33, 50, 0, 12, 10, 41, 56, 0, 21, 0, 57, 55, 28, 36, 0, 0, 0, 0, 0, 23, 0, 5, 9, 17, 75, 0, 71, 77, 26, 42, 20, 78, 62, 54, 0, 73, 1, 0, 69, 34, 7, 0, 76, 52, 64, 46, 15, 13, 35, 80, 32, 0
|18, 41, 33, 74, 27, 0, 49, 62, 0, 38, 31, 30, 29, 76, 71, 23, 0, 0, 54, 77, 1, 21, 0, 53, 0, 0, 28, 0, 0, 0, 0, 0, 19, 64, 0, 5, 0, 60, 0, 0, 17, 12, 0, 0, 0, 80, 0, 0, 20, 61, 0, 0, 3, 32, 36, 2, 9, 16, 51, 73, 75, 0, 0, 45, 10, 0, 47, 65, 0, 59, 0, 39, 37, 56, 58, 6, 48, 0, 0, 7, 14
|80, 47, 77, 69, 4, 56, 19, 0, 73, 67, 60, 0, 51, 44, 24, 15, 26, 65, 0, 42, 72, 0, 18, 0, 0, 11, 0, 63, 1, 53, 0, 0, 66, 30, 0, 0, 54, 41, 7, 13, 25, 78, 10, 62, 0, 12, 16, 0, 28, 0, 0, 39, 68, 43, 0, 49, 55, 59, 57, 34, 35, 0, 27, 0, 38, 0, 2, 0, 48, 0, 40, 0, 0, 5, 0, 81, 0, 0, 75, 71, 61
|8, 13, 16, 60, 37, 50, 28, 5, 42, 0, 59, 40, 36, 54, 10, 0, 69, 72, 7, 78, 47, 0, 14, 52, 66, 35, 20, 81, 11, 65, 0, 49, 15, 26, 57, 0, 77, 61, 39, 0, 0, 0, 0, 70, 0, 2, 63, 27, 21, 22, 56, 0, 0, 18, 29, 80, 0, 0, 0, 41, 76, 17, 0, 0, 12, 79, 32, 0, 74, 67, 64, 33, 0, 3, 25, 51, 0, 0, 73, 34, 19
|0, 57, 0, 17, 0, 0, 65, 61, 72, 56, 0, 14, 77, 45, 1, 0, 0, 22, 8, 0, 37, 19, 16, 0, 76, 40, 12, 38, 36, 27, 51, 0, 0, 0, 4, 59, 24, 46, 66, 47, 0, 0, 30, 58, 64, 55, 0, 41, 35, 71, 0, 52, 33, 42, 74, 28, 21, 69, 15, 0, 79, 31, 50, 62, 80, 3, 0, 0, 0, 5, 0, 25, 0, 0, 0, 0, 78, 0, 0, 44, 53
|21, 0, 11, 78, 76, 1, 53, 25, 7, 79, 0, 0, 33, 0, 18, 0, 57, 46, 63, 0, 69, 0, 64, 80, 27, 0, 9, 70, 39, 48, 0, 42, 68, 54, 61, 0, 45, 29, 0, 43, 59, 51, 2, 37, 8, 36, 0, 10, 0, 67, 0, 60, 81, 34, 6, 52, 0, 14, 0, 56, 38, 24, 3, 0, 26, 0, 22, 17, 15, 41, 35, 23, 28, 12, 74, 16, 40, 65, 49, 50, 77
|46, 53, 26, 3, 0, 0, 62, 0, 4, 24, 49, 75, 0, 2, 69, 0, 0, 0, 77, 5, 0, 58, 27, 43, 81, 45, 0, 36, 72, 18, 0, 14, 80, 0, 76, 29, 0, 35, 0, 12, 22, 21, 0, 55, 1, 0, 47, 0, 0, 15, 0, 0, 0, 0, 60, 0, 57, 0, 40, 0, 0, 19, 30, 33, 0, 13, 56, 0, 31, 39, 0, 6, 54, 25, 64, 37, 63, 68, 34, 67, 0
|19, 0, 40, 14, 0, 42, 0, 0, 33, 73, 21, 15, 80, 5, 0, 50, 66, 4, 28, 0, 17, 10, 70, 0, 49, 0, 69, 20, 55, 22, 35, 57, 81, 52, 0, 38, 61, 27, 0, 45, 32, 41, 59, 47, 79, 71, 48, 36, 0, 0, 29, 0, 65, 60, 0, 0, 7, 31, 78, 76, 0, 0, 0, 0, 67, 2, 0, 23, 12, 0, 34, 58, 0, 0, 26, 9, 0, 74, 0, 77, 16
|0, 61, 0, 25, 12, 72, 64, 59, 0, 0, 10, 57, 62, 27, 38, 51, 32, 3, 0, 60, 46, 34, 52, 0, 35, 2, 0, 0, 0, 1, 41, 47, 40, 0, 0, 13, 48, 77, 42, 16, 0, 50, 49, 67, 0, 0, 44, 74, 0, 24, 45, 69, 54, 4, 22, 0, 37, 0, 63, 0, 58, 71, 5, 36, 55, 26, 0, 19, 65, 0, 66, 11, 81, 15, 0, 0, 0, 56, 0, 0, 23
|0, 0, 31, 0, 0, 77, 76, 0, 0, 0, 1, 59, 6, 58, 30, 65, 0, 0, 44, 48, 8, 66, 25, 0, 36, 21, 33, 43, 19, 74, 2, 37, 0, 0, 0, 0, 69, 0, 18, 46, 0, 62, 0, 60, 71, 53, 0, 0, 75, 0, 42, 26, 14, 0, 79, 81, 10, 67, 29, 49, 0, 0, 24, 0, 64, 7, 72, 54, 40, 0, 73, 22, 50, 61, 32, 78, 5, 39, 4, 35, 0
|35, 68, 0, 21, 6, 52, 57, 0, 5, 39, 36, 18, 47, 79, 0, 0, 0, 74, 15, 0, 32, 13, 0, 24, 75, 0, 78, 48, 0, 77, 10, 64, 0, 0, 33, 51, 9, 70, 23, 34, 7, 0, 0, 38, 0, 43, 81, 22, 50, 19, 67, 0, 59, 0, 25, 0, 12, 56, 45, 53, 4, 54, 62, 37, 49, 14, 76, 80, 16, 63, 69, 17, 20, 2, 0, 66, 0, 0, 27, 29, 46
|0, 71, 74, 24, 0, 58, 2, 66, 49, 46, 0, 0, 0, 0, 55, 0, 34, 76, 0, 0, 62, 64, 6, 54, 37, 41, 19, 0, 79, 61, 63, 73, 11, 39, 68, 12, 57, 0, 29, 26, 53, 14, 75, 0, 80, 13, 25, 3, 17, 70, 32, 0, 56, 30, 16, 47, 8, 0, 21, 33, 69, 9, 65, 81, 0, 0, 0, 77, 4, 18, 27, 45, 36, 38, 10, 0, 59, 1, 42, 40, 0
|78, 27, 51, 0, 11, 0, 60, 0, 75, 54, 81, 53, 37, 16, 28, 14, 63, 0, 0, 0, 0, 67, 50, 30, 9, 0, 0, 69, 46, 5, 26, 56, 71, 59, 24, 70, 19, 44, 6, 33, 0, 36, 72, 20, 25, 76, 39, 35, 61, 77, 52, 64, 34, 21, 3, 0, 43, 41, 66, 38, 48, 0, 0, 15, 74, 47, 0, 0, 1, 0, 32, 8, 49, 7, 12, 22, 0, 73, 58, 18, 0
|45, 34, 8, 10, 73, 69, 54, 0, 48, 0, 13, 68, 67, 7, 0, 0, 25, 41, 20, 0, 0, 59, 26, 22, 0, 1, 39, 15, 50, 17, 42, 75, 9, 31, 23, 0, 4, 76, 63, 64, 51, 81, 66, 0, 0, 0, 58, 79, 33, 0, 2, 0, 37, 16, 18, 0, 32, 74, 28, 0, 27, 55, 36, 53, 0, 0, 0, 24, 3, 38, 29, 46, 0, 43, 60, 65, 52, 0, 0, 70, 57
|0, 36, 67, 0, 7, 79, 1, 18, 9, 8, 78, 64, 71, 31, 22, 52, 60, 0, 14, 63, 56, 47, 40, 0, 16, 0, 0, 53, 32, 58, 0, 25, 34, 4, 0, 66, 37, 54, 10, 0, 68, 0, 13, 43, 17, 5, 49, 57, 73, 0, 0, 20, 0, 0, 80, 70, 0, 35, 0, 50, 11, 23, 26, 0, 0, 75, 0, 41, 0, 51, 0, 28, 45, 69, 55, 33, 0, 21, 0, 24, 30
|66, 23, 75, 48, 30, 0, 25, 0, 64, 40, 57, 21, 61, 0, 31, 0, 0, 68, 0, 80, 9, 0, 0, 0, 0, 59, 44, 13, 0, 63, 0, 53, 0, 17, 0, 45, 7, 0, 0, 0, 0, 10, 60, 0, 0, 65, 0, 33, 0, 51, 18, 14, 24, 62, 0, 74, 54, 76, 46, 11, 0, 32, 29, 0, 0, 8, 0, 1, 36, 26, 41, 0, 22, 58, 0, 27, 0, 77, 0, 52, 78
|71, 43, 1, 0, 53, 3, 32, 51, 44, 47, 63, 0, 66, 46, 0, 42, 0, 10, 56, 70, 52, 76, 57, 21, 73, 0, 81, 12, 0, 0, 79, 65, 35, 33, 0, 64, 0, 62, 0, 17, 11, 8, 18, 31, 36, 0, 7, 0, 16, 74, 0, 5, 41, 39, 0, 45, 50, 0, 67, 13, 60, 0, 48, 22, 75, 54, 0, 0, 55, 0, 61, 0, 0, 59, 72, 69, 2, 0, 0, 6, 0
|16, 39, 65, 26, 0, 68, 69, 45, 36, 7, 0, 11, 0, 59, 76, 0, 73, 35, 1, 15, 6, 0, 38, 17, 0, 0, 31, 50, 25, 29, 75, 34, 5, 81, 10, 60, 22, 13, 0, 0, 0, 0, 0, 33, 74, 21, 67, 0, 49, 12, 0, 0, 52, 0, 42, 0, 44, 47, 41, 78, 24, 0, 61, 0, 0, 27, 0, 48, 0, 58, 0, 32, 71, 0, 0, 0, 64, 80, 53, 46, 8
|7, 8, 22, 76, 9, 61, 0, 73, 40, 0, 45, 2, 18, 0, 51, 71, 0, 5, 32, 66, 54, 60, 0, 58, 74, 20, 62, 57, 0, 11, 0, 69, 59, 55, 27, 48, 1, 19, 65, 0, 0, 39, 0, 0, 21, 46, 77, 80, 36, 17, 63, 25, 35, 44, 52, 64, 0, 53, 0, 6, 0, 4, 0, 67, 0, 31, 29, 0, 70, 0, 0, 0, 0, 68, 0, 50, 28, 0, 14, 10, 0
|29, 0, 0, 0, 47, 21, 55, 33, 59, 52, 19, 0, 60, 0, 81, 49, 6, 77, 65, 0, 0, 27, 0, 72, 11, 36, 0, 0, 2, 67, 66, 68, 41, 74, 42, 26, 28, 64, 0, 32, 0, 35, 0, 0, 0, 73, 30, 31, 40, 76, 13, 78, 0, 0, 0, 22, 0, 0, 3, 0, 0, 10, 39, 0, 0, 71, 20, 50, 69, 79, 0, 0, 43, 1, 0, 44, 18, 0, 51, 0, 54
|12, 24, 37, 70, 63, 5, 0, 0, 0, 22, 33, 50, 0, 36, 3, 27, 1, 15, 42, 0, 0, 40, 8, 61, 0, 16, 14, 4, 0, 54, 0, 23, 76, 58, 0, 77, 55, 81, 0, 2, 66, 25, 46, 0, 0, 0, 0, 26, 0, 60, 34, 32, 29, 68, 62, 31, 56, 20, 0, 17, 28, 38, 59, 57, 18, 21, 39, 0, 13, 64, 0, 47, 0, 0, 65, 35, 73, 0, 48, 49, 9
|20, 0, 52, 49, 0, 15, 67, 27, 77, 13, 74, 24, 4, 8, 32, 0, 65, 0, 47, 64, 43, 0, 63, 39, 0, 0, 0, 0, 31, 0, 0, 62, 61, 21, 30, 73, 51, 50, 57, 79, 0, 16, 38, 26, 34, 9, 0, 56, 0, 59, 0, 42, 11, 55, 0, 58, 18, 81, 14, 25, 36, 37, 2, 35, 6, 33, 0, 0, 17, 0, 44, 0, 7, 75, 40, 70, 0, 41, 45, 0, 0
|28, 17, 72, 50, 19, 0, 18, 2, 0, 69, 0, 0, 0, 41, 48, 0, 70, 67, 34, 71, 10, 5, 33, 0, 26, 37, 24, 16, 0, 38, 43, 9, 56, 0, 0, 40, 53, 12, 76, 6, 80, 30, 54, 0, 52, 47, 8, 0, 45, 58, 57, 27, 0, 0, 1, 21, 49, 0, 23, 51, 0, 35, 68, 0, 78, 25, 7, 0, 11, 73, 4, 65, 0, 13, 36, 55, 60, 42, 0, 31, 81
|10, 6, 58, 38, 42, 57, 31, 74, 56, 12, 64, 0, 34, 62, 54, 39, 16, 78, 0, 0, 22, 79, 35, 13, 41, 29, 2, 1, 24, 37, 7, 0, 14, 44, 18, 28, 63, 20, 48, 49, 77, 27, 47, 45, 0, 75, 69, 0, 70, 0, 53, 0, 0, 0, 33, 55, 19, 9, 71, 65, 0, 40, 73, 60, 66, 76, 68, 0, 30, 0, 52, 51, 11, 0, 15, 61, 32, 4, 0, 0, 26
|33, 58, 3, 47, 0, 8, 4, 60, 10, 0, 0, 51, 0, 69, 0, 0, 0, 20, 13, 29, 74, 0, 0, 76, 15, 0, 1, 45, 0, 2, 0, 16, 22, 19, 38, 62, 12, 0, 36, 72, 34, 73, 0, 71, 11, 44, 54, 81, 0, 0, 21, 0, 0, 53, 0, 43, 24, 55, 30, 42, 68, 56, 6, 49, 0, 78, 0, 35, 26, 65, 0, 0, 77, 31, 37, 75, 0, 0, 25, 41, 0
|24, 1, 23, 5, 36, 75, 40, 19, 0, 35, 62, 0, 74, 65, 25, 0, 0, 0, 79, 0, 80, 0, 0, 41, 38, 3, 0, 0, 43, 44, 78, 4, 0, 0, 0, 81, 21, 57, 67, 0, 0, 0, 0, 8, 0, 56, 70, 39, 7, 55, 14, 0, 0, 0, 0, 0, 0, 64, 48, 10, 0, 0, 76, 47, 0, 0, 60, 58, 59, 0, 0, 69, 0, 0, 9, 12, 45, 16, 0, 51, 0
|0, 0, 46, 0, 35, 37, 0, 20, 0, 29, 0, 0, 38, 81, 41, 64, 0, 2, 71, 0, 16, 63, 65, 73, 0, 0, 77, 58, 34, 66, 0, 27, 24, 40, 3, 0, 0, 4, 0, 25, 19, 76, 28, 0, 50, 59, 61, 67, 18, 0, 36, 80, 1, 0, 31, 0, 51, 44, 0, 39, 0, 79, 69, 56, 33, 74, 0, 12, 72, 54, 7, 30, 0, 0, 0, 8, 49, 57, 15, 42, 47
|25, 0, 18, 16, 66, 0, 0, 68, 21, 63, 0, 9, 0, 26, 77, 0, 0, 0, 43, 30, 55, 44, 0, 42, 46, 61, 53, 0, 37, 73, 12, 0, 32, 57, 17, 0, 78, 0, 0, 31, 39, 0, 0, 5, 49, 0, 38, 62, 64, 8, 58, 10, 75, 11, 0, 0, 70, 13, 0, 0, 7, 28, 23, 6, 0, 0, 3, 81, 67, 0, 1, 0, 2, 0, 52, 36, 79, 0, 71, 59, 56
|0, 63, 0, 0, 0, 11, 80, 32, 34, 53, 71, 0, 58, 56, 7, 21, 40, 57, 0, 26, 28, 24, 66, 47, 17, 72, 0, 76, 51, 0, 1, 33, 0, 42, 20, 0, 29, 0, 0, 0, 0, 45, 0, 23, 77, 30, 0, 4, 60, 2, 69, 13, 0, 78, 41, 3, 67, 75, 9, 0, 0, 0, 81, 0, 36, 19, 14, 55, 44, 46, 79, 0, 64, 70, 48, 0, 0, 0, 0, 61, 5
|73, 55, 0, 15, 0, 0, 0, 0, 14, 32, 79, 0, 0, 1, 36, 3, 0, 0, 10, 0, 0, 35, 59, 78, 62, 0, 51, 0, 54, 0, 0, 0, 67, 0, 64, 0, 81, 0, 9, 30, 48, 38, 61, 74, 65, 0, 41, 76, 0, 0, 0, 47, 0, 71, 57, 0, 11, 0, 0, 60, 0, 0, 20, 0, 17, 24, 77, 0, 27, 31, 25, 0, 18, 4, 13, 46, 53, 0, 44, 58, 69
|41, 31, 2, 43, 77, 51, 17, 9, 0, 48, 0, 13, 46, 11, 4, 0, 10, 18, 19, 6, 64, 0, 60, 0, 67, 0, 54, 0, 59, 14, 5, 0, 0, 23, 15, 0, 56, 0, 35, 68, 1, 44, 52, 0, 0, 79, 27, 0, 0, 0, 20, 24, 12, 29, 0, 33, 71, 32, 16, 63, 65, 0, 80, 50, 0, 40, 0, 21, 0, 70, 22, 57, 0, 55, 3, 62, 0, 0, 81, 39, 74
|13, 28, 76, 0, 81, 30, 0, 69, 0, 66, 0, 23, 24, 0, 19, 54, 50, 0, 12, 18, 0, 0, 31, 0, 0, 56, 0, 0, 26, 47, 48, 41, 10, 79, 55, 0, 0, 6, 51, 0, 27, 0, 64, 53, 3, 42, 65, 0, 5, 68, 33, 0, 0, 40, 14, 0, 52, 25, 58, 0, 49, 0, 0, 34, 0, 80, 37, 62, 39, 43, 11, 71, 0, 35, 67, 1, 20, 60, 0, 63, 21
|67, 65, 54, 0, 79, 71, 61, 0, 0, 0, 0, 8, 43, 37, 59, 45, 0, 44, 0, 0, 40, 23, 39, 20, 0, 52, 34, 6, 56, 50, 0, 77, 46, 70, 7, 35, 16, 69, 55, 63, 47, 33, 58, 0, 18, 32, 9, 48, 22, 25, 0, 3, 19, 49, 0, 4, 0, 2, 53, 21, 66, 12, 1, 10, 68, 0, 75, 42, 64, 15, 0, 73, 24, 0, 0, 17, 80, 72, 11, 0, 29
|0, 60, 0, 51, 52, 27, 0, 8, 24, 18, 0, 16, 59, 34, 63, 67, 0, 0, 0, 41, 0, 0, 0, 1, 47, 0, 0, 0, 9, 36, 0, 0, 7, 48, 0, 19, 38, 22, 0, 58, 29, 3, 39, 15, 42, 0, 50, 0, 0, 0, 0, 4, 0, 0, 2, 76, 78, 37, 0, 80, 0, 13, 17, 12, 61, 77, 0, 72, 6, 71, 26, 74, 0, 65, 0, 0, 54, 40, 0, 79, 45
|0, 0, 0, 42, 0, 55, 6, 12, 0, 21, 41, 72, 0, 0, 15, 0, 28, 33, 40, 34, 68, 4, 0, 71, 44, 0, 45, 31, 18, 43, 0, 46, 50, 37, 78, 0, 0, 16, 60, 62, 2, 1, 17, 0, 63, 8, 0, 70, 0, 47, 65, 79, 27, 73, 66, 0, 0, 29, 10, 54, 0, 36, 14, 0, 0, 0, 38, 49, 7, 0, 0, 35, 53, 0, 23, 59, 26, 3, 77, 64, 76
|56, 46, 29, 0, 0, 20, 0, 7, 0, 78, 54, 0, 79, 71, 53, 9, 5, 81, 0, 32, 21, 12, 76, 67, 77, 0, 72, 74, 0, 8, 23, 61, 25, 14, 47, 30, 70, 0, 26, 19, 0, 52, 35, 13, 68, 0, 0, 0, 42, 44, 39, 0, 40, 0, 59, 0, 6, 11, 73, 55, 50, 58, 41, 48, 15, 17, 51, 0, 66, 0, 31, 75, 1, 80, 16, 0, 0, 34, 0, 27, 43
|2, 0, 73, 1, 0, 76, 77, 0, 69, 31, 26, 0, 32, 24, 27, 57, 0, 0, 74, 0, 0, 70, 0, 0, 3, 25, 38, 62, 58, 16, 53, 71, 42, 51, 0, 54, 0, 0, 28, 59, 18, 48, 40, 79, 0, 19, 13, 6, 14, 0, 41, 0, 0, 64, 0, 65, 0, 4, 0, 12, 0, 0, 52, 30, 60, 34, 21, 29, 0, 0, 68, 0, 17, 9, 5, 7, 47, 0, 0, 0, 39
|72, 66, 25, 30, 49, 34, 68, 11, 50, 2, 58, 19, 45, 0, 0, 0, 52, 38, 69, 17, 0, 57, 42, 75, 13, 31, 0, 55, 70, 24, 33, 40, 26, 1, 79, 65, 0, 0, 0, 36, 0, 61, 6, 7, 44, 0, 0, 0, 53, 9, 0, 28, 67, 54, 0, 0, 63, 5, 0, 0, 15, 0, 0, 32, 39, 56, 81, 0, 0, 3, 76, 20, 41, 62, 51, 29, 8, 12, 18, 0, 60
|4, 37, 0, 40, 28, 0, 15, 70, 35, 61, 0, 77, 49, 64, 8, 10, 76, 50, 22, 0, 5, 6, 23, 2, 39, 7, 0, 75, 0, 3, 0, 66, 0, 0, 52, 17, 33, 55, 80, 0, 24, 0, 31, 32, 0, 57, 11, 16, 38, 26, 0, 0, 0, 0, 44, 0, 0, 60, 72, 68, 0, 81, 42, 1, 0, 0, 0, 18, 14, 0, 0, 62, 0, 74, 0, 30, 58, 0, 20, 56, 25
|57, 14, 0, 62, 0, 0, 0, 17, 58, 36, 3, 73, 13, 66, 0, 47, 68, 0, 0, 10, 0, 80, 0, 0, 0, 28, 79, 59, 0, 45, 29, 0, 39, 69, 5, 15, 67, 0, 25, 27, 8, 0, 20, 0, 53, 0, 12, 0, 0, 75, 7, 72, 21, 0, 26, 0, 0, 0, 24, 0, 0, 0, 51, 42, 19, 9, 16, 63, 78, 0, 2, 54, 0, 71, 22, 11, 38, 33, 0, 0, 6
|0, 16, 0, 22, 0, 48, 81, 21, 0, 62, 65, 43, 0, 25, 0, 75, 20, 51, 9, 27, 18, 26, 24, 0, 59, 8, 0, 0, 13, 76, 38, 0, 0, 6, 77, 80, 0, 49, 64, 14, 69, 11, 78, 66, 0, 0, 74, 29, 0, 0, 37, 17, 0, 63, 45, 0, 34, 39, 0, 0, 0, 47, 35, 5, 23, 58, 0, 0, 52, 0, 53, 44, 72, 46, 42, 32, 15, 0, 55, 19, 28
|0, 59, 0, 13, 74, 0, 9, 0, 63, 42, 0, 55, 0, 40, 0, 0, 0, 37, 78, 0, 19, 50, 56, 0, 20, 51, 60, 10, 0, 0, 0, 44, 2, 27, 22, 72, 23, 30, 41, 77, 12, 43, 71, 57, 54, 18, 0, 58, 0, 5, 76, 68, 15, 52, 28, 48, 33, 1, 38, 7, 3, 0, 25, 0, 8, 46, 4, 11, 73, 0, 0, 79, 0, 0, 61, 14, 70, 0, 35, 81, 0
|61, 0, 6, 32, 67, 0, 75, 56, 0, 51, 0, 34, 0, 9, 0, 0, 62, 52, 0, 23, 57, 73, 47, 0, 14, 39, 0, 30, 68, 64, 76, 48, 0, 43, 70, 0, 0, 0, 12, 0, 0, 0, 16, 49, 13, 11, 17, 38, 65, 41, 0, 8, 28, 0, 21, 50, 0, 33, 37, 0, 42, 80, 63, 0, 0, 0, 0, 0, 5, 35, 0, 81, 0, 18, 0, 10, 77, 26, 24, 0, 71
|77, 3, 0, 0, 31, 41, 0, 0, 0, 80, 35, 76, 57, 0, 44, 56, 13, 64, 0, 81, 0, 16, 22, 62, 61, 67, 58, 71, 0, 0, 0, 0, 72, 0, 0, 7, 52, 9, 70, 0, 0, 66, 5, 0, 24, 0, 29, 43, 79, 39, 0, 74, 20, 36, 8, 54, 45, 34, 69, 27, 0, 75, 0, 68, 0, 37, 65, 0, 0, 0, 0, 0, 23, 51, 1, 0, 21, 0, 0, 33, 0
|11, 5, 48, 0, 51, 24, 22, 0, 23, 0, 0, 42, 0, 29, 37, 16, 0, 26, 21, 20, 75, 54, 0, 74, 0, 27, 59, 60, 38, 40, 81, 0, 47, 25, 80, 33, 36, 31, 0, 61, 35, 0, 34, 19, 41, 50, 15, 52, 12, 14, 3, 18, 0, 0, 0, 30, 68, 28, 0, 0, 32, 6, 53, 0, 43, 0, 0, 64, 49, 66, 0, 77, 76, 67, 57, 79, 0, 0, 0, 13, 0
|9, 18, 57, 73, 68, 17, 0, 76, 0, 77, 24, 0, 31, 53, 20, 79, 0, 60, 48, 38, 0, 0, 0, 46, 29, 0, 50, 0, 65, 42, 67, 78, 0, 61, 36, 0, 0, 10, 1, 8, 30, 0, 62, 0, 0, 69, 66, 0, 13, 34, 19, 22, 63, 0, 70, 25, 0, 40, 55, 44, 0, 0, 64, 14, 0, 0, 58, 3, 0, 33, 28, 15, 0, 32, 4, 45, 72, 0, 7, 0, 52
|54, 0, 66, 81, 43, 0, 47, 52, 60, 41, 15, 7, 1, 39, 5, 0, 8, 21, 0, 33, 79, 0, 13, 45, 34, 19, 71, 2, 0, 23, 14, 55, 62, 0, 31, 58, 0, 25, 0, 65, 50, 59, 0, 64, 57, 67, 26, 68, 77, 53, 44, 37, 76, 56, 73, 9, 29, 12, 35, 0, 51, 48, 22, 46, 69, 63, 10, 30, 80, 11, 16, 24, 61, 6, 17, 74, 42, 36, 38, 0, 0
|0, 21, 0, 80, 0, 39, 36, 0, 2, 30, 11, 6, 12, 0, 75, 59, 67, 0, 0, 51, 0, 0, 1, 68, 53, 66, 52, 77, 69, 13, 74, 10, 3, 0, 56, 46, 71, 17, 0, 18, 20, 54, 55, 22, 0, 40, 62, 0, 0, 0, 35, 0, 0, 25, 0, 0, 0, 57, 49, 43, 14, 5, 19, 76, 7, 4, 0, 61, 50, 8, 38, 29, 31, 0, 0, 34, 81, 0, 0, 0, 0
|69, 0, 64, 28, 40, 35, 16, 79, 0, 10, 0, 66, 65, 3, 46, 22, 0, 27, 60, 44, 25, 0, 80, 9, 0, 4, 43, 0, 41, 12, 8, 0, 0, 20, 53, 1, 6, 37, 0, 48, 0, 74, 14, 21, 51, 0, 0, 73, 54, 32, 61, 75, 7, 0, 76, 0, 47, 36, 13, 0, 0, 0, 78, 0, 31, 0, 45, 0, 56, 0, 0, 34, 15, 0, 0, 63, 0, 50, 0, 0, 0
|0, 45, 0, 0, 65, 7, 29, 0, 55, 0, 48, 74, 28, 47, 0, 72, 19, 69, 0, 35, 76, 15, 0, 0, 18, 6, 40, 0, 0, 57, 52, 0, 37, 75, 59, 34, 43, 63, 77, 53, 23, 0, 27, 0, 56, 0, 24, 1, 2, 30, 31, 71, 51, 5, 61, 10, 17, 38, 4, 3, 46, 0, 0, 0, 0, 67, 13, 73, 20, 0, 12, 0, 62, 39, 8, 54, 22, 78, 0, 60, 0
|1, 0, 12, 53, 13, 62, 34, 26, 30, 23, 70, 33, 68, 38, 43, 61, 0, 58, 0, 37, 65, 0, 77, 7, 69, 10, 8, 19, 0, 0, 45, 54, 79, 73, 0, 63, 46, 0, 32, 42, 76, 60, 11, 39, 81, 72, 0, 9, 80, 0, 0, 16, 49, 57, 15, 66, 31, 0, 0, 71, 59, 52, 0, 75, 48, 6, 0, 0, 22, 0, 18, 27, 3, 0, 35, 41, 56, 25, 5, 14, 2
|14, 0, 13, 29, 44, 0, 0, 0, 0, 16, 46, 71, 54, 15, 50, 0, 75, 0, 5, 28, 20, 1, 0, 4, 19, 48, 30, 22, 33, 79, 9, 21, 0, 7, 45, 78, 34, 58, 49, 37, 0, 32, 0, 77, 0, 26, 0, 0, 63, 52, 11, 2, 80, 3, 0, 53, 41, 65, 0, 61, 57, 42, 72, 23, 47, 12, 35, 36, 24, 0, 74, 31, 68, 27, 38, 0, 25, 64, 0, 8, 59
|0, 11, 79, 77, 8, 0, 0, 31, 61, 27, 30, 39, 21, 0, 13, 80, 0, 55, 45, 0, 70, 46, 0, 0, 0, 0, 0, 0, 62, 81, 0, 76, 64, 66, 48, 0, 20, 72, 68, 5, 0, 65, 0, 9, 28, 35, 60, 0, 78, 0, 75, 0, 69, 23, 4, 14, 59, 17, 0, 24, 52, 0, 0, 71, 34, 41, 42, 56, 0, 25, 0, 38, 0, 44, 0, 0, 51, 53, 0, 0, 3
|58, 33, 30, 0, 32, 10, 0, 0, 19, 74, 77, 48, 2, 0, 62, 36, 0, 59, 53, 79, 78, 0, 0, 63, 21, 0, 65, 0, 0, 0, 15, 17, 54, 56, 0, 20, 76, 0, 27, 69, 41, 18, 3, 6, 0, 34, 1, 12, 0, 4, 72, 0, 0, 66, 46, 23, 38, 43, 44, 28, 0, 0, 31, 52, 57, 81, 11, 22, 0, 61, 45, 0, 5, 0, 24, 0, 37, 7, 40, 55, 42
|39, 25, 34, 63, 3, 64, 52, 81, 80, 44, 0, 28, 0, 70, 0, 0, 29, 0, 58, 13, 23, 75, 9, 14, 10, 54, 37, 24, 53, 72, 31, 2, 55, 50, 8, 61, 0, 26, 0, 0, 33, 0, 74, 0, 40, 0, 43, 18, 71, 65, 0, 0, 16, 20, 32, 7, 22, 6, 60, 0, 0, 0, 0, 77, 5, 51, 0, 0, 68, 69, 30, 0, 78, 45, 21, 76, 4, 48, 41, 0, 67
|74, 42, 60, 20, 55, 38, 0, 1, 0, 0, 18, 0, 0, 0, 0, 76, 3, 63, 72, 52, 51, 0, 67, 0, 24, 77, 32, 40, 57, 0, 19, 28, 27, 34, 0, 6, 8, 0, 0, 75, 0, 15, 0, 17, 43, 7, 0, 44, 39, 0, 48, 53, 61, 0, 81, 0, 25, 21, 50, 45, 16, 30, 9, 0, 58, 0, 62, 13, 0, 80, 14, 10, 46, 36, 2, 56, 0, 69, 66, 54, 35
|0, 76, 0, 7, 46, 28, 0, 16, 0, 58, 0, 38, 11, 68, 23, 0, 0, 8, 33, 39, 50, 0, 2, 27, 6, 12, 0, 0, 63, 0, 0, 0, 0, 65, 25, 52, 64, 14, 31, 51, 44, 42, 57, 54, 0, 49, 36, 55, 24, 0, 22, 56, 13, 45, 0, 26, 35, 62, 0, 19, 34, 69, 66, 40, 3, 0, 15, 53, 43, 0, 20, 78, 70, 0, 81, 0, 0, 0, 9, 0, 0
|62, 2, 4, 45, 0, 53, 0, 71, 57, 65, 9, 1, 78, 52, 0, 25, 0, 34, 61, 55, 0, 74, 43, 11, 0, 22, 66, 0, 0, 70, 37, 58, 69, 0, 46, 68, 0, 48, 56, 80, 0, 13, 0, 0, 0, 64, 0, 5, 0, 0, 79, 0, 0, 0, 75, 0, 40, 10, 27, 77, 0, 0, 15, 7, 63, 72, 33, 6, 8, 0, 49, 0, 0, 0, 50, 47, 29, 17, 0, 20, 18
|37, 78, 27, 0, 24, 0, 43, 48, 68, 57, 72, 61, 0, 6, 47, 60, 0, 0, 64, 0, 26, 18, 36, 34, 0, 0, 0, 51, 0, 80, 16, 0, 38, 12, 73, 41, 2, 11, 46, 66, 52, 63, 53, 0, 22, 0, 32, 21, 59, 81, 62, 0, 8, 14, 0, 67, 20, 58, 79, 5, 29, 76, 0, 55, 4, 39, 0, 75, 19, 0, 0, 1, 0, 77, 0, 13, 71, 15, 0, 23, 33
|0, 22, 35, 66, 5, 6, 70, 65, 0, 81, 20, 69, 19, 33, 79, 41, 0, 53, 76, 0, 0, 29, 0, 25, 60, 17, 0, 39, 14, 75, 30, 0, 0, 0, 44, 0, 59, 45, 4, 21, 0, 23, 7, 0, 55, 58, 31, 77, 27, 40, 51, 50, 0, 0, 68, 78, 0, 54, 12, 8, 80, 73, 71, 64, 46, 32, 67, 28, 18, 48, 0, 9, 26, 72, 0, 57, 16, 61, 52, 0, 63
|53, 10, 0, 67, 75, 2, 0, 57, 32, 1, 5, 0, 35, 30, 0, 7, 64, 9, 38, 0, 0, 36, 72, 28, 54, 26, 76, 23, 21, 19, 0, 0, 58, 0, 13, 0, 14, 0, 16, 0, 71, 37, 43, 50, 20, 63, 40, 0, 0, 0, 68, 29, 4, 0, 51, 62, 66, 78, 0, 46, 0, 60, 74, 27, 70, 59, 80, 0, 0, 0, 39, 55, 34, 24, 41, 42, 0, 0, 56, 3, 49
|0, 51, 68, 23, 80, 0, 35, 24, 38, 0, 0, 0, 25, 14, 57, 55, 48, 0, 18, 74, 42, 22, 53, 19, 0, 0, 7, 0, 8, 69, 56, 0, 29, 5, 50, 37, 11, 36, 62, 41, 26, 0, 77, 34, 0, 1, 0, 71, 0, 20, 15, 61, 10, 0, 39, 59, 76, 63, 52, 79, 73, 65, 28, 4, 30, 43, 12, 2, 0, 81, 58, 0, 6, 33, 78, 0, 0, 0, 46, 9, 0
|0, 15, 56, 19, 0, 0, 42, 4, 0, 0, 28, 0, 0, 12, 0, 8, 81, 71, 0, 75, 60, 39, 69, 0, 0, 32, 10, 33, 80, 0, 59, 67, 16, 0, 0, 44, 13, 74, 30, 76, 79, 9, 1, 65, 7, 0, 72, 24, 0, 6, 0, 34, 58, 22, 0, 36, 14, 3, 25, 48, 55, 0, 0, 0, 35, 11, 53, 52, 45, 77, 23, 0, 57, 26, 70, 73, 17, 38, 63, 2, 64
|44, 64, 63, 52, 0, 18, 71, 28, 13, 20, 34, 0, 69, 0, 74, 0, 15, 0, 80, 16, 67, 77, 0, 35, 2, 50, 0, 14, 0, 10, 27, 11, 51, 62, 66, 0, 73, 38, 0, 60, 0, 31, 24, 0, 0, 0, 75, 65, 0, 0, 17, 0, 0, 0, 43, 12, 58, 70, 0, 30, 23, 57, 37, 26, 22, 49, 8, 40, 76, 0, 0, 7, 0, 0, 68, 5, 55, 0, 0, 45, 36
|0, 26, 49, 0, 62, 0, 46, 34, 0, 59, 29, 0, 0, 0, 68, 31, 51, 36, 0, 58, 13, 65, 55, 44, 70, 0, 57, 79, 81, 0, 64, 52, 28, 9, 63, 0, 15, 18, 61, 4, 54, 0, 23, 48, 12, 14, 5, 66, 0, 38, 8, 73, 47, 0, 35, 0, 1, 0, 0, 0, 77, 0, 45, 19, 41, 50, 0, 0, 21, 17, 24, 0, 60, 37, 0, 71, 74, 11, 16, 25, 7
|0, 77, 55, 9, 50, 0, 0, 39, 0, 70, 0, 0, 0, 0, 0, 24, 56, 0, 11, 0, 0, 0, 20, 0, 0, 0, 47, 0, 12, 34, 36, 1, 17, 45, 75, 74, 80, 28, 2, 52, 58, 57, 0, 3, 0, 60, 59, 49, 37, 0, 26, 0, 0, 0, 0, 16, 0, 0, 33, 0, 71, 44, 0, 73, 0, 64, 46, 38, 61, 0, 78, 0, 0, 0, 76, 0, 35, 0, 30, 65, 0
|65, 74, 0, 37, 58, 45, 0, 0, 0, 11, 0, 60, 26, 13, 0, 40, 0, 75, 52, 24, 30, 68, 21, 0, 63, 9, 27, 0, 71, 25, 55, 6, 0, 46, 43, 0, 39, 66, 0, 0, 0, 17, 0, 42, 29, 16, 18, 51, 0, 56, 0, 0, 0, 0, 19, 41, 80, 50, 32, 4, 0, 0, 0, 0, 0, 15, 48, 31, 57, 1, 0, 72, 10, 23, 62, 77, 12, 0, 61, 0, 44
|48, 29, 0, 12, 69, 70, 21, 36, 16, 76, 73, 32, 0, 67, 39, 58, 77, 19, 46, 56, 59, 0, 37, 81, 25, 34, 0, 0, 20, 7, 0, 0, 57, 38, 0, 4, 75, 0, 53, 78, 0, 0, 45, 0, 0, 52, 0, 30, 0, 80, 0, 0, 55, 0, 11, 24, 0, 18, 17, 2, 31, 15, 8, 0, 28, 0, 0, 33, 9, 74, 62, 14, 51, 54, 47, 72, 27, 79, 43, 1, 13
|6, 7, 0, 11, 33, 59, 0, 30, 31, 45, 0, 3, 22, 4, 0, 63, 46, 43, 41, 0, 66, 78, 71, 23, 40, 73, 0, 54, 0, 15, 0, 0, 48, 0, 0, 24, 0, 5, 69, 0, 0, 55, 25, 0, 0, 0, 28, 19, 0, 0, 12, 62, 0, 74, 9, 38, 13, 42, 26, 0, 20, 72, 47, 0, 16, 44, 34, 0, 0, 0, 10, 68, 8, 81, 14, 58, 75, 18, 39, 80, 50
|52, 67, 39, 46, 0, 29, 0, 10, 0, 4, 0, 22, 48, 74, 9, 12, 18, 79, 25, 53, 61, 0, 28, 37, 33, 0, 63, 41, 75, 21, 0, 0, 70, 47, 34, 50, 0, 80, 5, 0, 57, 0, 76, 0, 69, 54, 56, 59, 68, 42, 60, 0, 0, 72, 0, 13, 3, 8, 0, 32, 19, 14, 55, 31, 62, 30, 17, 71, 81, 49, 6, 0, 35, 16, 27, 64, 24, 45, 0, 0, 65
|3, 32, 69, 61, 71, 4, 51, 43, 54, 25, 50, 47, 14, 0, 0, 0, 59, 30, 75, 0, 77, 0, 17, 70, 48, 0, 55, 78, 0, 9, 0, 0, 0, 24, 0, 16, 72, 53, 0, 22, 49, 6, 0, 27, 39, 45, 0, 0, 67, 31, 23, 12, 0, 76, 10, 0, 81, 46, 11, 52, 21, 68, 0, 29, 65, 38, 0, 0, 41, 2, 80, 64, 0, 63, 44, 18, 57, 37, 79, 0, 1
|63, 81, 38, 35, 0, 0, 30, 0, 74, 0, 2, 0, 52, 20, 34, 0, 0, 54, 16, 76, 45, 72, 41, 18, 0, 78, 0, 66, 42, 0, 57, 59, 0, 49, 71, 0, 0, 24, 0, 0, 0, 29, 0, 10, 60, 0, 0, 40, 69, 11, 0, 65, 0, 0, 53, 44, 4, 48, 31, 0, 0, 70, 0, 9, 0, 68, 55, 51, 46, 0, 21, 67, 80, 0, 75, 0, 50, 47, 32, 36, 62
|50, 40, 21, 0, 34, 13, 44, 6, 70, 0, 42, 67, 76, 57, 0, 62, 58, 31, 59, 0, 81, 14, 0, 32, 51, 0, 0, 0, 45, 55, 25, 3, 4, 18, 37, 53, 30, 79, 17, 0, 38, 71, 63, 36, 0, 39, 0, 0, 74, 43, 24, 0, 22, 8, 5, 69, 16, 80, 64, 47, 54, 20, 0, 78, 72, 10, 73, 7, 23, 75, 33, 48, 19, 41, 66, 26, 9, 49, 0, 12, 68
|59, 12, 42, 27, 78, 80, 8, 75, 76, 0, 44, 29, 0, 21, 0, 0, 7, 66, 24, 47, 3, 0, 0, 40, 0, 30, 0, 0, 28, 6, 60, 63, 0, 72, 0, 79, 0, 51, 52, 0, 45, 0, 37, 0, 70, 41, 53, 13, 81, 35, 0, 36, 48, 19, 0, 0, 0, 49, 61, 67, 0, 0, 57, 39, 20, 16, 0, 0, 58, 14, 0, 4, 56, 17, 71, 31, 46, 5, 0, 69, 10
|64, 19, 45, 0, 41, 60, 0, 72, 65, 0, 32, 36, 81, 0, 0, 13, 0, 56, 66, 0, 39, 31, 0, 50, 58, 44, 21, 0, 48, 35, 0, 0, 77, 22, 0, 14, 62, 15, 8, 0, 9, 68, 42, 2, 78, 17, 0, 0, 25, 16, 47, 55, 18, 28, 0, 1, 27, 0, 59, 23, 33, 29, 75, 74, 37, 5, 52, 43, 53, 57, 0, 12, 0, 30, 7, 67, 76, 51, 0, 0, 34
|22, 0, 62, 18, 0, 33, 37, 55, 28, 75, 27, 63, 16, 77, 80, 19, 72, 24, 0, 2, 34, 0, 5, 6, 64, 71, 15, 44, 74, 26, 0, 0, 30, 13, 12, 0, 41, 56, 3, 0, 14, 0, 81, 0, 0, 0, 0, 0, 29, 0, 66, 0, 0, 58, 40, 17, 0, 0, 65, 9, 0, 51, 0, 69, 11, 0, 0, 0, 35, 47, 59, 42, 0, 0, 39, 20, 61, 0, 8, 0, 70
|0, 0, 9, 2, 23, 36, 24, 0, 11, 3, 8, 0, 55, 78, 35, 69, 53, 70, 68, 19, 0, 20, 54, 65, 80, 79, 0, 0, 0, 0, 17, 51, 31, 76, 0, 43, 66, 32, 75, 0, 16, 67, 0, 0, 48, 4, 0, 14, 34, 7, 0, 0, 0, 0, 38, 73, 28, 0, 39, 37, 41, 74, 0, 0, 0, 0, 18, 60, 25, 56, 15, 50, 42, 0, 77, 0, 0, 81, 33, 0, 0
|0, 48, 0, 0, 57, 0, 58, 77, 0, 71, 40, 46, 5, 10, 17, 33, 41, 39, 0, 49, 36, 0, 74, 69, 7, 62, 0, 0, 0, 0, 32, 15, 52, 29, 81, 0, 65, 23, 50, 20, 0, 64, 12, 61, 47, 70, 37, 0, 51, 0, 80, 21, 30, 6, 34, 63, 42, 72, 0, 66, 0, 78, 18, 3, 79, 0, 44, 26, 28, 24, 8, 0, 14, 60, 0, 0, 43, 55, 59, 0, 0|];