order = 9;
grid = [|0, 80, 29, 57, 3, 10, 0, 0, 60, 0, 44, 9, 24, 0, 12, 49, 30, 40, 14, 33, 7, 0, 28, 64, 77, 0, 17, 0, 15, 52, 0, 50, 79, 48, 54, 67, 26, 0, 0, 0, 0, 6, 32, 23, 13, 0, 20, 46, 75, 69, 35, 0, 62, 31, 71, 47, 2, 0, 81, 16, 0, 0, 0, 0, 0, 1, 78, 61, 53, 0, 56, 0, 0, 59, 0, 0, 58, 63, 41, 0, 55
|66, 0, 72, 0, 22, 53, 33, 38, 58, 0, 47, 31, 0, 54, 0, 11, 0, 28, 25, 80, 62, 18, 51, 29, 78, 60, 42, 12, 39, 35, 63, 0, 0, 0, 0, 20, 76, 46, 45, 0, 0, 65, 61, 49, 16, 0, 34, 81, 71, 0, 73, 7, 0, 0, 59, 52, 48, 41, 74, 10, 43, 21, 67, 8, 3, 0, 14, 70, 75, 23, 13, 0, 24, 69, 50, 0, 19, 40, 0, 44, 26
|47, 6, 0, 37, 0, 0, 17, 23, 0, 21, 0, 18, 0, 73, 62, 53, 48, 0, 59, 0, 44, 10, 49, 74, 38, 0, 1, 0, 66, 0, 0, 46, 14, 0, 25, 57, 28, 0, 2, 19, 50, 33, 58, 79, 0, 8, 42, 4, 13, 29, 12, 27, 52, 72, 0, 0, 15, 61, 78, 70, 36, 32, 3, 24, 69, 0, 40, 31, 81, 16, 0, 9, 34, 35, 76, 56, 64, 20, 22, 80, 75
|79, 15, 0, 49, 13, 59, 0, 71, 77, 26, 57, 70, 0, 0, 37, 35, 0, 4, 0, 32, 47, 63, 52, 22, 19, 20, 0, 0, 0, 44, 81, 36, 0, 3, 8, 69, 64, 0, 73, 55, 0, 0, 24, 5, 0, 0, 0, 0, 0, 0, 0, 0, 38, 67, 0, 75, 0, 0, 53, 0, 11, 50, 34, 76, 45, 17, 0, 62, 0, 33, 0, 0, 72, 10, 43, 0, 18, 42, 60, 14, 51
|2, 0, 20, 31, 0, 74, 28, 62, 42, 0, 61, 0, 43, 63, 50, 46, 75, 0, 58, 8, 53, 3, 48, 0, 71, 16, 0, 24, 23, 33, 7, 0, 65, 0, 19, 47, 0, 38, 72, 35, 11, 0, 0, 70, 12, 17, 0, 56, 0, 0, 0, 15, 0, 41, 37, 69, 76, 0, 64, 0, 26, 0, 73, 0, 0, 0, 10, 32, 30, 54, 39, 0, 77, 57, 78, 13, 67, 0, 0, 1, 5
|8, 81, 16, 24, 36, 67, 0, 46, 0, 0, 0, 0, 80, 0, 5, 22, 0, 0, 54, 79, 26, 31, 40, 69, 11, 0, 37, 49, 9, 10, 0, 68, 0, 75, 0, 55, 0, 0, 18, 0, 41, 27, 74, 0, 0, 61, 6, 32, 76, 57, 43, 48, 0, 2, 42, 29, 17, 13, 39, 23, 20, 65, 63, 77, 0, 50, 38, 0, 0, 7, 28, 44, 12, 45, 52, 21, 53, 33, 71, 0, 0
|69, 18, 0, 0, 0, 0, 26, 0, 40, 39, 16, 10, 0, 76, 0, 0, 0, 71, 0, 57, 0, 81, 70, 50, 27, 61, 13, 0, 58, 41, 0, 0, 59, 60, 30, 0, 52, 4, 34, 20, 29, 0, 75, 0, 43, 24, 0, 51, 0, 0, 78, 45, 11, 22, 0, 62, 0, 77, 31, 46, 38, 8, 19, 67, 49, 35, 42, 15, 0, 0, 55, 0, 74, 0, 0, 73, 0, 0, 68, 54, 3
|0, 0, 0, 56, 1, 41, 0, 0, 44, 3, 13, 0, 0, 81, 69, 32, 0, 15, 68, 67, 75, 76, 0, 4, 45, 73, 24, 0, 0, 42, 2, 74, 28, 5, 38, 62, 21, 37, 31, 59, 0, 0, 0, 40, 53, 36, 0, 0, 33, 30, 14, 0, 49, 77, 0, 80, 12, 79, 0, 22, 54, 58, 60, 0, 52, 72, 0, 0, 25, 63, 0, 43, 47, 29, 0, 11, 70, 0, 0, 48, 8
|55, 51, 0, 14, 0, 0, 50, 0, 0, 0, 8, 19, 42, 41, 64, 20, 38, 52, 0, 15, 0, 6, 9, 43, 56, 21, 23, 40, 16, 22, 0, 13, 4, 61, 77, 45, 69, 0, 0, 67, 0, 10, 68, 1, 17, 3, 65, 54, 26, 63, 53, 70, 0, 25, 44, 28, 30, 35, 18, 72, 24, 33, 0, 73, 0, 57, 71, 29, 12, 37, 66, 59, 79, 81, 27, 0, 0, 62, 46, 39, 32
|68, 0, 46, 73, 24, 0, 81, 29, 66, 0, 0, 45, 48, 21, 3, 78, 25, 63, 0, 76, 0, 11, 54, 19, 59, 37, 0, 35, 36, 40, 53, 16, 51, 77, 44, 31, 42, 0, 13, 0, 5, 80, 1, 26, 61, 28, 74, 60, 0, 12, 58, 0, 0, 71, 8, 6, 32, 67, 22, 0, 39, 0, 72, 0, 18, 30, 62, 0, 14, 79, 0, 0, 27, 50, 0, 0, 9, 15, 56, 49, 69
|5, 39, 65, 0, 0, 0, 7, 0, 23, 69, 60, 8, 52, 43, 61, 57, 0, 62, 46, 30, 33, 80, 58, 1, 0, 10, 0, 6, 25, 66, 26, 18, 20, 0, 49, 54, 4, 41, 0, 0, 31, 3, 27, 48, 36, 0, 2, 53, 42, 0, 17, 40, 0, 15, 35, 0, 81, 29, 0, 24, 12, 38, 28, 22, 64, 44, 56, 73, 78, 13, 0, 45, 0, 0, 0, 67, 0, 32, 63, 0, 72
|0, 0, 59, 6, 47, 80, 3, 14, 33, 32, 49, 67, 79, 13, 0, 34, 0, 0, 17, 68, 51, 53, 23, 71, 0, 41, 38, 73, 24, 0, 0, 0, 0, 0, 0, 28, 0, 72, 57, 0, 25, 22, 55, 37, 7, 69, 11, 0, 31, 4, 5, 39, 26, 62, 0, 0, 19, 0, 2, 20, 64, 0, 50, 43, 61, 0, 27, 60, 9, 36, 76, 0, 0, 42, 58, 0, 29, 45, 0, 74, 0
|71, 26, 54, 0, 63, 0, 0, 28, 0, 11, 12, 51, 7, 0, 0, 37, 55, 29, 47, 0, 45, 21, 18, 0, 0, 74, 36, 1, 0, 5, 39, 67, 57, 14, 0, 52, 62, 69, 0, 17, 0, 23, 81, 64, 60, 19, 9, 13, 34, 0, 0, 0, 0, 20, 0, 68, 80, 4, 0, 40, 0, 0, 0, 0, 0, 49, 0, 42, 59, 0, 41, 0, 16, 0, 2, 76, 66, 0, 43, 0, 70
|74, 0, 69, 1, 53, 0, 20, 0, 0, 5, 0, 50, 22, 18, 0, 0, 71, 75, 0, 0, 15, 39, 0, 24, 0, 0, 0, 62, 12, 13, 64, 42, 10, 17, 68, 70, 35, 54, 44, 0, 47, 16, 52, 43, 59, 46, 0, 8, 55, 37, 72, 65, 0, 27, 61, 14, 31, 11, 0, 76, 34, 0, 0, 19, 80, 58, 0, 38, 4, 40, 67, 25, 57, 3, 30, 0, 6, 21, 7, 41, 0
|10, 25, 62, 40, 0, 0, 0, 77, 0, 20, 76, 27, 36, 16, 0, 44, 15, 0, 79, 48, 0, 0, 0, 0, 55, 6, 0, 0, 59, 9, 56, 61, 2, 47, 0, 0, 63, 65, 28, 0, 78, 19, 49, 21, 18, 0, 51, 14, 35, 0, 67, 80, 45, 0, 53, 42, 3, 0, 0, 0, 73, 26, 66, 34, 0, 0, 5, 0, 7, 70, 75, 69, 52, 22, 0, 71, 0, 37, 4, 38, 0
|75, 0, 42, 15, 44, 72, 0, 0, 12, 0, 19, 0, 59, 0, 70, 6, 28, 0, 69, 0, 9, 0, 0, 14, 34, 77, 66, 0, 30, 38, 48, 45, 11, 0, 37, 27, 20, 33, 58, 68, 0, 50, 0, 73, 67, 0, 0, 76, 0, 21, 25, 54, 0, 7, 0, 49, 0, 0, 10, 62, 13, 60, 36, 0, 71, 0, 39, 51, 0, 35, 57, 16, 61, 0, 40, 17, 0, 0, 26, 0, 0
|38, 70, 0, 67, 0, 37, 22, 45, 36, 17, 2, 64, 0, 0, 72, 24, 0, 0, 43, 0, 27, 0, 44, 13, 0, 0, 0, 3, 0, 23, 55, 0, 58, 80, 0, 63, 32, 0, 0, 9, 66, 0, 8, 0, 29, 30, 73, 79, 0, 61, 0, 68, 16, 50, 56, 0, 41, 74, 51, 0, 57, 69, 0, 48, 47, 0, 12, 21, 0, 0, 65, 0, 60, 0, 19, 0, 0, 0, 0, 10, 0
|0, 43, 0, 13, 0, 79, 27, 0, 2, 68, 80, 0, 14, 38, 58, 0, 4, 42, 49, 22, 8, 64, 0, 0, 20, 0, 0, 19, 60, 72, 69, 7, 71, 0, 34, 0, 15, 53, 0, 40, 45, 70, 39, 0, 0, 57, 59, 48, 81, 56, 6, 0, 44, 32, 0, 78, 47, 63, 55, 25, 0, 37, 0, 0, 0, 11, 0, 0, 26, 74, 1, 23, 0, 0, 0, 5, 0, 12, 0, 28, 0
|33, 21, 15, 0, 0, 6, 0, 48, 0, 81, 0, 0, 0, 51, 0, 0, 80, 0, 61, 4, 43, 0, 0, 0, 9, 63, 0, 0, 62, 20, 37, 26, 31, 0, 0, 0, 65, 35, 0, 69, 71, 0, 7, 12, 75, 67, 47, 0, 18, 0, 0, 50, 60, 70, 0, 0, 0, 24, 17, 0, 0, 27, 0, 0, 0, 3, 74, 0, 0, 11, 38, 46, 29, 19, 1, 41, 25, 66, 5, 64, 73
|0, 57, 34, 29, 70, 16, 46, 60, 51, 25, 73, 0, 0, 35, 0, 63, 0, 24, 45, 11, 41, 62, 0, 37, 13, 69, 0, 0, 42, 0, 0, 27, 38, 15, 0, 0, 66, 5, 4, 0, 9, 72, 22, 50, 19, 54, 53, 39, 0, 81, 0, 55, 79, 61, 6, 0, 0, 0, 0, 26, 0, 0, 71, 64, 23, 67, 0, 0, 40, 56, 80, 0, 20, 0, 0, 0, 21, 31, 14, 65, 28
|0, 19, 0, 30, 80, 2, 9, 53, 1, 18, 0, 0, 27, 0, 0, 0, 74, 6, 51, 0, 24, 0, 35, 0, 81, 67, 7, 0, 10, 11, 36, 0, 29, 0, 33, 76, 68, 61, 55, 23, 26, 45, 25, 28, 38, 65, 0, 3, 77, 71, 48, 41, 5, 58, 73, 0, 13, 46, 4, 57, 0, 42, 12, 0, 16, 0, 72, 49, 15, 0, 0, 0, 39, 52, 0, 0, 34, 79, 17, 60, 62
|32, 78, 14, 4, 68, 23, 44, 0, 43, 0, 67, 0, 50, 79, 39, 59, 0, 66, 80, 74, 55, 12, 19, 28, 0, 15, 20, 25, 0, 3, 0, 77, 72, 64, 53, 5, 70, 0, 33, 0, 24, 0, 0, 46, 73, 0, 0, 0, 11, 52, 13, 0, 2, 69, 76, 0, 0, 81, 0, 8, 60, 61, 16, 21, 0, 65, 0, 75, 1, 29, 0, 34, 9, 38, 48, 10, 27, 0, 42, 30, 0
|61, 75, 0, 17, 55, 3, 18, 79, 72, 19, 0, 0, 0, 77, 28, 52, 0, 0, 78, 29, 40, 0, 71, 0, 64, 65, 14, 8, 0, 0, 0, 9, 0, 0, 57, 66, 58, 31, 21, 15, 10, 47, 48, 0, 42, 43, 0, 0, 0, 26, 20, 4, 34, 74, 36, 38, 0, 25, 62, 68, 51, 80, 41, 53, 0, 33, 70, 59, 5, 81, 30, 35, 23, 0, 69, 6, 0, 2, 32, 0, 24
|20, 69, 37, 26, 42, 49, 74, 0, 0, 0, 0, 0, 0, 0, 48, 0, 0, 5, 23, 70, 0, 79, 76, 0, 60, 31, 75, 65, 28, 50, 46, 0, 41, 34, 51, 73, 77, 11, 8, 27, 59, 0, 0, 0, 78, 64, 0, 1, 0, 0, 56, 30, 25, 38, 0, 0, 63, 45, 15, 0, 3, 22, 39, 0, 0, 32, 0, 0, 0, 0, 0, 0, 80, 0, 0, 36, 0, 4, 40, 81, 18
|40, 0, 25, 0, 0, 63, 0, 54, 0, 65, 0, 76, 46, 10, 0, 64, 29, 0, 57, 52, 0, 68, 0, 17, 0, 0, 33, 67, 4, 70, 21, 24, 48, 35, 0, 0, 44, 0, 6, 80, 30, 0, 20, 81, 39, 78, 0, 19, 36, 23, 75, 0, 15, 12, 0, 0, 5, 69, 0, 1, 7, 9, 0, 61, 60, 0, 45, 0, 0, 0, 0, 0, 43, 72, 16, 0, 55, 49, 37, 0, 11
|0, 5, 27, 81, 67, 39, 41, 56, 65, 54, 23, 0, 53, 69, 26, 0, 0, 14, 10, 44, 38, 25, 0, 0, 48, 18, 3, 75, 0, 0, 0, 60, 12, 0, 61, 40, 1, 62, 36, 0, 0, 17, 79, 0, 64, 21, 0, 6, 63, 16, 9, 46, 0, 80, 49, 2, 0, 78, 35, 52, 32, 0, 0, 58, 28, 24, 76, 0, 55, 4, 19, 8, 51, 0, 0, 0, 45, 71, 0, 33, 0
|50, 0, 24, 38, 0, 11, 52, 64, 0, 44, 7, 0, 58, 9, 8, 4, 0, 61, 30, 6, 36, 42, 32, 0, 1, 39, 0, 81, 0, 59, 0, 0, 0, 43, 2, 23, 74, 13, 0, 41, 0, 14, 0, 0, 0, 72, 10, 0, 0, 0, 29, 0, 51, 33, 75, 0, 65, 66, 0, 21, 37, 0, 20, 0, 27, 47, 17, 69, 73, 25, 0, 22, 68, 0, 35, 3, 0, 46, 53, 57, 0
|26, 0, 4, 3, 8, 66, 0, 27, 22, 72, 0, 0, 47, 0, 44, 0, 49, 2, 67, 69, 63, 0, 62, 0, 0, 9, 21, 0, 0, 0, 0, 31, 0, 32, 56, 71, 33, 36, 0, 50, 61, 74, 12, 0, 6, 70, 0, 59, 48, 19, 52, 0, 0, 0, 11, 57, 55, 80, 37, 45, 0, 73, 25, 60, 53, 5, 43, 18, 35, 41, 64, 0, 30, 39, 29, 78, 17, 51, 1, 0, 15
|1, 14, 0, 19, 58, 31, 51, 0, 55, 29, 0, 3, 0, 5, 81, 0, 0, 27, 0, 41, 64, 30, 46, 70, 0, 53, 22, 66, 0, 57, 73, 78, 54, 0, 0, 0, 10, 79, 0, 62, 0, 38, 47, 8, 0, 56, 17, 0, 65, 50, 0, 0, 13, 76, 20, 32, 74, 0, 67, 34, 15, 63, 33, 40, 2, 16, 23, 37, 68, 0, 0, 72, 44, 0, 0, 0, 43, 0, 48, 59, 80
|30, 65, 36, 72, 39, 21, 0, 59, 0, 1, 62, 52, 0, 45, 46, 17, 8, 0, 0, 0, 60, 0, 0, 79, 0, 0, 68, 50, 74, 0, 0, 0, 0, 29, 35, 9, 27, 55, 64, 24, 42, 78, 15, 63, 44, 20, 22, 26, 53, 0, 23, 11, 0, 6, 0, 70, 0, 3, 19, 2, 61, 40, 69, 0, 7, 0, 33, 0, 76, 57, 58, 0, 14, 0, 0, 0, 41, 34, 13, 0, 0
|29, 71, 12, 0, 25, 24, 0, 41, 53, 35, 43, 0, 64, 32, 34, 0, 39, 80, 73, 18, 74, 14, 31, 45, 75, 4, 81, 0, 22, 21, 0, 23, 0, 36, 0, 0, 0, 26, 20, 0, 1, 40, 0, 17, 0, 63, 0, 0, 66, 68, 0, 47, 3, 57, 54, 30, 44, 10, 52, 58, 28, 0, 7, 62, 0, 78, 55, 13, 27, 51, 46, 42, 0, 56, 11, 79, 38, 8, 50, 69, 19
|81, 0, 40, 0, 0, 50, 23, 69, 15, 78, 24, 48, 63, 6, 33, 0, 0, 79, 71, 47, 5, 0, 11, 76, 7, 0, 80, 51, 1, 55, 70, 17, 67, 25, 27, 0, 0, 0, 16, 0, 18, 43, 29, 0, 0, 10, 12, 61, 46, 0, 0, 0, 0, 0, 21, 60, 22, 0, 0, 38, 65, 64, 0, 52, 4, 20, 19, 0, 32, 14, 0, 36, 45, 0, 74, 0, 37, 0, 62, 26, 0
|80, 79, 0, 0, 0, 44, 63, 10, 68, 0, 0, 61, 11, 0, 31, 19, 40, 0, 0, 72, 29, 8, 78, 26, 0, 56, 52, 0, 41, 37, 13, 65, 15, 24, 75, 0, 5, 28, 66, 0, 46, 0, 0, 0, 0, 0, 33, 34, 0, 36, 64, 73, 21, 18, 51, 43, 1, 48, 0, 0, 0, 39, 76, 0, 0, 22, 25, 50, 47, 0, 0, 74, 70, 0, 77, 0, 0, 3, 27, 42, 57
|0, 64, 49, 47, 60, 78, 0, 43, 0, 67, 58, 71, 13, 0, 74, 56, 73, 69, 0, 20, 50, 17, 39, 36, 0, 44, 48, 42, 0, 63, 0, 28, 45, 0, 0, 0, 37, 80, 11, 0, 0, 0, 4, 41, 35, 5, 25, 0, 9, 1, 0, 0, 0, 40, 68, 0, 23, 18, 0, 0, 16, 0, 29, 0, 0, 21, 0, 0, 79, 59, 31, 65, 0, 0, 55, 61, 0, 76, 0, 0, 81
|0, 0, 11, 16, 0, 45, 0, 0, 32, 4, 51, 0, 76, 28, 53, 60, 0, 70, 0, 43, 0, 13, 1, 3, 0, 0, 40, 0, 0, 26, 10, 64, 0, 0, 0, 0, 57, 19, 22, 25, 23, 0, 0, 71, 68, 55, 49, 0, 78, 27, 0, 0, 35, 39, 50, 72, 24, 8, 0, 6, 0, 47, 79, 17, 12, 73, 81, 63, 29, 0, 15, 56, 58, 9, 75, 54, 46, 0, 18, 52, 65
|28, 33, 74, 7, 5, 42, 38, 0, 70, 22, 15, 68, 0, 66, 0, 65, 50, 16, 19, 0, 0, 57, 27, 55, 6, 0, 0, 44, 40, 0, 4, 72, 76, 53, 46, 0, 0, 9, 56, 60, 75, 54, 59, 30, 52, 29, 0, 80, 37, 0, 69, 43, 14, 45, 26, 17, 77, 62, 12, 36, 78, 81, 13, 11, 1, 0, 8, 39, 61, 0, 24, 48, 0, 20, 0, 63, 47, 0, 64, 67, 21
|15, 67, 73, 34, 0, 77, 0, 4, 26, 79, 28, 0, 0, 0, 43, 0, 18, 0, 8, 0, 3, 56, 0, 0, 47, 22, 70, 5, 0, 76, 0, 0, 0, 0, 50, 44, 59, 64, 52, 0, 33, 0, 63, 61, 14, 0, 0, 20, 69, 72, 41, 0, 0, 78, 0, 54, 0, 38, 68, 55, 0, 0, 57, 23, 13, 0, 0, 0, 0, 65, 62, 60, 11, 21, 80, 19, 24, 30, 29, 16, 0
|0, 17, 39, 0, 16, 46, 0, 35, 81, 33, 78, 80, 32, 0, 66, 14, 0, 76, 26, 49, 25, 77, 60, 5, 0, 0, 64, 34, 8, 62, 0, 71, 36, 28, 31, 38, 0, 30, 74, 56, 20, 29, 0, 0, 9, 59, 1, 40, 0, 15, 50, 63, 0, 0, 70, 48, 45, 0, 13, 73, 42, 2, 11, 79, 37, 0, 0, 43, 0, 0, 0, 68, 18, 7, 44, 58, 52, 53, 0, 4, 67
|11, 13, 7, 51, 37, 0, 49, 80, 20, 12, 0, 0, 34, 46, 59, 0, 60, 58, 1, 65, 67, 71, 79, 39, 62, 0, 0, 0, 43, 19, 35, 0, 56, 0, 0, 53, 73, 18, 0, 76, 54, 0, 41, 0, 50, 0, 48, 29, 2, 14, 0, 21, 0, 3, 15, 23, 0, 44, 8, 69, 6, 74, 0, 16, 33, 28, 66, 27, 36, 0, 63, 0, 40, 75, 64, 0, 42, 9, 81, 47, 22
|0, 47, 0, 28, 74, 36, 0, 3, 18, 53, 35, 24, 70, 4, 0, 39, 41, 67, 76, 0, 0, 29, 33, 27, 44, 11, 0, 78, 72, 73, 79, 66, 40, 68, 23, 0, 38, 45, 0, 48, 69, 1, 42, 0, 49, 81, 0, 0, 0, 58, 0, 0, 0, 9, 65, 0, 46, 7, 25, 0, 0, 62, 52, 51, 30, 26, 0, 0, 0, 64, 77, 0, 32, 37, 10, 15, 0, 43, 59, 0, 0
|0, 9, 66, 64, 79, 70, 0, 19, 38, 15, 29, 40, 71, 3, 22, 45, 26, 55, 28, 42, 52, 16, 21, 0, 31, 50, 12, 60, 0, 69, 41, 0, 75, 7, 0, 18, 43, 8, 0, 32, 13, 24, 6, 47, 0, 0, 0, 74, 51, 53, 33, 0, 65, 34, 58, 36, 59, 17, 0, 0, 56, 0, 35, 46, 73, 2, 11, 78, 39, 1, 48, 14, 0, 68, 62, 57, 77, 0, 0, 27, 0
|43, 29, 41, 0, 0, 0, 0, 68, 14, 50, 52, 73, 77, 49, 7, 51, 0, 56, 40, 0, 30, 20, 15, 0, 23, 0, 54, 61, 45, 0, 0, 0, 39, 57, 63, 26, 0, 70, 80, 0, 58, 53, 34, 4, 71, 11, 46, 35, 19, 0, 36, 64, 18, 24, 47, 76, 79, 75, 21, 37, 22, 16, 10, 81, 67, 25, 59, 0, 44, 32, 0, 17, 0, 0, 31, 28, 0, 0, 8, 0, 13
|56, 10, 32, 23, 45, 12, 6, 44, 0, 0, 31, 0, 1, 0, 16, 8, 0, 38, 36, 51, 37, 61, 75, 0, 14, 57, 59, 21, 54, 25, 30, 11, 64, 2, 24, 58, 0, 0, 35, 78, 22, 0, 3, 66, 0, 13, 67, 7, 0, 62, 0, 52, 28, 0, 0, 0, 0, 5, 0, 41, 0, 18, 43, 80, 15, 0, 47, 19, 34, 49, 0, 0, 26, 17, 71, 33, 74, 50, 69, 72, 20
|0, 58, 2, 52, 31, 76, 59, 0, 78, 0, 64, 5, 25, 0, 0, 69, 72, 0, 0, 0, 17, 45, 0, 10, 0, 43, 35, 74, 49, 65, 77, 6, 9, 13, 0, 16, 23, 40, 0, 28, 44, 67, 36, 15, 62, 32, 0, 0, 22, 42, 27, 12, 54, 60, 33, 0, 34, 30, 0, 39, 50, 19, 81, 56, 75, 0, 57, 53, 18, 0, 0, 71, 1, 55, 14, 51, 0, 41, 73, 46, 48
|48, 1, 57, 0, 0, 55, 5, 75, 0, 61, 21, 44, 54, 0, 10, 42, 62, 19, 18, 24, 81, 69, 13, 0, 53, 2, 78, 22, 0, 15, 14, 20, 0, 4, 59, 29, 17, 0, 51, 16, 60, 37, 11, 7, 0, 0, 26, 23, 0, 0, 77, 76, 68, 8, 32, 67, 0, 0, 66, 63, 49, 28, 80, 0, 41, 52, 58, 9, 72, 0, 0, 0, 35, 70, 0, 0, 39, 25, 0, 3, 34
|0, 12, 71, 0, 4, 0, 0, 70, 30, 28, 0, 35, 66, 0, 0, 0, 13, 25, 75, 0, 72, 0, 0, 32, 33, 0, 76, 17, 2, 36, 0, 69, 68, 56, 0, 74, 7, 63, 43, 52, 0, 0, 67, 10, 37, 80, 0, 45, 0, 0, 21, 0, 0, 65, 41, 26, 0, 0, 0, 53, 23, 77, 40, 0, 0, 60, 0, 0, 20, 0, 14, 27, 5, 49, 34, 62, 15, 22, 19, 8, 9
|0, 37, 26, 46, 66, 75, 43, 42, 56, 51, 22, 72, 29, 60, 18, 79, 34, 0, 0, 40, 0, 58, 80, 20, 0, 23, 0, 13, 70, 4, 49, 15, 16, 55, 62, 32, 61, 59, 53, 45, 64, 0, 33, 65, 27, 50, 0, 47, 41, 0, 63, 6, 9, 36, 17, 5, 10, 31, 24, 0, 76, 68, 0, 0, 0, 0, 0, 35, 0, 77, 69, 0, 0, 0, 67, 30, 3, 0, 0, 73, 0
|62, 45, 0, 53, 0, 33, 21, 0, 31, 48, 69, 43, 68, 0, 0, 0, 24, 8, 81, 12, 0, 65, 26, 42, 22, 34, 18, 14, 0, 0, 66, 0, 77, 0, 7, 11, 6, 71, 0, 0, 0, 13, 0, 0, 0, 44, 52, 64, 38, 0, 32, 0, 27, 54, 74, 58, 29, 57, 0, 0, 46, 0, 4, 0, 59, 0, 0, 3, 16, 0, 73, 0, 41, 23, 0, 2, 80, 72, 28, 76, 63
|0, 7, 48, 36, 35, 0, 25, 0, 64, 62, 50, 47, 0, 0, 67, 55, 2, 12, 6, 14, 49, 70, 0, 41, 5, 79, 0, 45, 21, 39, 38, 73, 24, 0, 20, 59, 80, 0, 23, 44, 0, 0, 46, 0, 1, 33, 29, 57, 40, 0, 42, 26, 71, 16, 3, 11, 28, 37, 32, 78, 8, 0, 61, 0, 66, 0, 63, 0, 17, 9, 0, 81, 0, 77, 68, 53, 0, 27, 52, 0, 43
|0, 16, 1, 0, 0, 34, 0, 0, 0, 70, 45, 23, 31, 14, 0, 40, 0, 3, 0, 0, 78, 19, 67, 9, 46, 24, 0, 28, 0, 0, 0, 5, 27, 0, 41, 0, 18, 0, 17, 0, 12, 0, 76, 35, 0, 2, 81, 30, 43, 11, 37, 56, 48, 79, 13, 0, 52, 73, 42, 64, 25, 0, 0, 15, 0, 74, 49, 0, 71, 68, 22, 7, 59, 0, 33, 69, 0, 61, 0, 66, 36
|0, 0, 0, 61, 19, 29, 0, 65, 0, 0, 53, 0, 0, 0, 30, 58, 44, 73, 0, 59, 68, 0, 63, 52, 28, 0, 43, 26, 80, 6, 0, 40, 18, 0, 9, 37, 41, 24, 0, 81, 77, 25, 0, 74, 0, 34, 0, 70, 8, 22, 46, 67, 0, 55, 7, 33, 0, 27, 36, 0, 69, 66, 2, 50, 0, 31, 51, 5, 0, 45, 11, 32, 42, 0, 21, 0, 12, 13, 20, 35, 0
|17, 28, 0, 44, 49, 0, 76, 32, 10, 0, 59, 4, 21, 42, 0, 33, 0, 41, 2, 0, 71, 55, 30, 11, 37, 0, 27, 0, 0, 12, 57, 43, 46, 78, 47, 0, 48, 0, 70, 0, 0, 0, 62, 60, 0, 35, 0, 77, 20, 3, 31, 69, 74, 66, 38, 50, 0, 0, 72, 15, 19, 0, 0, 18, 40, 75, 67, 23, 0, 0, 36, 61, 7, 16, 25, 29, 0, 0, 0, 58, 1
|0, 73, 60, 0, 27, 0, 80, 67, 41, 52, 71, 77, 61, 37, 20, 76, 0, 36, 0, 16, 0, 51, 0, 0, 57, 64, 29, 63, 0, 81, 42, 25, 33, 1, 58, 0, 11, 75, 30, 0, 32, 69, 0, 0, 79, 39, 0, 0, 0, 18, 19, 49, 72, 23, 43, 21, 9, 0, 65, 0, 48, 44, 47, 0, 0, 0, 0, 6, 0, 26, 12, 53, 50, 31, 0, 46, 4, 74, 45, 78, 40
|23, 0, 78, 74, 50, 51, 0, 0, 52, 0, 39, 49, 19, 17, 27, 0, 0, 26, 0, 0, 77, 15, 73, 35, 3, 36, 47, 54, 0, 64, 75, 34, 8, 71, 10, 30, 16, 66, 9, 14, 40, 31, 28, 58, 20, 12, 76, 68, 5, 0, 4, 1, 59, 53, 45, 63, 0, 22, 56, 80, 81, 55, 70, 0, 29, 43, 41, 65, 21, 72, 79, 33, 37, 32, 0, 0, 48, 0, 0, 6, 0
|0, 23, 3, 41, 0, 0, 0, 0, 0, 6, 74, 0, 0, 0, 0, 1, 0, 21, 15, 0, 80, 35, 22, 0, 70, 71, 39, 36, 0, 2, 0, 0, 0, 46, 0, 4, 72, 20, 59, 12, 0, 44, 19, 14, 51, 73, 0, 0, 29, 0, 0, 10, 67, 17, 0, 0, 0, 53, 43, 0, 33, 13, 0, 69, 25, 27, 50, 0, 38, 62, 52, 0, 64, 18, 9, 26, 63, 0, 16, 24, 42
|0, 36, 33, 0, 0, 0, 0, 72, 0, 0, 32, 0, 5, 29, 0, 0, 52, 64, 0, 0, 1, 34, 8, 53, 74, 0, 0, 37, 57, 0, 0, 0, 0, 0, 0, 0, 0, 10, 48, 7, 6, 0, 23, 31, 25, 71, 44, 27, 60, 80, 38, 0, 0, 51, 62, 41, 70, 55, 0, 30, 0, 0, 45, 20, 78, 59, 22, 66, 42, 73, 0, 26, 19, 40, 56, 49, 69, 67, 65, 50, 76
|46, 27, 44, 50, 54, 0, 10, 81, 49, 7, 40, 12, 65, 24, 0, 15, 61, 59, 42, 55, 19, 0, 45, 21, 0, 14, 73, 39, 0, 0, 0, 62, 0, 63, 72, 34, 13, 0, 68, 0, 3, 28, 5, 0, 0, 31, 70, 52, 4, 0, 47, 20, 37, 35, 22, 8, 0, 0, 11, 18, 77, 76, 0, 74, 79, 29, 53, 41, 0, 67, 0, 80, 66, 0, 0, 0, 0, 60, 51, 23, 38
|19, 0, 0, 18, 15, 13, 1, 6, 74, 0, 48, 56, 60, 0, 51, 0, 67, 9, 64, 0, 10, 0, 0, 77, 36, 12, 63, 55, 65, 49, 0, 59, 25, 20, 14, 21, 40, 27, 32, 61, 35, 0, 0, 0, 2, 41, 0, 0, 0, 76, 0, 33, 0, 43, 29, 0, 66, 71, 47, 0, 80, 54, 24, 72, 81, 0, 3, 0, 70, 0, 17, 0, 53, 78, 0, 4, 0, 73, 0, 62, 7
|0, 35, 68, 0, 0, 52, 75, 0, 0, 71, 63, 0, 73, 0, 45, 0, 43, 17, 44, 58, 59, 60, 29, 33, 30, 26, 67, 0, 38, 32, 12, 70, 3, 76, 22, 42, 46, 47, 0, 4, 16, 66, 57, 80, 11, 74, 72, 18, 0, 6, 0, 36, 0, 0, 27, 37, 0, 65, 7, 0, 5, 78, 23, 55, 0, 9, 13, 40, 77, 15, 0, 24, 21, 0, 0, 39, 14, 54, 0, 0, 41
|0, 20, 0, 45, 26, 0, 32, 24, 67, 0, 79, 38, 72, 0, 35, 50, 81, 0, 27, 2, 13, 0, 41, 18, 0, 52, 69, 0, 77, 31, 40, 10, 74, 0, 43, 0, 0, 21, 15, 53, 37, 60, 70, 0, 63, 62, 68, 49, 54, 9, 0, 66, 61, 42, 0, 39, 36, 19, 0, 0, 59, 1, 0, 44, 0, 46, 0, 0, 0, 0, 23, 0, 75, 48, 0, 25, 71, 29, 58, 17, 12
|58, 38, 30, 62, 0, 71, 29, 37, 5, 23, 54, 69, 0, 26, 14, 75, 53, 0, 4, 46, 65, 49, 66, 78, 76, 25, 11, 80, 73, 27, 52, 35, 50, 0, 67, 48, 9, 39, 77, 43, 74, 41, 0, 22, 45, 15, 56, 12, 24, 59, 55, 16, 0, 81, 2, 0, 64, 21, 44, 0, 40, 0, 0, 0, 0, 61, 0, 1, 57, 19, 6, 28, 8, 13, 0, 32, 10, 0, 3, 36, 68
|4, 0, 0, 70, 0, 65, 60, 0, 0, 41, 42, 28, 39, 33, 0, 27, 77, 0, 31, 3, 16, 54, 0, 57, 0, 68, 62, 9, 5, 71, 1, 0, 0, 66, 0, 0, 49, 17, 0, 29, 73, 81, 50, 38, 76, 25, 0, 0, 30, 78, 0, 32, 46, 64, 10, 0, 26, 0, 69, 61, 0, 35, 74, 0, 56, 48, 21, 34, 63, 75, 51, 0, 22, 0, 20, 52, 59, 47, 0, 55, 37
|0, 59, 0, 55, 9, 0, 61, 0, 0, 66, 70, 22, 16, 2, 0, 0, 0, 10, 20, 17, 23, 50, 0, 0, 0, 0, 56, 68, 0, 78, 45, 41, 53, 51, 29, 0, 24, 1, 62, 34, 8, 64, 65, 42, 69, 26, 3, 21, 58, 77, 0, 13, 19, 48, 72, 0, 57, 52, 0, 0, 4, 14, 38, 36, 0, 71, 0, 0, 54, 30, 0, 49, 15, 46, 0, 74, 31, 44, 35, 43, 27
|53, 0, 0, 0, 69, 1, 0, 25, 29, 0, 34, 0, 0, 0, 0, 28, 5, 72, 0, 26, 57, 66, 20, 62, 54, 49, 0, 33, 13, 68, 50, 30, 60, 65, 12, 36, 0, 0, 41, 6, 17, 0, 37, 18, 70, 48, 19, 43, 79, 64, 15, 42, 0, 0, 63, 0, 61, 76, 80, 47, 0, 0, 8, 0, 0, 23, 46, 56, 0, 22, 0, 73, 4, 27, 0, 0, 40, 75, 38, 0, 2
|41, 0, 0, 79, 73, 27, 14, 8, 0, 24, 33, 21, 40, 47, 11, 23, 12, 0, 37, 71, 69, 0, 68, 0, 80, 81, 0, 10, 31, 61, 20, 0, 5, 54, 0, 75, 0, 74, 46, 42, 0, 57, 13, 51, 22, 53, 18, 9, 0, 17, 59, 62, 29, 0, 19, 4, 35, 60, 6, 32, 2, 56, 78, 0, 0, 39, 16, 0, 67, 48, 72, 30, 3, 58, 66, 55, 44, 0, 34, 45, 64
|0, 0, 55, 0, 0, 62, 65, 0, 19, 77, 46, 0, 0, 64, 60, 0, 37, 43, 11, 21, 76, 74, 0, 51, 52, 58, 4, 48, 26, 18, 0, 22, 0, 42, 79, 0, 45, 23, 78, 73, 72, 2, 31, 69, 24, 0, 80, 33, 32, 28, 54, 35, 47, 0, 0, 0, 40, 0, 38, 75, 0, 67, 0, 0, 0, 0, 68, 57, 41, 12, 3, 0, 17, 0, 7, 16, 20, 81, 0, 53, 0
|0, 2, 0, 0, 33, 15, 0, 26, 0, 42, 4, 53, 3, 39, 17, 61, 69, 0, 56, 0, 22, 0, 0, 0, 24, 0, 8, 41, 32, 0, 47, 76, 70, 40, 45, 43, 29, 0, 12, 21, 28, 11, 64, 68, 66, 6, 57, 36, 16, 44, 0, 34, 20, 0, 14, 13, 49, 0, 0, 74, 0, 0, 18, 1, 0, 55, 31, 81, 80, 71, 9, 63, 0, 73, 54, 37, 51, 0, 25, 79, 77
|45, 76, 0, 71, 64, 0, 47, 34, 6, 10, 81, 79, 0, 44, 55, 73, 20, 0, 29, 19, 35, 78, 14, 2, 18, 0, 30, 0, 3, 0, 23, 0, 66, 0, 0, 25, 50, 15, 39, 54, 0, 0, 0, 0, 0, 60, 0, 75, 0, 67, 74, 22, 40, 63, 24, 0, 37, 68, 1, 0, 41, 36, 31, 0, 21, 62, 0, 33, 69, 28, 70, 51, 46, 0, 0, 43, 0, 26, 57, 13, 0
|12, 44, 18, 0, 0, 35, 31, 17, 3, 0, 25, 66, 38, 50, 6, 36, 0, 32, 0, 60, 39, 0, 42, 63, 67, 33, 0, 11, 51, 28, 0, 2, 37, 58, 73, 19, 14, 49, 75, 1, 7, 0, 26, 16, 5, 0, 0, 72, 23, 45, 61, 81, 30, 21, 57, 0, 0, 15, 71, 77, 55, 0, 0, 65, 0, 13, 64, 0, 43, 27, 34, 0, 56, 24, 22, 0, 78, 0, 0, 9, 29
|57, 0, 0, 0, 59, 0, 36, 0, 0, 0, 18, 0, 0, 0, 19, 54, 76, 74, 16, 0, 46, 1, 0, 75, 73, 32, 6, 77, 81, 0, 9, 56, 35, 21, 39, 0, 53, 0, 63, 33, 0, 20, 0, 34, 8, 58, 41, 55, 0, 70, 68, 71, 0, 0, 12, 7, 0, 28, 26, 27, 72, 29, 51, 37, 11, 42, 79, 44, 49, 78, 0, 40, 31, 80, 60, 0, 30, 10, 67, 5, 61
|42, 0, 56, 80, 23, 43, 40, 11, 39, 14, 41, 63, 49, 0, 71, 0, 51, 0, 3, 28, 70, 9, 0, 0, 72, 0, 15, 57, 34, 24, 62, 55, 52, 67, 0, 64, 0, 0, 38, 0, 27, 35, 60, 59, 47, 7, 69, 78, 12, 5, 66, 37, 31, 0, 81, 73, 16, 20, 58, 33, 0, 48, 22, 0, 17, 0, 0, 0, 0, 18, 0, 75, 76, 8, 0, 50, 68, 0, 74, 21, 0
|37, 77, 21, 9, 81, 0, 67, 13, 0, 75, 0, 57, 62, 59, 52, 26, 16, 22, 0, 34, 79, 23, 0, 31, 12, 45, 0, 0, 63, 0, 0, 29, 0, 0, 71, 6, 25, 0, 61, 58, 0, 56, 0, 55, 0, 51, 8, 24, 0, 39, 49, 0, 0, 11, 0, 0, 0, 43, 0, 44, 17, 10, 54, 0, 20, 19, 15, 0, 60, 66, 74, 4, 36, 41, 28, 0, 35, 18, 0, 0, 0
|7, 53, 77, 0, 6, 22, 71, 0, 21, 0, 72, 17, 41, 70, 42, 10, 64, 49, 0, 1, 0, 0, 25, 0, 63, 46, 61, 0, 37, 14, 3, 58, 0, 73, 52, 79, 51, 16, 0, 26, 0, 59, 80, 9, 55, 0, 0, 50, 39, 34, 0, 0, 76, 4, 69, 66, 38, 12, 20, 0, 27, 23, 44, 30, 35, 0, 48, 36, 0, 47, 68, 0, 13, 11, 0, 40, 5, 24, 33, 29, 0
|0, 40, 45, 11, 29, 60, 0, 0, 17, 73, 66, 75, 0, 62, 15, 16, 0, 0, 52, 0, 0, 0, 0, 59, 0, 0, 72, 4, 47, 43, 5, 48, 0, 12, 69, 0, 8, 0, 0, 0, 63, 0, 54, 0, 46, 0, 64, 22, 7, 20, 51, 53, 32, 0, 0, 79, 0, 33, 77, 81, 0, 49, 65, 0, 76, 0, 26, 0, 74, 44, 0, 55, 25, 36, 41, 0, 0, 0, 9, 71, 30
|70, 0, 0, 12, 41, 0, 0, 0, 80, 0, 11, 39, 0, 52, 68, 0, 79, 33, 53, 0, 18, 73, 0, 0, 2, 48, 51, 46, 76, 0, 0, 75, 17, 9, 42, 0, 22, 77, 5, 64, 81, 61, 0, 0, 74, 40, 16, 0, 28, 13, 26, 0, 69, 19, 55, 0, 0, 0, 45, 56, 62, 0, 0, 27, 65, 54, 34, 72, 66, 0, 21, 57, 0, 4, 47, 0, 0, 0, 23, 63, 0
|0, 0, 0, 39, 48, 81, 0, 51, 0, 8, 0, 26, 4, 61, 0, 0, 47, 37, 0, 27, 20, 41, 0, 12, 10, 75, 71, 0, 55, 7, 59, 0, 22, 45, 0, 0, 0, 50, 29, 0, 21, 49, 17, 19, 33, 42, 0, 0, 74, 54, 11, 0, 36, 0, 80, 9, 25, 32, 70, 5, 52, 0, 6, 0, 43, 18, 73, 79, 23, 2, 53, 15, 69, 64, 46, 68, 76, 38, 44, 0, 0
|59, 66, 5, 0, 46, 0, 79, 0, 4, 0, 36, 0, 69, 1, 38, 21, 0, 53, 22, 0, 14, 0, 0, 8, 39, 76, 0, 20, 11, 29, 0, 33, 0, 49, 0, 56, 30, 32, 27, 75, 70, 0, 72, 25, 0, 52, 23, 41, 15, 0, 45, 0, 0, 44, 78, 16, 58, 0, 54, 43, 71, 57, 0, 13, 42, 77, 9, 0, 37, 0, 81, 0, 65, 51, 3, 80, 73, 55, 0, 61, 10
|31, 52, 10, 69, 32, 47, 68, 16, 13, 55, 20, 7, 0, 27, 24, 30, 0, 46, 21, 35, 0, 67, 0, 15, 4, 0, 45, 23, 0, 0, 71, 0, 0, 0, 26, 41, 0, 42, 40, 79, 36, 0, 0, 0, 57, 9, 0, 58, 0, 65, 2, 3, 33, 37, 39, 0, 73, 0, 76, 19, 63, 17, 64, 49, 5, 56, 75, 0, 8, 60, 25, 62, 48, 0, 53, 18, 81, 0, 66, 0, 54
|0, 49, 28, 2, 0, 20, 64, 0, 73, 76, 3, 81, 44, 22, 0, 80, 59, 77, 34, 78, 0, 26, 55, 30, 17, 40, 74, 15, 0, 54, 25, 57, 13, 0, 66, 51, 60, 0, 37, 18, 0, 7, 0, 0, 0, 47, 21, 5, 62, 46, 70, 8, 56, 68, 48, 31, 0, 36, 0, 42, 0, 41, 75, 39, 0, 69, 1, 71, 50, 61, 32, 58, 0, 0, 0, 0, 16, 52, 12, 19, 45
|0, 24, 23, 0, 38, 0, 19, 0, 0, 0, 5, 54, 0, 0, 29, 48, 56, 0, 9, 77, 66, 33, 16, 0, 69, 80, 0, 2, 64, 34, 31, 0, 0, 0, 36, 65, 47, 0, 3, 11, 76, 15, 73, 45, 28, 27, 71, 67, 0, 55, 0, 0, 12, 49, 60, 0, 7, 26, 30, 51, 74, 0, 53, 41, 63, 40, 4, 22, 46, 52, 59, 0, 78, 43, 8, 42, 62, 17, 21, 20, 50
|18, 55, 67, 0, 0, 0, 0, 36, 54, 43, 9, 0, 45, 12, 32, 74, 0, 23, 0, 0, 42, 0, 5, 44, 0, 62, 19, 30, 27, 77, 0, 0, 0, 50, 21, 68, 71, 52, 69, 31, 0, 0, 10, 78, 41, 66, 0, 17, 1, 48, 80, 57, 73, 0, 46, 22, 8, 40, 34, 13, 0, 11, 15, 14, 51, 64, 0, 7, 33, 20, 16, 3, 28, 0, 26, 0, 0, 39, 0, 37, 35|];