order = 9;
grid = [|81, 0, 7, 0, 40, 13, 0, 35, 30, 68, 21, 50, 18, 0, 63, 60, 20, 0, 8, 16, 15, 0, 3, 0, 76, 56, 54, 37, 5, 0, 0, 0, 74, 65, 0, 22, 71, 58, 0, 29, 6, 80, 41, 0, 0, 0, 47, 57, 43, 11, 0, 70, 44, 34, 51, 0, 33, 0, 0, 78, 14, 0, 0, 0, 64, 62, 26, 39, 72, 0, 73, 25, 9, 55, 75, 53, 0, 66, 46, 2, 12
|44, 0, 17, 2, 15, 0, 11, 0, 0, 24, 16, 71, 10, 62, 0, 0, 1, 0, 0, 23, 0, 67, 4, 0, 53, 51, 0, 27, 57, 0, 28, 0, 9, 68, 0, 0, 48, 54, 0, 30, 0, 37, 0, 61, 59, 65, 63, 14, 46, 74, 42, 29, 49, 81, 0, 0, 0, 22, 0, 72, 13, 50, 32, 77, 7, 0, 21, 0, 19, 0, 0, 0, 0, 0, 0, 0, 58, 26, 69, 0, 3
|49, 0, 9, 26, 50, 20, 31, 0, 4, 0, 33, 0, 67, 0, 58, 0, 69, 0, 0, 0, 0, 62, 47, 19, 80, 14, 0, 54, 0, 34, 76, 72, 13, 0, 46, 0, 0, 0, 60, 32, 0, 25, 75, 0, 7, 66, 79, 8, 45, 16, 71, 15, 40, 0, 37, 0, 21, 77, 29, 0, 0, 56, 0, 53, 24, 81, 0, 70, 0, 48, 10, 41, 23, 68, 64, 42, 61, 0, 17, 0, 0
|0, 0, 54, 55, 72, 19, 0, 0, 1, 64, 0, 0, 52, 0, 25, 7, 14, 11, 33, 0, 0, 17, 10, 26, 65, 0, 42, 0, 24, 43, 69, 71, 0, 0, 0, 66, 0, 15, 9, 81, 0, 0, 56, 23, 31, 80, 0, 0, 6, 76, 30, 2, 18, 77, 73, 3, 0, 0, 27, 67, 0, 0, 61, 0, 35, 47, 16, 5, 46, 36, 79, 45, 0, 44, 4, 0, 0, 37, 0, 13, 21
|0, 16, 37, 0, 80, 21, 42, 68, 0, 0, 73, 56, 0, 0, 66, 0, 26, 72, 0, 28, 0, 59, 70, 50, 0, 58, 57, 17, 6, 0, 11, 23, 40, 62, 61, 0, 4, 0, 10, 0, 34, 64, 13, 52, 74, 1, 5, 24, 0, 19, 0, 78, 22, 67, 0, 49, 20, 30, 9, 0, 0, 36, 44, 31, 32, 29, 60, 0, 0, 0, 0, 51, 0, 45, 48, 0, 0, 7, 0, 27, 39
|0, 29, 0, 10, 25, 57, 0, 0, 39, 81, 0, 27, 32, 43, 53, 0, 80, 19, 46, 0, 0, 34, 0, 0, 30, 60, 22, 78, 18, 33, 52, 47, 0, 21, 12, 41, 1, 65, 68, 36, 0, 11, 0, 66, 16, 54, 0, 0, 72, 13, 37, 0, 0, 51, 26, 76, 0, 70, 5, 35, 7, 6, 45, 0, 28, 0, 8, 44, 0, 0, 17, 0, 0, 0, 74, 50, 0, 0, 56, 0, 73
|0, 43, 14, 67, 0, 32, 34, 41, 0, 8, 47, 6, 42, 45, 0, 13, 9, 4, 49, 25, 11, 18, 7, 64, 0, 1, 24, 0, 0, 0, 0, 30, 63, 29, 77, 20, 40, 0, 26, 44, 2, 33, 3, 28, 72, 50, 0, 0, 0, 52, 53, 0, 75, 17, 16, 0, 0, 0, 0, 39, 0, 15, 0, 0, 66, 56, 0, 0, 0, 0, 23, 71, 70, 60, 22, 51, 0, 76, 0, 80, 36
|0, 36, 69, 28, 70, 46, 0, 65, 0, 0, 0, 29, 0, 0, 48, 0, 5, 38, 0, 2, 6, 0, 66, 37, 32, 45, 68, 0, 14, 0, 3, 44, 0, 67, 7, 79, 0, 0, 43, 0, 0, 35, 47, 62, 42, 41, 59, 39, 64, 73, 0, 20, 0, 26, 0, 4, 71, 11, 0, 17, 0, 55, 0, 0, 13, 27, 0, 0, 0, 50, 34, 0, 33, 63, 1, 0, 24, 54, 10, 72, 18
|48, 18, 6, 66, 0, 58, 0, 73, 0, 65, 49, 44, 3, 17, 40, 70, 74, 23, 75, 13, 0, 0, 41, 71, 0, 0, 78, 59, 0, 15, 26, 80, 0, 10, 0, 32, 0, 5, 53, 46, 0, 79, 0, 0, 50, 9, 0, 36, 0, 0, 0, 0, 56, 0, 54, 68, 12, 57, 24, 2, 0, 81, 0, 22, 61, 14, 0, 0, 63, 43, 37, 0, 31, 19, 52, 77, 16, 34, 0, 30, 0
|6, 0, 8, 40, 0, 71, 68, 32, 44, 4, 35, 20, 12, 0, 11, 0, 0, 0, 15, 0, 61, 80, 69, 18, 0, 0, 0, 79, 17, 0, 0, 73, 0, 34, 13, 0, 54, 0, 7, 58, 55, 31, 53, 81, 77, 75, 23, 49, 24, 0, 52, 28, 16, 38, 0, 0, 0, 47, 51, 1, 65, 0, 78, 42, 29, 60, 0, 72, 0, 5, 0, 62, 2, 0, 0, 0, 46, 41, 0, 3, 0
|0, 0, 64, 52, 28, 56, 0, 72, 0, 71, 42, 0, 5, 80, 51, 0, 3, 57, 73, 60, 0, 39, 62, 32, 0, 74, 50, 0, 7, 70, 65, 0, 0, 0, 0, 63, 24, 0, 12, 37, 30, 15, 4, 20, 0, 0, 33, 13, 0, 21, 1, 34, 0, 9, 59, 0, 0, 48, 54, 0, 36, 10, 49, 17, 0, 55, 0, 23, 0, 11, 26, 0, 66, 0, 31, 78, 45, 67, 18, 77, 76
|0, 0, 0, 21, 73, 17, 33, 76, 0, 0, 18, 0, 8, 0, 45, 34, 79, 0, 23, 46, 52, 0, 24, 29, 0, 55, 0, 41, 66, 26, 61, 0, 5, 78, 80, 40, 62, 25, 0, 71, 0, 13, 16, 9, 0, 0, 56, 2, 48, 59, 3, 0, 0, 19, 0, 0, 27, 0, 12, 4, 0, 32, 0, 0, 36, 75, 0, 30, 0, 69, 0, 31, 6, 11, 14, 65, 10, 60, 50, 49, 20
|42, 59, 39, 13, 74, 0, 62, 0, 0, 44, 68, 0, 28, 73, 0, 0, 0, 29, 21, 31, 0, 0, 76, 75, 38, 65, 27, 23, 0, 32, 0, 12, 11, 3, 37, 15, 18, 17, 48, 72, 0, 61, 45, 47, 60, 0, 0, 78, 79, 30, 54, 71, 66, 0, 70, 25, 41, 0, 0, 6, 0, 0, 52, 20, 56, 7, 50, 77, 0, 49, 53, 0, 19, 4, 0, 26, 5, 8, 55, 51, 0
|19, 5, 34, 0, 0, 22, 0, 0, 26, 0, 0, 0, 48, 77, 16, 0, 0, 59, 47, 78, 68, 7, 56, 30, 67, 0, 0, 0, 29, 60, 0, 76, 27, 0, 0, 50, 52, 69, 0, 66, 64, 51, 35, 8, 57, 11, 46, 70, 0, 0, 4, 0, 0, 0, 80, 17, 18, 0, 61, 58, 0, 53, 42, 71, 0, 6, 43, 0, 73, 14, 40, 21, 0, 9, 0, 15, 39, 75, 44, 37, 0
|0, 0, 0, 47, 0, 3, 37, 66, 43, 0, 24, 58, 14, 0, 32, 6, 54, 52, 16, 42, 45, 53, 11, 63, 0, 64, 0, 0, 44, 0, 0, 0, 0, 31, 75, 0, 0, 76, 36, 38, 19, 0, 10, 49, 65, 0, 0, 0, 7, 81, 72, 0, 20, 22, 0, 0, 50, 0, 0, 56, 71, 74, 13, 61, 0, 41, 0, 25, 0, 78, 0, 9, 80, 79, 34, 28, 0, 0, 59, 33, 70
|2, 46, 65, 0, 75, 70, 7, 0, 16, 26, 78, 0, 1, 15, 61, 17, 19, 40, 37, 9, 0, 51, 58, 0, 48, 0, 0, 14, 0, 6, 36, 59, 30, 4, 0, 0, 0, 50, 0, 79, 0, 0, 21, 0, 41, 55, 76, 0, 31, 43, 77, 5, 74, 32, 62, 0, 64, 69, 0, 0, 11, 0, 0, 81, 18, 10, 45, 3, 0, 34, 80, 33, 12, 0, 13, 0, 0, 68, 42, 0, 0
|0, 11, 4, 81, 0, 14, 12, 18, 63, 53, 66, 0, 0, 0, 65, 10, 41, 76, 26, 22, 77, 0, 6, 59, 3, 20, 71, 0, 19, 0, 0, 0, 33, 51, 57, 0, 34, 23, 0, 78, 67, 42, 2, 75, 0, 17, 50, 62, 58, 68, 45, 0, 8, 61, 79, 40, 60, 21, 44, 29, 5, 24, 30, 15, 52, 70, 0, 37, 0, 54, 0, 39, 0, 0, 0, 35, 7, 72, 0, 64, 32
|57, 78, 24, 77, 30, 54, 0, 80, 49, 22, 60, 0, 38, 56, 0, 0, 62, 43, 28, 0, 36, 13, 34, 0, 79, 0, 0, 0, 0, 2, 42, 8, 69, 52, 20, 21, 59, 74, 0, 3, 68, 73, 0, 0, 0, 15, 40, 27, 44, 47, 0, 6, 39, 18, 76, 75, 37, 0, 0, 9, 26, 0, 31, 19, 1, 46, 35, 65, 32, 51, 48, 0, 0, 61, 81, 16, 23, 0, 25, 53, 29
|73, 76, 1, 60, 0, 40, 5, 0, 18, 7, 0, 0, 17, 0, 49, 48, 59, 39, 27, 37, 0, 55, 14, 20, 0, 0, 31, 29, 58, 12, 67, 66, 72, 0, 78, 61, 0, 41, 28, 0, 65, 53, 26, 2, 0, 0, 0, 32, 57, 79, 75, 46, 6, 0, 15, 70, 68, 0, 0, 0, 63, 44, 9, 33, 25, 64, 34, 0, 0, 56, 0, 0, 81, 69, 35, 0, 8, 71, 45, 62, 30
|70, 81, 53, 56, 59, 36, 43, 74, 10, 62, 76, 0, 33, 22, 0, 0, 29, 0, 1, 30, 35, 44, 57, 0, 5, 69, 80, 13, 47, 0, 75, 0, 0, 0, 79, 64, 50, 0, 0, 45, 21, 18, 78, 67, 25, 4, 72, 7, 63, 0, 38, 68, 37, 20, 34, 54, 49, 32, 71, 11, 77, 8, 26, 0, 17, 28, 48, 61, 0, 0, 0, 15, 14, 23, 0, 9, 0, 51, 3, 0, 0
|50, 24, 32, 71, 58, 8, 38, 67, 0, 2, 56, 5, 13, 68, 0, 64, 36, 28, 4, 18, 17, 0, 0, 0, 46, 77, 16, 76, 54, 80, 6, 33, 19, 0, 9, 23, 0, 0, 70, 0, 0, 0, 0, 1, 0, 0, 12, 52, 15, 61, 55, 14, 25, 48, 42, 0, 7, 0, 57, 27, 53, 78, 51, 72, 47, 35, 69, 81, 3, 73, 0, 75, 21, 0, 40, 63, 60, 10, 29, 31, 49
|25, 13, 78, 35, 55, 7, 77, 51, 34, 6, 52, 72, 0, 0, 10, 53, 15, 20, 11, 65, 47, 63, 0, 54, 39, 71, 56, 0, 26, 21, 49, 22, 3, 60, 8, 0, 0, 4, 0, 68, 17, 76, 40, 69, 0, 0, 70, 0, 66, 0, 44, 9, 5, 41, 0, 48, 29, 31, 58, 12, 46, 1, 73, 0, 0, 0, 42, 27, 30, 57, 62, 50, 28, 0, 19, 59, 64, 0, 0, 0, 0
|61, 39, 44, 23, 27, 42, 0, 0, 0, 66, 70, 34, 57, 21, 35, 8, 77, 0, 68, 0, 62, 58, 0, 3, 75, 24, 10, 18, 59, 20, 37, 16, 56, 48, 0, 17, 0, 0, 51, 60, 0, 32, 64, 74, 73, 2, 26, 1, 0, 31, 29, 49, 65, 36, 0, 80, 28, 0, 41, 5, 4, 0, 50, 0, 67, 0, 0, 0, 0, 55, 45, 46, 43, 25, 76, 7, 15, 12, 6, 54, 33
|4, 0, 29, 31, 49, 6, 66, 64, 0, 0, 50, 0, 44, 58, 0, 0, 51, 37, 72, 70, 0, 8, 12, 13, 9, 0, 0, 0, 0, 52, 0, 24, 0, 5, 0, 71, 0, 48, 15, 0, 3, 0, 57, 54, 0, 78, 0, 33, 0, 40, 0, 16, 77, 62, 18, 0, 0, 0, 0, 0, 0, 0, 35, 0, 14, 0, 36, 74, 79, 26, 0, 60, 1, 56, 65, 46, 47, 17, 41, 20, 0
|0, 41, 57, 15, 20, 0, 0, 0, 0, 0, 0, 1, 0, 71, 24, 61, 47, 18, 0, 0, 64, 73, 0, 25, 66, 49, 26, 0, 70, 45, 40, 14, 4, 30, 69, 77, 9, 39, 75, 0, 0, 0, 7, 72, 36, 0, 21, 80, 11, 53, 10, 50, 0, 56, 0, 13, 17, 0, 0, 60, 33, 0, 74, 5, 78, 0, 59, 8, 0, 0, 31, 76, 0, 32, 0, 0, 0, 0, 68, 16, 2
|0, 45, 52, 0, 2, 72, 14, 11, 48, 12, 0, 0, 0, 41, 9, 26, 32, 25, 29, 7, 0, 61, 21, 0, 78, 0, 0, 38, 1, 0, 0, 62, 15, 43, 0, 51, 30, 19, 0, 13, 0, 55, 0, 0, 49, 60, 34, 0, 54, 23, 59, 8, 0, 27, 3, 64, 67, 0, 56, 69, 0, 65, 47, 0, 37, 20, 58, 71, 44, 10, 77, 68, 0, 74, 50, 70, 66, 57, 0, 0, 53
|30, 26, 62, 80, 68, 65, 17, 0, 0, 3, 43, 11, 79, 42, 14, 54, 60, 69, 0, 36, 0, 32, 2, 15, 0, 33, 45, 34, 63, 10, 0, 50, 57, 35, 25, 53, 0, 8, 27, 56, 58, 46, 12, 59, 0, 0, 71, 74, 73, 51, 18, 0, 64, 39, 23, 66, 55, 20, 0, 19, 0, 40, 37, 70, 0, 1, 4, 0, 41, 0, 7, 24, 72, 5, 44, 38, 0, 0, 78, 67, 61
|65, 0, 77, 61, 0, 0, 4, 29, 42, 0, 69, 0, 2, 7, 0, 49, 18, 53, 67, 21, 0, 24, 0, 0, 57, 32, 34, 0, 0, 37, 0, 0, 6, 26, 81, 12, 0, 52, 0, 47, 48, 78, 51, 0, 55, 23, 10, 58, 13, 0, 80, 63, 70, 0, 40, 43, 56, 66, 14, 68, 15, 16, 72, 0, 46, 19, 38, 31, 74, 22, 50, 0, 54, 0, 17, 0, 0, 0, 35, 5, 25
|22, 48, 59, 24, 38, 26, 1, 0, 0, 0, 0, 32, 60, 27, 47, 12, 0, 0, 25, 0, 69, 0, 17, 61, 31, 0, 7, 11, 72, 0, 0, 0, 42, 0, 5, 0, 13, 0, 79, 2, 37, 74, 6, 53, 0, 0, 66, 16, 30, 50, 39, 0, 0, 14, 67, 57, 78, 3, 64, 55, 62, 54, 18, 75, 0, 43, 0, 73, 23, 44, 35, 0, 65, 0, 20, 68, 80, 0, 0, 34, 0
|0, 27, 70, 6, 81, 0, 8, 14, 74, 0, 0, 0, 66, 65, 75, 57, 64, 0, 0, 54, 55, 12, 15, 0, 52, 23, 53, 22, 49, 35, 0, 43, 76, 63, 18, 78, 20, 0, 0, 4, 56, 0, 19, 25, 28, 0, 0, 0, 3, 48, 34, 44, 0, 7, 50, 0, 0, 71, 39, 32, 60, 0, 21, 26, 68, 17, 33, 0, 59, 13, 0, 67, 0, 62, 0, 11, 0, 38, 0, 40, 0
|0, 0, 10, 5, 0, 55, 0, 0, 41, 33, 0, 16, 26, 38, 0, 40, 76, 0, 0, 62, 65, 56, 46, 2, 0, 43, 51, 24, 0, 79, 50, 52, 0, 77, 60, 27, 0, 3, 49, 69, 1, 0, 30, 63, 0, 37, 0, 0, 74, 25, 0, 64, 0, 72, 0, 6, 42, 4, 45, 0, 19, 28, 34, 0, 0, 0, 9, 54, 61, 47, 0, 7, 73, 78, 0, 0, 53, 32, 0, 29, 48
|7, 0, 0, 54, 0, 80, 13, 0, 0, 17, 23, 36, 71, 0, 78, 30, 8, 0, 45, 49, 42, 41, 19, 0, 18, 26, 59, 0, 75, 0, 0, 64, 0, 16, 0, 0, 67, 14, 34, 57, 73, 0, 39, 40, 58, 0, 35, 43, 0, 20, 46, 33, 32, 6, 24, 29, 22, 65, 0, 0, 9, 38, 77, 69, 5, 25, 70, 66, 53, 72, 0, 56, 4, 2, 0, 10, 0, 63, 61, 0, 0
|18, 0, 0, 0, 0, 78, 56, 20, 0, 19, 0, 15, 0, 52, 3, 0, 45, 5, 44, 0, 79, 0, 37, 0, 0, 0, 0, 0, 0, 40, 0, 46, 25, 7, 0, 69, 27, 10, 76, 31, 71, 72, 0, 77, 66, 53, 49, 9, 36, 0, 12, 0, 4, 0, 0, 47, 35, 74, 13, 61, 75, 0, 33, 39, 58, 21, 62, 0, 28, 64, 0, 8, 16, 81, 0, 14, 22, 6, 0, 0, 23
|0, 15, 76, 0, 32, 25, 39, 69, 35, 73, 67, 21, 0, 63, 56, 0, 34, 1, 50, 74, 3, 33, 22, 40, 58, 9, 20, 0, 13, 0, 66, 0, 55, 61, 0, 14, 0, 0, 0, 0, 5, 24, 62, 80, 17, 18, 54, 0, 77, 75, 47, 59, 0, 68, 0, 26, 0, 53, 0, 44, 12, 37, 10, 52, 0, 0, 2, 78, 4, 27, 16, 0, 42, 8, 41, 0, 0, 79, 57, 60, 0
|43, 66, 0, 62, 9, 0, 46, 75, 0, 48, 0, 0, 25, 37, 0, 74, 42, 22, 64, 0, 14, 35, 28, 0, 10, 0, 77, 67, 73, 53, 0, 34, 0, 17, 0, 0, 60, 36, 54, 0, 15, 0, 0, 0, 0, 24, 2, 61, 78, 1, 51, 81, 0, 55, 63, 58, 5, 0, 80, 23, 31, 27, 11, 79, 6, 0, 0, 0, 20, 0, 30, 49, 0, 76, 56, 0, 69, 44, 19, 0, 0
|33, 63, 0, 0, 0, 79, 0, 57, 23, 50, 0, 61, 68, 0, 29, 35, 72, 31, 71, 66, 75, 0, 13, 73, 6, 0, 30, 0, 10, 41, 58, 45, 0, 15, 0, 65, 26, 0, 0, 9, 32, 43, 22, 11, 64, 0, 8, 40, 17, 0, 56, 52, 0, 76, 25, 2, 48, 51, 0, 59, 81, 7, 36, 0, 0, 24, 1, 0, 60, 0, 14, 34, 77, 46, 67, 12, 18, 0, 0, 39, 74
|68, 75, 12, 46, 11, 50, 22, 21, 8, 0, 0, 47, 80, 14, 27, 0, 0, 34, 0, 0, 60, 0, 54, 58, 63, 3, 69, 0, 0, 76, 35, 0, 81, 53, 17, 4, 23, 0, 71, 43, 59, 0, 5, 0, 79, 0, 37, 0, 16, 39, 70, 19, 0, 0, 44, 41, 61, 56, 15, 30, 10, 26, 0, 0, 0, 2, 78, 36, 0, 45, 29, 77, 57, 0, 33, 66, 0, 55, 64, 0, 1
|0, 0, 43, 0, 65, 39, 0, 78, 0, 16, 19, 10, 21, 18, 70, 59, 0, 58, 22, 15, 5, 57, 0, 66, 34, 8, 79, 42, 64, 44, 41, 67, 80, 33, 0, 49, 37, 72, 0, 27, 74, 0, 0, 7, 24, 0, 0, 63, 0, 9, 69, 31, 81, 50, 48, 0, 13, 75, 38, 40, 2, 46, 0, 0, 0, 0, 28, 14, 68, 0, 0, 53, 0, 17, 25, 73, 54, 36, 12, 52, 35
|80, 4, 0, 18, 0, 66, 6, 42, 19, 29, 30, 51, 72, 0, 71, 5, 2, 0, 70, 27, 24, 40, 0, 46, 77, 0, 41, 36, 65, 0, 0, 9, 61, 0, 0, 0, 31, 68, 78, 0, 49, 47, 0, 0, 56, 44, 0, 48, 0, 0, 33, 35, 12, 0, 0, 79, 0, 37, 55, 0, 50, 59, 64, 21, 0, 0, 0, 0, 17, 32, 22, 73, 45, 28, 0, 43, 34, 14, 0, 0, 81
|38, 70, 31, 0, 14, 0, 0, 0, 33, 36, 0, 48, 0, 0, 13, 0, 0, 17, 52, 0, 81, 45, 44, 1, 55, 0, 0, 46, 0, 0, 72, 0, 2, 0, 0, 0, 35, 62, 0, 0, 42, 20, 25, 0, 11, 73, 0, 64, 0, 0, 26, 56, 68, 24, 0, 74, 65, 0, 47, 34, 66, 5, 7, 6, 19, 4, 79, 0, 12, 16, 39, 80, 76, 15, 61, 40, 0, 77, 0, 78, 0
|3, 54, 0, 0, 62, 0, 52, 2, 57, 0, 41, 81, 77, 28, 22, 15, 0, 24, 61, 64, 0, 0, 9, 76, 4, 0, 67, 0, 0, 16, 0, 0, 47, 71, 43, 13, 36, 53, 0, 6, 80, 38, 29, 45, 32, 27, 1, 0, 65, 10, 0, 0, 0, 66, 8, 0, 0, 18, 0, 63, 0, 19, 60, 46, 50, 40, 0, 0, 35, 42, 72, 0, 37, 58, 49, 0, 74, 48, 70, 26, 44
|15, 35, 27, 29, 5, 49, 53, 0, 0, 79, 0, 55, 64, 0, 12, 0, 44, 54, 17, 0, 26, 37, 36, 65, 16, 13, 0, 77, 74, 50, 56, 78, 0, 18, 40, 0, 0, 0, 0, 0, 8, 67, 66, 0, 2, 76, 45, 0, 38, 0, 43, 30, 14, 0, 22, 39, 0, 0, 0, 62, 57, 0, 25, 11, 33, 0, 0, 48, 0, 0, 70, 81, 20, 0, 68, 0, 51, 3, 32, 19, 41
|0, 20, 28, 74, 0, 23, 44, 79, 77, 39, 40, 0, 61, 32, 46, 11, 0, 73, 0, 0, 0, 0, 71, 6, 62, 0, 12, 21, 0, 25, 0, 0, 0, 0, 26, 3, 64, 81, 14, 17, 4, 75, 0, 34, 0, 0, 36, 0, 0, 72, 0, 58, 2, 15, 78, 27, 70, 35, 0, 33, 76, 49, 80, 65, 41, 0, 0, 1, 0, 0, 13, 38, 0, 7, 47, 0, 0, 0, 8, 0, 0
|40, 47, 0, 37, 63, 59, 0, 81, 13, 0, 8, 62, 4, 0, 0, 38, 53, 65, 0, 56, 25, 78, 0, 74, 49, 39, 14, 0, 0, 0, 0, 0, 32, 1, 31, 34, 12, 46, 57, 0, 26, 0, 55, 10, 15, 0, 51, 77, 0, 22, 41, 17, 54, 11, 0, 69, 6, 0, 28, 36, 0, 45, 0, 0, 0, 44, 0, 67, 64, 0, 0, 18, 27, 50, 16, 0, 79, 0, 30, 23, 0
|0, 25, 0, 0, 0, 64, 73, 17, 0, 67, 45, 0, 23, 78, 0, 66, 68, 50, 0, 72, 0, 47, 35, 43, 33, 0, 11, 5, 60, 59, 0, 58, 39, 19, 0, 0, 70, 16, 44, 0, 40, 0, 0, 22, 0, 32, 57, 71, 49, 0, 28, 79, 34, 42, 0, 51, 77, 1, 81, 3, 54, 12, 24, 0, 20, 30, 37, 15, 8, 31, 0, 61, 62, 0, 2, 6, 13, 29, 38, 0, 46
|45, 8, 63, 0, 42, 35, 0, 53, 66, 61, 48, 59, 46, 0, 28, 72, 39, 12, 0, 0, 22, 71, 16, 0, 0, 5, 2, 75, 56, 0, 23, 0, 36, 80, 19, 11, 7, 32, 64, 52, 60, 26, 76, 0, 34, 0, 6, 0, 20, 0, 74, 37, 10, 0, 65, 50, 79, 33, 1, 0, 44, 4, 69, 54, 73, 31, 0, 17, 51, 0, 81, 43, 41, 0, 3, 27, 0, 49, 9, 47, 0
|13, 32, 20, 65, 21, 75, 28, 12, 5, 0, 34, 14, 7, 57, 54, 62, 0, 0, 66, 0, 18, 0, 0, 78, 73, 11, 0, 64, 2, 0, 44, 0, 1, 9, 41, 52, 68, 47, 58, 24, 79, 70, 0, 4, 51, 63, 55, 0, 19, 35, 27, 39, 80, 16, 43, 36, 0, 46, 67, 76, 72, 48, 0, 45, 30, 49, 56, 50, 26, 0, 0, 74, 53, 10, 69, 71, 0, 61, 0, 17, 38
|29, 22, 46, 73, 0, 18, 0, 62, 0, 1, 71, 9, 0, 66, 0, 0, 0, 42, 48, 0, 38, 4, 30, 39, 0, 76, 32, 53, 12, 47, 59, 49, 0, 14, 54, 45, 74, 28, 2, 8, 23, 0, 0, 0, 13, 57, 0, 0, 70, 64, 17, 0, 21, 43, 11, 78, 16, 0, 0, 31, 58, 41, 81, 0, 10, 68, 3, 0, 0, 35, 0, 0, 50, 72, 80, 60, 6, 56, 67, 24, 19
|56, 10, 0, 70, 36, 61, 72, 50, 0, 0, 5, 33, 15, 40, 81, 0, 25, 3, 6, 0, 0, 69, 27, 24, 0, 54, 0, 51, 46, 0, 57, 26, 0, 20, 32, 73, 41, 75, 67, 80, 14, 0, 0, 18, 0, 8, 58, 59, 52, 7, 9, 60, 62, 71, 2, 63, 0, 38, 30, 37, 0, 42, 53, 0, 23, 76, 77, 64, 0, 0, 0, 0, 11, 48, 55, 39, 31, 21, 0, 0, 28
|0, 74, 0, 48, 0, 0, 0, 0, 31, 69, 0, 26, 19, 0, 77, 32, 65, 6, 63, 1, 67, 64, 79, 0, 8, 52, 75, 7, 16, 62, 34, 5, 0, 0, 10, 0, 0, 78, 0, 11, 38, 9, 42, 37, 45, 0, 0, 0, 22, 2, 68, 23, 0, 47, 71, 0, 73, 12, 0, 51, 0, 29, 14, 36, 21, 72, 39, 0, 57, 61, 27, 44, 0, 30, 15, 25, 0, 46, 40, 0, 58
|64, 38, 19, 0, 52, 0, 80, 37, 81, 75, 44, 31, 76, 10, 21, 0, 67, 47, 77, 68, 41, 0, 26, 23, 28, 29, 0, 65, 3, 0, 8, 0, 78, 27, 0, 58, 73, 0, 16, 0, 0, 50, 54, 55, 39, 0, 53, 4, 56, 0, 36, 48, 42, 30, 0, 0, 57, 0, 0, 7, 34, 0, 0, 0, 60, 69, 11, 24, 71, 0, 12, 32, 0, 0, 51, 5, 0, 0, 66, 0, 43
|51, 14, 0, 0, 0, 0, 71, 26, 6, 27, 58, 4, 0, 24, 20, 78, 0, 8, 74, 0, 57, 0, 53, 0, 37, 25, 40, 69, 0, 55, 0, 35, 31, 76, 30, 43, 3, 59, 0, 0, 66, 0, 17, 48, 22, 72, 81, 73, 0, 29, 11, 0, 46, 28, 0, 32, 54, 13, 0, 0, 64, 47, 70, 0, 38, 79, 19, 62, 67, 0, 15, 0, 36, 42, 12, 0, 1, 2, 7, 0, 65
|58, 0, 15, 0, 4, 69, 16, 7, 27, 70, 36, 2, 37, 64, 38, 50, 11, 0, 43, 0, 0, 9, 72, 47, 51, 17, 60, 0, 0, 68, 81, 0, 22, 0, 33, 0, 0, 35, 30, 0, 53, 71, 65, 0, 20, 12, 75, 76, 0, 14, 79, 1, 78, 0, 21, 77, 80, 19, 0, 0, 0, 3, 0, 28, 0, 18, 29, 46, 0, 0, 6, 66, 59, 57, 45, 52, 26, 23, 73, 8, 0
|0, 0, 0, 57, 0, 0, 0, 59, 0, 80, 0, 68, 43, 13, 41, 18, 73, 0, 65, 20, 70, 36, 45, 55, 12, 0, 3, 71, 40, 4, 0, 37, 66, 25, 50, 0, 63, 1, 46, 21, 69, 6, 0, 0, 0, 51, 38, 44, 0, 77, 61, 0, 26, 0, 0, 5, 23, 52, 49, 15, 28, 60, 27, 0, 0, 16, 14, 22, 58, 8, 42, 2, 32, 64, 29, 76, 62, 0, 33, 0, 75
|59, 0, 74, 0, 26, 0, 49, 0, 12, 40, 6, 8, 20, 0, 19, 39, 38, 0, 34, 0, 9, 0, 25, 7, 42, 0, 23, 1, 45, 54, 78, 53, 68, 66, 55, 0, 17, 51, 72, 0, 0, 0, 81, 0, 4, 0, 0, 79, 0, 0, 63, 3, 0, 58, 13, 44, 15, 0, 0, 14, 70, 71, 0, 0, 0, 0, 31, 32, 0, 0, 0, 0, 30, 35, 77, 0, 0, 64, 24, 28, 57
|0, 2, 23, 64, 71, 63, 0, 30, 53, 37, 0, 65, 0, 16, 73, 0, 0, 80, 0, 81, 78, 52, 0, 31, 11, 0, 38, 50, 77, 22, 60, 3, 0, 79, 76, 10, 69, 42, 0, 74, 0, 54, 48, 0, 0, 0, 39, 55, 5, 44, 35, 51, 0, 0, 28, 0, 0, 62, 72, 8, 0, 34, 0, 0, 27, 0, 40, 58, 75, 0, 0, 57, 26, 12, 6, 13, 29, 19, 0, 68, 47
|0, 0, 0, 0, 6, 38, 25, 24, 0, 63, 12, 13, 75, 55, 43, 44, 10, 0, 54, 3, 0, 28, 32, 4, 0, 0, 36, 0, 23, 73, 0, 11, 48, 0, 64, 0, 80, 31, 37, 39, 0, 0, 61, 68, 30, 34, 41, 50, 76, 66, 0, 62, 0, 74, 0, 21, 0, 2, 46, 47, 49, 58, 0, 16, 0, 0, 18, 35, 78, 17, 5, 19, 67, 27, 60, 69, 0, 33, 52, 1, 45
|47, 58, 42, 19, 39, 62, 15, 70, 0, 0, 27, 57, 0, 0, 0, 52, 66, 0, 24, 0, 0, 0, 68, 14, 72, 0, 0, 40, 43, 17, 16, 41, 0, 75, 0, 29, 25, 18, 13, 0, 0, 1, 0, 71, 53, 30, 0, 31, 81, 78, 8, 32, 36, 4, 74, 0, 0, 60, 22, 54, 38, 0, 3, 37, 0, 77, 63, 6, 45, 28, 0, 20, 44, 80, 0, 0, 2, 0, 0, 7, 10
|0, 3, 45, 69, 0, 34, 0, 8, 0, 28, 64, 30, 9, 0, 42, 56, 0, 14, 0, 0, 27, 6, 48, 12, 0, 79, 74, 15, 32, 7, 0, 61, 0, 81, 72, 0, 0, 0, 73, 22, 0, 63, 0, 50, 70, 71, 16, 0, 0, 0, 0, 75, 0, 49, 0, 65, 0, 40, 0, 41, 29, 0, 20, 10, 0, 13, 76, 59, 33, 62, 60, 23, 78, 0, 53, 0, 17, 39, 58, 0, 51
|66, 55, 61, 0, 78, 16, 51, 0, 60, 54, 7, 0, 0, 0, 0, 41, 71, 33, 0, 8, 13, 0, 0, 0, 1, 40, 76, 6, 9, 0, 80, 69, 37, 58, 2, 0, 15, 0, 20, 28, 77, 0, 0, 21, 67, 38, 0, 25, 29, 12, 0, 24, 23, 59, 57, 73, 0, 0, 63, 45, 0, 0, 68, 3, 0, 48, 0, 0, 56, 53, 0, 0, 46, 31, 32, 0, 0, 50, 22, 42, 34
|20, 80, 18, 50, 0, 76, 48, 36, 28, 60, 32, 0, 0, 69, 0, 24, 0, 45, 19, 41, 59, 26, 0, 17, 44, 66, 58, 33, 0, 0, 30, 0, 0, 39, 14, 25, 6, 27, 0, 23, 75, 0, 34, 79, 0, 0, 77, 0, 2, 0, 13, 22, 72, 0, 1, 0, 81, 10, 37, 64, 0, 67, 0, 43, 12, 9, 0, 0, 42, 7, 47, 0, 5, 54, 0, 61, 49, 62, 4, 71, 8
|41, 7, 81, 11, 67, 0, 10, 5, 0, 34, 0, 78, 58, 46, 23, 77, 70, 51, 0, 0, 73, 15, 0, 35, 71, 37, 65, 0, 4, 13, 0, 0, 0, 0, 0, 26, 57, 60, 52, 64, 0, 0, 32, 19, 9, 6, 28, 53, 0, 54, 0, 80, 45, 0, 61, 42, 31, 17, 75, 66, 0, 0, 55, 68, 39, 0, 24, 2, 25, 21, 69, 0, 3, 59, 0, 36, 63, 40, 48, 0, 0
|17, 44, 0, 68, 57, 31, 65, 33, 73, 49, 72, 0, 11, 2, 62, 3, 48, 15, 10, 77, 16, 0, 0, 45, 0, 47, 29, 8, 36, 63, 0, 21, 28, 70, 34, 24, 0, 55, 0, 0, 46, 56, 0, 38, 26, 7, 61, 0, 0, 27, 14, 40, 0, 0, 69, 19, 76, 6, 32, 50, 35, 80, 23, 0, 4, 0, 71, 51, 81, 79, 54, 30, 74, 0, 18, 41, 25, 43, 20, 75, 9
|52, 6, 16, 22, 0, 5, 2, 15, 0, 0, 0, 40, 62, 26, 74, 0, 43, 0, 14, 34, 0, 75, 0, 0, 0, 28, 70, 73, 33, 0, 0, 0, 60, 0, 1, 0, 45, 0, 21, 19, 72, 41, 79, 65, 0, 3, 25, 0, 59, 55, 50, 4, 63, 0, 0, 71, 30, 0, 11, 57, 0, 68, 46, 48, 51, 42, 0, 47, 39, 9, 67, 35, 61, 29, 0, 37, 44, 69, 81, 32, 64
|27, 9, 75, 51, 53, 74, 19, 44, 38, 0, 10, 67, 47, 8, 0, 29, 37, 68, 58, 5, 66, 49, 33, 42, 0, 0, 63, 0, 28, 11, 4, 81, 0, 6, 45, 48, 16, 56, 0, 61, 50, 52, 23, 43, 54, 31, 64, 26, 14, 36, 15, 0, 24, 21, 0, 1, 0, 0, 0, 80, 79, 0, 76, 40, 69, 32, 41, 7, 0, 60, 2, 0, 13, 77, 0, 30, 0, 73, 0, 35, 17
|63, 71, 47, 20, 69, 12, 45, 0, 70, 0, 57, 22, 0, 0, 5, 1, 55, 0, 32, 24, 74, 0, 43, 53, 64, 44, 72, 0, 39, 0, 51, 68, 46, 36, 58, 18, 0, 2, 29, 40, 76, 60, 33, 0, 10, 16, 42, 41, 80, 62, 81, 27, 0, 79, 4, 9, 75, 49, 34, 48, 37, 35, 8, 66, 59, 11, 0, 56, 0, 65, 38, 17, 52, 0, 78, 23, 50, 25, 26, 15, 0
|23, 68, 80, 34, 17, 0, 50, 0, 0, 38, 61, 0, 69, 48, 7, 9, 24, 75, 0, 45, 0, 10, 65, 16, 13, 0, 0, 19, 20, 66, 43, 0, 14, 12, 0, 0, 49, 37, 35, 51, 36, 81, 59, 30, 78, 28, 0, 47, 18, 0, 0, 67, 76, 2, 0, 72, 32, 29, 0, 26, 0, 0, 5, 64, 57, 53, 73, 21, 1, 63, 0, 79, 8, 0, 54, 58, 41, 74, 31, 0, 60
|54, 0, 79, 76, 0, 24, 32, 61, 7, 14, 0, 45, 39, 0, 0, 0, 0, 2, 35, 29, 37, 23, 0, 0, 59, 0, 0, 10, 8, 65, 13, 55, 34, 41, 16, 74, 0, 0, 4, 0, 31, 0, 27, 0, 47, 77, 19, 30, 71, 0, 48, 12, 1, 44, 56, 52, 51, 28, 50, 0, 0, 69, 43, 62, 72, 0, 22, 68, 0, 33, 75, 0, 40, 49, 38, 0, 21, 0, 53, 9, 66
|37, 0, 0, 0, 29, 73, 55, 48, 0, 41, 79, 0, 0, 0, 80, 0, 78, 16, 3, 26, 1, 20, 0, 81, 0, 27, 47, 2, 15, 0, 17, 40, 71, 64, 53, 0, 11, 34, 74, 75, 0, 0, 0, 24, 8, 5, 32, 72, 23, 6, 66, 0, 0, 46, 0, 7, 19, 54, 0, 38, 42, 0, 0, 0, 0, 12, 10, 52, 77, 0, 25, 0, 0, 0, 59, 62, 0, 0, 0, 45, 14
|0, 30, 66, 42, 0, 1, 81, 31, 65, 0, 54, 0, 27, 33, 64, 71, 46, 0, 0, 40, 0, 0, 0, 0, 69, 41, 9, 47, 0, 0, 24, 0, 0, 50, 22, 70, 14, 77, 0, 0, 44, 7, 20, 0, 38, 39, 52, 34, 8, 60, 0, 0, 0, 75, 12, 10, 0, 63, 62, 73, 0, 21, 2, 0, 45, 26, 80, 43, 37, 23, 19, 0, 48, 16, 79, 72, 0, 0, 0, 0, 6
|28, 0, 0, 3, 8, 0, 0, 39, 0, 25, 59, 0, 0, 19, 34, 42, 23, 56, 0, 48, 21, 38, 78, 51, 54, 0, 0, 80, 35, 0, 0, 0, 26, 0, 49, 0, 32, 0, 62, 73, 13, 0, 0, 64, 0, 20, 0, 69, 0, 45, 7, 10, 29, 57, 14, 0, 0, 44, 60, 53, 40, 61, 66, 0, 81, 74, 0, 16, 31, 24, 46, 27, 0, 65, 63, 2, 76, 47, 36, 43, 55
|0, 40, 36, 78, 60, 43, 26, 0, 59, 0, 0, 52, 73, 0, 6, 65, 35, 44, 79, 50, 30, 0, 80, 11, 56, 0, 0, 9, 76, 0, 0, 25, 29, 0, 0, 7, 39, 67, 0, 55, 18, 0, 46, 0, 0, 68, 74, 54, 51, 38, 0, 53, 33, 0, 0, 16, 0, 41, 77, 0, 23, 64, 17, 8, 71, 0, 61, 20, 34, 15, 0, 13, 24, 1, 0, 0, 0, 0, 0, 0, 22
|62, 28, 0, 32, 35, 53, 57, 23, 20, 0, 0, 3, 0, 36, 1, 47, 27, 0, 78, 80, 46, 0, 29, 0, 0, 50, 39, 31, 0, 61, 18, 48, 0, 40, 0, 0, 43, 0, 77, 15, 0, 17, 0, 42, 0, 70, 9, 51, 0, 34, 0, 76, 7, 0, 5, 0, 0, 0, 0, 0, 45, 63, 12, 14, 75, 0, 0, 41, 0, 81, 71, 26, 64, 21, 0, 74, 59, 16, 60, 66, 68
|34, 72, 55, 58, 22, 48, 0, 43, 0, 52, 63, 60, 59, 31, 2, 67, 0, 74, 41, 0, 10, 3, 0, 44, 23, 0, 0, 25, 21, 0, 1, 39, 8, 0, 4, 0, 65, 30, 69, 12, 78, 36, 80, 35, 0, 81, 27, 0, 50, 46, 0, 66, 0, 45, 0, 61, 38, 7, 79, 77, 32, 9, 56, 0, 0, 0, 17, 49, 13, 0, 0, 29, 15, 70, 26, 33, 71, 0, 0, 11, 62
|0, 17, 0, 79, 3, 77, 21, 6, 24, 42, 81, 69, 0, 49, 0, 0, 0, 9, 0, 76, 4, 31, 0, 0, 0, 0, 25, 74, 0, 14, 0, 60, 44, 57, 71, 0, 0, 7, 0, 0, 0, 34, 68, 0, 62, 58, 43, 0, 0, 56, 64, 11, 67, 0, 27, 59, 0, 50, 18, 13, 52, 23, 54, 78, 0, 61, 66, 45, 0, 0, 8, 48, 0, 38, 46, 29, 0, 0, 72, 0, 80
|31, 42, 50, 9, 37, 0, 0, 0, 0, 0, 29, 54, 53, 51, 0, 0, 16, 71, 7, 55, 0, 66, 0, 57, 20, 73, 61, 70, 79, 0, 64, 15, 12, 0, 3, 80, 72, 0, 24, 67, 0, 23, 74, 46, 75, 52, 13, 0, 0, 0, 0, 77, 30, 1, 0, 35, 69, 0, 4, 65, 48, 0, 41, 0, 43, 34, 27, 19, 62, 38, 28, 59, 39, 0, 8, 18, 40, 0, 14, 22, 0
|0, 51, 0, 12, 0, 47, 0, 46, 0, 0, 62, 0, 34, 79, 57, 14, 61, 48, 0, 75, 49, 70, 81, 9, 36, 2, 0, 26, 41, 78, 0, 0, 24, 0, 66, 59, 56, 64, 0, 0, 52, 45, 37, 76, 71, 42, 60, 65, 68, 0, 0, 0, 0, 35, 39, 22, 53, 80, 10, 0, 6, 17, 58, 44, 0, 33, 0, 18, 50, 77, 21, 11, 25, 0, 5, 0, 19, 0, 63, 69, 4
|0, 49, 25, 59, 0, 45, 0, 40, 0, 18, 26, 76, 0, 0, 0, 19, 0, 77, 60, 51, 54, 0, 0, 56, 21, 12, 8, 0, 50, 9, 29, 63, 16, 11, 6, 0, 5, 13, 22, 20, 41, 57, 28, 0, 81, 0, 44, 0, 39, 33, 0, 0, 69, 80, 66, 37, 0, 67, 78, 74, 68, 14, 15, 35, 42, 73, 46, 0, 70, 30, 24, 47, 75, 34, 7, 1, 3, 31, 0, 0, 79
|39, 0, 5, 4, 66, 44, 30, 13, 52, 0, 11, 38, 24, 0, 33, 68, 40, 0, 69, 35, 32, 27, 18, 77, 0, 67, 37, 43, 34, 36, 47, 17, 0, 42, 65, 54, 0, 0, 31, 59, 10, 14, 63, 0, 21, 0, 0, 23, 0, 41, 22, 0, 79, 53, 46, 60, 62, 73, 0, 71, 0, 72, 75, 56, 0, 80, 0, 76, 7, 58, 9, 0, 0, 0, 28, 49, 0, 81, 0, 48, 50
|0, 65, 73, 8, 41, 81, 70, 56, 80, 0, 0, 7, 35, 6, 72, 0, 50, 32, 59, 17, 63, 0, 38, 34, 14, 68, 43, 58, 69, 46, 53, 0, 0, 45, 51, 28, 0, 66, 55, 48, 9, 0, 60, 27, 61, 49, 15, 37, 40, 26, 62, 0, 71, 29, 33, 31, 0, 16, 3, 21, 20, 76, 0, 67, 22, 52, 64, 79, 0, 0, 1, 0, 47, 0, 0, 44, 42, 24, 54, 12, 77
|0, 1, 26, 16, 7, 0, 18, 0, 67, 78, 46, 66, 22, 0, 8, 0, 12, 41, 13, 71, 72, 79, 74, 33, 45, 0, 0, 49, 81, 27, 77, 19, 35, 38, 23, 68, 53, 0, 0, 50, 0, 3, 73, 0, 0, 36, 0, 28, 75, 57, 31, 21, 59, 54, 30, 34, 24, 0, 40, 42, 51, 0, 29, 60, 55, 0, 6, 0, 2, 39, 32, 5, 10, 52, 9, 17, 43, 65, 76, 61, 56|];