order = 9;
grid = [|0, 40, 43, 73, 0, 27, 22, 50, 7, 79, 68, 37, 20, 36, 11, 45, 72, 35, 49, 76, 47, 66, 16, 3, 0, 67, 0, 57, 0, 62, 74, 0, 12, 34, 23, 69, 52, 81, 61, 1, 32, 44, 9, 48, 77, 18, 2, 0, 24, 31, 0, 0, 0, 29, 0, 33, 59, 38, 51, 4, 17, 26, 30, 56, 80, 8, 64, 19, 0, 70, 13, 0, 0, 53, 0, 63, 0, 42, 0, 0, 65
|76, 0, 34, 25, 0, 0, 0, 31, 70, 60, 0, 30, 6, 80, 16, 57, 51, 14, 26, 28, 0, 75, 24, 2, 0, 19, 32, 42, 0, 63, 65, 58, 15, 72, 18, 78, 62, 0, 55, 8, 46, 0, 0, 40, 41, 77, 47, 1, 27, 68, 54, 69, 71, 0, 61, 20, 0, 10, 48, 0, 0, 0, 66, 29, 67, 45, 5, 0, 35, 44, 39, 33, 56, 0, 7, 23, 0, 36, 73, 22, 4
|30, 0, 0, 48, 19, 55, 28, 71, 3, 76, 0, 23, 24, 67, 0, 0, 65, 26, 0, 56, 77, 1, 0, 11, 58, 10, 7, 0, 17, 70, 75, 27, 21, 0, 0, 44, 25, 16, 80, 0, 15, 36, 35, 54, 2, 63, 0, 33, 9, 42, 37, 20, 0, 38, 79, 0, 45, 0, 0, 0, 39, 0, 13, 0, 57, 12, 62, 50, 31, 0, 34, 43, 0, 59, 5, 32, 0, 6, 49, 0, 0
|16, 36, 1, 4, 0, 68, 0, 39, 58, 75, 38, 61, 70, 0, 0, 0, 66, 2, 31, 79, 48, 17, 63, 13, 34, 60, 42, 33, 0, 51, 8, 0, 40, 52, 35, 26, 28, 65, 11, 72, 23, 73, 67, 69, 47, 0, 22, 46, 55, 45, 44, 62, 0, 64, 80, 0, 0, 0, 19, 76, 0, 43, 56, 54, 0, 78, 41, 53, 0, 0, 3, 32, 14, 20, 81, 12, 0, 0, 0, 24, 29
|33, 0, 0, 23, 0, 0, 75, 0, 57, 25, 28, 21, 0, 64, 77, 9, 0, 43, 61, 5, 68, 29, 0, 27, 44, 14, 18, 53, 0, 22, 1, 7, 0, 6, 60, 54, 0, 12, 49, 0, 78, 38, 70, 0, 39, 10, 51, 30, 0, 19, 67, 34, 50, 56, 3, 0, 0, 8, 0, 2, 73, 15, 69, 0, 65, 0, 16, 46, 59, 0, 0, 55, 58, 79, 76, 11, 71, 13, 47, 45, 40
|45, 74, 65, 0, 46, 0, 32, 0, 18, 0, 0, 0, 4, 0, 0, 58, 59, 19, 0, 6, 80, 41, 52, 71, 51, 50, 25, 0, 56, 0, 38, 79, 13, 0, 2, 30, 0, 7, 57, 20, 14, 3, 0, 33, 75, 0, 26, 21, 36, 12, 60, 43, 53, 0, 35, 5, 24, 0, 78, 67, 0, 77, 63, 0, 47, 9, 73, 1, 10, 0, 81, 0, 31, 54, 15, 39, 0, 66, 64, 68, 62
|0, 0, 10, 0, 13, 64, 67, 21, 2, 15, 56, 0, 54, 0, 62, 50, 32, 5, 35, 0, 8, 0, 0, 33, 4, 0, 20, 41, 77, 0, 36, 9, 39, 45, 0, 0, 59, 0, 18, 0, 0, 0, 31, 71, 0, 73, 76, 0, 72, 61, 0, 0, 52, 14, 75, 0, 70, 65, 6, 29, 11, 47, 0, 7, 0, 38, 51, 66, 40, 27, 0, 74, 69, 26, 0, 0, 46, 3, 0, 1, 0
|72, 61, 9, 8, 37, 0, 38, 69, 80, 78, 12, 71, 0, 0, 44, 29, 17, 13, 0, 81, 53, 65, 15, 0, 0, 39, 59, 0, 0, 0, 3, 48, 46, 10, 73, 0, 51, 0, 0, 56, 0, 0, 21, 43, 0, 0, 32, 0, 16, 28, 11, 7, 57, 70, 0, 0, 1, 54, 0, 60, 0, 14, 0, 0, 2, 23, 18, 42, 0, 49, 26, 58, 30, 0, 19, 67, 35, 33, 52, 0, 27
|24, 20, 56, 0, 47, 0, 54, 14, 0, 0, 69, 1, 33, 18, 73, 42, 0, 0, 21, 0, 30, 0, 0, 0, 0, 43, 36, 0, 0, 0, 0, 67, 32, 28, 0, 0, 0, 53, 19, 10, 0, 50, 26, 45, 0, 13, 0, 41, 0, 0, 40, 0, 80, 8, 0, 71, 55, 12, 72, 23, 62, 0, 31, 75, 0, 4, 68, 15, 0, 77, 0, 0, 2, 16, 60, 0, 48, 0, 25, 44, 57
|81, 1, 0, 2, 9, 0, 51, 0, 67, 69, 32, 6, 0, 54, 26, 28, 55, 18, 40, 0, 42, 73, 38, 22, 41, 0, 5, 74, 10, 52, 57, 3, 72, 43, 0, 0, 61, 0, 46, 49, 70, 0, 23, 20, 0, 44, 17, 79, 31, 0, 77, 0, 0, 0, 16, 0, 15, 76, 14, 0, 35, 19, 8, 0, 64, 29, 0, 65, 0, 58, 60, 0, 21, 0, 0, 0, 30, 7, 0, 0, 39
|0, 17, 42, 77, 0, 52, 43, 76, 22, 0, 0, 48, 57, 13, 0, 31, 14, 12, 0, 33, 0, 0, 35, 0, 37, 0, 3, 34, 0, 0, 0, 2, 70, 11, 0, 0, 64, 59, 0, 27, 0, 0, 39, 0, 28, 45, 0, 62, 69, 0, 20, 49, 46, 4, 47, 36, 66, 72, 0, 73, 0, 7, 80, 0, 10, 61, 0, 32, 24, 0, 9, 0, 5, 0, 0, 19, 51, 74, 0, 0, 8
|19, 7, 21, 0, 44, 54, 25, 0, 59, 81, 1, 35, 38, 61, 0, 16, 80, 0, 27, 46, 45, 39, 26, 55, 0, 0, 0, 75, 47, 0, 62, 28, 0, 68, 33, 77, 41, 0, 42, 0, 9, 12, 24, 22, 50, 0, 0, 74, 18, 14, 65, 0, 40, 48, 0, 63, 0, 51, 0, 10, 23, 79, 52, 5, 0, 0, 4, 78, 0, 8, 70, 13, 0, 2, 0, 73, 31, 49, 0, 69, 0
|0, 5, 27, 70, 55, 75, 0, 0, 62, 68, 53, 0, 59, 40, 21, 24, 76, 0, 0, 14, 0, 20, 0, 44, 0, 28, 2, 45, 0, 0, 48, 0, 79, 35, 13, 22, 0, 72, 54, 43, 67, 66, 56, 16, 11, 1, 34, 0, 57, 10, 80, 64, 6, 0, 50, 42, 0, 69, 74, 0, 0, 0, 39, 15, 0, 3, 36, 38, 47, 51, 0, 19, 0, 81, 63, 71, 0, 37, 29, 77, 0
|66, 30, 39, 0, 15, 14, 20, 0, 68, 7, 0, 43, 64, 0, 22, 78, 4, 0, 81, 0, 69, 74, 0, 72, 52, 0, 80, 49, 0, 60, 0, 0, 42, 0, 0, 0, 10, 2, 75, 65, 34, 26, 0, 3, 57, 0, 35, 61, 13, 38, 70, 24, 19, 73, 6, 67, 0, 0, 37, 48, 12, 0, 25, 31, 0, 41, 45, 59, 79, 16, 1, 0, 0, 0, 0, 55, 58, 47, 56, 53, 36
|0, 56, 0, 0, 0, 69, 58, 0, 8, 30, 19, 50, 41, 34, 3, 73, 62, 0, 68, 1, 0, 79, 53, 54, 29, 7, 31, 37, 26, 12, 20, 0, 51, 36, 0, 0, 0, 38, 48, 21, 47, 35, 0, 81, 17, 0, 0, 28, 63, 39, 55, 72, 5, 16, 0, 0, 77, 0, 0, 13, 0, 32, 70, 66, 11, 71, 0, 49, 76, 42, 14, 2, 67, 52, 10, 57, 33, 23, 61, 60, 44
|0, 0, 26, 0, 16, 0, 78, 45, 6, 0, 75, 15, 10, 2, 0, 11, 0, 0, 58, 47, 62, 50, 51, 0, 18, 0, 0, 30, 53, 69, 0, 0, 25, 0, 0, 31, 80, 36, 14, 5, 79, 29, 8, 68, 0, 21, 60, 9, 71, 3, 27, 37, 42, 0, 24, 28, 61, 0, 34, 38, 46, 40, 81, 52, 77, 7, 54, 0, 44, 35, 0, 22, 17, 41, 0, 64, 0, 0, 0, 0, 1
|64, 34, 0, 53, 18, 0, 0, 0, 28, 36, 72, 0, 5, 0, 0, 79, 49, 66, 13, 43, 63, 48, 19, 17, 32, 21, 10, 4, 65, 0, 0, 44, 24, 38, 0, 61, 30, 73, 74, 0, 0, 76, 77, 0, 37, 67, 81, 2, 0, 26, 0, 29, 22, 0, 9, 57, 54, 78, 55, 33, 20, 31, 0, 46, 56, 40, 27, 0, 12, 0, 62, 6, 50, 0, 59, 15, 0, 75, 45, 70, 0
|0, 46, 0, 0, 0, 38, 0, 13, 73, 0, 17, 70, 45, 44, 42, 63, 39, 29, 8, 0, 0, 59, 75, 49, 57, 0, 30, 0, 0, 0, 81, 23, 76, 14, 7, 55, 69, 0, 31, 53, 0, 78, 15, 52, 58, 32, 0, 12, 51, 0, 36, 50, 25, 11, 0, 56, 0, 0, 2, 3, 43, 4, 0, 0, 0, 72, 20, 0, 74, 48, 21, 0, 6, 27, 0, 79, 16, 80, 34, 65, 22
|0, 68, 77, 31, 50, 66, 0, 37, 74, 61, 20, 0, 12, 58, 47, 10, 24, 11, 70, 40, 0, 0, 56, 26, 0, 32, 0, 14, 0, 0, 4, 75, 62, 15, 80, 3, 72, 48, 0, 45, 69, 0, 7, 44, 0, 42, 0, 0, 0, 30, 0, 46, 0, 78, 0, 0, 81, 59, 0, 0, 1, 2, 6, 27, 54, 63, 38, 71, 65, 73, 0, 36, 18, 0, 0, 53, 13, 22, 41, 57, 76
|0, 63, 12, 20, 72, 34, 36, 16, 60, 18, 0, 74, 67, 65, 0, 4, 40, 62, 48, 27, 57, 25, 0, 64, 0, 0, 0, 35, 43, 68, 7, 0, 54, 0, 59, 5, 0, 47, 78, 0, 50, 28, 80, 58, 0, 37, 0, 73, 10, 15, 19, 53, 81, 22, 31, 0, 29, 61, 49, 32, 9, 0, 23, 77, 0, 6, 11, 2, 42, 1, 44, 0, 51, 55, 0, 8, 24, 30, 0, 17, 0
|42, 39, 67, 19, 0, 0, 27, 0, 0, 0, 64, 0, 1, 14, 7, 37, 3, 0, 59, 0, 35, 51, 66, 28, 61, 0, 0, 77, 0, 11, 18, 46, 0, 53, 0, 38, 81, 13, 26, 0, 41, 43, 57, 4, 22, 0, 5, 56, 0, 0, 75, 63, 0, 49, 0, 0, 71, 0, 25, 0, 65, 73, 0, 0, 33, 0, 48, 0, 0, 69, 0, 80, 68, 47, 44, 62, 20, 0, 0, 58, 72
|28, 24, 29, 10, 0, 80, 8, 23, 81, 0, 77, 0, 0, 70, 48, 5, 25, 72, 73, 18, 0, 49, 50, 0, 65, 0, 13, 0, 0, 16, 45, 1, 52, 32, 0, 57, 6, 0, 33, 71, 0, 0, 40, 35, 27, 59, 0, 7, 38, 20, 0, 79, 2, 67, 0, 58, 46, 0, 0, 41, 0, 68, 53, 0, 30, 19, 0, 0, 0, 3, 55, 9, 64, 15, 0, 42, 0, 54, 0, 43, 34
|0, 70, 57, 1, 0, 71, 5, 3, 21, 38, 60, 80, 9, 59, 0, 75, 68, 0, 0, 62, 4, 81, 30, 15, 10, 0, 72, 0, 0, 78, 0, 61, 73, 69, 20, 64, 55, 0, 51, 0, 2, 19, 49, 0, 23, 0, 0, 0, 28, 0, 13, 65, 45, 0, 0, 18, 48, 0, 56, 34, 47, 67, 37, 53, 0, 0, 0, 41, 32, 0, 0, 24, 0, 0, 40, 36, 52, 46, 27, 29, 11
|55, 0, 51, 54, 49, 48, 65, 56, 0, 0, 34, 78, 76, 26, 79, 30, 53, 50, 71, 60, 5, 0, 36, 46, 11, 45, 0, 2, 28, 0, 0, 41, 6, 70, 29, 0, 0, 0, 10, 15, 0, 68, 0, 0, 32, 66, 0, 0, 47, 57, 18, 74, 0, 0, 62, 72, 0, 0, 7, 39, 14, 8, 20, 61, 59, 16, 75, 58, 17, 52, 25, 0, 63, 67, 0, 4, 80, 38, 19, 9, 31
|0, 79, 2, 62, 7, 61, 41, 0, 11, 43, 21, 28, 0, 0, 0, 6, 73, 0, 16, 24, 55, 0, 0, 68, 38, 78, 53, 48, 0, 30, 76, 31, 63, 49, 47, 27, 12, 29, 36, 0, 59, 20, 0, 66, 34, 0, 44, 32, 26, 0, 0, 3, 69, 52, 0, 74, 0, 77, 35, 0, 15, 10, 19, 4, 13, 50, 72, 22, 0, 67, 37, 46, 75, 23, 70, 65, 45, 1, 0, 0, 14
|46, 73, 0, 43, 0, 0, 26, 0, 4, 19, 29, 55, 0, 35, 0, 71, 23, 0, 0, 37, 58, 34, 0, 0, 2, 44, 1, 40, 25, 0, 17, 72, 0, 13, 50, 10, 0, 14, 62, 67, 64, 31, 0, 0, 0, 48, 36, 0, 80, 11, 51, 41, 0, 76, 30, 52, 0, 60, 75, 0, 45, 0, 42, 70, 12, 0, 7, 81, 18, 0, 57, 39, 59, 56, 16, 28, 0, 77, 0, 0, 0
|44, 47, 45, 0, 38, 9, 14, 0, 25, 46, 81, 32, 36, 0, 0, 41, 57, 0, 6, 22, 17, 54, 3, 7, 8, 42, 19, 55, 60, 0, 71, 65, 58, 79, 37, 33, 11, 56, 24, 52, 53, 16, 18, 30, 1, 72, 12, 35, 0, 77, 43, 0, 0, 31, 40, 51, 13, 63, 80, 70, 76, 64, 0, 10, 0, 0, 0, 68, 23, 29, 28, 20, 74, 73, 69, 2, 78, 0, 39, 0, 21
|7, 0, 11, 45, 34, 46, 9, 77, 0, 70, 0, 40, 23, 5, 43, 13, 0, 71, 2, 67, 0, 61, 20, 24, 1, 0, 75, 0, 54, 0, 51, 37, 0, 78, 28, 0, 0, 57, 60, 42, 0, 33, 65, 64, 35, 62, 66, 38, 68, 52, 39, 56, 63, 79, 73, 76, 0, 16, 59, 47, 0, 3, 49, 18, 36, 0, 50, 26, 27, 41, 0, 0, 12, 8, 0, 0, 0, 0, 72, 0, 74
|12, 0, 16, 30, 0, 4, 6, 0, 75, 53, 26, 69, 68, 17, 0, 80, 27, 0, 32, 0, 49, 0, 25, 57, 0, 5, 21, 63, 24, 47, 0, 22, 0, 0, 14, 8, 0, 18, 56, 0, 13, 0, 0, 0, 0, 64, 70, 67, 48, 55, 0, 0, 61, 0, 2, 66, 39, 20, 0, 65, 74, 0, 71, 44, 45, 54, 0, 51, 0, 78, 0, 73, 0, 0, 50, 33, 79, 0, 7, 52, 0
|74, 0, 0, 41, 0, 79, 44, 43, 55, 29, 0, 0, 0, 0, 8, 25, 20, 67, 50, 0, 39, 70, 27, 45, 0, 0, 76, 62, 81, 23, 5, 4, 7, 3, 38, 2, 49, 80, 28, 0, 0, 0, 32, 17, 0, 0, 9, 36, 35, 0, 47, 0, 0, 69, 18, 78, 63, 34, 0, 77, 37, 0, 0, 0, 0, 56, 0, 61, 64, 21, 0, 0, 0, 11, 0, 0, 66, 15, 59, 31, 73
|8, 49, 0, 68, 14, 28, 23, 51, 0, 12, 65, 59, 66, 0, 75, 38, 42, 0, 22, 0, 37, 0, 0, 60, 0, 53, 73, 50, 35, 0, 26, 55, 0, 9, 41, 21, 29, 5, 76, 0, 7, 30, 20, 2, 69, 0, 33, 0, 74, 0, 3, 0, 72, 0, 25, 48, 43, 0, 54, 61, 70, 0, 0, 32, 0, 79, 58, 0, 39, 0, 17, 63, 77, 13, 67, 45, 0, 0, 0, 36, 78
|20, 0, 0, 72, 27, 73, 39, 2, 65, 0, 15, 77, 16, 0, 50, 0, 6, 0, 43, 0, 33, 8, 0, 51, 0, 0, 0, 0, 0, 0, 79, 0, 0, 30, 42, 36, 75, 41, 0, 0, 63, 21, 0, 0, 0, 0, 7, 0, 0, 0, 0, 0, 78, 46, 56, 14, 40, 0, 44, 0, 0, 57, 17, 67, 68, 62, 80, 5, 0, 10, 71, 81, 35, 19, 0, 38, 69, 60, 26, 23, 0
|0, 58, 35, 22, 57, 19, 69, 17, 38, 0, 44, 62, 79, 32, 0, 0, 54, 61, 0, 0, 59, 0, 55, 42, 0, 3, 65, 0, 67, 25, 0, 71, 64, 56, 6, 68, 48, 43, 72, 40, 73, 0, 0, 12, 0, 51, 11, 45, 30, 0, 5, 0, 0, 50, 33, 29, 80, 0, 8, 0, 0, 21, 24, 49, 16, 75, 1, 9, 14, 13, 74, 23, 39, 63, 27, 37, 47, 41, 46, 0, 18
|54, 80, 50, 76, 0, 10, 0, 67, 24, 0, 37, 63, 0, 0, 57, 0, 47, 0, 0, 44, 18, 16, 17, 78, 0, 81, 0, 52, 0, 0, 0, 45, 33, 0, 75, 34, 71, 58, 0, 0, 6, 8, 55, 0, 51, 0, 21, 23, 43, 22, 29, 0, 0, 0, 64, 11, 32, 79, 30, 0, 0, 72, 0, 38, 20, 25, 12, 7, 0, 0, 46, 59, 0, 65, 0, 0, 40, 9, 0, 61, 56
|29, 18, 5, 66, 63, 59, 81, 52, 56, 0, 78, 46, 7, 21, 9, 36, 64, 0, 0, 0, 79, 40, 0, 0, 0, 54, 0, 17, 74, 43, 19, 32, 0, 65, 12, 39, 0, 50, 25, 0, 31, 67, 62, 26, 45, 0, 49, 27, 15, 80, 73, 77, 34, 28, 0, 68, 51, 1, 53, 69, 6, 75, 10, 0, 70, 33, 35, 60, 0, 37, 76, 47, 22, 71, 4, 30, 57, 44, 55, 20, 0
|21, 0, 0, 36, 1, 0, 33, 64, 42, 34, 22, 10, 0, 73, 0, 0, 2, 0, 56, 63, 0, 11, 0, 80, 0, 47, 9, 20, 61, 46, 0, 13, 27, 0, 0, 53, 16, 74, 79, 23, 0, 0, 0, 15, 4, 8, 58, 6, 59, 17, 41, 54, 0, 57, 0, 0, 0, 7, 0, 81, 67, 50, 62, 0, 48, 55, 65, 77, 69, 66, 52, 30, 32, 49, 51, 43, 76, 0, 0, 0, 68
|0, 9, 6, 0, 0, 0, 21, 0, 0, 35, 0, 41, 77, 0, 78, 27, 11, 20, 0, 54, 15, 0, 47, 52, 43, 36, 17, 0, 57, 53, 0, 19, 34, 1, 76, 56, 0, 8, 0, 70, 74, 65, 68, 55, 26, 0, 79, 0, 0, 4, 0, 0, 32, 60, 0, 2, 0, 14, 0, 49, 31, 0, 75, 13, 3, 0, 22, 33, 29, 72, 0, 0, 0, 48, 46, 0, 39, 0, 0, 42, 63
|36, 0, 28, 0, 0, 23, 31, 20, 43, 0, 59, 0, 30, 0, 68, 0, 74, 0, 75, 0, 29, 22, 40, 0, 7, 48, 51, 25, 11, 72, 2, 0, 37, 54, 0, 0, 50, 39, 32, 6, 0, 4, 52, 0, 9, 0, 0, 70, 53, 8, 63, 27, 41, 80, 0, 34, 65, 42, 12, 78, 3, 33, 18, 47, 19, 67, 46, 57, 60, 56, 38, 0, 0, 69, 0, 17, 77, 61, 21, 73, 55
|57, 72, 0, 13, 40, 26, 34, 27, 5, 0, 0, 12, 44, 9, 25, 54, 0, 70, 4, 2, 81, 19, 0, 0, 0, 18, 28, 71, 38, 42, 15, 0, 74, 0, 0, 6, 36, 37, 0, 69, 33, 63, 46, 56, 0, 0, 0, 10, 58, 73, 0, 48, 0, 51, 22, 0, 11, 45, 67, 59, 8, 29, 0, 62, 61, 65, 0, 17, 77, 0, 43, 0, 49, 35, 23, 7, 32, 68, 0, 0, 0
|77, 55, 0, 0, 32, 30, 52, 46, 0, 2, 0, 0, 37, 16, 0, 40, 71, 0, 0, 0, 6, 27, 65, 0, 0, 74, 0, 0, 0, 75, 0, 70, 0, 50, 0, 0, 42, 35, 29, 51, 80, 0, 66, 21, 3, 61, 0, 11, 54, 72, 15, 17, 0, 5, 39, 0, 23, 62, 13, 63, 7, 53, 76, 1, 0, 28, 10, 44, 49, 20, 12, 0, 0, 60, 18, 47, 0, 0, 31, 0, 59
|0, 41, 54, 39, 51, 58, 2, 80, 44, 33, 63, 0, 8, 69, 15, 0, 43, 21, 9, 77, 64, 0, 0, 0, 30, 0, 71, 0, 45, 49, 31, 0, 81, 23, 0, 0, 40, 76, 38, 0, 62, 75, 47, 0, 73, 55, 29, 13, 19, 35, 24, 22, 65, 3, 48, 17, 0, 46, 0, 68, 26, 28, 0, 42, 0, 0, 78, 0, 70, 6, 16, 7, 79, 37, 25, 56, 67, 12, 53, 0, 0
|0, 11, 0, 69, 3, 0, 4, 79, 71, 13, 0, 18, 0, 42, 0, 34, 26, 0, 67, 0, 21, 0, 39, 37, 5, 70, 45, 0, 32, 10, 68, 64, 77, 60, 46, 20, 15, 78, 16, 2, 24, 0, 41, 28, 14, 33, 0, 0, 49, 25, 1, 36, 0, 66, 27, 38, 0, 0, 47, 43, 0, 0, 0, 35, 8, 81, 59, 63, 55, 0, 0, 51, 80, 6, 72, 0, 0, 62, 30, 0, 75
|0, 66, 48, 49, 42, 17, 10, 38, 15, 0, 0, 64, 75, 0, 23, 32, 28, 0, 80, 72, 3, 55, 44, 0, 73, 13, 0, 0, 63, 33, 0, 8, 47, 51, 26, 29, 53, 27, 20, 0, 43, 25, 79, 0, 7, 0, 6, 78, 39, 21, 0, 18, 74, 45, 57, 0, 0, 35, 77, 19, 0, 1, 40, 34, 0, 0, 69, 37, 68, 0, 0, 0, 0, 24, 41, 0, 0, 52, 70, 4, 71
|25, 65, 0, 7, 8, 0, 68, 0, 19, 10, 0, 73, 0, 55, 53, 0, 0, 60, 11, 0, 0, 63, 61, 35, 49, 0, 0, 28, 41, 40, 13, 69, 30, 22, 62, 0, 0, 17, 0, 0, 5, 0, 44, 72, 31, 20, 0, 43, 77, 46, 0, 71, 0, 34, 4, 37, 16, 80, 0, 36, 32, 6, 0, 0, 26, 15, 0, 48, 9, 64, 0, 54, 66, 74, 1, 0, 3, 76, 81, 0, 33
|0, 60, 0, 56, 0, 63, 73, 0, 0, 39, 58, 0, 47, 0, 14, 62, 29, 3, 0, 8, 0, 33, 0, 32, 53, 1, 78, 80, 0, 65, 12, 17, 0, 4, 27, 0, 0, 54, 81, 64, 48, 77, 61, 13, 49, 68, 0, 76, 42, 9, 7, 38, 37, 40, 51, 44, 79, 24, 5, 52, 0, 20, 0, 0, 21, 30, 74, 23, 66, 0, 41, 25, 15, 0, 2, 0, 34, 11, 43, 28, 26
|32, 0, 68, 71, 0, 25, 57, 66, 0, 37, 13, 75, 22, 0, 28, 59, 50, 0, 78, 0, 16, 5, 42, 53, 0, 27, 58, 0, 55, 0, 54, 47, 17, 33, 0, 41, 0, 1, 7, 35, 0, 60, 2, 79, 6, 40, 0, 80, 52, 36, 14, 0, 67, 39, 0, 3, 34, 74, 81, 46, 24, 23, 65, 12, 0, 26, 61, 0, 0, 0, 63, 56, 48, 64, 0, 18, 11, 0, 9, 49, 69
|3, 28, 8, 0, 0, 0, 0, 70, 0, 17, 0, 38, 40, 43, 56, 26, 35, 0, 63, 55, 11, 57, 48, 75, 47, 20, 44, 31, 0, 15, 61, 50, 22, 2, 10, 52, 67, 64, 21, 34, 29, 37, 27, 0, 25, 7, 65, 0, 62, 78, 0, 73, 0, 18, 54, 49, 68, 66, 4, 80, 53, 30, 0, 0, 0, 32, 9, 6, 58, 46, 24, 77, 33, 0, 13, 1, 42, 0, 12, 0, 23
|0, 22, 81, 0, 2, 11, 79, 44, 34, 58, 0, 0, 25, 30, 24, 18, 36, 0, 45, 65, 50, 68, 0, 31, 19, 61, 62, 72, 13, 21, 40, 53, 29, 75, 67, 0, 46, 10, 0, 4, 0, 14, 71, 78, 15, 0, 54, 64, 37, 56, 0, 26, 43, 0, 0, 7, 12, 57, 38, 51, 63, 0, 33, 76, 1, 49, 60, 20, 73, 0, 66, 70, 52, 80, 0, 41, 5, 32, 16, 0, 17
|49, 14, 19, 52, 61, 65, 40, 9, 0, 20, 31, 67, 32, 0, 1, 46, 5, 78, 0, 36, 0, 71, 54, 38, 59, 0, 12, 6, 18, 7, 0, 0, 0, 42, 0, 0, 13, 0, 0, 55, 8, 69, 0, 0, 0, 0, 0, 15, 75, 33, 0, 0, 11, 21, 77, 35, 22, 44, 43, 64, 41, 0, 2, 51, 29, 0, 0, 39, 0, 0, 80, 0, 0, 3, 30, 0, 0, 72, 58, 62, 0
|13, 42, 0, 0, 29, 56, 76, 63, 0, 14, 73, 0, 0, 72, 0, 12, 48, 45, 18, 49, 0, 0, 7, 8, 40, 0, 23, 0, 80, 0, 70, 77, 0, 81, 0, 0, 66, 22, 5, 0, 36, 54, 43, 19, 33, 38, 0, 0, 44, 47, 9, 0, 24, 53, 32, 10, 0, 0, 0, 0, 25, 52, 61, 50, 78, 59, 71, 79, 30, 0, 67, 69, 65, 0, 0, 27, 15, 0, 60, 21, 0
|58, 31, 0, 15, 35, 0, 55, 0, 0, 52, 57, 27, 65, 4, 0, 77, 0, 64, 33, 30, 1, 2, 0, 43, 6, 22, 66, 8, 23, 0, 56, 62, 36, 12, 69, 71, 39, 0, 70, 73, 16, 48, 72, 0, 0, 0, 74, 25, 0, 0, 50, 51, 3, 0, 67, 9, 5, 13, 76, 0, 19, 18, 45, 14, 34, 42, 0, 0, 7, 11, 0, 21, 53, 0, 79, 54, 28, 40, 0, 38, 24
|80, 0, 0, 21, 12, 0, 18, 7, 77, 62, 10, 0, 49, 3, 54, 0, 69, 34, 29, 9, 56, 0, 13, 0, 76, 72, 46, 78, 1, 0, 32, 11, 5, 25, 51, 0, 65, 44, 0, 0, 30, 57, 0, 0, 61, 22, 0, 0, 17, 70, 23, 2, 0, 58, 37, 0, 0, 0, 71, 31, 79, 48, 14, 64, 35, 43, 40, 45, 0, 28, 33, 0, 55, 39, 0, 0, 81, 0, 0, 75, 0
|73, 54, 30, 60, 0, 37, 48, 1, 53, 41, 0, 0, 0, 0, 55, 68, 7, 33, 52, 51, 34, 3, 0, 0, 24, 0, 77, 0, 0, 44, 64, 0, 0, 20, 79, 65, 32, 0, 0, 0, 40, 9, 0, 0, 38, 4, 0, 71, 0, 49, 45, 5, 0, 61, 0, 0, 17, 39, 0, 0, 75, 62, 0, 72, 22, 18, 13, 0, 2, 23, 0, 15, 0, 46, 78, 76, 43, 0, 0, 35, 0
|0, 0, 23, 46, 0, 33, 24, 0, 0, 0, 6, 42, 0, 47, 0, 0, 0, 80, 64, 70, 32, 10, 0, 0, 60, 35, 14, 38, 0, 0, 0, 0, 28, 58, 0, 19, 26, 0, 52, 17, 0, 53, 51, 50, 18, 34, 13, 8, 0, 48, 12, 0, 0, 63, 0, 73, 72, 40, 27, 55, 78, 0, 0, 0, 44, 31, 0, 0, 5, 0, 65, 3, 45, 57, 22, 77, 0, 67, 0, 66, 7
|6, 12, 0, 50, 11, 0, 7, 15, 0, 64, 14, 0, 52, 0, 0, 0, 44, 58, 53, 21, 13, 77, 71, 10, 31, 73, 81, 0, 29, 0, 63, 0, 56, 19, 0, 28, 78, 4, 22, 37, 27, 80, 3, 0, 72, 0, 16, 34, 45, 79, 76, 59, 35, 0, 49, 30, 67, 0, 33, 5, 0, 61, 0, 0, 0, 1, 0, 24, 0, 47, 0, 66, 57, 38, 65, 75, 41, 39, 23, 18, 0
|0, 0, 0, 28, 0, 76, 13, 0, 0, 47, 33, 51, 72, 49, 0, 66, 16, 73, 0, 59, 19, 35, 12, 29, 15, 0, 0, 11, 22, 0, 0, 43, 57, 0, 70, 45, 1, 23, 64, 0, 21, 0, 69, 60, 0, 71, 68, 26, 0, 0, 0, 0, 0, 41, 78, 81, 0, 0, 63, 9, 0, 42, 54, 65, 0, 46, 0, 0, 36, 61, 18, 38, 34, 5, 37, 50, 62, 0, 0, 3, 0
|40, 53, 0, 74, 65, 0, 37, 30, 0, 28, 0, 5, 42, 56, 2, 43, 0, 25, 34, 0, 0, 0, 32, 0, 63, 0, 55, 67, 12, 18, 0, 0, 0, 0, 39, 0, 47, 70, 15, 29, 0, 13, 17, 14, 81, 0, 38, 31, 21, 24, 0, 10, 0, 44, 72, 23, 20, 0, 46, 6, 77, 66, 73, 0, 0, 69, 0, 62, 71, 79, 0, 8, 0, 0, 61, 60, 0, 16, 76, 59, 45
|0, 0, 0, 55, 41, 0, 60, 73, 10, 26, 54, 7, 0, 79, 0, 23, 30, 81, 39, 75, 74, 0, 2, 0, 48, 65, 0, 3, 42, 14, 77, 34, 4, 17, 31, 40, 35, 61, 0, 38, 0, 6, 76, 57, 66, 11, 62, 0, 5, 0, 32, 8, 15, 1, 45, 0, 28, 0, 68, 0, 56, 70, 43, 20, 0, 13, 49, 0, 67, 33, 64, 12, 47, 58, 21, 25, 19, 71, 69, 72, 9
|47, 0, 0, 0, 0, 57, 56, 19, 14, 45, 0, 13, 0, 38, 37, 69, 12, 75, 28, 20, 54, 43, 1, 5, 17, 0, 41, 51, 7, 0, 27, 66, 0, 62, 68, 0, 24, 26, 73, 33, 65, 79, 34, 32, 59, 0, 23, 58, 70, 40, 42, 67, 48, 6, 0, 15, 76, 22, 60, 18, 29, 55, 64, 9, 0, 0, 3, 21, 16, 0, 77, 31, 0, 30, 0, 0, 74, 35, 0, 10, 0
|23, 71, 49, 75, 68, 16, 62, 34, 66, 0, 11, 24, 29, 77, 0, 0, 8, 6, 44, 0, 0, 72, 64, 30, 22, 38, 60, 54, 69, 61, 47, 81, 0, 76, 0, 73, 58, 9, 53, 19, 56, 0, 0, 25, 40, 0, 28, 3, 14, 18, 46, 0, 0, 0, 0, 26, 0, 37, 0, 0, 0, 17, 32, 45, 15, 0, 2, 74, 48, 80, 4, 35, 0, 33, 43, 31, 1, 0, 51, 7, 67
|26, 0, 0, 3, 81, 2, 1, 0, 0, 0, 50, 0, 0, 0, 36, 22, 34, 0, 47, 45, 0, 67, 68, 66, 25, 76, 6, 9, 58, 79, 30, 38, 10, 21, 0, 0, 5, 0, 39, 48, 77, 0, 16, 18, 43, 69, 37, 65, 0, 0, 52, 4, 29, 0, 14, 80, 35, 19, 62, 75, 0, 11, 0, 63, 0, 73, 23, 0, 41, 0, 56, 0, 24, 0, 0, 20, 0, 53, 8, 55, 13
|0, 21, 31, 0, 0, 45, 0, 0, 9, 71, 0, 17, 0, 74, 18, 19, 61, 27, 0, 3, 52, 42, 46, 69, 70, 26, 0, 1, 2, 32, 0, 59, 35, 41, 0, 13, 20, 0, 63, 0, 0, 62, 0, 7, 30, 60, 73, 0, 25, 0, 56, 80, 49, 75, 65, 0, 38, 48, 16, 0, 0, 12, 0, 57, 76, 0, 55, 14, 72, 0, 58, 10, 0, 29, 0, 0, 36, 28, 6, 15, 64
|0, 64, 4, 18, 0, 0, 72, 59, 29, 65, 35, 9, 3, 76, 67, 48, 10, 55, 24, 50, 27, 0, 62, 0, 0, 0, 0, 0, 46, 0, 0, 26, 53, 0, 15, 25, 0, 45, 0, 28, 54, 0, 36, 75, 71, 0, 63, 0, 12, 66, 0, 33, 0, 0, 34, 13, 69, 21, 31, 0, 58, 74, 0, 6, 0, 60, 0, 43, 37, 68, 7, 42, 44, 0, 80, 22, 0, 0, 11, 40, 0
|34, 51, 15, 0, 73, 8, 63, 0, 54, 0, 0, 14, 0, 12, 4, 0, 0, 17, 25, 10, 38, 53, 43, 81, 80, 0, 67, 70, 31, 66, 35, 0, 44, 7, 65, 23, 37, 77, 0, 75, 28, 56, 78, 62, 29, 0, 72, 49, 11, 58, 26, 45, 33, 36, 76, 22, 52, 30, 0, 0, 50, 0, 59, 0, 69, 64, 0, 0, 0, 9, 61, 27, 0, 0, 47, 21, 68, 0, 40, 16, 19
|2, 27, 41, 5, 48, 18, 59, 28, 35, 0, 49, 0, 0, 0, 0, 15, 75, 38, 0, 0, 7, 76, 14, 0, 20, 0, 47, 32, 72, 54, 55, 68, 11, 40, 45, 1, 0, 71, 69, 0, 57, 46, 0, 65, 12, 56, 43, 0, 0, 44, 64, 0, 0, 62, 21, 70, 0, 4, 39, 25, 0, 13, 26, 3, 0, 58, 67, 52, 0, 0, 10, 37, 61, 0, 0, 80, 63, 78, 22, 50, 81
|0, 45, 64, 26, 56, 43, 11, 62, 69, 42, 18, 31, 28, 37, 0, 2, 13, 54, 3, 0, 72, 0, 49, 21, 27, 0, 68, 60, 73, 38, 6, 16, 50, 47, 0, 0, 33, 24, 0, 0, 66, 0, 0, 0, 48, 57, 0, 29, 78, 76, 0, 52, 0, 0, 53, 0, 14, 0, 65, 8, 10, 63, 44, 41, 74, 36, 0, 25, 20, 19, 0, 0, 46, 9, 71, 58, 7, 79, 1, 34, 15
|14, 75, 0, 0, 66, 31, 29, 68, 0, 0, 0, 79, 51, 78, 52, 0, 0, 53, 17, 61, 41, 0, 0, 63, 50, 56, 48, 64, 59, 26, 67, 12, 0, 0, 77, 62, 54, 0, 0, 25, 0, 0, 30, 9, 0, 46, 0, 19, 20, 0, 28, 21, 0, 0, 0, 6, 0, 71, 15, 42, 0, 0, 3, 73, 4, 0, 44, 0, 0, 7, 0, 34, 0, 0, 74, 72, 2, 69, 57, 39, 70
|79, 57, 3, 33, 0, 7, 0, 10, 0, 40, 47, 25, 19, 0, 0, 65, 56, 59, 55, 52, 2, 31, 0, 0, 0, 37, 34, 0, 75, 0, 41, 0, 0, 74, 0, 46, 0, 20, 13, 14, 38, 15, 0, 6, 0, 0, 4, 63, 60, 32, 0, 68, 18, 0, 36, 0, 64, 73, 69, 72, 51, 80, 77, 0, 66, 17, 21, 16, 0, 26, 29, 5, 11, 76, 62, 49, 0, 24, 42, 0, 0
|0, 81, 0, 9, 77, 40, 19, 0, 20, 48, 0, 26, 21, 0, 61, 64, 22, 32, 79, 73, 60, 0, 18, 74, 75, 23, 8, 58, 33, 56, 25, 10, 14, 29, 34, 17, 31, 0, 43, 80, 51, 72, 4, 59, 0, 0, 0, 5, 0, 2, 69, 47, 0, 42, 55, 54, 78, 0, 0, 0, 16, 45, 0, 11, 0, 70, 0, 76, 50, 71, 15, 1, 3, 28, 12, 6, 0, 27, 35, 0, 0
|53, 6, 0, 0, 0, 60, 61, 58, 0, 66, 27, 0, 73, 0, 0, 76, 63, 77, 0, 0, 78, 0, 0, 65, 54, 15, 35, 19, 52, 8, 0, 30, 2, 57, 36, 79, 7, 0, 0, 16, 55, 18, 0, 23, 74, 0, 67, 37, 0, 41, 22, 75, 38, 9, 81, 0, 31, 0, 0, 40, 5, 56, 46, 0, 0, 68, 0, 12, 51, 32, 49, 14, 0, 45, 33, 0, 0, 4, 48, 13, 25
|4, 13, 0, 0, 0, 50, 74, 24, 36, 67, 0, 29, 58, 57, 6, 44, 70, 10, 5, 16, 0, 32, 0, 19, 28, 0, 0, 81, 76, 3, 69, 0, 0, 80, 53, 37, 0, 42, 47, 0, 26, 11, 64, 0, 68, 0, 0, 51, 73, 34, 30, 12, 0, 71, 60, 1, 0, 0, 0, 0, 48, 49, 27, 23, 0, 35, 77, 72, 33, 38, 78, 0, 8, 75, 31, 0, 0, 14, 0, 56, 41
|0, 38, 0, 42, 0, 44, 0, 25, 39, 0, 62, 11, 46, 50, 0, 35, 81, 7, 51, 26, 0, 6, 69, 0, 64, 33, 57, 0, 0, 0, 24, 63, 49, 71, 9, 0, 0, 21, 45, 3, 76, 0, 1, 61, 67, 0, 0, 48, 40, 53, 66, 23, 31, 0, 0, 0, 0, 47, 0, 12, 68, 0, 0, 79, 55, 2, 8, 0, 0, 0, 54, 0, 20, 10, 77, 52, 73, 0, 36, 37, 43
|9, 19, 74, 0, 36, 0, 35, 0, 30, 0, 42, 76, 0, 0, 29, 70, 0, 4, 0, 0, 22, 0, 37, 23, 0, 2, 11, 0, 3, 73, 0, 40, 75, 55, 0, 0, 0, 49, 0, 58, 18, 0, 28, 0, 64, 17, 27, 20, 0, 63, 0, 16, 0, 0, 13, 0, 26, 32, 45, 57, 54, 51, 34, 0, 50, 24, 79, 0, 61, 5, 0, 52, 38, 21, 56, 78, 0, 31, 0, 6, 47
|56, 52, 73, 24, 76, 29, 42, 4, 47, 0, 2, 36, 35, 27, 12, 0, 0, 69, 60, 74, 0, 62, 6, 0, 0, 31, 39, 22, 48, 59, 50, 20, 0, 67, 16, 7, 0, 15, 66, 57, 72, 23, 75, 53, 79, 5, 46, 44, 0, 43, 68, 0, 21, 65, 11, 61, 0, 81, 0, 30, 28, 0, 38, 25, 40, 0, 0, 80, 0, 17, 0, 71, 0, 77, 45, 13, 0, 0, 54, 63, 49
|0, 15, 32, 38, 69, 0, 66, 0, 37, 50, 0, 56, 34, 0, 59, 67, 0, 28, 54, 53, 43, 0, 57, 18, 42, 52, 27, 13, 30, 36, 10, 80, 60, 63, 72, 58, 0, 0, 0, 41, 0, 0, 14, 29, 20, 0, 48, 4, 0, 74, 61, 39, 75, 23, 19, 0, 6, 68, 24, 0, 0, 5, 55, 81, 7, 77, 76, 64, 26, 45, 11, 0, 0, 0, 73, 40, 25, 2, 65, 33, 0
|10, 43, 7, 34, 60, 62, 0, 81, 49, 0, 0, 65, 0, 11, 31, 51, 0, 68, 30, 17, 44, 46, 0, 79, 16, 55, 61, 47, 78, 0, 33, 29, 23, 8, 54, 0, 76, 0, 0, 13, 12, 0, 22, 36, 70, 58, 18, 0, 56, 6, 0, 9, 28, 26, 1, 77, 2, 64, 40, 0, 21, 25, 35, 74, 41, 27, 15, 73, 38, 0, 69, 0, 42, 0, 39, 3, 75, 20, 24, 14, 0
|68, 0, 20, 67, 75, 0, 0, 0, 0, 0, 24, 53, 13, 60, 64, 0, 58, 30, 76, 0, 0, 38, 5, 0, 0, 29, 63, 0, 6, 4, 14, 15, 9, 0, 0, 0, 0, 0, 0, 44, 61, 40, 48, 39, 0, 80, 45, 42, 81, 69, 34, 11, 7, 2, 52, 0, 56, 70, 23, 0, 59, 27, 79, 0, 0, 0, 33, 36, 46, 0, 47, 49, 71, 66, 57, 35, 22, 19, 17, 26, 28
|11, 0, 33, 0, 26, 6, 80, 22, 63, 0, 55, 3, 0, 41, 38, 0, 79, 57, 15, 69, 20, 47, 0, 59, 66, 68, 64, 0, 34, 0, 0, 0, 0, 0, 17, 0, 56, 51, 0, 46, 45, 52, 0, 73, 0, 35, 40, 77, 32, 13, 0, 60, 0, 30, 74, 4, 7, 0, 42, 0, 72, 9, 0, 58, 75, 0, 14, 31, 28, 0, 8, 0, 43, 0, 36, 5, 23, 48, 50, 76, 12
|0, 48, 17, 14, 28, 0, 3, 8, 0, 73, 0, 0, 26, 15, 71, 33, 21, 47, 0, 25, 0, 58, 70, 36, 35, 40, 0, 56, 0, 45, 42, 0, 68, 27, 43, 0, 77, 69, 0, 78, 81, 0, 50, 0, 0, 24, 57, 0, 76, 0, 38, 1, 51, 12, 63, 0, 53, 18, 10, 0, 80, 0, 22, 0, 6, 37, 66, 30, 34, 65, 0, 0, 0, 7, 32, 61, 29, 55, 67, 0, 79
|41, 0, 55, 40, 59, 53, 12, 0, 0, 0, 48, 20, 39, 0, 0, 0, 45, 52, 72, 80, 0, 24, 8, 9, 13, 0, 50, 79, 44, 35, 0, 0, 38, 37, 57, 81, 68, 33, 34, 26, 0, 1, 6, 5, 62, 47, 0, 54, 22, 67, 78, 14, 36, 19, 17, 65, 75, 43, 0, 15, 0, 0, 16, 2, 0, 21, 0, 3, 56, 0, 32, 4, 27, 70, 64, 69, 10, 58, 74, 0, 30
|0, 25, 79, 58, 54, 0, 0, 57, 64, 6, 0, 19, 43, 0, 40, 17, 18, 74, 77, 7, 0, 45, 0, 12, 33, 51, 0, 21, 62, 0, 28, 5, 26, 31, 0, 0, 0, 32, 3, 30, 11, 27, 63, 24, 10, 0, 50, 59, 29, 0, 49, 70, 73, 15, 8, 0, 47, 67, 0, 14, 0, 36, 0, 0, 9, 39, 42, 35, 13, 22, 23, 0, 41, 0, 34, 0, 0, 0, 0, 80, 0|];