order = 9;
grid = [|80, 46, 0, 34, 55, 56, 30, 5, 4, 72, 20, 0, 38, 0, 0, 21, 51, 50, 27, 53, 47, 0, 42, 0, 44, 15, 0, 54, 0, 19, 67, 45, 59, 0, 63, 81, 0, 0, 43, 68, 11, 77, 62, 52, 36, 0, 17, 61, 69, 0, 7, 41, 79, 64, 66, 0, 0, 0, 74, 24, 73, 33, 0, 40, 65, 39, 0, 23, 0, 0, 28, 14, 22, 60, 12, 71, 9, 18, 0, 31, 0
|0, 26, 52, 61, 6, 48, 81, 23, 67, 17, 0, 0, 55, 53, 5, 75, 12, 16, 19, 37, 50, 8, 0, 3, 38, 4, 63, 14, 43, 71, 0, 0, 77, 0, 39, 79, 10, 0, 25, 21, 24, 32, 18, 41, 15, 58, 9, 66, 49, 62, 0, 34, 27, 59, 0, 1, 0, 30, 57, 0, 2, 31, 64, 51, 33, 13, 35, 56, 45, 0, 29, 76, 0, 78, 0, 44, 70, 11, 69, 0, 73
|0, 11, 0, 65, 0, 0, 29, 0, 0, 0, 14, 44, 37, 42, 35, 0, 41, 13, 32, 40, 73, 6, 0, 0, 77, 0, 46, 69, 0, 34, 78, 0, 0, 0, 64, 0, 12, 8, 51, 63, 4, 0, 2, 33, 5, 45, 31, 15, 25, 56, 60, 0, 30, 20, 62, 75, 38, 0, 55, 47, 27, 76, 17, 54, 22, 68, 57, 52, 53, 26, 71, 18, 23, 0, 79, 24, 43, 81, 3, 49, 58
|41, 14, 35, 63, 0, 10, 18, 0, 21, 65, 68, 0, 79, 47, 71, 19, 73, 62, 0, 59, 17, 12, 69, 0, 60, 0, 52, 5, 25, 32, 31, 55, 0, 0, 13, 57, 23, 0, 80, 61, 45, 9, 75, 46, 44, 51, 42, 3, 54, 50, 22, 77, 0, 28, 70, 15, 16, 56, 81, 20, 26, 0, 40, 0, 0, 8, 2, 0, 72, 30, 27, 58, 0, 76, 39, 0, 0, 1, 33, 53, 4
|0, 0, 0, 17, 43, 73, 15, 54, 39, 18, 27, 56, 64, 0, 30, 49, 22, 0, 41, 31, 5, 10, 66, 14, 26, 0, 58, 33, 72, 0, 76, 51, 0, 24, 23, 11, 78, 0, 53, 50, 28, 79, 48, 71, 29, 32, 8, 19, 80, 67, 0, 68, 6, 35, 0, 4, 0, 65, 61, 3, 42, 9, 0, 55, 81, 20, 0, 7, 60, 0, 0, 21, 74, 2, 52, 57, 36, 0, 37, 59, 40
|12, 0, 28, 79, 0, 58, 62, 13, 66, 23, 52, 0, 6, 0, 32, 57, 24, 81, 33, 67, 30, 0, 61, 20, 29, 39, 9, 0, 0, 37, 0, 48, 56, 46, 80, 68, 26, 70, 42, 35, 76, 40, 0, 0, 22, 1, 53, 72, 63, 0, 0, 0, 14, 5, 51, 21, 34, 0, 59, 54, 7, 11, 77, 47, 49, 74, 0, 0, 15, 17, 0, 0, 64, 0, 0, 55, 0, 50, 38, 19, 0
|0, 22, 57, 77, 33, 9, 53, 3, 75, 60, 0, 63, 48, 43, 0, 0, 67, 40, 24, 51, 78, 0, 81, 68, 18, 49, 0, 0, 0, 12, 65, 27, 50, 8, 41, 0, 59, 20, 0, 54, 13, 0, 0, 0, 0, 0, 36, 0, 11, 39, 0, 76, 10, 37, 0, 0, 5, 0, 25, 72, 0, 35, 29, 73, 31, 0, 0, 70, 79, 1, 80, 6, 15, 14, 30, 47, 61, 28, 0, 17, 0
|70, 8, 0, 0, 60, 38, 40, 0, 37, 29, 0, 78, 31, 0, 76, 61, 58, 0, 75, 65, 62, 0, 36, 22, 25, 13, 0, 49, 1, 4, 9, 0, 66, 0, 15, 0, 72, 17, 0, 0, 6, 14, 69, 73, 30, 52, 26, 0, 57, 81, 0, 43, 16, 21, 32, 0, 79, 0, 28, 53, 0, 18, 23, 77, 0, 0, 67, 63, 42, 10, 0, 0, 45, 0, 0, 20, 46, 51, 0, 80, 56
|0, 49, 71, 0, 0, 0, 78, 45, 76, 8, 15, 0, 36, 28, 4, 59, 46, 7, 64, 23, 56, 72, 54, 21, 57, 35, 79, 0, 53, 22, 58, 0, 0, 18, 0, 3, 0, 0, 1, 31, 81, 74, 39, 0, 0, 70, 29, 47, 0, 55, 33, 38, 48, 0, 14, 43, 67, 0, 12, 50, 60, 10, 80, 11, 0, 44, 41, 0, 0, 5, 24, 19, 0, 0, 0, 25, 13, 75, 0, 26, 68
|10, 1, 0, 41, 12, 17, 76, 0, 54, 0, 51, 35, 0, 0, 0, 20, 55, 8, 0, 0, 32, 44, 49, 46, 65, 66, 0, 0, 0, 43, 28, 4, 78, 0, 60, 0, 0, 62, 21, 0, 0, 2, 0, 0, 13, 0, 0, 0, 26, 15, 48, 0, 0, 79, 30, 50, 23, 57, 31, 0, 16, 0, 0, 59, 69, 0, 37, 40, 0, 7, 61, 0, 18, 81, 47, 0, 39, 38, 5, 25, 0
|9, 68, 39, 69, 18, 0, 7, 0, 62, 0, 56, 41, 0, 2, 74, 58, 30, 77, 25, 33, 38, 29, 0, 67, 35, 60, 28, 0, 81, 0, 34, 65, 0, 5, 50, 12, 0, 0, 32, 37, 53, 0, 78, 23, 80, 0, 40, 57, 0, 46, 0, 0, 13, 0, 42, 61, 51, 0, 22, 0, 14, 0, 0, 48, 0, 45, 0, 17, 1, 19, 0, 43, 0, 55, 26, 8, 0, 76, 73, 4, 52
|49, 64, 66, 47, 30, 16, 74, 38, 0, 76, 23, 0, 0, 0, 57, 71, 81, 73, 21, 0, 0, 0, 12, 0, 51, 26, 36, 8, 52, 0, 56, 29, 32, 59, 0, 37, 5, 18, 0, 44, 40, 20, 43, 17, 41, 28, 70, 2, 68, 0, 78, 63, 69, 53, 0, 80, 0, 6, 3, 25, 55, 7, 0, 46, 60, 65, 0, 42, 0, 35, 50, 0, 0, 75, 14, 0, 72, 0, 15, 27, 0
|0, 0, 67, 11, 78, 24, 0, 0, 0, 0, 0, 7, 0, 0, 18, 27, 40, 0, 6, 8, 34, 37, 0, 75, 41, 0, 69, 79, 68, 48, 0, 0, 19, 35, 0, 0, 0, 0, 58, 0, 0, 47, 73, 59, 0, 0, 51, 10, 1, 80, 14, 0, 54, 55, 12, 60, 77, 29, 0, 71, 56, 0, 53, 64, 44, 5, 81, 0, 0, 0, 57, 3, 0, 0, 0, 0, 33, 21, 46, 32, 20
|0, 45, 0, 52, 0, 36, 0, 35, 33, 22, 12, 0, 10, 0, 37, 17, 13, 64, 4, 7, 79, 31, 0, 0, 71, 23, 72, 70, 0, 27, 6, 0, 62, 3, 25, 44, 77, 0, 67, 39, 0, 0, 65, 8, 11, 81, 0, 0, 0, 0, 0, 0, 18, 19, 15, 69, 0, 0, 78, 74, 59, 5, 47, 0, 29, 2, 24, 26, 41, 0, 32, 66, 16, 57, 56, 34, 42, 0, 51, 43, 0
|0, 0, 8, 58, 15, 6, 59, 0, 27, 50, 39, 25, 0, 0, 0, 47, 5, 78, 2, 0, 24, 1, 13, 0, 68, 0, 16, 38, 0, 18, 71, 42, 51, 0, 76, 23, 81, 7, 55, 75, 0, 54, 0, 0, 61, 0, 21, 77, 43, 22, 64, 12, 33, 0, 52, 0, 36, 72, 32, 66, 0, 0, 0, 4, 0, 53, 80, 0, 9, 0, 74, 79, 0, 37, 48, 63, 0, 44, 65, 0, 49
|20, 25, 56, 5, 2, 0, 0, 0, 0, 42, 29, 65, 0, 21, 59, 15, 11, 28, 47, 22, 19, 30, 73, 0, 40, 61, 27, 0, 54, 80, 17, 63, 0, 7, 0, 77, 60, 0, 0, 79, 0, 52, 0, 70, 0, 74, 39, 0, 35, 3, 37, 0, 4, 76, 38, 13, 43, 18, 48, 64, 0, 0, 9, 75, 51, 78, 0, 71, 23, 36, 0, 16, 0, 53, 0, 62, 69, 41, 1, 0, 50
|79, 0, 21, 0, 50, 29, 0, 22, 43, 0, 54, 80, 69, 0, 60, 70, 14, 36, 17, 62, 0, 56, 0, 53, 74, 52, 15, 57, 47, 41, 1, 66, 46, 10, 11, 13, 76, 72, 33, 0, 0, 51, 0, 38, 9, 8, 49, 0, 5, 65, 0, 23, 44, 42, 81, 0, 0, 0, 75, 19, 68, 0, 28, 30, 0, 0, 12, 55, 0, 39, 0, 0, 0, 0, 0, 35, 7, 0, 2, 0, 59
|0, 0, 0, 70, 0, 42, 51, 14, 72, 0, 48, 26, 68, 0, 79, 32, 45, 53, 11, 0, 0, 0, 0, 0, 50, 78, 0, 75, 40, 9, 69, 61, 33, 20, 2, 74, 0, 29, 64, 22, 25, 71, 10, 15, 0, 60, 52, 0, 7, 17, 0, 66, 56, 24, 0, 0, 76, 4, 1, 0, 58, 44, 0, 49, 63, 77, 21, 0, 18, 38, 0, 31, 12, 0, 28, 13, 0, 3, 0, 0, 6
|77, 36, 0, 2, 35, 60, 0, 68, 0, 30, 17, 61, 70, 7, 0, 51, 48, 54, 9, 46, 21, 27, 1, 49, 63, 19, 0, 25, 12, 0, 13, 3, 0, 67, 5, 16, 0, 65, 66, 0, 0, 0, 74, 0, 81, 22, 24, 0, 0, 0, 0, 78, 11, 33, 20, 38, 52, 62, 23, 6, 0, 0, 59, 18, 53, 0, 15, 73, 0, 32, 40, 71, 0, 45, 43, 0, 26, 0, 0, 10, 72
|21, 12, 41, 32, 56, 0, 55, 33, 23, 26, 0, 28, 0, 15, 63, 53, 0, 0, 65, 0, 57, 0, 38, 69, 20, 25, 67, 46, 8, 51, 42, 0, 9, 0, 75, 1, 0, 68, 22, 0, 30, 34, 0, 0, 0, 0, 73, 0, 0, 5, 66, 52, 36, 80, 44, 31, 0, 0, 45, 0, 18, 0, 0, 0, 0, 27, 60, 16, 59, 0, 64, 49, 71, 29, 0, 6, 0, 62, 0, 2, 54
|38, 75, 29, 46, 47, 66, 45, 0, 8, 31, 9, 52, 0, 27, 49, 43, 25, 41, 72, 36, 0, 4, 40, 0, 22, 0, 18, 0, 64, 50, 23, 0, 81, 0, 73, 6, 0, 5, 14, 53, 0, 70, 0, 1, 0, 0, 55, 65, 16, 0, 12, 0, 0, 0, 0, 0, 26, 37, 0, 34, 80, 21, 0, 17, 0, 0, 74, 69, 0, 0, 0, 77, 51, 28, 59, 79, 60, 0, 0, 7, 48
|0, 6, 74, 24, 10, 30, 0, 11, 0, 0, 0, 58, 0, 0, 69, 62, 20, 0, 81, 47, 0, 16, 31, 39, 56, 48, 0, 0, 0, 0, 14, 21, 17, 0, 66, 70, 52, 23, 0, 0, 72, 37, 8, 0, 63, 59, 28, 75, 29, 0, 2, 61, 57, 38, 64, 7, 32, 0, 35, 9, 0, 71, 60, 79, 4, 42, 76, 34, 65, 67, 22, 50, 13, 27, 80, 0, 15, 40, 68, 3, 25
|78, 4, 79, 59, 52, 22, 26, 15, 0, 0, 0, 0, 0, 0, 0, 65, 2, 34, 45, 17, 35, 66, 80, 0, 10, 54, 0, 0, 7, 63, 0, 0, 58, 71, 0, 56, 6, 24, 0, 0, 38, 46, 60, 0, 69, 14, 0, 0, 62, 23, 72, 53, 20, 3, 68, 0, 12, 0, 51, 40, 50, 36, 27, 8, 61, 0, 0, 1, 0, 31, 30, 44, 0, 0, 0, 18, 49, 57, 0, 75, 0
|0, 9, 19, 27, 49, 63, 71, 39, 0, 0, 35, 23, 73, 60, 77, 0, 42, 22, 59, 74, 37, 68, 26, 41, 33, 0, 64, 0, 62, 0, 24, 2, 79, 31, 34, 55, 51, 15, 75, 28, 10, 0, 47, 0, 40, 30, 58, 0, 81, 44, 8, 7, 70, 25, 0, 76, 53, 17, 5, 61, 0, 54, 13, 14, 66, 6, 72, 21, 0, 43, 52, 0, 1, 36, 0, 0, 0, 67, 32, 20, 46
|50, 0, 31, 51, 57, 1, 0, 37, 0, 0, 75, 39, 47, 45, 19, 67, 3, 80, 0, 0, 14, 0, 0, 0, 24, 0, 6, 72, 38, 53, 0, 52, 0, 78, 40, 27, 61, 55, 54, 12, 0, 59, 76, 0, 0, 68, 0, 79, 46, 0, 0, 0, 0, 0, 25, 42, 33, 0, 0, 0, 0, 22, 73, 0, 13, 62, 0, 58, 81, 20, 36, 7, 70, 0, 16, 11, 64, 69, 23, 0, 0
|17, 43, 18, 28, 0, 3, 34, 7, 80, 40, 32, 71, 8, 74, 24, 0, 1, 21, 62, 0, 0, 78, 0, 50, 0, 42, 29, 0, 60, 33, 0, 54, 0, 76, 49, 59, 0, 0, 77, 0, 0, 73, 64, 11, 0, 10, 27, 6, 15, 48, 9, 69, 0, 0, 0, 2, 70, 81, 39, 41, 0, 0, 57, 68, 0, 55, 0, 51, 46, 0, 19, 35, 66, 0, 63, 14, 65, 61, 31, 22, 0
|40, 13, 76, 0, 0, 0, 0, 67, 0, 68, 59, 0, 0, 10, 0, 0, 29, 5, 71, 0, 55, 0, 60, 7, 0, 32, 75, 0, 22, 69, 0, 39, 44, 74, 4, 15, 31, 27, 0, 43, 41, 0, 0, 0, 3, 63, 50, 45, 21, 0, 26, 0, 64, 77, 1, 79, 19, 16, 65, 14, 8, 0, 66, 38, 54, 0, 48, 80, 0, 33, 9, 47, 37, 56, 0, 52, 0, 30, 58, 34, 53
|24, 16, 1, 45, 48, 0, 46, 55, 60, 0, 0, 43, 41, 76, 9, 77, 52, 66, 37, 58, 10, 2, 0, 51, 0, 34, 23, 27, 21, 56, 22, 12, 14, 81, 19, 64, 71, 36, 0, 40, 18, 69, 20, 50, 4, 0, 0, 0, 13, 30, 74, 0, 49, 44, 0, 0, 0, 75, 54, 42, 0, 78, 0, 67, 35, 31, 61, 25, 0, 29, 38, 0, 0, 0, 11, 53, 79, 63, 0, 0, 39
|37, 47, 15, 7, 9, 75, 35, 0, 63, 0, 31, 5, 49, 0, 33, 0, 16, 38, 0, 18, 67, 59, 41, 0, 27, 64, 42, 6, 74, 24, 45, 72, 70, 0, 51, 0, 8, 73, 60, 3, 55, 0, 22, 39, 0, 2, 0, 0, 78, 0, 53, 56, 76, 68, 23, 19, 69, 40, 11, 0, 28, 52, 36, 0, 79, 1, 43, 50, 0, 58, 44, 48, 0, 17, 13, 29, 4, 10, 26, 21, 77
|72, 58, 36, 12, 51, 67, 49, 25, 68, 0, 0, 10, 0, 0, 78, 28, 35, 44, 1, 0, 71, 50, 0, 33, 9, 40, 31, 62, 15, 46, 41, 69, 61, 38, 7, 0, 0, 53, 48, 0, 70, 23, 0, 0, 0, 0, 81, 0, 65, 19, 52, 60, 24, 11, 0, 22, 17, 14, 0, 0, 30, 80, 21, 3, 73, 32, 75, 20, 4, 0, 54, 57, 5, 34, 74, 0, 66, 27, 56, 55, 43
|52, 27, 34, 73, 13, 0, 79, 43, 31, 46, 0, 53, 60, 51, 55, 39, 0, 58, 48, 57, 36, 65, 32, 17, 61, 62, 44, 50, 18, 68, 30, 0, 0, 0, 9, 5, 29, 6, 11, 81, 33, 16, 26, 0, 0, 0, 0, 41, 67, 40, 47, 45, 71, 14, 2, 70, 0, 35, 76, 15, 72, 0, 1, 7, 77, 56, 23, 74, 0, 0, 42, 22, 78, 0, 0, 0, 0, 0, 28, 12, 38
|26, 0, 0, 0, 11, 5, 0, 17, 28, 25, 0, 45, 21, 56, 23, 18, 47, 61, 80, 6, 60, 49, 7, 8, 0, 68, 74, 43, 77, 13, 73, 36, 16, 0, 35, 0, 0, 59, 2, 9, 15, 38, 37, 34, 10, 48, 69, 46, 22, 79, 29, 0, 62, 0, 53, 12, 0, 27, 50, 58, 0, 3, 0, 70, 78, 63, 0, 41, 76, 64, 39, 55, 0, 0, 40, 67, 0, 0, 44, 51, 0
|18, 56, 33, 0, 40, 0, 0, 6, 61, 0, 69, 0, 22, 24, 72, 74, 32, 3, 0, 0, 0, 0, 0, 66, 16, 38, 53, 0, 78, 0, 8, 80, 31, 44, 71, 65, 41, 64, 52, 0, 0, 1, 79, 49, 67, 0, 10, 26, 58, 36, 21, 42, 28, 23, 55, 63, 62, 34, 0, 0, 57, 45, 25, 9, 17, 15, 0, 0, 13, 51, 0, 2, 0, 73, 35, 30, 48, 37, 60, 0, 76
|32, 50, 2, 76, 71, 62, 19, 64, 10, 67, 0, 34, 0, 0, 11, 13, 17, 0, 0, 52, 69, 0, 0, 0, 12, 73, 0, 0, 57, 60, 59, 0, 23, 39, 33, 4, 30, 77, 0, 0, 51, 80, 28, 0, 54, 0, 43, 38, 3, 0, 0, 70, 15, 0, 0, 48, 0, 44, 41, 26, 0, 74, 0, 36, 0, 0, 0, 0, 21, 45, 65, 8, 47, 58, 1, 72, 0, 14, 9, 24, 42
|3, 77, 23, 22, 0, 0, 38, 81, 29, 12, 36, 19, 30, 73, 80, 0, 4, 0, 26, 0, 13, 20, 0, 43, 54, 47, 0, 0, 67, 76, 0, 79, 2, 1, 17, 0, 74, 46, 35, 42, 14, 72, 27, 44, 0, 0, 33, 0, 9, 63, 6, 32, 0, 39, 60, 18, 7, 59, 0, 37, 10, 61, 49, 53, 0, 34, 0, 11, 40, 28, 62, 0, 57, 8, 45, 0, 0, 65, 75, 16, 41
|39, 80, 0, 53, 0, 0, 0, 0, 42, 0, 26, 59, 0, 68, 20, 7, 54, 65, 76, 63, 0, 14, 25, 0, 81, 0, 0, 48, 29, 75, 49, 28, 3, 0, 0, 47, 32, 0, 78, 62, 5, 57, 0, 66, 24, 27, 34, 1, 50, 0, 17, 64, 55, 0, 13, 77, 9, 0, 73, 79, 0, 38, 51, 60, 37, 10, 71, 0, 19, 16, 33, 72, 69, 0, 18, 0, 0, 0, 36, 46, 0
|13, 35, 59, 43, 0, 0, 0, 60, 17, 0, 10, 14, 5, 44, 0, 0, 0, 52, 0, 76, 22, 57, 4, 12, 0, 67, 54, 0, 69, 3, 62, 41, 40, 0, 28, 29, 47, 39, 8, 0, 48, 0, 72, 16, 32, 33, 6, 0, 0, 74, 0, 81, 51, 61, 0, 0, 18, 58, 53, 23, 0, 0, 42, 0, 0, 0, 0, 38, 55, 21, 56, 0, 27, 49, 68, 66, 37, 73, 25, 30, 2
|0, 72, 63, 0, 39, 0, 14, 18, 47, 24, 0, 0, 77, 48, 3, 4, 80, 0, 42, 49, 0, 0, 68, 31, 0, 0, 62, 65, 71, 0, 64, 0, 27, 37, 0, 21, 66, 67, 41, 11, 9, 43, 0, 0, 23, 34, 60, 20, 0, 16, 0, 2, 22, 45, 76, 0, 57, 19, 0, 36, 35, 0, 5, 1, 6, 79, 29, 0, 10, 52, 0, 0, 55, 0, 15, 0, 8, 26, 74, 0, 0
|45, 79, 0, 44, 81, 74, 0, 30, 2, 11, 49, 76, 39, 36, 0, 12, 61, 0, 77, 56, 0, 64, 46, 10, 13, 0, 51, 52, 0, 67, 53, 0, 55, 0, 1, 0, 14, 0, 0, 60, 3, 15, 35, 42, 25, 65, 0, 0, 37, 78, 19, 27, 23, 8, 22, 6, 48, 31, 47, 0, 70, 0, 26, 32, 0, 17, 50, 33, 58, 80, 66, 0, 9, 0, 54, 69, 18, 0, 16, 28, 0
|27, 3, 62, 0, 0, 7, 80, 4, 34, 0, 0, 30, 2, 41, 0, 0, 33, 0, 69, 71, 6, 35, 74, 0, 0, 17, 0, 78, 19, 0, 12, 8, 39, 23, 70, 50, 65, 75, 56, 5, 46, 53, 61, 36, 49, 13, 0, 55, 0, 72, 79, 24, 52, 0, 0, 0, 66, 0, 9, 0, 29, 51, 0, 26, 0, 73, 59, 77, 67, 0, 81, 60, 76, 38, 31, 48, 21, 58, 64, 40, 44
|0, 42, 10, 68, 16, 23, 28, 0, 0, 53, 25, 54, 0, 62, 64, 9, 8, 20, 36, 11, 65, 3, 30, 55, 52, 0, 78, 66, 0, 0, 0, 18, 60, 51, 0, 0, 2, 45, 76, 59, 77, 0, 44, 22, 50, 29, 14, 0, 0, 26, 38, 58, 40, 1, 0, 0, 74, 67, 27, 0, 17, 37, 39, 0, 47, 0, 0, 12, 0, 61, 0, 0, 63, 41, 0, 56, 0, 32, 24, 13, 19
|66, 76, 0, 19, 0, 0, 67, 29, 51, 0, 16, 0, 0, 0, 21, 69, 56, 55, 73, 0, 0, 53, 23, 59, 2, 27, 5, 7, 32, 42, 74, 33, 54, 34, 45, 48, 20, 0, 12, 57, 37, 24, 68, 6, 0, 50, 44, 18, 71, 77, 25, 4, 9, 31, 28, 30, 15, 61, 63, 52, 0, 13, 0, 65, 41, 40, 22, 39, 0, 3, 11, 70, 35, 10, 0, 80, 75, 0, 17, 14, 0
|0, 0, 54, 26, 0, 31, 50, 9, 0, 78, 0, 0, 74, 0, 27, 35, 0, 42, 39, 80, 0, 63, 0, 61, 48, 75, 0, 59, 0, 0, 0, 81, 0, 0, 14, 36, 0, 0, 7, 64, 34, 0, 33, 13, 51, 76, 32, 28, 66, 0, 0, 15, 17, 57, 40, 20, 0, 0, 0, 49, 21, 12, 4, 2, 0, 16, 30, 0, 8, 0, 72, 45, 6, 0, 60, 65, 47, 22, 0, 1, 0
|36, 24, 69, 21, 41, 0, 61, 12, 40, 58, 0, 81, 0, 22, 46, 0, 60, 17, 0, 1, 29, 38, 0, 25, 14, 37, 0, 76, 13, 6, 15, 20, 47, 73, 0, 31, 0, 79, 4, 71, 80, 30, 0, 55, 0, 49, 67, 56, 53, 75, 3, 10, 63, 48, 59, 0, 2, 7, 72, 0, 62, 16, 65, 78, 0, 0, 5, 57, 68, 27, 0, 28, 39, 52, 23, 0, 50, 43, 45, 0, 11
|11, 0, 32, 0, 1, 52, 70, 48, 71, 28, 40, 18, 75, 0, 13, 0, 59, 0, 15, 21, 16, 26, 50, 0, 66, 45, 41, 2, 58, 49, 61, 43, 22, 0, 77, 30, 54, 19, 0, 10, 0, 0, 17, 0, 0, 0, 64, 0, 73, 47, 0, 0, 0, 0, 8, 3, 81, 0, 33, 0, 0, 0, 68, 0, 0, 0, 63, 44, 74, 0, 23, 0, 53, 51, 20, 36, 0, 4, 0, 57, 0
|0, 74, 30, 0, 28, 26, 56, 1, 0, 4, 0, 0, 23, 80, 22, 76, 27, 46, 40, 81, 0, 54, 24, 0, 69, 0, 0, 0, 0, 64, 51, 6, 35, 0, 10, 0, 3, 0, 62, 20, 79, 0, 0, 0, 17, 55, 5, 49, 8, 31, 45, 73, 39, 18, 78, 37, 14, 33, 0, 29, 34, 70, 0, 15, 59, 67, 52, 36, 0, 0, 68, 13, 0, 21, 0, 60, 32, 0, 72, 11, 75
|4, 0, 0, 15, 0, 44, 2, 69, 0, 7, 21, 79, 51, 30, 43, 52, 62, 37, 38, 72, 25, 17, 67, 48, 0, 65, 45, 32, 55, 59, 77, 31, 49, 75, 24, 9, 28, 63, 57, 0, 56, 5, 0, 0, 70, 0, 1, 54, 0, 34, 20, 36, 42, 6, 46, 0, 0, 22, 13, 8, 23, 0, 3, 12, 0, 26, 18, 0, 0, 40, 58, 41, 61, 35, 33, 76, 16, 68, 0, 47, 74
|0, 62, 42, 16, 65, 0, 36, 79, 57, 3, 77, 0, 0, 18, 73, 48, 64, 19, 29, 41, 26, 58, 6, 27, 0, 63, 13, 44, 0, 0, 60, 0, 20, 14, 54, 0, 46, 51, 0, 38, 68, 0, 81, 78, 0, 0, 37, 9, 30, 35, 61, 40, 75, 66, 0, 0, 25, 50, 0, 12, 15, 0, 0, 39, 70, 0, 1, 76, 0, 8, 53, 33, 10, 24, 5, 45, 23, 31, 49, 67, 0
|0, 67, 51, 35, 68, 19, 17, 0, 12, 32, 44, 0, 11, 0, 0, 0, 0, 70, 0, 64, 46, 15, 16, 74, 36, 56, 33, 47, 42, 7, 39, 25, 1, 65, 53, 71, 75, 2, 0, 34, 0, 31, 23, 61, 18, 0, 63, 22, 0, 0, 13, 48, 38, 72, 5, 41, 20, 0, 4, 0, 76, 28, 0, 62, 0, 0, 27, 66, 3, 57, 60, 0, 50, 40, 29, 73, 59, 79, 30, 0, 26
|31, 33, 0, 80, 0, 18, 0, 0, 59, 0, 13, 0, 9, 5, 0, 25, 71, 0, 66, 0, 3, 0, 34, 60, 0, 22, 37, 41, 48, 78, 40, 0, 68, 50, 62, 73, 64, 69, 45, 72, 0, 65, 0, 32, 39, 79, 16, 74, 19, 76, 43, 0, 12, 81, 35, 0, 61, 36, 38, 44, 52, 0, 55, 0, 11, 47, 0, 0, 14, 0, 0, 51, 28, 46, 0, 42, 0, 6, 0, 56, 15
|0, 23, 11, 0, 0, 37, 6, 66, 20, 0, 42, 72, 0, 67, 0, 2, 0, 35, 55, 28, 59, 0, 0, 47, 75, 50, 21, 81, 0, 0, 26, 0, 45, 13, 36, 80, 49, 0, 74, 0, 60, 27, 30, 14, 43, 0, 78, 58, 51, 70, 0, 44, 3, 0, 0, 0, 0, 0, 10, 0, 0, 0, 18, 0, 0, 0, 38, 0, 56, 22, 0, 61, 0, 0, 7, 1, 77, 0, 34, 0, 57
|14, 5, 0, 0, 76, 77, 0, 10, 25, 45, 0, 12, 0, 20, 34, 0, 49, 0, 79, 0, 1, 19, 62, 4, 31, 8, 0, 0, 28, 57, 38, 23, 74, 0, 0, 72, 9, 33, 36, 0, 16, 44, 11, 40, 0, 0, 0, 68, 0, 7, 27, 26, 0, 56, 47, 0, 75, 0, 58, 73, 66, 0, 0, 0, 21, 0, 6, 0, 32, 55, 78, 17, 43, 18, 65, 51, 63, 54, 13, 39, 22
|48, 78, 55, 54, 75, 0, 0, 49, 41, 0, 60, 31, 57, 38, 39, 36, 66, 14, 7, 32, 0, 18, 0, 42, 0, 0, 68, 0, 46, 5, 29, 15, 37, 79, 0, 0, 67, 1, 0, 19, 35, 13, 50, 76, 58, 0, 65, 33, 28, 0, 80, 21, 59, 17, 27, 40, 0, 64, 77, 16, 9, 26, 6, 69, 34, 72, 20, 45, 73, 74, 43, 30, 52, 44, 4, 81, 3, 8, 0, 70, 62
|64, 0, 0, 0, 34, 45, 0, 63, 32, 0, 0, 68, 56, 59, 0, 81, 28, 74, 0, 78, 80, 9, 0, 77, 76, 20, 61, 4, 17, 0, 16, 70, 18, 27, 43, 0, 15, 0, 10, 0, 8, 0, 53, 12, 42, 71, 0, 0, 0, 52, 23, 47, 0, 2, 31, 39, 1, 48, 30, 0, 0, 0, 54, 35, 75, 29, 7, 0, 44, 24, 79, 65, 58, 25, 36, 0, 38, 0, 14, 37, 55
|0, 37, 46, 78, 0, 2, 0, 76, 52, 74, 0, 3, 7, 66, 65, 0, 75, 43, 0, 27, 31, 33, 72, 32, 39, 69, 0, 61, 35, 26, 0, 62, 12, 0, 6, 0, 17, 0, 50, 0, 22, 41, 0, 0, 19, 53, 11, 64, 56, 57, 81, 51, 34, 0, 0, 9, 0, 38, 70, 59, 4, 63, 0, 28, 42, 48, 0, 29, 0, 0, 0, 0, 49, 0, 55, 0, 58, 0, 67, 77, 18
|35, 29, 0, 42, 14, 13, 68, 0, 0, 34, 0, 0, 25, 0, 0, 16, 0, 33, 0, 4, 77, 48, 0, 40, 8, 0, 60, 0, 36, 52, 63, 0, 0, 58, 0, 0, 73, 0, 65, 0, 44, 21, 0, 43, 28, 72, 71, 80, 0, 41, 67, 0, 0, 0, 0, 0, 0, 0, 0, 0, 54, 75, 0, 74, 1, 81, 0, 2, 20, 6, 7, 26, 56, 0, 3, 39, 45, 0, 0, 0, 78
|0, 0, 0, 0, 3, 15, 12, 44, 77, 80, 24, 51, 0, 26, 31, 79, 18, 67, 0, 66, 68, 11, 29, 0, 21, 0, 81, 71, 27, 47, 55, 14, 0, 49, 0, 10, 0, 42, 0, 8, 0, 76, 0, 30, 0, 78, 0, 48, 4, 58, 32, 75, 0, 0, 50, 34, 45, 5, 20, 0, 37, 0, 0, 25, 64, 0, 0, 62, 33, 41, 0, 0, 7, 65, 70, 22, 6, 74, 35, 9, 0
|63, 0, 9, 10, 73, 0, 31, 74, 48, 35, 0, 8, 78, 71, 17, 54, 0, 23, 61, 55, 42, 80, 15, 62, 34, 0, 0, 39, 11, 70, 79, 64, 67, 0, 32, 20, 25, 0, 3, 0, 66, 45, 0, 53, 47, 19, 68, 13, 40, 0, 76, 0, 0, 0, 33, 16, 49, 77, 6, 0, 1, 0, 58, 0, 36, 50, 0, 18, 43, 75, 0, 37, 21, 0, 69, 5, 0, 2, 0, 60, 12
|67, 30, 75, 0, 61, 32, 16, 53, 0, 27, 0, 20, 59, 4, 42, 73, 39, 76, 0, 70, 0, 24, 45, 26, 3, 58, 57, 34, 51, 0, 0, 56, 80, 0, 0, 0, 37, 9, 46, 0, 31, 7, 63, 69, 0, 6, 22, 5, 74, 21, 10, 62, 1, 65, 11, 25, 0, 60, 0, 0, 0, 43, 0, 52, 55, 0, 66, 79, 0, 49, 0, 78, 0, 19, 71, 54, 68, 0, 40, 0, 28
|0, 0, 80, 6, 62, 79, 25, 40, 49, 69, 37, 0, 61, 55, 0, 30, 0, 10, 56, 9, 0, 71, 47, 64, 0, 5, 65, 13, 24, 31, 48, 74, 53, 0, 42, 43, 4, 78, 0, 0, 0, 33, 59, 0, 1, 3, 77, 8, 44, 0, 70, 39, 2, 29, 7, 73, 35, 66, 0, 51, 0, 23, 15, 0, 58, 0, 17, 67, 11, 54, 76, 68, 46, 26, 27, 0, 0, 34, 81, 38, 16
|5, 70, 45, 0, 66, 41, 39, 0, 18, 77, 64, 6, 0, 49, 52, 0, 53, 2, 67, 14, 7, 46, 0, 76, 17, 43, 0, 9, 65, 29, 0, 0, 21, 60, 8, 33, 0, 34, 15, 0, 0, 58, 51, 20, 55, 38, 12, 0, 47, 25, 28, 50, 0, 54, 74, 36, 40, 13, 0, 0, 31, 79, 22, 57, 32, 0, 0, 35, 69, 72, 59, 0, 0, 11, 10, 75, 24, 80, 42, 0, 0
|0, 57, 0, 33, 0, 0, 47, 51, 0, 0, 41, 21, 12, 14, 0, 40, 9, 68, 13, 0, 74, 79, 75, 0, 49, 6, 50, 0, 4, 0, 44, 1, 7, 28, 22, 0, 11, 0, 5, 70, 71, 35, 0, 60, 62, 16, 15, 0, 18, 0, 55, 0, 0, 63, 61, 72, 42, 0, 29, 0, 0, 0, 0, 0, 0, 80, 0, 0, 30, 0, 34, 24, 0, 32, 0, 43, 76, 64, 66, 73, 8
|0, 7, 65, 0, 38, 27, 21, 0, 11, 0, 72, 0, 45, 50, 0, 56, 63, 29, 23, 0, 0, 0, 20, 36, 0, 0, 0, 16, 75, 0, 66, 46, 15, 25, 57, 54, 0, 80, 68, 74, 12, 0, 49, 48, 6, 0, 0, 35, 61, 69, 0, 0, 43, 30, 26, 8, 0, 76, 67, 0, 39, 55, 19, 22, 40, 0, 3, 0, 71, 4, 0, 9, 14, 47, 53, 37, 44, 59, 62, 0, 1
|0, 2, 17, 0, 0, 33, 0, 70, 22, 43, 62, 27, 16, 0, 36, 0, 0, 18, 78, 24, 0, 69, 51, 0, 0, 72, 47, 3, 34, 55, 52, 26, 0, 77, 58, 28, 35, 30, 0, 32, 19, 0, 5, 25, 60, 56, 0, 44, 45, 0, 0, 65, 0, 50, 0, 59, 0, 12, 79, 31, 61, 0, 7, 6, 0, 23, 0, 75, 0, 0, 21, 0, 20, 15, 0, 49, 0, 39, 11, 0, 64
|6, 21, 61, 64, 26, 0, 27, 16, 0, 51, 2, 48, 50, 17, 54, 80, 7, 60, 18, 0, 76, 41, 59, 0, 0, 31, 39, 29, 9, 14, 0, 78, 43, 0, 0, 62, 55, 38, 0, 77, 52, 56, 34, 74, 66, 23, 4, 11, 20, 33, 63, 49, 53, 0, 0, 44, 73, 15, 36, 13, 0, 67, 0, 5, 8, 71, 28, 0, 70, 0, 1, 0, 0, 22, 75, 0, 35, 47, 57, 0, 30
|0, 0, 0, 57, 0, 0, 0, 41, 74, 56, 0, 66, 0, 52, 12, 46, 68, 0, 3, 0, 33, 13, 58, 6, 0, 55, 32, 63, 0, 39, 80, 60, 0, 16, 37, 0, 44, 28, 26, 49, 7, 29, 21, 0, 59, 61, 18, 78, 75, 42, 73, 22, 0, 0, 43, 0, 27, 23, 69, 62, 38, 0, 48, 45, 0, 36, 40, 0, 77, 0, 0, 10, 79, 0, 19, 0, 17, 71, 70, 0, 0
|0, 19, 0, 36, 67, 39, 0, 0, 38, 0, 28, 0, 63, 32, 0, 33, 31, 0, 57, 61, 48, 25, 35, 37, 70, 21, 0, 0, 23, 1, 5, 75, 10, 68, 18, 66, 0, 76, 71, 58, 27, 0, 15, 9, 8, 40, 3, 0, 79, 6, 54, 0, 81, 7, 65, 52, 0, 0, 2, 0, 77, 53, 0, 13, 0, 64, 0, 72, 62, 56, 55, 11, 0, 0, 44, 12, 0, 0, 0, 41, 0
|75, 63, 0, 18, 7, 76, 0, 0, 14, 73, 3, 0, 65, 23, 0, 64, 57, 59, 0, 43, 0, 40, 0, 44, 67, 29, 38, 31, 0, 54, 0, 32, 42, 0, 74, 45, 68, 0, 79, 51, 17, 11, 12, 81, 0, 21, 0, 0, 0, 0, 16, 19, 0, 0, 0, 55, 41, 0, 26, 35, 6, 58, 56, 50, 24, 22, 0, 15, 66, 69, 37, 39, 0, 61, 0, 78, 0, 0, 27, 5, 60
|65, 0, 49, 0, 29, 12, 48, 46, 0, 0, 6, 42, 34, 0, 61, 8, 77, 75, 0, 20, 27, 74, 9, 0, 4, 0, 0, 22, 0, 40, 7, 11, 13, 0, 56, 0, 50, 41, 0, 67, 0, 39, 31, 80, 37, 26, 2, 76, 72, 43, 1, 0, 58, 15, 17, 33, 68, 47, 21, 0, 5, 0, 0, 0, 57, 0, 16, 0, 0, 53, 0, 0, 73, 0, 0, 28, 0, 36, 0, 18, 45
|81, 0, 37, 31, 45, 43, 69, 62, 0, 0, 71, 15, 0, 0, 47, 29, 26, 0, 53, 68, 11, 52, 22, 19, 80, 0, 49, 0, 59, 36, 0, 0, 0, 57, 0, 38, 0, 54, 70, 2, 0, 61, 1, 0, 46, 12, 13, 17, 0, 64, 0, 28, 0, 41, 75, 14, 39, 25, 40, 0, 63, 0, 50, 20, 0, 7, 79, 60, 27, 0, 0, 34, 24, 0, 67, 0, 0, 16, 55, 6, 0
|0, 0, 13, 25, 80, 0, 9, 32, 79, 0, 0, 24, 81, 37, 0, 78, 21, 11, 0, 16, 64, 0, 0, 0, 0, 77, 26, 53, 0, 0, 0, 67, 0, 15, 27, 0, 0, 14, 23, 65, 73, 75, 0, 57, 48, 5, 0, 69, 0, 0, 0, 59, 0, 70, 3, 51, 0, 0, 19, 18, 0, 34, 0, 63, 52, 38, 42, 4, 49, 47, 41, 12, 40, 1, 2, 58, 31, 0, 0, 0, 66
|60, 34, 0, 0, 0, 55, 23, 42, 0, 39, 30, 38, 35, 19, 0, 22, 79, 25, 8, 54, 75, 73, 65, 0, 0, 0, 0, 51, 6, 0, 0, 0, 71, 33, 69, 0, 0, 40, 20, 18, 47, 36, 16, 10, 64, 37, 66, 0, 52, 0, 77, 0, 0, 0, 57, 11, 46, 70, 49, 28, 45, 0, 0, 58, 76, 43, 0, 61, 0, 48, 17, 80, 59, 63, 0, 0, 0, 13, 4, 62, 21
|62, 40, 12, 9, 0, 46, 0, 56, 0, 0, 81, 0, 28, 25, 38, 3, 10, 24, 0, 69, 0, 47, 43, 65, 0, 0, 34, 42, 2, 0, 54, 0, 0, 48, 68, 7, 21, 35, 72, 0, 0, 4, 55, 18, 0, 57, 41, 0, 39, 11, 0, 79, 77, 51, 19, 29, 59, 0, 60, 27, 0, 0, 70, 61, 23, 30, 44, 22, 37, 76, 0, 74, 0, 13, 78, 16, 73, 49, 6, 0, 33
|57, 17, 25, 67, 59, 53, 77, 78, 3, 14, 0, 40, 80, 35, 0, 0, 72, 0, 74, 75, 12, 42, 56, 38, 0, 7, 0, 0, 0, 23, 43, 0, 11, 69, 44, 0, 0, 0, 0, 0, 0, 0, 52, 62, 0, 54, 0, 0, 32, 0, 31, 16, 0, 9, 0, 0, 30, 51, 37, 33, 0, 39, 8, 24, 48, 21, 73, 81, 29, 18, 15, 1, 0, 0, 76, 4, 55, 0, 22, 65, 10
|0, 41, 24, 4, 0, 81, 0, 36, 5, 61, 0, 49, 26, 11, 0, 55, 0, 15, 51, 0, 39, 28, 27, 73, 32, 16, 77, 17, 31, 74, 0, 59, 76, 53, 29, 52, 0, 0, 40, 69, 20, 6, 66, 0, 0, 42, 48, 70, 23, 8, 68, 3, 72, 0, 18, 62, 0, 0, 0, 22, 25, 56, 79, 10, 7, 60, 0, 64, 75, 9, 63, 38, 0, 0, 57, 0, 2, 45, 47, 44, 0
|44, 0, 0, 0, 42, 14, 10, 0, 15, 16, 0, 0, 0, 64, 2, 45, 34, 63, 0, 3, 66, 62, 76, 24, 59, 46, 80, 0, 50, 79, 70, 35, 41, 32, 21, 67, 0, 0, 81, 0, 65, 49, 25, 0, 75, 0, 0, 29, 17, 0, 0, 13, 74, 58, 48, 0, 31, 0, 52, 7, 40, 1, 0, 33, 5, 0, 11, 0, 0, 71, 0, 0, 60, 20, 0, 0, 19, 12, 54, 8, 37
|76, 54, 58, 0, 23, 61, 13, 34, 16, 41, 74, 9, 18, 77, 29, 68, 0, 30, 0, 25, 70, 21, 0, 72, 15, 0, 4, 0, 3, 73, 27, 71, 64, 55, 20, 8, 7, 37, 44, 47, 57, 60, 32, 19, 0, 66, 62, 14, 10, 49, 0, 0, 0, 0, 69, 5, 78, 28, 17, 45, 0, 6, 0, 80, 2, 52, 46, 59, 50, 42, 67, 0, 38, 48, 0, 0, 1, 56, 53, 81, 24
|29, 0, 60, 49, 79, 68, 64, 47, 35, 75, 19, 0, 20, 0, 51, 42, 0, 56, 22, 26, 53, 81, 33, 13, 0, 36, 2, 1, 37, 72, 4, 0, 65, 6, 16, 14, 39, 61, 30, 48, 0, 8, 9, 0, 31, 0, 76, 71, 59, 27, 5, 0, 45, 0, 0, 10, 0, 3, 24, 38, 0, 15, 41, 43, 0, 54, 0, 78, 17, 0, 70, 0, 11, 0, 0, 40, 62, 0, 18, 23, 67
|0, 51, 48, 8, 19, 0, 43, 26, 0, 0, 53, 62, 27, 39, 1, 0, 6, 31, 52, 0, 54, 23, 78, 29, 0, 9, 14, 15, 61, 38, 18, 0, 0, 0, 47, 0, 22, 0, 28, 76, 59, 10, 45, 0, 0, 64, 25, 0, 0, 4, 0, 37, 60, 0, 77, 65, 72, 0, 80, 67, 13, 0, 63, 41, 20, 0, 55, 0, 16, 0, 0, 0, 3, 68, 32, 17, 0, 70, 50, 35, 36
|74, 38, 0, 0, 69, 0, 33, 65, 30, 79, 78, 37, 54, 0, 70, 23, 76, 32, 68, 5, 0, 60, 0, 0, 0, 10, 48, 0, 39, 0, 19, 9, 34, 0, 81, 0, 0, 11, 16, 24, 64, 3, 0, 77, 73, 67, 7, 53, 55, 0, 0, 0, 21, 26, 0, 66, 58, 2, 43, 0, 46, 14, 44, 72, 62, 0, 31, 47, 0, 13, 6, 0, 75, 42, 61, 15, 28, 0, 0, 0, 29
|28, 71, 27, 0, 31, 80, 32, 2, 0, 59, 7, 33, 52, 13, 0, 60, 44, 47, 20, 50, 61, 67, 57, 0, 37, 0, 40, 10, 63, 30, 36, 22, 0, 62, 78, 49, 1, 0, 29, 0, 23, 17, 42, 0, 53, 43, 19, 81, 24, 38, 15, 6, 0, 0, 54, 35, 64, 9, 16, 0, 0, 68, 0, 56, 0, 3, 8, 65, 51, 0, 0, 4, 0, 0, 77, 21, 34, 72, 79, 58, 0|];