order = 9;
grid = [|55, 7, 39, 72, 4, 22, 0, 14, 9, 0, 77, 0, 20, 0, 26, 52, 25, 5, 47, 0, 57, 0, 29, 73, 68, 0, 35, 16, 18, 3, 33, 50, 58, 0, 12, 30, 64, 0, 43, 19, 60, 65, 53, 0, 6, 56, 75, 0, 48, 31, 32, 0, 0, 10, 0, 38, 0, 24, 69, 67, 0, 71, 79, 0, 0, 0, 61, 0, 0, 80, 70, 66, 8, 76, 40, 37, 0, 17, 54, 44, 81
|5, 67, 24, 81, 34, 13, 0, 19, 0, 30, 55, 0, 12, 0, 56, 75, 16, 21, 0, 72, 9, 79, 27, 0, 0, 0, 70, 14, 77, 35, 36, 45, 25, 61, 40, 60, 2, 58, 57, 78, 68, 62, 0, 46, 20, 1, 63, 0, 0, 0, 29, 80, 0, 0, 0, 0, 0, 37, 49, 73, 65, 44, 76, 0, 0, 11, 52, 41, 32, 54, 7, 53, 69, 48, 0, 39, 47, 4, 18, 42, 71
|56, 70, 0, 26, 50, 8, 23, 0, 12, 7, 32, 0, 51, 57, 0, 65, 11, 0, 53, 43, 62, 17, 0, 21, 2, 64, 46, 13, 4, 59, 10, 0, 31, 47, 34, 15, 0, 14, 38, 27, 81, 39, 0, 0, 0, 25, 79, 5, 35, 60, 0, 16, 19, 42, 41, 54, 36, 28, 0, 48, 3, 33, 29, 78, 1, 0, 0, 45, 75, 0, 9, 0, 58, 52, 0, 20, 0, 67, 68, 55, 61
|45, 0, 18, 0, 0, 68, 69, 43, 64, 54, 0, 67, 35, 0, 78, 10, 36, 0, 0, 74, 4, 39, 37, 50, 0, 49, 71, 0, 73, 0, 8, 0, 46, 72, 63, 38, 33, 41, 1, 47, 0, 31, 0, 29, 23, 14, 81, 13, 0, 61, 0, 22, 11, 62, 12, 0, 52, 7, 0, 0, 57, 0, 0, 16, 0, 25, 28, 20, 44, 0, 0, 79, 0, 3, 0, 66, 0, 0, 75, 51, 15
|16, 20, 66, 78, 15, 0, 0, 1, 0, 73, 74, 37, 48, 0, 45, 43, 81, 24, 0, 0, 0, 0, 0, 30, 0, 0, 54, 68, 42, 75, 0, 80, 52, 0, 0, 0, 0, 67, 7, 50, 18, 0, 0, 25, 21, 0, 47, 46, 17, 71, 6, 0, 4, 12, 59, 0, 35, 2, 32, 72, 55, 0, 27, 58, 69, 8, 65, 51, 14, 49, 56, 3, 41, 11, 63, 36, 62, 57, 31, 5, 0
|2, 41, 0, 0, 0, 30, 0, 0, 51, 0, 1, 66, 0, 28, 0, 0, 58, 9, 0, 0, 10, 18, 65, 0, 67, 59, 0, 0, 0, 0, 49, 57, 32, 78, 0, 22, 77, 15, 48, 54, 71, 70, 16, 17, 55, 33, 0, 0, 73, 0, 39, 0, 52, 8, 0, 13, 81, 11, 26, 0, 61, 20, 25, 0, 0, 0, 0, 34, 27, 0, 42, 29, 38, 79, 0, 23, 12, 50, 35, 6, 72
|0, 29, 42, 36, 0, 3, 35, 6, 25, 0, 0, 0, 0, 76, 0, 0, 4, 0, 34, 0, 81, 80, 13, 32, 52, 66, 63, 0, 0, 2, 0, 48, 55, 53, 54, 51, 73, 0, 56, 61, 5, 79, 24, 12, 69, 59, 21, 37, 23, 15, 65, 58, 72, 68, 50, 14, 0, 0, 0, 0, 0, 0, 46, 77, 0, 40, 60, 57, 74, 31, 0, 0, 64, 26, 7, 9, 16, 45, 49, 30, 0
|0, 0, 53, 52, 75, 0, 0, 58, 71, 23, 18, 61, 68, 79, 46, 0, 50, 3, 15, 38, 0, 20, 45, 0, 25, 0, 56, 0, 41, 44, 28, 26, 21, 0, 62, 17, 74, 0, 49, 36, 11, 59, 8, 35, 51, 57, 43, 27, 30, 54, 40, 69, 7, 77, 47, 16, 9, 31, 5, 39, 0, 4, 63, 0, 13, 81, 0, 64, 76, 12, 67, 24, 70, 60, 0, 80, 0, 29, 0, 78, 2
|77, 54, 0, 49, 0, 61, 74, 0, 10, 80, 64, 0, 0, 71, 29, 59, 34, 19, 7, 12, 0, 14, 0, 44, 23, 16, 0, 81, 0, 69, 79, 37, 11, 6, 24, 43, 52, 0, 0, 0, 3, 76, 0, 26, 4, 0, 41, 9, 0, 2, 0, 0, 78, 70, 42, 15, 0, 56, 0, 60, 53, 0, 0, 35, 0, 18, 0, 38, 50, 39, 0, 72, 1, 25, 0, 21, 22, 27, 0, 73, 0
|57, 0, 70, 34, 27, 56, 0, 38, 66, 61, 13, 0, 63, 0, 74, 53, 0, 31, 51, 54, 72, 0, 36, 23, 0, 45, 30, 0, 62, 0, 0, 0, 0, 0, 0, 0, 4, 0, 17, 3, 29, 19, 7, 0, 60, 47, 69, 0, 58, 21, 68, 12, 16, 33, 0, 20, 0, 15, 6, 46, 11, 2, 41, 0, 26, 55, 78, 0, 28, 42, 0, 35, 0, 0, 22, 0, 81, 44, 0, 79, 10
|0, 16, 78, 12, 59, 76, 1, 0, 48, 18, 19, 50, 40, 0, 54, 5, 46, 28, 0, 0, 2, 26, 60, 81, 31, 22, 65, 6, 0, 57, 68, 34, 41, 35, 43, 27, 0, 0, 0, 21, 10, 0, 70, 8, 33, 30, 36, 0, 53, 3, 55, 4, 20, 0, 79, 0, 42, 58, 51, 0, 49, 0, 44, 0, 73, 38, 64, 0, 15, 0, 74, 45, 72, 80, 0, 14, 0, 47, 0, 0, 17
|30, 0, 0, 51, 41, 14, 10, 0, 49, 0, 0, 42, 4, 0, 0, 58, 0, 0, 0, 5, 0, 63, 25, 11, 18, 55, 73, 52, 72, 0, 0, 7, 0, 64, 0, 50, 9, 54, 0, 15, 67, 34, 77, 47, 27, 0, 74, 0, 0, 0, 59, 39, 17, 43, 0, 45, 0, 0, 0, 40, 0, 0, 0, 32, 37, 0, 62, 23, 0, 57, 0, 0, 20, 0, 0, 2, 0, 38, 65, 26, 3
|37, 0, 50, 39, 25, 0, 0, 74, 75, 0, 0, 23, 62, 10, 47, 55, 0, 26, 44, 9, 78, 0, 0, 20, 0, 14, 0, 24, 0, 81, 65, 77, 0, 0, 61, 49, 36, 42, 58, 45, 0, 46, 80, 22, 0, 0, 64, 0, 71, 35, 0, 0, 54, 73, 1, 4, 0, 0, 38, 17, 0, 68, 30, 5, 0, 34, 0, 43, 79, 7, 48, 19, 40, 70, 27, 31, 52, 0, 21, 57, 29
|0, 58, 81, 42, 29, 0, 45, 0, 67, 6, 0, 20, 72, 30, 57, 77, 14, 66, 79, 4, 53, 28, 0, 27, 0, 75, 0, 71, 47, 54, 5, 17, 12, 80, 38, 78, 0, 35, 73, 41, 55, 69, 0, 61, 37, 34, 9, 26, 76, 22, 44, 50, 60, 31, 8, 3, 0, 0, 0, 33, 0, 0, 19, 24, 0, 21, 10, 70, 2, 18, 0, 0, 56, 51, 0, 0, 13, 1, 63, 11, 46
|0, 15, 6, 11, 0, 72, 63, 4, 0, 0, 78, 35, 71, 34, 27, 41, 39, 0, 17, 47, 42, 0, 68, 24, 0, 40, 1, 0, 60, 0, 16, 53, 70, 46, 37, 0, 0, 0, 26, 43, 64, 2, 49, 65, 0, 62, 52, 10, 19, 80, 75, 0, 38, 0, 0, 7, 5, 21, 73, 28, 0, 69, 55, 0, 0, 0, 0, 0, 81, 0, 51, 0, 18, 0, 23, 30, 48, 32, 74, 76, 0
|40, 64, 21, 73, 0, 54, 20, 0, 79, 0, 80, 33, 38, 36, 65, 76, 69, 0, 71, 0, 13, 19, 46, 7, 34, 39, 58, 55, 67, 26, 0, 0, 63, 25, 15, 59, 68, 18, 44, 62, 30, 0, 0, 5, 74, 0, 49, 66, 11, 0, 45, 0, 0, 51, 0, 50, 53, 10, 16, 43, 27, 57, 22, 31, 41, 4, 0, 47, 17, 1, 0, 0, 0, 8, 0, 24, 9, 42, 28, 37, 6
|17, 13, 0, 69, 19, 71, 46, 44, 47, 56, 0, 75, 11, 21, 43, 81, 0, 15, 67, 0, 35, 3, 61, 10, 16, 0, 38, 0, 51, 45, 74, 30, 42, 0, 36, 0, 53, 31, 59, 0, 52, 0, 0, 23, 0, 32, 5, 18, 7, 1, 77, 57, 65, 41, 0, 0, 70, 29, 0, 54, 26, 24, 78, 0, 63, 6, 0, 33, 49, 0, 50, 25, 60, 58, 68, 64, 55, 12, 4, 0, 0
|0, 35, 65, 28, 0, 0, 0, 55, 23, 1, 68, 9, 60, 73, 3, 51, 0, 17, 76, 69, 0, 74, 48, 64, 21, 77, 0, 8, 31, 33, 19, 0, 4, 10, 11, 29, 38, 0, 24, 39, 0, 0, 25, 81, 0, 0, 40, 0, 0, 27, 13, 70, 14, 37, 0, 0, 0, 63, 34, 0, 0, 0, 32, 53, 20, 30, 12, 44, 36, 58, 0, 0, 78, 67, 62, 0, 0, 0, 66, 41, 16
|0, 45, 59, 62, 67, 81, 0, 57, 77, 34, 38, 28, 5, 61, 32, 23, 0, 7, 0, 64, 0, 78, 16, 2, 9, 48, 0, 29, 0, 76, 21, 20, 0, 50, 18, 44, 47, 80, 0, 0, 72, 0, 27, 49, 1, 0, 10, 58, 0, 41, 0, 35, 0, 65, 74, 0, 33, 43, 46, 25, 0, 0, 0, 54, 0, 39, 66, 13, 0, 0, 0, 22, 0, 0, 69, 0, 0, 71, 55, 70, 0
|0, 0, 29, 0, 23, 80, 16, 78, 17, 51, 69, 54, 59, 56, 66, 74, 0, 20, 28, 0, 61, 0, 49, 46, 0, 53, 76, 79, 6, 63, 38, 19, 0, 0, 47, 33, 22, 25, 0, 60, 77, 15, 0, 31, 34, 0, 30, 81, 0, 5, 0, 0, 42, 2, 18, 57, 32, 40, 37, 70, 67, 0, 0, 12, 35, 0, 36, 68, 73, 0, 55, 44, 0, 0, 0, 0, 75, 39, 1, 14, 62
|42, 56, 58, 0, 0, 0, 25, 76, 33, 0, 62, 0, 26, 29, 37, 2, 6, 0, 0, 73, 0, 0, 0, 18, 41, 32, 51, 23, 1, 22, 0, 16, 0, 57, 81, 0, 0, 19, 0, 48, 70, 0, 65, 79, 0, 67, 11, 47, 69, 66, 4, 0, 44, 75, 80, 0, 0, 20, 39, 0, 59, 72, 12, 74, 49, 0, 5, 17, 0, 30, 0, 21, 0, 0, 8, 0, 68, 10, 40, 27, 9
|54, 0, 26, 6, 72, 40, 18, 0, 0, 71, 0, 21, 57, 0, 0, 31, 10, 76, 0, 29, 79, 0, 15, 47, 66, 65, 68, 34, 49, 5, 45, 36, 0, 48, 55, 0, 28, 9, 64, 0, 42, 7, 0, 51, 3, 0, 62, 39, 1, 59, 0, 56, 13, 17, 77, 73, 50, 27, 58, 4, 22, 61, 0, 41, 80, 33, 53, 52, 25, 0, 0, 2, 0, 0, 44, 32, 30, 35, 16, 0, 63
|11, 47, 1, 65, 0, 44, 27, 12, 0, 60, 0, 63, 50, 0, 35, 13, 22, 30, 45, 80, 70, 0, 57, 0, 42, 4, 6, 26, 0, 0, 39, 0, 0, 59, 17, 62, 0, 69, 0, 0, 38, 66, 20, 73, 2, 0, 32, 74, 52, 33, 0, 23, 31, 16, 19, 0, 0, 5, 0, 9, 10, 51, 53, 14, 29, 0, 0, 8, 43, 0, 61, 18, 81, 0, 0, 3, 41, 0, 34, 0, 21
|50, 68, 0, 37, 71, 9, 49, 0, 34, 0, 4, 1, 36, 47, 0, 16, 77, 18, 62, 8, 20, 35, 0, 0, 72, 30, 43, 0, 56, 80, 61, 0, 74, 0, 14, 75, 0, 5, 33, 0, 0, 32, 44, 52, 13, 0, 48, 3, 26, 55, 25, 27, 0, 63, 66, 0, 11, 54, 0, 2, 21, 76, 28, 0, 0, 64, 23, 0, 31, 0, 78, 67, 17, 57, 45, 42, 73, 0, 7, 0, 12
|63, 5, 48, 0, 64, 66, 0, 0, 0, 68, 14, 39, 0, 0, 0, 73, 45, 52, 0, 3, 26, 11, 0, 1, 44, 60, 21, 0, 12, 9, 40, 32, 53, 54, 30, 10, 23, 6, 81, 35, 17, 56, 55, 67, 41, 71, 0, 76, 77, 43, 0, 0, 61, 80, 16, 42, 69, 13, 0, 0, 31, 29, 0, 0, 27, 58, 70, 28, 0, 50, 57, 34, 65, 47, 46, 79, 59, 25, 15, 74, 18
|0, 0, 7, 20, 70, 75, 0, 13, 30, 0, 27, 17, 53, 0, 15, 19, 0, 0, 0, 36, 34, 77, 74, 0, 81, 56, 0, 0, 0, 73, 0, 0, 0, 4, 65, 0, 57, 0, 54, 76, 8, 63, 11, 58, 0, 49, 46, 0, 64, 0, 78, 0, 28, 22, 0, 26, 6, 0, 0, 0, 0, 0, 24, 69, 59, 62, 0, 48, 9, 40, 3, 10, 66, 72, 80, 0, 37, 2, 50, 61, 38
|0, 69, 73, 43, 0, 31, 15, 22, 14, 0, 48, 0, 55, 64, 70, 25, 9, 0, 39, 63, 24, 52, 19, 67, 0, 37, 40, 66, 0, 71, 35, 0, 0, 0, 58, 2, 62, 59, 29, 16, 78, 50, 30, 74, 0, 0, 6, 51, 57, 0, 53, 34, 68, 0, 17, 60, 56, 44, 3, 38, 79, 49, 0, 65, 42, 45, 0, 32, 0, 76, 1, 0, 36, 4, 54, 0, 23, 11, 13, 0, 5
|78, 12, 0, 75, 33, 0, 51, 49, 0, 57, 60, 36, 42, 41, 0, 7, 72, 80, 48, 79, 66, 30, 14, 37, 70, 44, 64, 58, 5, 18, 76, 0, 29, 32, 0, 3, 0, 81, 0, 0, 0, 9, 74, 0, 0, 52, 16, 62, 45, 67, 22, 0, 0, 69, 27, 63, 0, 19, 61, 68, 15, 35, 0, 0, 0, 0, 26, 53, 0, 0, 38, 0, 71, 39, 0, 11, 21, 40, 8, 65, 0
|60, 74, 69, 10, 31, 0, 54, 21, 0, 37, 8, 32, 0, 20, 14, 71, 38, 0, 27, 40, 52, 0, 41, 45, 5, 0, 29, 0, 0, 12, 0, 33, 0, 1, 0, 39, 0, 0, 50, 26, 43, 0, 15, 0, 42, 0, 7, 79, 75, 18, 56, 0, 30, 53, 0, 0, 4, 0, 76, 16, 58, 34, 0, 0, 6, 66, 0, 9, 35, 3, 0, 23, 67, 0, 28, 62, 17, 19, 48, 80, 0
|0, 0, 5, 45, 40, 70, 4, 23, 0, 0, 0, 0, 77, 69, 68, 63, 1, 62, 13, 76, 12, 71, 22, 0, 0, 21, 42, 43, 81, 34, 0, 0, 19, 38, 80, 9, 18, 0, 67, 0, 0, 35, 2, 10, 16, 0, 25, 32, 0, 0, 41, 0, 24, 0, 37, 8, 47, 0, 0, 57, 0, 39, 50, 79, 11, 0, 0, 72, 0, 0, 49, 33, 6, 0, 75, 44, 64, 3, 0, 54, 31
|29, 17, 11, 76, 68, 0, 0, 41, 19, 67, 15, 0, 65, 45, 22, 48, 51, 12, 0, 0, 0, 33, 0, 3, 57, 81, 0, 61, 0, 0, 71, 25, 0, 8, 26, 21, 14, 7, 53, 4, 0, 52, 31, 0, 56, 13, 34, 54, 55, 23, 0, 0, 63, 44, 24, 10, 28, 0, 75, 30, 69, 79, 0, 64, 0, 74, 80, 0, 1, 36, 58, 42, 43, 16, 5, 50, 0, 0, 27, 0, 0
|8, 27, 28, 0, 66, 46, 79, 16, 22, 0, 30, 59, 81, 25, 0, 0, 21, 0, 26, 1, 0, 0, 0, 77, 0, 7, 62, 72, 63, 0, 55, 0, 65, 0, 0, 37, 45, 70, 0, 51, 58, 5, 60, 0, 80, 2, 20, 12, 14, 0, 0, 31, 64, 3, 67, 9, 0, 49, 23, 36, 71, 0, 18, 56, 17, 0, 75, 50, 0, 19, 47, 0, 0, 34, 41, 69, 57, 0, 0, 0, 52
|24, 0, 2, 61, 62, 25, 0, 0, 0, 43, 54, 3, 23, 0, 19, 34, 5, 10, 0, 75, 11, 53, 56, 17, 0, 46, 32, 20, 36, 0, 31, 35, 0, 30, 67, 42, 39, 57, 76, 0, 37, 33, 78, 48, 71, 58, 60, 65, 72, 77, 0, 0, 9, 0, 7, 6, 0, 59, 0, 51, 70, 0, 74, 0, 0, 0, 0, 69, 21, 14, 8, 63, 0, 49, 0, 68, 79, 73, 47, 45, 66
|80, 30, 34, 38, 9, 0, 42, 7, 1, 27, 6, 11, 52, 16, 75, 0, 56, 79, 8, 15, 49, 0, 67, 0, 39, 35, 0, 74, 14, 53, 23, 54, 73, 17, 0, 0, 0, 62, 55, 32, 69, 0, 63, 19, 29, 21, 0, 57, 0, 0, 66, 43, 26, 71, 0, 77, 0, 0, 64, 0, 2, 5, 60, 25, 0, 31, 37, 40, 78, 28, 0, 65, 10, 81, 70, 18, 20, 51, 72, 24, 36
|36, 0, 14, 32, 0, 18, 0, 15, 81, 0, 24, 73, 0, 74, 9, 64, 66, 4, 31, 0, 63, 0, 28, 0, 80, 69, 25, 27, 0, 0, 50, 13, 0, 41, 6, 77, 40, 21, 79, 0, 47, 0, 23, 75, 0, 38, 42, 19, 5, 0, 0, 59, 39, 49, 26, 0, 20, 12, 65, 0, 0, 3, 0, 0, 60, 68, 45, 71, 62, 29, 2, 7, 30, 56, 76, 61, 0, 0, 22, 1, 0
|0, 77, 72, 67, 63, 50, 58, 71, 39, 29, 47, 76, 0, 31, 0, 49, 0, 70, 6, 19, 38, 23, 0, 78, 43, 0, 10, 0, 69, 62, 24, 68, 45, 0, 79, 48, 0, 64, 22, 11, 41, 27, 61, 20, 0, 0, 8, 0, 37, 51, 17, 81, 40, 35, 73, 55, 0, 32, 21, 42, 56, 80, 1, 0, 0, 16, 57, 12, 0, 0, 30, 5, 25, 13, 15, 60, 0, 0, 0, 7, 26
|75, 50, 49, 21, 0, 64, 0, 0, 20, 19, 63, 24, 0, 32, 12, 39, 26, 42, 0, 0, 0, 0, 0, 0, 47, 52, 0, 3, 0, 61, 37, 0, 0, 0, 0, 0, 0, 2, 45, 40, 0, 51, 4, 18, 77, 0, 35, 0, 67, 8, 0, 79, 6, 66, 0, 46, 38, 70, 0, 13, 73, 0, 71, 1, 53, 0, 31, 58, 68, 62, 65, 0, 33, 0, 59, 0, 10, 0, 29, 0, 0
|4, 0, 0, 0, 38, 28, 48, 31, 0, 77, 59, 0, 66, 9, 51, 37, 64, 56, 1, 45, 67, 40, 0, 26, 14, 10, 79, 2, 22, 0, 54, 49, 18, 29, 42, 5, 21, 0, 46, 68, 19, 36, 76, 24, 7, 69, 57, 61, 43, 0, 63, 0, 80, 0, 78, 0, 23, 30, 50, 27, 74, 58, 16, 47, 0, 0, 6, 0, 8, 34, 35, 55, 0, 41, 0, 0, 39, 53, 62, 15, 60
|1, 46, 40, 2, 30, 34, 66, 0, 0, 62, 0, 0, 61, 11, 0, 3, 78, 43, 5, 0, 0, 64, 4, 63, 71, 31, 0, 10, 0, 55, 0, 21, 28, 67, 68, 0, 58, 22, 42, 17, 0, 8, 72, 41, 26, 0, 59, 0, 49, 48, 0, 0, 23, 13, 14, 79, 0, 9, 44, 24, 36, 0, 77, 33, 38, 80, 7, 0, 0, 69, 37, 16, 73, 35, 25, 0, 0, 65, 0, 32, 47
|14, 22, 16, 0, 42, 0, 19, 51, 58, 0, 65, 0, 69, 0, 25, 40, 53, 47, 59, 0, 68, 0, 8, 54, 0, 61, 27, 39, 0, 1, 0, 73, 13, 24, 72, 0, 71, 79, 70, 23, 34, 43, 0, 6, 0, 28, 0, 41, 78, 44, 46, 52, 62, 11, 31, 33, 2, 18, 63, 55, 0, 0, 0, 76, 74, 0, 32, 60, 26, 17, 15, 81, 21, 66, 37, 12, 38, 5, 0, 56, 0
|59, 36, 0, 0, 0, 60, 7, 68, 0, 4, 71, 8, 21, 54, 0, 70, 75, 0, 16, 22, 41, 25, 0, 12, 38, 73, 53, 0, 0, 0, 58, 0, 79, 52, 51, 6, 0, 0, 20, 74, 44, 0, 56, 0, 81, 0, 0, 77, 0, 17, 31, 0, 0, 64, 0, 0, 3, 62, 0, 29, 28, 48, 11, 0, 23, 0, 0, 0, 40, 5, 72, 0, 34, 1, 13, 0, 0, 78, 19, 63, 30
|32, 57, 23, 0, 54, 55, 62, 8, 0, 5, 0, 0, 46, 0, 0, 20, 31, 0, 2, 0, 0, 7, 0, 74, 11, 0, 0, 0, 70, 30, 59, 4, 0, 81, 60, 0, 75, 1, 39, 0, 49, 48, 73, 0, 25, 50, 0, 71, 47, 42, 34, 53, 21, 9, 15, 61, 80, 64, 45, 0, 6, 65, 52, 22, 67, 14, 0, 78, 0, 63, 43, 28, 27, 40, 0, 51, 0, 0, 36, 0, 0
|12, 0, 52, 77, 0, 37, 0, 0, 41, 74, 73, 18, 0, 38, 76, 68, 27, 0, 42, 33, 46, 60, 0, 29, 65, 78, 72, 0, 0, 0, 0, 63, 14, 66, 75, 19, 32, 0, 0, 69, 15, 80, 0, 62, 28, 0, 24, 40, 4, 16, 0, 0, 1, 0, 49, 0, 8, 39, 0, 21, 34, 17, 47, 30, 0, 48, 20, 0, 71, 10, 79, 56, 7, 0, 9, 0, 43, 31, 45, 58, 0
|73, 0, 17, 0, 45, 11, 44, 39, 5, 50, 10, 0, 1, 13, 79, 57, 23, 81, 0, 37, 58, 69, 55, 15, 0, 20, 34, 0, 38, 74, 80, 31, 0, 0, 8, 0, 0, 53, 16, 29, 0, 67, 59, 9, 0, 75, 0, 7, 3, 25, 0, 19, 33, 56, 32, 35, 76, 22, 60, 66, 72, 26, 68, 70, 0, 27, 54, 21, 46, 41, 64, 49, 0, 6, 61, 77, 42, 18, 0, 0, 4
|0, 0, 0, 15, 43, 47, 0, 9, 65, 0, 52, 30, 7, 35, 2, 28, 55, 0, 0, 24, 32, 21, 0, 49, 3, 0, 0, 0, 0, 23, 53, 62, 71, 0, 0, 45, 78, 38, 0, 0, 14, 64, 5, 27, 0, 29, 0, 22, 68, 0, 0, 60, 0, 58, 54, 1, 51, 42, 56, 41, 40, 37, 0, 4, 0, 73, 77, 66, 39, 59, 75, 57, 0, 0, 0, 0, 50, 8, 17, 20, 79
|26, 0, 3, 7, 12, 69, 76, 0, 32, 22, 0, 45, 44, 0, 77, 72, 60, 46, 0, 0, 0, 16, 38, 0, 61, 27, 55, 0, 2, 50, 0, 6, 81, 0, 0, 64, 31, 17, 11, 57, 40, 0, 68, 0, 0, 18, 15, 75, 54, 39, 0, 37, 59, 24, 29, 53, 71, 48, 79, 0, 47, 0, 9, 80, 78, 0, 0, 10, 0, 70, 73, 41, 0, 43, 20, 65, 33, 56, 51, 0, 49
|64, 72, 56, 57, 16, 63, 14, 0, 18, 26, 34, 55, 27, 0, 36, 0, 8, 23, 0, 49, 44, 0, 17, 51, 0, 76, 2, 7, 61, 0, 62, 59, 0, 0, 22, 0, 0, 60, 9, 0, 48, 73, 47, 54, 30, 3, 29, 38, 10, 50, 21, 0, 0, 6, 0, 0, 0, 4, 0, 0, 0, 41, 69, 0, 43, 0, 25, 0, 0, 0, 28, 13, 35, 37, 39, 52, 0, 81, 0, 31, 70
|58, 37, 22, 30, 0, 15, 0, 33, 0, 0, 0, 38, 0, 6, 39, 24, 0, 0, 11, 32, 29, 46, 0, 34, 36, 63, 3, 80, 10, 27, 0, 40, 0, 23, 76, 69, 81, 12, 62, 56, 0, 21, 51, 0, 0, 53, 26, 42, 16, 4, 0, 78, 77, 0, 43, 67, 0, 45, 0, 49, 0, 28, 31, 61, 75, 0, 0, 74, 52, 68, 14, 0, 9, 7, 2, 0, 71, 0, 64, 13, 25
|47, 80, 43, 13, 0, 0, 39, 11, 62, 0, 0, 0, 29, 0, 58, 0, 76, 73, 75, 31, 69, 0, 71, 53, 20, 68, 0, 18, 30, 56, 34, 44, 8, 0, 0, 46, 25, 37, 19, 1, 2, 78, 0, 14, 0, 0, 70, 49, 81, 40, 0, 41, 0, 72, 0, 66, 61, 0, 27, 0, 63, 6, 0, 26, 16, 35, 0, 0, 64, 9, 0, 50, 5, 77, 79, 38, 15, 54, 60, 0, 59
|71, 19, 4, 23, 46, 78, 0, 0, 52, 0, 0, 0, 49, 63, 0, 11, 13, 0, 0, 39, 40, 0, 21, 41, 8, 43, 33, 60, 55, 72, 0, 1, 67, 51, 29, 53, 79, 77, 18, 80, 27, 0, 0, 0, 64, 0, 0, 14, 0, 0, 0, 0, 32, 76, 44, 0, 10, 35, 54, 81, 0, 38, 0, 0, 45, 0, 58, 5, 42, 15, 31, 20, 3, 74, 0, 0, 61, 0, 26, 50, 28
|51, 81, 10, 0, 6, 0, 2, 54, 40, 53, 0, 4, 79, 62, 30, 15, 43, 0, 0, 0, 0, 0, 78, 0, 37, 67, 0, 36, 39, 48, 0, 9, 0, 0, 5, 65, 0, 0, 35, 24, 26, 41, 0, 0, 75, 60, 0, 44, 0, 7, 0, 0, 8, 57, 25, 17, 0, 74, 13, 1, 0, 0, 0, 0, 0, 47, 11, 55, 34, 32, 71, 77, 76, 22, 14, 73, 45, 0, 42, 18, 69
|0, 0, 45, 74, 21, 0, 0, 0, 0, 9, 56, 7, 54, 18, 16, 78, 33, 0, 35, 48, 0, 47, 0, 80, 0, 0, 4, 41, 0, 25, 14, 0, 0, 0, 32, 13, 20, 0, 36, 49, 53, 22, 52, 71, 0, 0, 61, 43, 66, 58, 79, 68, 46, 5, 34, 2, 72, 0, 30, 76, 39, 0, 59, 0, 0, 37, 3, 81, 0, 51, 23, 69, 0, 0, 55, 10, 0, 0, 0, 40, 0
|31, 0, 75, 1, 79, 0, 50, 59, 60, 0, 40, 14, 37, 48, 0, 66, 52, 67, 10, 0, 64, 12, 18, 65, 7, 23, 9, 0, 17, 49, 0, 24, 77, 0, 16, 0, 15, 74, 32, 63, 0, 0, 39, 43, 46, 0, 13, 0, 0, 11, 20, 25, 36, 0, 3, 80, 0, 26, 42, 8, 5, 22, 51, 29, 19, 0, 2, 0, 72, 33, 76, 38, 57, 21, 47, 34, 58, 62, 41, 4, 53
|20, 9, 41, 8, 36, 49, 55, 25, 0, 42, 51, 31, 0, 0, 5, 0, 0, 71, 0, 26, 0, 0, 58, 66, 0, 54, 22, 38, 0, 43, 52, 79, 37, 0, 45, 12, 76, 34, 0, 0, 4, 0, 33, 0, 10, 65, 23, 1, 2, 64, 28, 63, 35, 0, 0, 0, 75, 0, 0, 50, 0, 46, 0, 39, 0, 56, 44, 59, 0, 48, 0, 6, 16, 29, 11, 78, 27, 0, 0, 67, 19
|81, 42, 55, 0, 52, 45, 38, 0, 0, 69, 0, 0, 0, 58, 60, 50, 17, 61, 0, 21, 7, 67, 35, 9, 40, 41, 0, 0, 0, 31, 48, 0, 80, 18, 20, 54, 26, 68, 34, 44, 74, 0, 0, 0, 43, 4, 53, 73, 0, 56, 30, 0, 47, 23, 76, 5, 27, 57, 28, 3, 29, 0, 0, 0, 0, 71, 79, 25, 33, 75, 62, 1, 51, 12, 36, 46, 8, 16, 70, 64, 37
|69, 43, 0, 41, 56, 74, 0, 73, 0, 32, 76, 0, 0, 81, 31, 45, 30, 0, 18, 0, 3, 0, 0, 0, 0, 29, 77, 53, 16, 68, 2, 11, 0, 60, 0, 4, 17, 0, 0, 66, 36, 54, 37, 15, 49, 20, 0, 8, 12, 0, 61, 0, 0, 28, 65, 75, 62, 0, 0, 63, 9, 19, 0, 34, 50, 52, 0, 22, 80, 0, 0, 0, 14, 59, 58, 27, 40, 0, 0, 0, 0
|35, 0, 9, 14, 17, 19, 67, 18, 0, 0, 23, 0, 39, 0, 0, 36, 74, 54, 37, 0, 27, 4, 75, 42, 0, 72, 0, 46, 8, 0, 1, 70, 62, 0, 52, 0, 0, 24, 0, 55, 13, 30, 58, 0, 53, 0, 33, 80, 59, 49, 16, 11, 0, 0, 20, 51, 34, 71, 0, 0, 43, 50, 0, 0, 64, 7, 56, 15, 10, 65, 0, 31, 79, 0, 81, 47, 0, 69, 0, 60, 22
|39, 75, 46, 0, 0, 36, 11, 29, 37, 52, 53, 77, 0, 0, 10, 18, 48, 16, 57, 30, 55, 8, 0, 0, 50, 2, 78, 0, 26, 19, 0, 42, 0, 44, 56, 0, 41, 27, 3, 7, 0, 60, 69, 63, 62, 0, 1, 34, 13, 9, 0, 14, 0, 0, 0, 0, 74, 80, 70, 47, 0, 45, 0, 81, 68, 5, 49, 0, 66, 0, 6, 32, 4, 17, 0, 25, 31, 0, 20, 0, 67
|23, 66, 0, 22, 26, 6, 78, 30, 8, 0, 57, 56, 0, 0, 73, 9, 7, 49, 52, 81, 1, 15, 0, 39, 58, 0, 36, 0, 45, 37, 0, 55, 5, 12, 77, 32, 42, 4, 80, 38, 31, 0, 18, 16, 40, 0, 27, 50, 60, 0, 3, 75, 41, 74, 48, 24, 25, 68, 0, 0, 17, 21, 54, 20, 61, 0, 76, 0, 69, 43, 59, 0, 0, 33, 65, 28, 44, 0, 2, 10, 35
|61, 0, 64, 0, 2, 7, 71, 53, 80, 47, 29, 51, 34, 68, 42, 0, 35, 63, 54, 25, 16, 22, 20, 0, 24, 28, 0, 0, 9, 78, 43, 0, 59, 76, 33, 41, 0, 0, 75, 12, 21, 23, 0, 70, 32, 77, 0, 31, 36, 0, 72, 0, 15, 81, 55, 40, 30, 66, 1, 10, 44, 13, 14, 8, 0, 3, 17, 26, 67, 11, 0, 37, 74, 38, 57, 19, 5, 0, 0, 0, 0
|49, 48, 33, 0, 76, 1, 0, 20, 21, 55, 0, 19, 3, 24, 0, 12, 41, 59, 61, 68, 47, 5, 32, 38, 0, 0, 11, 0, 79, 58, 75, 0, 64, 34, 50, 81, 0, 39, 14, 25, 65, 10, 57, 45, 73, 35, 2, 29, 0, 0, 71, 54, 51, 0, 60, 0, 37, 67, 8, 6, 0, 36, 0, 0, 40, 42, 0, 16, 23, 13, 44, 0, 62, 18, 66, 0, 0, 9, 78, 53, 80
|15, 34, 27, 63, 0, 5, 0, 28, 24, 0, 66, 71, 75, 67, 0, 0, 0, 65, 14, 0, 33, 73, 53, 0, 69, 80, 31, 17, 74, 0, 3, 23, 40, 21, 0, 0, 50, 29, 8, 64, 20, 81, 79, 2, 76, 0, 0, 78, 0, 62, 57, 10, 22, 48, 0, 52, 26, 16, 35, 56, 41, 32, 7, 19, 0, 36, 0, 54, 0, 47, 46, 60, 55, 42, 6, 0, 72, 61, 11, 68, 0
|25, 65, 13, 40, 47, 32, 0, 50, 16, 11, 46, 0, 80, 15, 20, 8, 62, 0, 60, 44, 0, 0, 0, 19, 56, 0, 49, 28, 0, 14, 66, 0, 69, 36, 71, 7, 0, 61, 51, 67, 35, 1, 48, 59, 0, 24, 37, 68, 21, 26, 0, 17, 0, 45, 23, 0, 64, 53, 81, 31, 18, 73, 0, 0, 55, 78, 38, 4, 57, 0, 12, 58, 54, 30, 0, 41, 3, 34, 0, 52, 75
|74, 14, 77, 17, 8, 0, 47, 0, 0, 65, 81, 12, 19, 2, 28, 0, 0, 57, 21, 56, 45, 0, 3, 22, 46, 18, 69, 49, 0, 40, 0, 38, 0, 0, 59, 11, 35, 0, 27, 71, 61, 20, 64, 60, 0, 10, 0, 53, 0, 30, 0, 9, 58, 4, 6, 72, 15, 75, 52, 7, 0, 55, 34, 42, 76, 29, 0, 0, 5, 0, 33, 48, 0, 73, 0, 0, 66, 43, 79, 0, 0
|0, 0, 61, 0, 73, 26, 31, 75, 50, 40, 9, 52, 8, 51, 11, 21, 68, 29, 24, 0, 0, 36, 0, 48, 0, 17, 16, 33, 32, 47, 81, 5, 34, 55, 39, 76, 44, 66, 0, 0, 23, 13, 42, 53, 58, 72, 0, 0, 70, 37, 69, 0, 2, 7, 64, 71, 0, 0, 0, 22, 30, 0, 43, 3, 0, 15, 0, 63, 0, 0, 4, 78, 0, 19, 60, 1, 77, 80, 0, 35, 56
|43, 0, 15, 0, 78, 0, 33, 0, 2, 75, 0, 41, 58, 39, 69, 60, 18, 0, 81, 28, 80, 0, 0, 52, 54, 5, 0, 45, 53, 66, 0, 51, 20, 79, 74, 26, 0, 0, 72, 70, 7, 0, 62, 4, 0, 22, 0, 21, 34, 65, 19, 46, 3, 1, 11, 31, 24, 50, 40, 0, 32, 42, 56, 38, 57, 61, 0, 0, 6, 0, 25, 68, 0, 10, 0, 71, 63, 59, 0, 0, 48
|27, 21, 38, 0, 0, 42, 22, 45, 46, 66, 70, 13, 73, 0, 1, 4, 80, 36, 32, 53, 60, 0, 0, 35, 0, 19, 0, 25, 65, 41, 77, 0, 61, 62, 57, 63, 67, 78, 0, 0, 9, 29, 0, 56, 0, 16, 0, 15, 0, 12, 26, 64, 0, 14, 2, 18, 0, 69, 47, 58, 48, 0, 0, 75, 7, 24, 59, 0, 51, 79, 39, 52, 37, 50, 3, 40, 11, 0, 5, 8, 76
|0, 79, 60, 53, 7, 0, 0, 67, 55, 0, 3, 46, 10, 42, 64, 56, 0, 74, 25, 34, 39, 41, 76, 0, 0, 51, 0, 50, 37, 21, 17, 58, 44, 9, 27, 0, 48, 73, 5, 65, 45, 6, 0, 11, 0, 40, 0, 23, 8, 52, 33, 77, 75, 32, 0, 28, 0, 14, 19, 26, 0, 66, 80, 0, 54, 69, 22, 31, 13, 0, 20, 0, 15, 24, 0, 0, 4, 0, 81, 47, 78
|72, 10, 32, 5, 13, 39, 56, 48, 0, 76, 0, 34, 25, 78, 62, 67, 54, 77, 63, 0, 23, 2, 0, 40, 1, 50, 0, 42, 0, 4, 22, 14, 0, 71, 35, 28, 51, 3, 15, 52, 0, 49, 0, 57, 59, 31, 0, 0, 0, 24, 27, 0, 55, 60, 38, 70, 0, 0, 36, 44, 81, 12, 73, 21, 30, 0, 9, 0, 41, 8, 53, 74, 45, 0, 64, 26, 0, 7, 0, 0, 20
|70, 11, 0, 66, 49, 58, 41, 24, 3, 20, 0, 16, 43, 0, 0, 14, 0, 72, 78, 71, 30, 62, 26, 57, 77, 0, 47, 0, 15, 0, 73, 29, 23, 56, 0, 0, 0, 40, 0, 0, 50, 37, 54, 32, 12, 0, 67, 63, 39, 36, 5, 0, 76, 0, 0, 68, 17, 79, 4, 65, 1, 74, 45, 46, 0, 60, 27, 35, 55, 0, 34, 64, 53, 75, 51, 22, 18, 0, 69, 25, 0
|68, 0, 54, 9, 0, 51, 40, 0, 28, 15, 50, 0, 45, 55, 23, 33, 59, 6, 0, 14, 8, 75, 0, 0, 0, 38, 0, 69, 0, 0, 60, 12, 7, 0, 0, 1, 19, 0, 63, 0, 0, 0, 41, 76, 22, 0, 80, 48, 29, 0, 0, 0, 57, 78, 21, 0, 39, 3, 20, 5, 77, 0, 0, 0, 32, 10, 0, 56, 70, 0, 66, 73, 44, 2, 0, 0, 49, 36, 58, 72, 0
|44, 1, 36, 0, 0, 0, 0, 0, 57, 17, 0, 79, 0, 22, 48, 47, 63, 0, 73, 7, 31, 72, 0, 55, 29, 15, 0, 64, 0, 67, 18, 3, 2, 70, 46, 80, 43, 0, 0, 81, 0, 0, 28, 0, 14, 0, 71, 35, 0, 45, 49, 0, 56, 61, 9, 0, 0, 76, 53, 0, 78, 8, 0, 0, 58, 0, 0, 65, 11, 77, 19, 40, 39, 0, 52, 16, 6, 0, 38, 21, 27
|0, 62, 0, 56, 14, 53, 75, 60, 78, 0, 26, 0, 0, 0, 8, 42, 19, 11, 33, 16, 0, 0, 0, 79, 0, 71, 28, 9, 58, 52, 51, 61, 0, 0, 66, 0, 7, 0, 37, 0, 0, 47, 43, 39, 45, 80, 77, 0, 22, 13, 0, 0, 0, 29, 30, 0, 0, 0, 67, 32, 50, 27, 65, 6, 0, 0, 18, 76, 38, 0, 5, 15, 0, 69, 1, 0, 0, 0, 25, 0, 0
|66, 0, 0, 0, 0, 24, 0, 0, 0, 64, 33, 0, 22, 4, 0, 0, 12, 1, 20, 11, 0, 6, 52, 59, 0, 0, 26, 75, 35, 32, 41, 69, 0, 0, 28, 0, 70, 0, 2, 77, 62, 0, 0, 40, 78, 61, 56, 0, 0, 38, 23, 21, 45, 15, 0, 39, 0, 0, 48, 80, 0, 47, 37, 7, 72, 0, 34, 0, 65, 25, 0, 0, 31, 0, 10, 63, 60, 79, 0, 19, 58
|0, 0, 0, 0, 1, 0, 59, 40, 7, 24, 25, 0, 0, 14, 52, 6, 15, 0, 68, 65, 0, 0, 31, 75, 0, 70, 81, 0, 0, 64, 46, 43, 0, 49, 23, 72, 27, 48, 60, 34, 56, 42, 67, 30, 0, 5, 0, 4, 0, 0, 36, 28, 10, 39, 69, 19, 79, 0, 71, 18, 0, 54, 0, 13, 0, 57, 21, 0, 22, 0, 0, 61, 0, 0, 0, 8, 0, 20, 0, 0, 11
|0, 26, 20, 0, 18, 29, 80, 42, 6, 48, 28, 69, 16, 77, 7, 38, 3, 0, 41, 2, 0, 9, 72, 61, 0, 1, 45, 22, 71, 65, 11, 60, 39, 15, 25, 31, 8, 51, 52, 59, 76, 0, 0, 68, 0, 81, 0, 55, 0, 32, 58, 0, 49, 34, 53, 23, 57, 0, 33, 12, 0, 0, 64, 10, 46, 70, 35, 79, 56, 0, 63, 0, 0, 27, 43, 5, 54, 21, 0, 75, 14
|52, 31, 30, 0, 32, 21, 9, 77, 45, 70, 0, 57, 56, 66, 34, 44, 47, 60, 38, 42, 43, 0, 51, 14, 78, 0, 0, 54, 48, 13, 12, 8, 76, 0, 53, 55, 0, 28, 10, 5, 1, 4, 0, 64, 0, 73, 0, 6, 0, 0, 0, 0, 37, 18, 63, 0, 0, 0, 0, 15, 25, 11, 0, 50, 71, 23, 0, 75, 58, 20, 0, 80, 0, 0, 16, 35, 0, 72, 33, 46, 74
|79, 23, 0, 58, 10, 4, 0, 27, 76, 63, 72, 74, 9, 5, 0, 29, 20, 53, 49, 55, 21, 32, 47, 0, 13, 0, 80, 59, 0, 0, 26, 0, 0, 0, 0, 70, 11, 0, 12, 22, 0, 18, 50, 0, 0, 0, 0, 0, 65, 75, 1, 3, 48, 54, 28, 0, 77, 6, 43, 14, 38, 16, 66, 60, 8, 0, 33, 19, 37, 64, 69, 62, 0, 15, 73, 17, 34, 52, 57, 81, 39
|48, 51, 37, 64, 22, 17, 61, 0, 11, 0, 39, 65, 31, 80, 18, 46, 73, 75, 0, 67, 15, 44, 62, 8, 63, 0, 7, 0, 34, 38, 20, 47, 33, 5, 1, 0, 0, 0, 23, 0, 79, 0, 29, 72, 35, 41, 50, 0, 0, 57, 60, 30, 12, 25, 56, 76, 0, 52, 24, 74, 4, 10, 40, 0, 77, 0, 0, 2, 45, 81, 26, 0, 0, 71, 42, 13, 0, 6, 3, 0, 55
|0, 71, 57, 0, 3, 33, 28, 70, 0, 45, 0, 0, 0, 0, 17, 54, 79, 0, 46, 18, 37, 10, 30, 4, 53, 25, 23, 63, 0, 29, 0, 0, 50, 77, 73, 0, 61, 49, 65, 6, 75, 14, 36, 21, 0, 9, 0, 11, 31, 47, 64, 20, 69, 0, 0, 58, 68, 8, 0, 35, 7, 60, 5, 0, 0, 12, 42, 0, 48, 0, 27, 0, 0, 62, 78, 76, 51, 0, 0, 38, 0
|19, 73, 25, 44, 39, 67, 72, 0, 54, 0, 49, 0, 76, 0, 0, 0, 40, 35, 64, 17, 0, 0, 34, 0, 0, 0, 60, 21, 57, 16, 6, 81, 24, 37, 0, 79, 13, 55, 41, 58, 0, 38, 26, 33, 15, 0, 14, 52, 42, 63, 0, 71, 53, 46, 70, 0, 1, 51, 31, 20, 75, 0, 2, 0, 66, 0, 74, 30, 3, 78, 0, 0, 68, 0, 18, 56, 0, 48, 0, 23, 7|];