order = 9;
grid = [|24, 43, 32, 17, 74, 72, 6, 54, 41, 76, 57, 44, 0, 11, 0, 0, 73, 45, 46, 0, 26, 63, 66, 39, 0, 60, 20, 21, 19, 71, 81, 38, 49, 0, 56, 37, 8, 51, 29, 34, 1, 25, 30, 58, 2, 28, 0, 35, 70, 33, 0, 0, 9, 18, 31, 47, 15, 42, 0, 0, 0, 59, 0, 0, 0, 52, 7, 53, 14, 55, 80, 40, 0, 50, 61, 4, 0, 67, 0, 12, 77
|9, 7, 15, 3, 19, 0, 61, 0, 0, 29, 0, 0, 0, 0, 53, 0, 0, 66, 0, 0, 55, 0, 14, 0, 10, 0, 24, 75, 0, 0, 58, 28, 0, 4, 46, 0, 17, 20, 78, 54, 71, 59, 50, 70, 32, 69, 1, 0, 48, 30, 39, 0, 40, 0, 27, 33, 0, 21, 22, 23, 0, 2, 18, 45, 0, 0, 44, 60, 74, 57, 42, 0, 31, 80, 73, 51, 34, 16, 0, 38, 52
|1, 0, 39, 22, 18, 45, 0, 75, 12, 63, 0, 0, 0, 33, 23, 49, 61, 79, 0, 27, 42, 29, 0, 0, 30, 0, 64, 17, 54, 36, 73, 0, 20, 26, 0, 8, 3, 5, 19, 66, 0, 69, 0, 37, 35, 24, 56, 0, 0, 0, 0, 53, 7, 0, 16, 77, 41, 72, 25, 58, 0, 6, 0, 48, 0, 13, 59, 71, 38, 32, 68, 0, 60, 10, 55, 0, 0, 0, 44, 2, 0
|57, 0, 13, 0, 0, 46, 36, 34, 81, 16, 8, 40, 30, 18, 0, 0, 38, 12, 0, 47, 43, 0, 0, 48, 17, 54, 0, 45, 0, 7, 0, 0, 14, 39, 0, 42, 41, 0, 33, 23, 28, 74, 75, 22, 31, 66, 0, 60, 73, 65, 32, 0, 19, 2, 0, 0, 26, 20, 5, 49, 0, 0, 29, 0, 3, 0, 0, 0, 24, 76, 50, 61, 56, 25, 0, 63, 53, 27, 0, 69, 0
|44, 38, 77, 65, 66, 0, 0, 37, 0, 54, 0, 67, 14, 0, 50, 25, 21, 1, 45, 16, 9, 0, 0, 6, 23, 52, 0, 57, 0, 70, 0, 59, 31, 5, 63, 53, 79, 27, 36, 0, 64, 56, 68, 12, 0, 41, 74, 42, 78, 11, 0, 0, 62, 72, 4, 40, 30, 71, 0, 34, 61, 17, 7, 51, 15, 0, 47, 58, 0, 73, 18, 0, 75, 33, 22, 0, 24, 46, 43, 48, 0
|0, 10, 40, 21, 33, 59, 0, 29, 67, 28, 27, 0, 0, 0, 20, 0, 31, 71, 0, 38, 0, 53, 0, 32, 0, 73, 70, 0, 0, 0, 0, 50, 0, 0, 55, 30, 42, 0, 80, 43, 18, 48, 0, 7, 0, 52, 15, 3, 64, 4, 51, 81, 25, 57, 0, 0, 62, 46, 76, 9, 56, 11, 0, 77, 54, 0, 2, 26, 0, 17, 37, 75, 72, 45, 8, 47, 1, 35, 5, 0, 68
|56, 31, 8, 0, 35, 55, 80, 68, 78, 81, 42, 70, 58, 47, 0, 48, 39, 10, 65, 67, 0, 0, 59, 57, 75, 0, 37, 76, 62, 0, 0, 0, 24, 1, 79, 66, 52, 11, 73, 61, 4, 0, 0, 16, 40, 29, 22, 0, 50, 14, 12, 46, 77, 0, 36, 51, 60, 45, 38, 43, 3, 32, 28, 21, 5, 6, 0, 9, 0, 49, 63, 0, 17, 71, 0, 23, 74, 15, 0, 0, 0
|0, 14, 0, 0, 11, 20, 60, 0, 0, 41, 59, 52, 0, 0, 0, 0, 15, 74, 0, 36, 0, 81, 8, 1, 13, 61, 7, 51, 47, 0, 77, 16, 10, 48, 0, 25, 26, 62, 24, 76, 21, 57, 38, 9, 0, 17, 71, 67, 80, 0, 37, 6, 5, 0, 0, 44, 50, 0, 0, 35, 0, 0, 0, 34, 0, 29, 0, 46, 30, 33, 65, 31, 78, 0, 0, 0, 64, 0, 28, 19, 0
|51, 64, 0, 52, 0, 27, 5, 63, 0, 69, 4, 0, 0, 0, 72, 37, 0, 9, 78, 50, 0, 71, 31, 18, 0, 40, 0, 0, 3, 0, 29, 68, 0, 41, 35, 15, 14, 47, 0, 13, 46, 0, 55, 53, 6, 45, 0, 44, 0, 0, 79, 20, 36, 0, 0, 73, 57, 0, 0, 65, 70, 12, 10, 67, 66, 23, 28, 39, 0, 22, 1, 43, 54, 49, 0, 76, 59, 7, 62, 42, 26
|80, 0, 0, 35, 25, 21, 57, 58, 7, 0, 0, 76, 41, 17, 0, 15, 8, 13, 0, 9, 0, 65, 42, 0, 0, 37, 28, 40, 0, 5, 59, 12, 48, 73, 0, 0, 22, 24, 16, 3, 0, 49, 53, 0, 33, 51, 0, 26, 0, 34, 0, 78, 0, 64, 66, 60, 44, 0, 31, 0, 11, 0, 55, 32, 38, 43, 20, 23, 63, 30, 19, 4, 1, 0, 18, 79, 27, 0, 69, 0, 70
|16, 1, 12, 44, 0, 73, 0, 64, 0, 0, 30, 62, 66, 39, 0, 0, 56, 77, 2, 71, 48, 0, 0, 36, 0, 51, 22, 0, 65, 18, 42, 41, 0, 67, 0, 52, 0, 15, 0, 58, 31, 75, 27, 54, 26, 0, 40, 0, 0, 59, 0, 38, 23, 60, 10, 29, 0, 0, 0, 70, 14, 4, 19, 0, 57, 5, 76, 0, 0, 0, 81, 79, 45, 72, 0, 68, 37, 25, 80, 33, 74
|33, 42, 23, 36, 0, 54, 53, 49, 43, 34, 44, 0, 71, 0, 70, 28, 0, 0, 69, 29, 77, 3, 0, 59, 0, 16, 31, 14, 6, 47, 51, 26, 62, 32, 4, 0, 0, 38, 0, 0, 20, 21, 0, 1, 0, 0, 0, 41, 0, 80, 22, 66, 65, 0, 57, 18, 0, 79, 75, 0, 5, 40, 81, 46, 7, 17, 0, 0, 61, 0, 0, 0, 0, 11, 0, 0, 78, 9, 8, 39, 2
|69, 66, 75, 8, 0, 31, 29, 71, 0, 4, 11, 51, 37, 55, 58, 0, 74, 23, 63, 19, 68, 0, 0, 38, 40, 67, 44, 13, 0, 0, 0, 79, 30, 54, 0, 22, 56, 0, 76, 17, 48, 0, 14, 46, 65, 70, 81, 5, 12, 77, 9, 0, 0, 7, 34, 39, 53, 0, 33, 21, 80, 27, 35, 0, 28, 2, 16, 52, 78, 10, 6, 1, 73, 20, 0, 0, 0, 42, 49, 43, 36
|0, 48, 0, 0, 52, 11, 47, 2, 20, 7, 43, 0, 38, 0, 12, 10, 36, 40, 0, 0, 80, 5, 26, 0, 0, 49, 0, 16, 56, 0, 0, 31, 66, 0, 39, 19, 0, 37, 57, 77, 0, 30, 0, 0, 44, 54, 24, 72, 3, 0, 18, 0, 17, 33, 0, 69, 32, 8, 9, 0, 65, 15, 50, 59, 58, 14, 42, 25, 29, 67, 75, 60, 22, 13, 0, 46, 28, 61, 0, 34, 62
|0, 0, 79, 40, 78, 0, 0, 0, 0, 0, 0, 42, 0, 25, 63, 19, 22, 68, 10, 0, 4, 57, 43, 20, 27, 0, 66, 53, 33, 50, 11, 34, 58, 64, 81, 0, 18, 60, 5, 6, 80, 9, 59, 61, 0, 0, 73, 2, 44, 32, 75, 21, 76, 46, 77, 13, 0, 41, 0, 37, 28, 38, 0, 36, 26, 3, 45, 0, 8, 54, 0, 0, 12, 7, 0, 0, 0, 0, 15, 55, 31
|34, 27, 81, 63, 72, 0, 0, 19, 77, 59, 31, 5, 0, 61, 3, 46, 18, 16, 6, 33, 0, 11, 39, 0, 47, 0, 0, 70, 0, 57, 0, 0, 68, 9, 0, 0, 35, 0, 12, 41, 29, 0, 0, 32, 23, 49, 58, 0, 0, 0, 67, 0, 43, 79, 1, 2, 73, 64, 62, 0, 42, 24, 76, 74, 44, 65, 66, 48, 15, 69, 0, 50, 0, 56, 26, 0, 71, 75, 0, 17, 54
|0, 60, 17, 0, 0, 0, 0, 59, 18, 0, 9, 24, 33, 0, 0, 57, 69, 20, 0, 70, 0, 0, 0, 64, 74, 21, 0, 27, 49, 3, 63, 45, 8, 2, 29, 36, 40, 71, 11, 62, 0, 73, 0, 19, 66, 50, 30, 53, 0, 37, 0, 42, 0, 0, 51, 0, 7, 68, 26, 47, 78, 56, 0, 80, 0, 72, 31, 22, 34, 77, 39, 41, 0, 0, 44, 16, 52, 0, 0, 81, 0
|28, 41, 0, 26, 0, 9, 15, 0, 22, 49, 0, 0, 0, 27, 0, 2, 29, 60, 0, 0, 32, 50, 18, 75, 55, 0, 14, 7, 46, 77, 44, 17, 72, 0, 78, 21, 70, 34, 4, 36, 8, 42, 0, 0, 52, 11, 48, 0, 0, 31, 69, 0, 74, 71, 0, 0, 45, 59, 67, 30, 0, 25, 0, 47, 33, 0, 0, 62, 40, 51, 13, 0, 0, 0, 0, 3, 10, 0, 19, 53, 66
|3, 0, 58, 23, 0, 0, 56, 48, 47, 37, 0, 38, 44, 80, 17, 21, 0, 36, 24, 0, 79, 0, 19, 16, 77, 0, 9, 46, 0, 78, 39, 0, 15, 70, 30, 27, 1, 52, 74, 55, 59, 0, 8, 63, 60, 62, 45, 0, 81, 0, 54, 0, 2, 0, 35, 65, 25, 6, 42, 68, 34, 0, 33, 0, 64, 76, 0, 43, 0, 0, 0, 12, 53, 57, 49, 0, 4, 31, 41, 75, 7
|0, 39, 0, 0, 36, 1, 45, 57, 0, 74, 20, 11, 0, 60, 33, 47, 0, 0, 41, 0, 0, 23, 70, 0, 51, 6, 63, 8, 29, 38, 0, 42, 75, 0, 69, 43, 0, 31, 44, 0, 0, 72, 80, 0, 67, 61, 66, 48, 22, 0, 34, 0, 0, 49, 13, 64, 9, 37, 73, 0, 32, 0, 0, 0, 21, 0, 71, 15, 68, 0, 14, 2, 0, 79, 0, 58, 62, 24, 16, 0, 35
|75, 0, 0, 5, 9, 26, 0, 15, 42, 0, 0, 71, 70, 77, 0, 31, 0, 4, 12, 1, 52, 40, 68, 50, 45, 74, 3, 0, 63, 76, 0, 0, 0, 14, 32, 64, 0, 39, 53, 51, 35, 58, 13, 24, 47, 19, 65, 28, 0, 57, 44, 25, 59, 37, 29, 43, 0, 2, 79, 11, 0, 72, 69, 27, 23, 0, 8, 6, 0, 0, 22, 0, 0, 21, 78, 67, 81, 80, 17, 10, 38
|49, 32, 68, 6, 43, 0, 21, 0, 0, 12, 40, 0, 0, 0, 42, 7, 0, 55, 4, 64, 2, 34, 15, 0, 76, 27, 8, 18, 41, 0, 57, 51, 37, 47, 5, 60, 73, 79, 62, 29, 0, 78, 66, 11, 20, 31, 0, 1, 71, 39, 77, 52, 80, 0, 54, 50, 10, 23, 24, 26, 0, 16, 30, 72, 65, 56, 70, 19, 0, 0, 0, 0, 3, 0, 74, 9, 0, 33, 0, 0, 44
|74, 16, 0, 31, 55, 0, 19, 79, 72, 75, 5, 22, 0, 78, 0, 34, 0, 24, 30, 20, 37, 0, 60, 0, 0, 0, 11, 58, 67, 10, 50, 0, 2, 17, 44, 0, 0, 18, 23, 0, 0, 0, 7, 42, 77, 63, 26, 64, 4, 47, 68, 0, 21, 3, 53, 48, 71, 0, 0, 52, 57, 76, 15, 13, 39, 9, 41, 59, 0, 0, 46, 49, 28, 66, 40, 61, 0, 8, 56, 36, 69
|60, 0, 76, 20, 2, 80, 64, 24, 0, 10, 14, 29, 0, 32, 39, 61, 28, 0, 5, 0, 69, 0, 48, 43, 0, 0, 81, 11, 21, 31, 62, 3, 45, 71, 0, 34, 65, 41, 54, 49, 0, 0, 9, 4, 25, 0, 0, 23, 74, 40, 15, 16, 0, 75, 0, 56, 0, 0, 59, 0, 7, 0, 36, 66, 0, 0, 38, 1, 79, 52, 0, 0, 19, 68, 50, 70, 0, 73, 42, 37, 51
|30, 65, 4, 46, 51, 12, 0, 50, 44, 0, 66, 0, 0, 0, 56, 23, 53, 27, 31, 61, 57, 0, 0, 47, 42, 78, 38, 59, 73, 0, 7, 55, 77, 79, 25, 28, 37, 3, 75, 0, 32, 0, 0, 2, 71, 72, 0, 9, 0, 41, 0, 17, 24, 0, 0, 8, 21, 62, 0, 0, 22, 67, 39, 0, 0, 0, 35, 0, 54, 63, 33, 80, 0, 15, 0, 11, 13, 64, 0, 45, 48
|63, 18, 27, 61, 0, 17, 71, 0, 0, 45, 79, 59, 65, 0, 9, 6, 0, 0, 0, 72, 49, 26, 62, 73, 25, 32, 75, 19, 0, 40, 0, 35, 22, 24, 0, 48, 68, 76, 0, 46, 34, 33, 21, 56, 81, 43, 12, 0, 0, 0, 0, 0, 53, 67, 78, 4, 77, 31, 0, 0, 38, 0, 70, 0, 0, 57, 58, 47, 5, 74, 60, 0, 39, 29, 0, 20, 2, 23, 55, 0, 0
|0, 0, 0, 0, 22, 38, 0, 81, 0, 0, 41, 72, 2, 1, 68, 76, 35, 19, 13, 39, 54, 21, 0, 0, 59, 0, 10, 23, 0, 52, 9, 0, 74, 0, 36, 0, 0, 17, 50, 15, 70, 28, 64, 5, 0, 8, 60, 30, 0, 0, 73, 69, 20, 78, 45, 75, 80, 44, 0, 0, 66, 0, 61, 42, 24, 77, 0, 55, 18, 31, 62, 7, 32, 26, 27, 43, 0, 0, 47, 65, 71
|0, 15, 21, 0, 31, 14, 0, 0, 46, 42, 55, 4, 0, 0, 0, 0, 64, 6, 49, 2, 78, 52, 53, 30, 0, 10, 26, 50, 68, 0, 67, 8, 0, 58, 0, 24, 76, 80, 0, 11, 0, 0, 70, 75, 62, 40, 25, 57, 59, 73, 5, 54, 79, 48, 0, 72, 38, 0, 29, 0, 69, 0, 0, 7, 47, 39, 60, 0, 66, 0, 0, 0, 43, 35, 23, 45, 51, 37, 12, 18, 22
|11, 70, 44, 80, 0, 78, 77, 62, 0, 2, 58, 34, 68, 5, 0, 14, 47, 0, 56, 0, 24, 36, 73, 0, 67, 55, 48, 41, 59, 0, 20, 6, 21, 30, 26, 0, 0, 25, 42, 1, 69, 63, 4, 17, 74, 27, 10, 29, 0, 51, 23, 15, 0, 53, 60, 57, 40, 54, 0, 8, 76, 0, 37, 43, 46, 38, 0, 3, 22, 79, 61, 71, 0, 81, 28, 7, 49, 52, 75, 64, 19
|19, 22, 2, 27, 75, 10, 0, 0, 29, 0, 0, 0, 23, 0, 78, 69, 0, 0, 70, 25, 15, 0, 37, 65, 18, 47, 0, 0, 52, 12, 1, 0, 46, 13, 42, 76, 31, 0, 0, 57, 0, 0, 41, 0, 0, 44, 4, 0, 45, 0, 0, 32, 39, 0, 0, 67, 0, 17, 66, 33, 0, 5, 68, 16, 14, 59, 30, 0, 49, 80, 55, 11, 8, 9, 0, 72, 26, 0, 48, 0, 0
|66, 56, 18, 48, 0, 0, 24, 42, 1, 31, 62, 19, 27, 63, 29, 45, 0, 7, 0, 57, 75, 0, 35, 40, 0, 9, 59, 0, 0, 11, 34, 43, 0, 10, 61, 0, 0, 16, 2, 0, 53, 37, 49, 3, 8, 67, 0, 38, 28, 72, 81, 30, 71, 0, 47, 22, 0, 51, 0, 44, 26, 23, 12, 25, 74, 73, 13, 4, 65, 36, 32, 6, 15, 78, 80, 21, 69, 41, 0, 76, 14
|26, 47, 9, 0, 57, 0, 4, 65, 60, 72, 73, 0, 0, 13, 41, 44, 24, 54, 76, 12, 74, 0, 32, 81, 43, 0, 0, 0, 39, 66, 0, 36, 0, 19, 22, 17, 58, 48, 71, 78, 0, 14, 77, 51, 56, 42, 11, 18, 0, 70, 3, 55, 33, 6, 49, 20, 0, 28, 80, 31, 0, 21, 0, 64, 35, 40, 0, 8, 75, 50, 52, 10, 29, 46, 62, 30, 0, 53, 27, 63, 0
|35, 0, 64, 0, 73, 25, 0, 6, 8, 52, 33, 9, 0, 22, 0, 70, 75, 76, 58, 34, 5, 1, 0, 0, 28, 7, 71, 37, 2, 51, 0, 0, 0, 80, 0, 81, 0, 13, 79, 0, 65, 0, 0, 72, 10, 20, 14, 0, 0, 61, 47, 36, 0, 56, 15, 63, 78, 11, 48, 45, 0, 43, 4, 0, 62, 0, 0, 0, 26, 12, 41, 0, 74, 60, 3, 38, 54, 0, 59, 0, 50
|0, 34, 0, 0, 53, 52, 81, 69, 71, 66, 48, 1, 0, 0, 0, 8, 0, 0, 80, 0, 38, 51, 0, 0, 50, 29, 0, 49, 0, 0, 35, 78, 0, 44, 57, 0, 27, 23, 68, 12, 0, 0, 73, 18, 0, 60, 0, 22, 0, 2, 26, 9, 41, 19, 64, 0, 39, 61, 0, 42, 0, 13, 3, 70, 20, 0, 67, 72, 37, 5, 0, 45, 11, 40, 36, 77, 32, 56, 0, 24, 25
|0, 72, 7, 49, 0, 0, 68, 20, 0, 0, 15, 53, 26, 0, 25, 80, 0, 0, 0, 0, 41, 0, 27, 0, 62, 0, 23, 28, 5, 48, 47, 74, 60, 29, 64, 56, 0, 0, 0, 0, 38, 66, 39, 0, 0, 0, 43, 24, 16, 0, 1, 12, 46, 13, 0, 34, 36, 0, 0, 32, 0, 14, 0, 78, 31, 18, 9, 51, 0, 81, 0, 19, 6, 17, 71, 42, 33, 2, 70, 4, 0
|0, 17, 0, 59, 38, 51, 39, 36, 37, 67, 0, 18, 35, 12, 57, 30, 20, 0, 66, 0, 33, 72, 79, 0, 11, 19, 4, 31, 15, 0, 0, 71, 53, 0, 73, 70, 64, 40, 26, 0, 9, 43, 22, 34, 28, 77, 68, 52, 0, 63, 80, 8, 0, 76, 25, 0, 27, 7, 46, 0, 0, 0, 6, 0, 0, 48, 56, 29, 42, 21, 23, 24, 65, 5, 0, 1, 0, 47, 58, 44, 0
|0, 44, 0, 73, 14, 47, 27, 0, 19, 60, 75, 25, 10, 72, 24, 79, 2, 0, 36, 52, 71, 0, 41, 66, 0, 11, 69, 22, 8, 62, 0, 0, 26, 38, 0, 3, 0, 53, 46, 35, 43, 0, 63, 74, 70, 57, 55, 45, 39, 0, 64, 80, 16, 30, 0, 49, 29, 67, 23, 15, 0, 48, 56, 0, 59, 1, 50, 0, 12, 0, 34, 76, 5, 77, 0, 28, 18, 13, 32, 68, 58
|61, 0, 0, 54, 0, 7, 63, 0, 3, 0, 80, 0, 0, 73, 44, 39, 34, 33, 48, 0, 8, 22, 24, 51, 65, 0, 30, 6, 0, 0, 46, 69, 0, 0, 23, 59, 0, 68, 58, 0, 19, 13, 0, 79, 76, 0, 0, 77, 0, 75, 41, 72, 0, 81, 0, 0, 37, 10, 78, 0, 45, 35, 42, 0, 60, 0, 74, 0, 36, 15, 53, 47, 38, 52, 31, 0, 57, 0, 1, 0, 27
|77, 79, 35, 50, 41, 0, 2, 74, 0, 38, 0, 69, 9, 4, 19, 0, 42, 0, 34, 5, 21, 45, 56, 46, 53, 0, 17, 78, 72, 81, 76, 27, 25, 12, 58, 1, 0, 75, 65, 0, 67, 0, 0, 0, 64, 0, 31, 0, 8, 23, 59, 49, 63, 54, 68, 0, 24, 22, 70, 0, 33, 0, 47, 0, 0, 80, 73, 10, 0, 0, 7, 16, 51, 0, 66, 44, 11, 30, 0, 60, 0
|76, 81, 43, 69, 21, 0, 22, 72, 31, 35, 47, 0, 52, 6, 64, 0, 57, 78, 0, 59, 70, 49, 0, 67, 44, 58, 0, 79, 28, 39, 0, 48, 13, 34, 0, 61, 0, 56, 30, 24, 27, 1, 0, 0, 9, 14, 0, 0, 46, 0, 38, 33, 37, 0, 3, 16, 18, 73, 63, 0, 74, 53, 60, 2, 71, 66, 0, 75, 23, 20, 5, 51, 80, 8, 17, 0, 42, 45, 0, 41, 0
|32, 40, 0, 0, 0, 39, 66, 12, 58, 68, 63, 65, 45, 0, 26, 71, 77, 0, 75, 0, 0, 38, 20, 0, 0, 31, 43, 36, 0, 15, 0, 73, 0, 60, 50, 5, 0, 78, 10, 22, 52, 0, 18, 25, 0, 0, 47, 6, 17, 0, 35, 44, 34, 28, 7, 19, 76, 14, 13, 80, 0, 0, 46, 3, 61, 30, 0, 69, 0, 9, 48, 54, 67, 62, 0, 55, 56, 49, 23, 29, 37
|38, 75, 67, 68, 64, 56, 20, 0, 6, 48, 81, 31, 12, 7, 0, 36, 59, 0, 47, 32, 13, 28, 0, 79, 0, 0, 74, 24, 14, 45, 52, 0, 42, 18, 80, 0, 33, 44, 0, 16, 66, 23, 0, 0, 51, 58, 0, 40, 43, 0, 25, 70, 0, 10, 65, 17, 11, 5, 0, 2, 54, 34, 26, 37, 72, 55, 46, 21, 39, 0, 4, 77, 69, 3, 53, 19, 0, 71, 35, 50, 73
|0, 78, 51, 10, 0, 53, 49, 5, 0, 62, 18, 16, 0, 0, 27, 58, 0, 46, 37, 0, 61, 55, 3, 23, 72, 0, 73, 54, 0, 4, 71, 0, 0, 35, 0, 67, 36, 26, 59, 80, 60, 12, 0, 31, 50, 0, 69, 56, 29, 0, 0, 2, 0, 9, 43, 30, 0, 32, 28, 0, 40, 66, 41, 19, 81, 8, 0, 70, 33, 11, 25, 44, 64, 0, 0, 24, 0, 21, 76, 79, 0
|52, 46, 36, 1, 0, 37, 23, 0, 0, 40, 70, 30, 43, 76, 66, 51, 0, 0, 27, 6, 0, 15, 7, 26, 0, 14, 60, 0, 0, 19, 10, 0, 55, 11, 2, 0, 81, 0, 17, 45, 0, 0, 48, 28, 5, 53, 3, 0, 0, 67, 71, 74, 50, 12, 0, 0, 75, 0, 0, 59, 0, 20, 0, 41, 0, 22, 0, 57, 0, 42, 0, 56, 16, 34, 0, 54, 47, 72, 33, 9, 78
|0, 24, 71, 18, 60, 33, 28, 0, 0, 53, 67, 0, 0, 54, 0, 56, 23, 22, 0, 35, 0, 16, 2, 0, 80, 0, 0, 30, 43, 44, 41, 0, 40, 0, 0, 20, 69, 72, 0, 42, 47, 6, 0, 77, 0, 26, 76, 62, 13, 0, 52, 51, 73, 0, 58, 12, 8, 50, 0, 27, 64, 39, 9, 65, 68, 79, 17, 45, 31, 0, 49, 63, 10, 74, 70, 48, 36, 59, 14, 7, 46
|0, 0, 0, 13, 42, 19, 0, 18, 70, 43, 45, 7, 0, 16, 0, 0, 41, 26, 44, 60, 53, 47, 0, 4, 21, 0, 56, 48, 71, 0, 23, 0, 0, 40, 10, 0, 62, 55, 0, 5, 6, 0, 0, 14, 0, 0, 54, 58, 25, 3, 0, 77, 15, 61, 32, 35, 34, 0, 69, 0, 0, 65, 0, 52, 78, 28, 0, 0, 64, 0, 12, 0, 59, 0, 29, 8, 0, 1, 0, 51, 75
|25, 0, 47, 66, 10, 49, 41, 27, 5, 80, 52, 33, 0, 58, 0, 0, 0, 70, 14, 15, 0, 12, 65, 0, 0, 79, 35, 26, 0, 0, 72, 60, 67, 28, 54, 0, 4, 0, 0, 0, 76, 50, 40, 21, 17, 18, 29, 20, 2, 0, 16, 31, 55, 39, 0, 53, 51, 0, 81, 0, 0, 44, 0, 30, 73, 75, 22, 13, 71, 0, 74, 32, 48, 24, 0, 69, 23, 68, 46, 0, 34
|0, 0, 0, 0, 23, 32, 78, 60, 38, 17, 25, 46, 74, 0, 40, 0, 0, 3, 55, 69, 29, 6, 28, 0, 0, 34, 27, 35, 16, 0, 0, 0, 0, 0, 0, 41, 13, 58, 51, 65, 0, 31, 2, 0, 63, 0, 42, 81, 26, 5, 8, 73, 0, 47, 75, 0, 4, 36, 37, 62, 18, 80, 1, 61, 50, 0, 19, 76, 21, 56, 11, 0, 0, 39, 0, 0, 0, 70, 71, 72, 0
|39, 0, 57, 37, 46, 16, 44, 0, 56, 0, 34, 50, 69, 51, 0, 18, 5, 14, 59, 0, 20, 58, 0, 77, 0, 0, 40, 47, 1, 9, 36, 0, 52, 8, 66, 2, 0, 12, 45, 64, 0, 80, 0, 15, 53, 10, 0, 0, 38, 17, 78, 24, 70, 63, 76, 23, 72, 0, 30, 13, 55, 22, 21, 29, 0, 0, 25, 65, 0, 0, 54, 27, 0, 31, 35, 6, 0, 74, 0, 3, 11
|6, 0, 0, 0, 1, 0, 79, 40, 53, 0, 68, 0, 42, 21, 0, 0, 27, 29, 54, 0, 0, 0, 0, 25, 46, 26, 0, 0, 38, 13, 12, 0, 51, 0, 24, 74, 0, 73, 43, 75, 0, 0, 20, 0, 37, 71, 64, 19, 57, 62, 76, 67, 0, 0, 39, 3, 56, 66, 0, 0, 0, 0, 2, 9, 0, 7, 34, 63, 0, 70, 16, 69, 0, 41, 33, 0, 17, 50, 77, 0, 47
|73, 54, 28, 0, 34, 43, 14, 21, 0, 0, 77, 0, 60, 8, 22, 20, 0, 35, 33, 0, 31, 0, 1, 0, 37, 80, 50, 3, 17, 0, 6, 56, 81, 61, 65, 46, 25, 57, 32, 59, 49, 0, 19, 47, 18, 74, 41, 0, 0, 9, 13, 0, 27, 11, 70, 0, 63, 16, 0, 7, 29, 78, 24, 38, 79, 0, 39, 0, 2, 58, 40, 0, 44, 0, 0, 64, 0, 66, 10, 0, 0
|0, 80, 72, 0, 0, 0, 55, 45, 11, 64, 6, 0, 0, 49, 10, 38, 63, 0, 0, 0, 0, 2, 81, 0, 16, 0, 39, 5, 34, 73, 70, 0, 29, 21, 0, 31, 78, 28, 9, 0, 7, 0, 1, 0, 36, 0, 44, 50, 51, 66, 14, 56, 12, 22, 0, 42, 52, 15, 27, 74, 79, 46, 54, 0, 43, 0, 77, 35, 41, 60, 0, 62, 20, 53, 25, 57, 58, 40, 0, 26, 13
|67, 0, 20, 29, 26, 22, 76, 0, 0, 13, 39, 47, 15, 48, 31, 12, 66, 11, 64, 23, 73, 70, 52, 0, 0, 0, 0, 62, 44, 58, 4, 0, 0, 68, 27, 50, 0, 74, 38, 30, 0, 24, 0, 35, 42, 1, 0, 79, 49, 0, 60, 37, 6, 69, 8, 61, 0, 25, 41, 10, 71, 77, 40, 57, 0, 0, 0, 18, 53, 0, 59, 5, 21, 0, 56, 65, 0, 36, 0, 78, 80
|64, 0, 74, 77, 69, 48, 58, 51, 65, 0, 54, 0, 72, 0, 0, 0, 19, 30, 61, 75, 63, 17, 13, 0, 66, 38, 57, 32, 0, 0, 45, 39, 18, 78, 76, 55, 0, 8, 0, 70, 23, 27, 16, 29, 79, 0, 0, 0, 40, 35, 4, 34, 68, 52, 0, 26, 67, 47, 50, 20, 0, 0, 5, 10, 6, 0, 80, 81, 1, 3, 0, 14, 7, 0, 43, 37, 15, 60, 9, 28, 0
|0, 26, 3, 24, 6, 79, 0, 76, 0, 30, 69, 17, 81, 53, 35, 66, 54, 72, 9, 10, 39, 37, 47, 0, 0, 0, 5, 29, 0, 0, 32, 0, 59, 0, 70, 71, 23, 21, 0, 25, 50, 0, 33, 55, 19, 73, 80, 31, 0, 52, 0, 18, 45, 41, 22, 1, 61, 12, 11, 51, 27, 57, 0, 75, 8, 0, 64, 7, 4, 44, 78, 67, 2, 0, 48, 13, 40, 62, 0, 16, 28
|0, 69, 46, 60, 47, 71, 34, 80, 51, 20, 0, 48, 55, 26, 45, 42, 4, 0, 0, 0, 16, 74, 12, 63, 3, 23, 13, 72, 79, 0, 5, 25, 0, 0, 49, 78, 11, 22, 0, 68, 0, 53, 0, 0, 27, 59, 0, 0, 14, 0, 0, 65, 8, 0, 30, 7, 33, 76, 15, 56, 35, 54, 0, 39, 0, 58, 40, 66, 62, 41, 77, 81, 50, 19, 0, 0, 21, 6, 0, 61, 1
|15, 45, 0, 42, 13, 0, 72, 52, 66, 25, 16, 28, 62, 40, 49, 0, 7, 57, 53, 44, 27, 46, 61, 0, 31, 0, 0, 0, 10, 75, 19, 0, 17, 63, 3, 0, 0, 0, 18, 20, 81, 2, 76, 78, 73, 56, 21, 0, 35, 48, 50, 22, 64, 51, 41, 0, 0, 0, 4, 69, 0, 58, 23, 68, 12, 37, 0, 5, 80, 34, 47, 30, 0, 36, 14, 71, 0, 55, 79, 0, 60
|7, 0, 0, 12, 0, 2, 33, 0, 30, 61, 74, 63, 0, 0, 0, 1, 9, 18, 40, 78, 28, 64, 0, 21, 0, 45, 0, 0, 31, 14, 56, 58, 27, 16, 0, 69, 0, 0, 48, 67, 72, 15, 54, 65, 24, 81, 75, 32, 66, 76, 42, 23, 38, 43, 62, 0, 68, 55, 10, 29, 0, 50, 0, 71, 52, 11, 26, 0, 20, 13, 3, 0, 0, 0, 0, 17, 46, 0, 53, 35, 5
|78, 4, 11, 32, 0, 44, 73, 0, 17, 8, 13, 64, 24, 0, 67, 59, 12, 2, 18, 81, 58, 20, 38, 69, 0, 70, 72, 0, 0, 0, 54, 0, 36, 50, 21, 26, 0, 66, 0, 63, 0, 79, 52, 0, 0, 30, 6, 33, 0, 10, 74, 62, 0, 16, 37, 5, 65, 0, 71, 40, 0, 60, 49, 31, 0, 0, 14, 61, 46, 0, 15, 55, 25, 0, 42, 75, 7, 76, 39, 27, 0
|0, 23, 53, 0, 0, 0, 9, 55, 27, 19, 21, 32, 50, 52, 0, 3, 70, 75, 25, 14, 0, 0, 11, 0, 26, 4, 62, 1, 45, 35, 40, 66, 76, 0, 41, 73, 0, 46, 0, 0, 16, 0, 0, 38, 29, 47, 78, 7, 0, 12, 61, 0, 60, 20, 80, 24, 28, 39, 2, 79, 0, 64, 13, 63, 17, 49, 48, 0, 0, 0, 69, 0, 68, 58, 30, 0, 0, 81, 72, 0, 0
|50, 20, 61, 0, 0, 0, 74, 35, 0, 5, 0, 79, 39, 0, 11, 41, 78, 58, 8, 0, 6, 30, 29, 60, 0, 75, 42, 0, 22, 53, 0, 81, 65, 0, 67, 33, 59, 0, 47, 7, 40, 17, 26, 0, 80, 46, 72, 55, 15, 0, 57, 4, 0, 34, 14, 0, 0, 52, 0, 16, 0, 31, 66, 56, 36, 24, 21, 38, 0, 27, 2, 23, 49, 0, 0, 0, 73, 69, 3, 70, 0
|37, 36, 0, 58, 67, 0, 10, 25, 64, 46, 0, 6, 73, 29, 43, 0, 71, 80, 0, 0, 0, 41, 55, 49, 0, 0, 2, 52, 0, 60, 0, 15, 12, 0, 51, 0, 28, 0, 0, 0, 0, 4, 69, 0, 30, 39, 0, 0, 5, 0, 27, 79, 3, 40, 81, 21, 74, 18, 47, 78, 17, 75, 45, 53, 0, 54, 0, 33, 72, 16, 57, 22, 23, 44, 0, 34, 31, 0, 26, 66, 56
|0, 21, 5, 41, 81, 75, 0, 16, 40, 0, 23, 27, 0, 68, 15, 22, 14, 0, 0, 0, 0, 32, 0, 56, 52, 66, 0, 2, 30, 37, 18, 61, 6, 55, 48, 13, 45, 0, 77, 39, 0, 71, 0, 0, 12, 36, 63, 25, 0, 0, 53, 19, 69, 44, 72, 46, 3, 9, 20, 67, 59, 42, 0, 0, 0, 70, 65, 79, 50, 28, 0, 0, 0, 38, 64, 74, 80, 0, 11, 54, 0
|0, 29, 80, 0, 71, 61, 70, 38, 14, 0, 0, 0, 0, 79, 18, 0, 45, 15, 42, 0, 40, 24, 0, 0, 0, 0, 36, 12, 27, 0, 60, 76, 47, 31, 59, 44, 0, 35, 6, 28, 77, 5, 56, 0, 78, 33, 53, 16, 0, 19, 30, 63, 10, 0, 23, 11, 0, 0, 0, 66, 4, 26, 51, 49, 41, 68, 81, 32, 0, 46, 73, 72, 9, 1, 0, 0, 25, 48, 7, 8, 17
|43, 12, 52, 39, 0, 0, 11, 28, 48, 3, 0, 0, 4, 30, 34, 50, 68, 44, 77, 73, 0, 69, 0, 78, 56, 0, 46, 42, 40, 55, 0, 53, 41, 15, 0, 0, 80, 54, 37, 0, 0, 0, 31, 60, 1, 38, 0, 13, 21, 71, 62, 47, 81, 5, 2, 25, 35, 0, 7, 0, 63, 70, 32, 0, 67, 16, 0, 0, 59, 0, 36, 58, 0, 75, 72, 0, 0, 19, 64, 6, 0
|2, 0, 25, 19, 7, 36, 35, 41, 26, 0, 0, 60, 11, 0, 14, 54, 0, 0, 71, 0, 1, 4, 58, 0, 0, 30, 18, 68, 48, 0, 28, 13, 73, 6, 72, 23, 67, 29, 81, 0, 63, 16, 15, 10, 21, 3, 57, 65, 56, 44, 0, 61, 66, 42, 59, 9, 0, 77, 39, 46, 75, 8, 22, 55, 34, 50, 5, 31, 0, 0, 51, 33, 62, 0, 12, 80, 38, 0, 74, 0, 0
|68, 6, 59, 79, 56, 76, 31, 0, 23, 55, 0, 41, 0, 70, 0, 29, 43, 51, 72, 0, 14, 27, 0, 74, 0, 48, 67, 66, 0, 8, 17, 2, 1, 36, 0, 9, 19, 33, 52, 0, 39, 0, 61, 44, 58, 32, 0, 49, 11, 25, 40, 64, 0, 4, 5, 10, 81, 0, 60, 24, 0, 0, 0, 62, 18, 42, 57, 54, 0, 26, 38, 21, 71, 30, 45, 15, 77, 65, 0, 46, 0
|0, 57, 63, 0, 20, 5, 1, 67, 73, 56, 0, 0, 6, 0, 0, 0, 72, 81, 32, 55, 22, 66, 0, 0, 8, 44, 47, 38, 37, 54, 0, 4, 33, 25, 77, 0, 0, 43, 0, 0, 0, 65, 12, 69, 7, 75, 0, 39, 27, 18, 0, 0, 58, 59, 17, 78, 42, 0, 0, 76, 15, 0, 0, 35, 0, 0, 79, 30, 0, 0, 70, 52, 24, 61, 0, 0, 50, 3, 0, 31, 23
|8, 58, 34, 72, 15, 13, 0, 53, 0, 23, 19, 77, 64, 0, 71, 52, 80, 25, 0, 31, 60, 79, 21, 61, 2, 81, 33, 0, 70, 43, 22, 57, 3, 0, 74, 51, 24, 30, 27, 73, 41, 0, 0, 0, 46, 12, 0, 0, 68, 55, 0, 29, 0, 14, 6, 45, 0, 0, 0, 0, 0, 18, 67, 40, 0, 10, 0, 56, 28, 37, 0, 0, 0, 0, 16, 35, 0, 26, 78, 59, 4
|10, 37, 22, 47, 0, 0, 0, 33, 0, 0, 12, 0, 49, 31, 0, 5, 26, 42, 62, 63, 45, 0, 0, 28, 6, 25, 76, 71, 78, 56, 0, 67, 39, 46, 14, 18, 38, 4, 0, 8, 0, 40, 36, 66, 55, 34, 20, 80, 23, 24, 43, 0, 52, 15, 0, 0, 16, 0, 3, 19, 0, 30, 79, 1, 69, 0, 0, 2, 77, 0, 9, 0, 0, 0, 0, 81, 60, 44, 0, 11, 0
|4, 30, 60, 0, 65, 0, 18, 0, 0, 0, 0, 0, 1, 24, 59, 73, 46, 69, 0, 0, 10, 0, 16, 7, 5, 0, 0, 81, 0, 26, 79, 63, 50, 52, 0, 62, 75, 64, 13, 0, 0, 76, 0, 23, 3, 78, 77, 36, 9, 0, 48, 0, 0, 0, 0, 37, 14, 40, 0, 57, 20, 29, 71, 17, 80, 61, 11, 12, 6, 66, 43, 39, 0, 51, 2, 0, 0, 34, 54, 22, 21
|81, 74, 0, 51, 77, 0, 0, 46, 24, 58, 0, 61, 21, 0, 38, 63, 16, 62, 0, 0, 0, 0, 23, 13, 0, 41, 29, 10, 35, 30, 80, 0, 5, 0, 0, 32, 0, 0, 34, 79, 17, 0, 42, 0, 0, 2, 37, 0, 72, 54, 6, 60, 67, 0, 0, 31, 49, 1, 56, 12, 52, 68, 27, 0, 25, 53, 0, 78, 0, 65, 8, 15, 0, 28, 69, 36, 39, 0, 66, 0, 33
|40, 53, 29, 0, 58, 41, 42, 13, 39, 21, 56, 0, 28, 23, 0, 0, 0, 0, 60, 0, 66, 0, 57, 37, 9, 77, 52, 0, 81, 0, 0, 10, 35, 7, 15, 4, 20, 69, 22, 31, 55, 0, 24, 50, 0, 76, 0, 0, 30, 6, 70, 11, 0, 80, 0, 0, 48, 0, 34, 14, 2, 61, 8, 0, 49, 71, 3, 0, 73, 45, 72, 0, 46, 0, 0, 18, 44, 17, 0, 1, 64
|17, 33, 6, 67, 0, 60, 37, 0, 0, 26, 32, 66, 0, 0, 80, 4, 48, 38, 21, 24, 0, 75, 25, 15, 0, 46, 58, 64, 13, 79, 0, 0, 0, 49, 62, 0, 54, 42, 39, 72, 56, 52, 5, 73, 43, 0, 2, 69, 18, 22, 0, 0, 0, 77, 12, 76, 0, 0, 0, 71, 41, 3, 0, 8, 0, 81, 0, 0, 0, 47, 0, 0, 14, 55, 0, 53, 0, 0, 34, 0, 20
|0, 51, 14, 11, 0, 18, 0, 0, 79, 0, 24, 0, 0, 41, 8, 75, 13, 5, 0, 28, 67, 43, 0, 0, 19, 33, 0, 73, 57, 63, 30, 22, 61, 66, 6, 0, 77, 32, 1, 9, 25, 3, 35, 27, 38, 0, 16, 46, 0, 0, 72, 0, 48, 65, 0, 0, 64, 60, 21, 0, 23, 45, 62, 15, 4, 69, 78, 44, 0, 59, 0, 0, 37, 2, 7, 31, 0, 58, 36, 0, 0
|27, 5, 78, 75, 63, 24, 0, 31, 57, 77, 29, 0, 0, 35, 0, 74, 0, 53, 81, 0, 36, 13, 40, 68, 20, 0, 0, 44, 26, 21, 0, 37, 0, 51, 0, 0, 15, 2, 28, 71, 12, 7, 17, 0, 0, 64, 61, 47, 60, 58, 66, 3, 32, 0, 0, 38, 22, 0, 65, 0, 19, 79, 72, 11, 1, 0, 0, 0, 70, 23, 30, 42, 33, 0, 52, 41, 43, 54, 0, 56, 8
|0, 3, 0, 71, 62, 74, 12, 32, 15, 44, 22, 54, 0, 42, 69, 64, 11, 0, 51, 30, 18, 73, 45, 0, 14, 53, 55, 65, 36, 2, 0, 19, 38, 33, 17, 0, 0, 70, 63, 48, 37, 68, 23, 0, 0, 0, 0, 21, 41, 81, 0, 0, 0, 35, 9, 27, 0, 4, 6, 75, 50, 10, 77, 58, 0, 0, 43, 34, 52, 39, 79, 46, 0, 76, 0, 0, 0, 0, 24, 49, 0
|0, 0, 69, 25, 49, 0, 48, 77, 55, 36, 37, 58, 31, 2, 76, 0, 33, 17, 0, 0, 44, 10, 0, 70, 0, 8, 6, 56, 50, 59, 14, 46, 71, 0, 20, 0, 30, 81, 64, 18, 79, 0, 74, 26, 0, 0, 52, 12, 54, 15, 63, 43, 29, 0, 67, 0, 47, 24, 51, 0, 0, 7, 11, 5, 53, 32, 0, 80, 0, 0, 0, 9, 40, 16, 38, 62, 65, 4, 57, 21, 42
|45, 73, 0, 9, 0, 64, 30, 4, 0, 70, 46, 68, 57, 10, 52, 60, 55, 61, 0, 11, 0, 0, 63, 12, 38, 72, 65, 0, 0, 41, 24, 5, 0, 3, 34, 77, 0, 0, 40, 0, 58, 0, 0, 6, 0, 25, 8, 78, 42, 53, 17, 39, 26, 0, 33, 81, 31, 56, 74, 0, 43, 49, 44, 14, 22, 51, 54, 37, 35, 2, 20, 13, 0, 69, 0, 0, 66, 28, 50, 0, 59
|72, 28, 56, 0, 0, 0, 65, 0, 0, 0, 7, 3, 0, 0, 0, 0, 25, 50, 26, 0, 47, 31, 0, 27, 0, 64, 0, 43, 0, 0, 75, 0, 0, 42, 0, 58, 0, 0, 8, 4, 11, 0, 78, 45, 14, 9, 49, 37, 33, 38, 36, 0, 44, 62, 40, 55, 0, 35, 68, 17, 30, 0, 0, 12, 0, 21, 61, 41, 48, 18, 24, 0, 0, 67, 0, 73, 70, 10, 0, 5, 39
|46, 52, 66, 7, 0, 8, 43, 26, 0, 9, 1, 20, 19, 59, 30, 72, 0, 73, 0, 0, 50, 56, 69, 2, 29, 0, 41, 60, 18, 27, 48, 0, 11, 45, 28, 0, 53, 65, 0, 0, 61, 36, 44, 33, 57, 4, 34, 71, 67, 0, 24, 40, 14, 31, 0, 0, 0, 70, 0, 54, 13, 37, 58, 76, 0, 25, 6, 0, 0, 0, 64, 0, 0, 0, 75, 0, 35, 22, 0, 74, 3|];