order = 9;
grid = [|45, 20, 0, 0, 0, 52, 0, 7, 31, 0, 22, 0, 64, 38, 30, 41, 0, 0, 0, 81, 56, 55, 0, 0, 8, 0, 28, 18, 60, 0, 3, 53, 0, 0, 65, 0, 0, 0, 11, 5, 51, 62, 9, 0, 79, 4, 16, 0, 32, 54, 49, 37, 43, 72, 0, 71, 34, 1, 0, 6, 0, 0, 76, 0, 10, 46, 13, 25, 24, 2, 50, 61, 68, 0, 66, 80, 0, 44, 15, 39, 59
|73, 57, 13, 0, 80, 67, 0, 8, 0, 16, 44, 32, 42, 81, 78, 53, 35, 47, 1, 4, 68, 69, 21, 0, 0, 0, 76, 0, 0, 2, 23, 30, 0, 0, 66, 27, 29, 0, 15, 0, 0, 50, 28, 77, 0, 55, 38, 24, 33, 0, 63, 3, 0, 51, 0, 0, 36, 41, 0, 31, 49, 39, 12, 0, 6, 0, 0, 0, 0, 40, 0, 72, 0, 71, 11, 25, 56, 0, 45, 7, 70
|0, 15, 51, 68, 2, 34, 69, 0, 0, 31, 0, 0, 3, 0, 0, 45, 0, 0, 0, 0, 0, 65, 40, 0, 0, 72, 60, 74, 43, 0, 0, 36, 75, 0, 0, 16, 0, 35, 32, 1, 0, 66, 80, 54, 52, 21, 12, 78, 18, 61, 5, 22, 0, 0, 0, 46, 47, 70, 42, 0, 0, 24, 19, 0, 41, 73, 38, 0, 8, 0, 56, 0, 13, 28, 17, 57, 14, 0, 0, 0, 26
|78, 71, 24, 30, 39, 6, 0, 42, 41, 74, 13, 11, 36, 49, 23, 15, 0, 0, 80, 12, 25, 47, 0, 52, 10, 3, 5, 0, 0, 31, 22, 7, 61, 63, 0, 44, 65, 34, 16, 59, 0, 70, 0, 46, 72, 0, 27, 0, 0, 0, 1, 50, 0, 45, 8, 14, 43, 0, 0, 40, 18, 0, 62, 17, 0, 0, 0, 76, 0, 0, 0, 0, 0, 64, 69, 51, 60, 21, 0, 53, 29
|55, 0, 58, 3, 32, 25, 4, 0, 72, 69, 33, 43, 66, 7, 40, 56, 59, 20, 2, 0, 22, 37, 64, 0, 34, 0, 46, 38, 28, 0, 42, 0, 0, 10, 78, 0, 41, 45, 0, 0, 39, 0, 0, 75, 57, 76, 79, 26, 6, 23, 60, 8, 70, 0, 0, 51, 44, 0, 15, 61, 5, 29, 80, 71, 0, 35, 27, 74, 54, 0, 21, 68, 63, 36, 50, 0, 67, 65, 16, 62, 31
|59, 65, 61, 14, 44, 77, 21, 0, 16, 0, 37, 50, 70, 0, 39, 0, 0, 46, 42, 33, 54, 31, 0, 0, 58, 0, 51, 0, 0, 48, 12, 25, 0, 71, 24, 0, 0, 76, 4, 0, 38, 0, 0, 56, 78, 0, 52, 0, 0, 68, 47, 15, 0, 11, 0, 67, 0, 79, 66, 0, 0, 28, 0, 0, 0, 3, 45, 63, 30, 0, 23, 0, 32, 20, 18, 40, 0, 22, 49, 6, 5
|12, 0, 0, 66, 0, 27, 60, 28, 46, 21, 0, 24, 52, 9, 51, 54, 0, 76, 50, 7, 0, 43, 15, 0, 0, 73, 0, 4, 57, 80, 13, 35, 67, 11, 0, 0, 23, 18, 0, 47, 26, 0, 0, 25, 64, 39, 65, 0, 0, 0, 30, 59, 40, 20, 63, 0, 32, 0, 45, 53, 22, 2, 16, 42, 36, 81, 0, 0, 5, 29, 0, 0, 3, 0, 75, 77, 0, 19, 72, 74, 79
|9, 49, 11, 1, 47, 50, 0, 76, 0, 12, 25, 75, 8, 71, 0, 0, 0, 19, 0, 79, 16, 26, 38, 62, 35, 0, 70, 0, 0, 45, 0, 0, 32, 5, 69, 0, 21, 44, 40, 6, 0, 63, 33, 7, 22, 0, 0, 57, 67, 0, 0, 46, 29, 66, 54, 65, 13, 30, 3, 0, 0, 0, 48, 31, 0, 37, 0, 0, 52, 18, 0, 39, 78, 0, 0, 42, 34, 73, 0, 24, 41
|0, 0, 19, 75, 35, 0, 22, 43, 70, 0, 18, 65, 61, 68, 0, 26, 1, 0, 13, 20, 32, 0, 49, 67, 59, 0, 0, 9, 52, 55, 39, 51, 76, 6, 37, 64, 0, 0, 0, 0, 58, 24, 0, 53, 36, 0, 41, 14, 7, 73, 0, 0, 25, 0, 10, 0, 0, 0, 0, 21, 72, 50, 11, 62, 15, 0, 0, 66, 0, 57, 0, 47, 0, 0, 48, 54, 33, 23, 2, 0, 46
|22, 42, 55, 65, 77, 0, 0, 62, 2, 0, 36, 0, 48, 50, 9, 6, 0, 0, 8, 35, 0, 78, 4, 28, 70, 43, 0, 45, 80, 12, 10, 0, 0, 75, 0, 68, 5, 47, 39, 0, 30, 81, 0, 0, 74, 29, 76, 51, 66, 3, 46, 71, 23, 54, 53, 0, 0, 33, 0, 73, 57, 0, 0, 44, 56, 61, 16, 41, 1, 32, 7, 21, 69, 11, 0, 0, 0, 60, 0, 37, 19
|67, 58, 1, 24, 46, 19, 0, 49, 0, 0, 0, 0, 0, 0, 8, 70, 0, 56, 52, 18, 53, 15, 47, 55, 60, 68, 0, 17, 40, 78, 59, 69, 0, 42, 0, 50, 28, 6, 23, 2, 71, 34, 64, 0, 44, 73, 72, 0, 0, 0, 12, 14, 5, 16, 0, 30, 76, 13, 80, 65, 0, 79, 0, 0, 25, 31, 0, 9, 0, 45, 35, 48, 41, 33, 22, 32, 75, 0, 81, 77, 0
|6, 0, 0, 11, 43, 18, 0, 81, 17, 2, 55, 0, 53, 54, 25, 67, 16, 68, 44, 0, 76, 9, 33, 0, 13, 0, 19, 3, 22, 0, 38, 57, 21, 0, 0, 0, 12, 79, 80, 51, 0, 78, 27, 0, 0, 59, 1, 77, 37, 74, 24, 0, 0, 41, 0, 45, 7, 31, 26, 58, 56, 35, 0, 75, 28, 15, 73, 69, 66, 0, 0, 0, 14, 0, 62, 70, 8, 39, 10, 0, 0
|74, 14, 73, 0, 69, 0, 57, 75, 79, 63, 51, 1, 33, 3, 0, 30, 61, 40, 58, 0, 0, 25, 5, 0, 56, 0, 17, 0, 0, 0, 0, 15, 66, 2, 0, 37, 54, 48, 0, 26, 0, 65, 18, 0, 16, 35, 21, 36, 42, 0, 34, 0, 0, 0, 0, 38, 0, 0, 27, 55, 44, 0, 52, 76, 24, 72, 0, 10, 0, 23, 80, 60, 0, 7, 6, 68, 53, 13, 71, 78, 0
|0, 54, 20, 0, 41, 76, 9, 0, 23, 57, 73, 81, 7, 0, 71, 29, 77, 15, 0, 0, 69, 0, 0, 0, 0, 0, 75, 0, 48, 35, 58, 0, 28, 31, 44, 79, 0, 0, 70, 52, 0, 0, 0, 43, 45, 0, 30, 0, 55, 6, 0, 53, 0, 17, 22, 0, 61, 0, 0, 66, 0, 60, 0, 27, 37, 5, 0, 0, 40, 62, 68, 13, 16, 0, 21, 74, 24, 0, 0, 0, 18
|39, 31, 0, 0, 61, 0, 0, 0, 35, 5, 80, 0, 0, 0, 10, 14, 79, 22, 59, 0, 24, 0, 45, 66, 37, 0, 0, 65, 0, 7, 53, 60, 77, 0, 34, 62, 73, 40, 56, 0, 55, 38, 41, 0, 42, 27, 67, 0, 0, 0, 9, 0, 64, 19, 68, 12, 48, 0, 21, 0, 25, 6, 1, 0, 4, 26, 0, 0, 11, 0, 0, 58, 57, 17, 29, 49, 51, 47, 36, 0, 0
|0, 0, 53, 21, 0, 56, 37, 47, 12, 0, 34, 0, 0, 35, 20, 42, 32, 0, 0, 80, 81, 64, 3, 0, 26, 65, 0, 67, 25, 5, 43, 61, 9, 19, 41, 46, 17, 69, 0, 36, 7, 0, 31, 0, 13, 60, 75, 50, 0, 38, 8, 58, 28, 0, 71, 62, 0, 11, 70, 29, 0, 77, 72, 59, 14, 63, 55, 49, 74, 6, 22, 30, 15, 45, 0, 23, 52, 48, 54, 66, 73
|68, 0, 0, 13, 0, 0, 78, 51, 63, 0, 0, 74, 0, 60, 0, 28, 43, 0, 73, 46, 0, 49, 61, 32, 54, 71, 39, 16, 0, 0, 0, 72, 56, 0, 18, 6, 53, 0, 58, 9, 15, 59, 0, 14, 77, 0, 0, 11, 44, 25, 45, 57, 52, 40, 5, 4, 0, 69, 8, 0, 0, 19, 37, 36, 79, 65, 34, 0, 0, 50, 29, 67, 26, 31, 0, 0, 20, 55, 3, 1, 80
|30, 0, 28, 60, 27, 8, 50, 16, 0, 0, 0, 72, 0, 12, 65, 69, 0, 0, 21, 0, 7, 6, 74, 31, 23, 40, 20, 36, 55, 73, 76, 33, 71, 1, 0, 51, 46, 0, 62, 25, 0, 57, 35, 0, 66, 13, 48, 68, 22, 4, 39, 63, 0, 0, 24, 0, 78, 54, 32, 0, 81, 0, 59, 77, 0, 53, 0, 70, 0, 38, 18, 0, 79, 58, 5, 56, 9, 0, 42, 0, 61
|43, 23, 74, 0, 58, 36, 41, 0, 54, 13, 16, 35, 0, 42, 0, 19, 3, 29, 0, 0, 28, 38, 0, 0, 9, 51, 40, 32, 0, 0, 52, 49, 0, 57, 62, 66, 33, 0, 69, 0, 45, 71, 0, 44, 0, 0, 37, 8, 0, 0, 0, 76, 18, 0, 55, 0, 77, 4, 73, 10, 1, 68, 31, 0, 61, 39, 25, 0, 63, 22, 0, 26, 56, 0, 30, 0, 21, 81, 64, 46, 65
|0, 0, 56, 0, 0, 5, 66, 22, 69, 81, 21, 0, 0, 0, 73, 64, 0, 77, 35, 0, 0, 44, 6, 0, 0, 31, 53, 0, 0, 26, 24, 0, 0, 65, 0, 59, 70, 0, 46, 3, 63, 13, 39, 60, 19, 0, 61, 58, 75, 17, 20, 48, 36, 71, 0, 57, 18, 28, 0, 42, 0, 0, 0, 55, 0, 52, 76, 62, 16, 41, 0, 0, 12, 4, 0, 43, 0, 0, 0, 0, 0
|0, 76, 46, 0, 59, 29, 0, 19, 0, 24, 4, 0, 0, 0, 0, 17, 0, 0, 0, 52, 3, 39, 0, 21, 36, 64, 13, 68, 0, 44, 34, 71, 23, 69, 74, 5, 38, 41, 0, 11, 18, 0, 0, 50, 12, 1, 9, 56, 28, 60, 0, 30, 0, 67, 51, 0, 81, 25, 0, 37, 8, 0, 0, 48, 78, 14, 0, 31, 7, 0, 6, 75, 0, 22, 32, 58, 0, 33, 0, 70, 54
|81, 0, 0, 37, 0, 0, 70, 0, 0, 54, 23, 26, 63, 25, 59, 76, 30, 0, 67, 5, 55, 0, 0, 0, 65, 10, 12, 14, 31, 16, 64, 18, 50, 36, 80, 53, 77, 66, 43, 0, 0, 0, 32, 8, 9, 34, 51, 73, 40, 35, 0, 0, 2, 38, 78, 56, 60, 0, 7, 3, 13, 74, 75, 20, 69, 29, 0, 68, 21, 15, 47, 46, 0, 44, 42, 17, 57, 6, 61, 0, 52
|24, 21, 72, 0, 0, 0, 49, 20, 30, 8, 38, 33, 62, 0, 0, 34, 78, 44, 0, 0, 0, 45, 11, 15, 63, 25, 42, 6, 56, 67, 9, 12, 39, 54, 47, 55, 0, 10, 29, 27, 4, 16, 51, 0, 0, 50, 22, 3, 0, 0, 0, 52, 0, 23, 48, 36, 80, 0, 71, 79, 0, 0, 0, 28, 0, 0, 35, 0, 73, 13, 37, 65, 0, 69, 7, 0, 0, 26, 0, 60, 76
|0, 0, 0, 52, 18, 0, 51, 6, 65, 0, 49, 0, 50, 74, 0, 9, 69, 36, 60, 62, 57, 76, 0, 0, 43, 7, 33, 0, 58, 13, 21, 19, 0, 38, 2, 3, 0, 55, 35, 0, 0, 48, 72, 81, 0, 42, 47, 66, 46, 0, 10, 16, 45, 80, 12, 22, 20, 0, 29, 63, 0, 15, 0, 30, 23, 32, 0, 0, 27, 34, 0, 53, 0, 41, 68, 0, 71, 5, 39, 73, 25
|0, 26, 64, 2, 0, 44, 71, 67, 55, 0, 6, 0, 12, 70, 0, 20, 0, 0, 0, 16, 47, 0, 78, 0, 66, 0, 0, 0, 29, 0, 40, 0, 0, 0, 72, 0, 0, 23, 37, 73, 53, 21, 0, 74, 7, 81, 54, 5, 39, 43, 0, 0, 0, 0, 19, 0, 0, 35, 49, 0, 32, 0, 58, 10, 57, 0, 36, 51, 77, 0, 11, 42, 18, 38, 0, 31, 0, 24, 34, 63, 62
|8, 25, 0, 35, 0, 0, 0, 3, 33, 32, 28, 0, 43, 22, 37, 0, 66, 0, 61, 58, 18, 27, 0, 56, 68, 0, 72, 10, 45, 0, 51, 46, 73, 41, 63, 0, 57, 0, 0, 15, 5, 0, 54, 6, 0, 74, 53, 29, 0, 11, 0, 13, 79, 49, 23, 52, 38, 21, 0, 26, 64, 30, 0, 24, 0, 4, 0, 0, 0, 70, 0, 71, 36, 0, 67, 55, 19, 0, 47, 0, 1
|60, 0, 12, 0, 73, 38, 16, 13, 57, 71, 11, 40, 55, 75, 68, 51, 5, 0, 19, 77, 0, 54, 0, 37, 20, 0, 29, 27, 17, 43, 0, 0, 42, 15, 33, 35, 31, 1, 30, 22, 36, 47, 52, 65, 24, 63, 0, 0, 21, 0, 25, 0, 41, 4, 34, 6, 59, 0, 76, 2, 14, 70, 61, 72, 64, 0, 9, 45, 18, 0, 58, 56, 66, 0, 79, 0, 0, 10, 0, 23, 78
|52, 0, 15, 62, 13, 33, 55, 77, 26, 0, 31, 44, 14, 0, 18, 0, 70, 30, 45, 17, 4, 53, 0, 0, 0, 29, 0, 50, 54, 47, 41, 32, 0, 20, 28, 9, 51, 25, 2, 0, 8, 76, 0, 16, 0, 57, 0, 37, 19, 0, 7, 24, 72, 0, 0, 79, 5, 0, 74, 43, 48, 58, 27, 0, 67, 56, 0, 65, 64, 0, 39, 1, 61, 6, 0, 60, 73, 11, 66, 35, 75
|0, 60, 27, 67, 79, 30, 23, 66, 59, 45, 72, 12, 38, 17, 0, 5, 24, 61, 0, 55, 0, 35, 37, 0, 69, 49, 14, 19, 46, 52, 0, 76, 44, 16, 0, 74, 0, 70, 65, 41, 62, 39, 13, 0, 0, 0, 77, 25, 73, 51, 0, 20, 22, 0, 75, 2, 21, 53, 33, 9, 11, 32, 47, 7, 48, 50, 26, 8, 3, 81, 42, 0, 0, 63, 28, 0, 64, 0, 56, 54, 0
|0, 0, 18, 8, 5, 28, 0, 71, 4, 0, 32, 55, 41, 0, 16, 0, 20, 63, 40, 21, 0, 0, 13, 68, 67, 0, 23, 0, 36, 0, 0, 0, 0, 0, 10, 0, 0, 43, 57, 0, 56, 0, 0, 0, 54, 0, 39, 47, 3, 15, 79, 0, 69, 0, 0, 7, 0, 0, 62, 22, 0, 42, 24, 25, 0, 38, 51, 6, 0, 72, 44, 77, 0, 80, 0, 2, 0, 17, 59, 0, 48
|10, 69, 78, 46, 21, 3, 14, 31, 39, 0, 0, 57, 0, 37, 49, 58, 7, 0, 12, 0, 19, 36, 0, 25, 24, 75, 47, 0, 65, 68, 0, 0, 0, 48, 42, 40, 1, 0, 55, 0, 0, 27, 38, 26, 4, 5, 0, 80, 56, 81, 0, 6, 61, 63, 30, 17, 72, 0, 52, 0, 0, 51, 0, 43, 73, 0, 22, 16, 23, 79, 41, 76, 0, 0, 33, 13, 62, 29, 67, 8, 0
|0, 37, 34, 76, 6, 0, 0, 44, 20, 0, 40, 69, 11, 0, 13, 0, 68, 51, 56, 78, 9, 61, 0, 38, 64, 0, 0, 0, 0, 0, 60, 0, 0, 7, 0, 17, 49, 75, 0, 72, 0, 0, 0, 31, 30, 33, 14, 74, 26, 67, 0, 2, 0, 0, 29, 73, 63, 0, 0, 1, 39, 71, 0, 35, 0, 0, 10, 54, 0, 36, 0, 0, 21, 81, 0, 41, 0, 3, 5, 0, 42
|16, 74, 45, 81, 12, 80, 0, 36, 61, 64, 56, 59, 10, 0, 0, 0, 73, 0, 11, 0, 51, 70, 0, 0, 30, 1, 65, 53, 0, 72, 25, 23, 0, 0, 0, 67, 0, 58, 22, 0, 0, 7, 0, 0, 32, 41, 28, 21, 68, 0, 27, 54, 60, 0, 26, 13, 31, 77, 78, 34, 0, 20, 0, 0, 71, 55, 0, 0, 49, 0, 0, 0, 76, 0, 24, 38, 37, 0, 57, 0, 47
|40, 0, 50, 22, 0, 54, 75, 63, 42, 28, 39, 62, 47, 0, 74, 0, 19, 2, 7, 41, 43, 20, 18, 0, 48, 76, 15, 51, 24, 0, 27, 78, 58, 37, 59, 73, 80, 0, 21, 29, 6, 79, 45, 0, 46, 53, 66, 49, 0, 0, 35, 23, 13, 9, 0, 0, 0, 0, 0, 0, 61, 44, 64, 68, 52, 0, 11, 32, 0, 0, 12, 57, 31, 0, 70, 34, 77, 69, 1, 36, 30
|58, 19, 47, 0, 24, 49, 2, 53, 0, 52, 46, 34, 0, 36, 29, 81, 0, 25, 72, 0, 0, 28, 16, 73, 5, 0, 74, 56, 30, 1, 0, 21, 57, 0, 45, 14, 0, 0, 12, 0, 44, 0, 67, 0, 11, 75, 64, 4, 62, 76, 0, 38, 17, 0, 0, 0, 37, 10, 41, 68, 40, 0, 0, 80, 70, 13, 0, 27, 15, 59, 9, 31, 0, 65, 78, 20, 39, 79, 55, 0, 7
|1, 73, 9, 72, 25, 0, 11, 41, 0, 53, 15, 76, 77, 8, 60, 0, 0, 26, 79, 0, 33, 42, 81, 58, 0, 39, 6, 13, 69, 38, 0, 5, 3, 0, 71, 63, 59, 0, 10, 23, 14, 0, 0, 47, 0, 65, 40, 70, 30, 48, 44, 55, 0, 52, 66, 54, 0, 67, 57, 36, 46, 80, 56, 0, 45, 24, 74, 20, 0, 0, 0, 0, 0, 32, 16, 0, 43, 0, 18, 51, 22
|0, 11, 67, 0, 0, 40, 53, 80, 32, 0, 74, 17, 49, 15, 50, 12, 0, 23, 26, 13, 2, 68, 56, 0, 33, 0, 0, 21, 63, 41, 0, 52, 72, 78, 7, 20, 39, 57, 61, 31, 59, 46, 47, 0, 75, 0, 19, 0, 14, 37, 70, 81, 30, 3, 36, 9, 58, 0, 5, 77, 0, 4, 29, 51, 38, 8, 48, 28, 0, 64, 0, 27, 0, 60, 0, 0, 22, 0, 25, 16, 66
|0, 0, 59, 61, 0, 4, 73, 0, 0, 36, 57, 70, 1, 0, 69, 37, 2, 0, 51, 38, 0, 8, 17, 39, 47, 78, 77, 0, 23, 76, 14, 64, 29, 34, 9, 0, 13, 0, 49, 45, 32, 55, 6, 0, 53, 22, 58, 63, 60, 79, 0, 5, 27, 0, 46, 18, 0, 0, 11, 19, 0, 10, 68, 50, 65, 21, 0, 71, 80, 20, 26, 0, 28, 62, 0, 7, 44, 67, 43, 42, 72
|18, 0, 0, 0, 20, 0, 0, 23, 14, 0, 9, 42, 22, 0, 24, 0, 0, 59, 29, 36, 46, 4, 41, 0, 80, 35, 57, 30, 26, 71, 66, 27, 2, 0, 0, 0, 0, 0, 67, 58, 74, 0, 0, 0, 0, 0, 7, 28, 0, 0, 73, 34, 0, 75, 0, 48, 12, 32, 0, 47, 31, 45, 53, 54, 0, 69, 0, 78, 0, 0, 70, 81, 0, 21, 3, 61, 0, 15, 6, 0, 10
|63, 0, 0, 69, 29, 48, 30, 72, 0, 68, 0, 0, 0, 0, 76, 0, 52, 7, 0, 65, 1, 32, 67, 0, 0, 0, 25, 8, 0, 59, 15, 47, 0, 61, 4, 75, 71, 42, 73, 0, 0, 18, 0, 22, 38, 54, 2, 45, 12, 24, 41, 40, 51, 35, 43, 0, 6, 0, 50, 20, 80, 13, 66, 0, 5, 10, 60, 57, 31, 16, 36, 0, 74, 0, 56, 26, 23, 0, 14, 19, 0
|33, 0, 0, 0, 34, 0, 8, 35, 47, 10, 67, 0, 81, 0, 43, 27, 0, 54, 5, 31, 20, 62, 52, 24, 50, 21, 45, 28, 18, 69, 0, 79, 13, 0, 0, 56, 26, 29, 7, 78, 11, 15, 0, 0, 0, 0, 23, 53, 48, 1, 0, 80, 39, 77, 41, 42, 25, 72, 61, 76, 38, 16, 0, 3, 0, 0, 0, 75, 55, 0, 73, 0, 2, 70, 0, 0, 32, 71, 9, 59, 12
|26, 9, 0, 70, 0, 0, 0, 15, 0, 0, 14, 30, 28, 41, 0, 63, 25, 78, 53, 43, 42, 66, 19, 61, 0, 0, 7, 44, 81, 0, 0, 0, 24, 0, 60, 0, 79, 0, 54, 10, 34, 64, 0, 2, 48, 0, 36, 0, 0, 20, 21, 67, 31, 65, 0, 3, 73, 56, 0, 69, 71, 52, 0, 29, 22, 0, 23, 47, 58, 77, 33, 17, 49, 51, 38, 0, 18, 0, 13, 45, 55
|27, 56, 0, 0, 38, 0, 68, 65, 60, 75, 0, 0, 26, 0, 0, 46, 0, 64, 23, 54, 73, 18, 48, 0, 0, 70, 63, 58, 77, 0, 0, 0, 22, 53, 6, 43, 76, 5, 0, 0, 81, 0, 30, 24, 3, 9, 78, 55, 4, 0, 74, 42, 33, 25, 79, 44, 0, 0, 0, 57, 0, 67, 17, 1, 0, 0, 15, 11, 14, 61, 0, 0, 0, 52, 40, 29, 80, 0, 0, 69, 20
|19, 39, 0, 0, 0, 79, 28, 0, 0, 55, 5, 20, 35, 29, 21, 8, 34, 80, 14, 59, 30, 58, 27, 0, 22, 0, 10, 31, 38, 33, 0, 74, 0, 73, 67, 49, 56, 51, 36, 77, 0, 44, 43, 69, 0, 0, 0, 71, 17, 0, 0, 72, 6, 50, 2, 75, 54, 23, 1, 78, 15, 26, 63, 52, 62, 42, 53, 13, 32, 25, 45, 12, 0, 0, 4, 0, 0, 76, 0, 0, 0
|49, 77, 0, 0, 1, 66, 0, 58, 0, 11, 0, 0, 73, 0, 61, 31, 38, 48, 0, 71, 0, 81, 55, 0, 76, 16, 3, 70, 0, 54, 57, 45, 19, 50, 0, 12, 20, 0, 0, 68, 80, 9, 0, 0, 0, 15, 69, 32, 10, 0, 26, 44, 59, 29, 64, 24, 40, 60, 0, 0, 7, 22, 51, 0, 46, 67, 0, 0, 39, 43, 2, 0, 30, 0, 0, 8, 0, 0, 17, 47, 0
|0, 53, 0, 0, 30, 23, 0, 70, 0, 0, 69, 6, 5, 0, 17, 73, 74, 18, 47, 0, 27, 7, 65, 50, 0, 0, 0, 0, 4, 0, 54, 44, 15, 25, 0, 78, 42, 36, 3, 14, 75, 68, 29, 0, 0, 20, 56, 52, 31, 33, 43, 11, 0, 39, 59, 19, 9, 0, 13, 41, 0, 0, 8, 0, 0, 45, 71, 40, 0, 0, 57, 0, 67, 61, 1, 0, 49, 0, 26, 81, 77
|31, 51, 0, 0, 0, 71, 40, 39, 8, 7, 48, 9, 0, 28, 46, 0, 81, 10, 63, 66, 21, 14, 79, 2, 0, 19, 49, 43, 70, 23, 0, 73, 34, 0, 77, 32, 4, 67, 0, 0, 69, 45, 58, 0, 35, 64, 0, 61, 13, 55, 57, 65, 50, 0, 0, 0, 0, 44, 22, 11, 12, 75, 0, 0, 0, 0, 0, 59, 41, 0, 3, 6, 0, 15, 47, 78, 16, 30, 33, 56, 17
|0, 44, 0, 7, 0, 21, 67, 33, 0, 22, 35, 0, 31, 0, 0, 36, 0, 53, 78, 3, 29, 59, 42, 81, 38, 0, 0, 66, 47, 40, 1, 0, 20, 45, 16, 71, 0, 0, 6, 60, 41, 73, 19, 15, 25, 17, 4, 27, 58, 0, 0, 79, 54, 10, 0, 0, 2, 74, 34, 70, 37, 0, 0, 0, 72, 64, 0, 0, 50, 49, 14, 51, 75, 18, 46, 0, 65, 0, 0, 0, 68
|0, 0, 0, 0, 19, 0, 0, 0, 0, 0, 59, 8, 0, 0, 41, 66, 23, 16, 24, 0, 58, 74, 10, 33, 75, 20, 18, 0, 0, 3, 48, 50, 31, 12, 17, 0, 63, 54, 76, 0, 65, 49, 70, 0, 27, 44, 81, 0, 69, 72, 0, 1, 0, 73, 60, 0, 26, 0, 0, 71, 0, 40, 30, 4, 42, 0, 61, 39, 0, 78, 15, 22, 34, 9, 51, 45, 7, 32, 29, 64, 35
|65, 63, 66, 6, 45, 64, 0, 0, 73, 0, 0, 79, 78, 24, 0, 0, 0, 70, 0, 39, 17, 5, 35, 34, 40, 15, 80, 0, 0, 0, 28, 0, 69, 62, 0, 36, 72, 0, 33, 71, 46, 0, 74, 9, 0, 18, 32, 41, 59, 47, 0, 75, 67, 12, 38, 68, 0, 0, 0, 52, 4, 0, 3, 13, 44, 0, 19, 26, 29, 76, 1, 0, 55, 48, 60, 22, 31, 0, 8, 27, 58
|28, 29, 17, 50, 0, 72, 0, 38, 0, 61, 47, 0, 21, 0, 62, 57, 4, 65, 37, 0, 0, 12, 54, 0, 52, 67, 55, 42, 0, 0, 0, 75, 0, 14, 11, 26, 24, 7, 0, 32, 0, 51, 0, 79, 0, 25, 68, 2, 36, 0, 0, 49, 80, 48, 0, 16, 56, 15, 63, 0, 77, 0, 73, 60, 0, 9, 70, 0, 34, 46, 74, 0, 20, 5, 0, 0, 0, 66, 0, 13, 43
|47, 62, 42, 59, 55, 0, 0, 54, 0, 26, 20, 3, 29, 0, 44, 32, 39, 0, 43, 6, 8, 0, 31, 0, 0, 77, 0, 0, 0, 53, 0, 56, 60, 0, 0, 2, 64, 50, 18, 28, 78, 5, 16, 13, 34, 7, 0, 0, 45, 0, 15, 9, 74, 14, 58, 1, 67, 66, 69, 24, 65, 0, 49, 0, 80, 75, 12, 48, 81, 35, 10, 52, 0, 0, 37, 36, 79, 70, 76, 4, 38
|0, 12, 0, 16, 0, 15, 1, 10, 18, 67, 54, 0, 40, 45, 14, 13, 0, 0, 4, 69, 70, 72, 36, 0, 11, 28, 62, 41, 6, 74, 46, 9, 0, 58, 0, 0, 44, 0, 0, 61, 57, 31, 77, 66, 0, 0, 3, 0, 0, 30, 22, 60, 0, 24, 80, 32, 0, 0, 48, 64, 35, 78, 20, 56, 0, 27, 0, 5, 0, 7, 63, 0, 50, 19, 73, 52, 0, 0, 23, 25, 0
|4, 5, 14, 0, 49, 0, 24, 37, 0, 15, 0, 2, 68, 0, 64, 80, 0, 60, 9, 51, 0, 56, 23, 46, 0, 0, 73, 63, 61, 0, 29, 67, 7, 52, 79, 39, 0, 30, 48, 55, 17, 22, 0, 0, 0, 0, 8, 35, 16, 26, 40, 70, 0, 0, 28, 72, 0, 43, 31, 18, 27, 0, 0, 0, 77, 11, 0, 53, 25, 58, 0, 33, 71, 54, 10, 0, 69, 74, 12, 3, 21
|0, 3, 68, 4, 71, 0, 35, 26, 0, 73, 76, 58, 13, 0, 0, 40, 48, 55, 0, 0, 49, 21, 0, 0, 32, 0, 31, 0, 37, 0, 7, 0, 38, 0, 22, 19, 45, 77, 44, 57, 0, 25, 59, 17, 50, 79, 0, 0, 11, 0, 81, 51, 0, 5, 65, 0, 0, 6, 0, 46, 0, 0, 28, 0, 0, 54, 64, 29, 0, 8, 72, 66, 0, 34, 0, 0, 0, 0, 53, 41, 16
|0, 59, 37, 23, 52, 0, 0, 55, 6, 0, 2, 67, 46, 0, 0, 0, 0, 42, 0, 61, 38, 63, 51, 8, 72, 0, 24, 0, 41, 56, 71, 40, 80, 21, 25, 13, 68, 4, 14, 0, 0, 43, 7, 0, 65, 0, 0, 12, 0, 32, 33, 0, 10, 34, 70, 15, 45, 0, 30, 44, 0, 5, 0, 9, 26, 0, 47, 58, 69, 0, 62, 3, 19, 66, 35, 64, 78, 54, 48, 0, 27
|0, 0, 41, 40, 33, 20, 0, 0, 0, 34, 0, 23, 0, 56, 11, 74, 0, 12, 68, 0, 5, 16, 0, 0, 0, 44, 0, 0, 14, 0, 6, 48, 62, 8, 0, 65, 36, 81, 64, 0, 0, 0, 0, 0, 73, 67, 57, 38, 9, 0, 42, 47, 63, 76, 0, 77, 1, 0, 10, 0, 3, 49, 55, 0, 27, 0, 43, 19, 71, 80, 0, 50, 59, 0, 26, 4, 17, 7, 0, 0, 13
|38, 13, 54, 42, 75, 58, 48, 32, 0, 0, 70, 80, 57, 47, 28, 0, 36, 66, 22, 45, 65, 10, 69, 0, 0, 6, 0, 55, 0, 77, 5, 0, 43, 29, 61, 52, 34, 74, 27, 0, 79, 37, 15, 3, 23, 40, 31, 0, 71, 39, 0, 0, 0, 68, 67, 0, 24, 16, 19, 0, 0, 0, 0, 0, 33, 44, 1, 7, 56, 0, 51, 14, 0, 76, 0, 11, 2, 0, 0, 0, 8
|0, 16, 8, 0, 64, 0, 44, 5, 25, 0, 43, 0, 0, 14, 38, 71, 9, 4, 0, 15, 0, 34, 76, 0, 27, 0, 37, 0, 0, 36, 0, 63, 51, 81, 31, 0, 0, 24, 19, 12, 29, 67, 26, 70, 58, 49, 0, 62, 0, 59, 0, 74, 35, 0, 21, 61, 0, 42, 0, 50, 68, 0, 0, 41, 0, 6, 46, 77, 0, 0, 0, 20, 10, 0, 72, 69, 55, 28, 0, 0, 33
|62, 22, 70, 49, 28, 47, 10, 0, 0, 51, 30, 37, 72, 21, 7, 77, 0, 0, 54, 19, 39, 75, 60, 4, 55, 79, 64, 0, 53, 15, 50, 66, 12, 9, 32, 57, 35, 46, 71, 8, 40, 61, 0, 48, 76, 78, 43, 69, 20, 0, 2, 0, 0, 27, 0, 11, 52, 58, 0, 17, 73, 0, 0, 81, 16, 74, 0, 24, 0, 0, 38, 0, 0, 68, 0, 63, 29, 45, 0, 65, 23
|14, 0, 0, 79, 63, 0, 7, 0, 0, 17, 68, 16, 0, 64, 54, 39, 0, 0, 0, 0, 13, 80, 0, 77, 71, 23, 43, 1, 11, 20, 0, 28, 74, 3, 58, 10, 22, 32, 72, 33, 42, 0, 0, 41, 31, 66, 0, 0, 0, 0, 18, 21, 44, 6, 69, 25, 8, 48, 51, 35, 0, 76, 38, 0, 2, 78, 4, 0, 36, 53, 55, 73, 60, 0, 81, 47, 0, 61, 46, 0, 0
|66, 0, 76, 39, 36, 0, 29, 0, 15, 19, 52, 0, 0, 44, 81, 10, 0, 69, 0, 0, 74, 67, 59, 1, 2, 17, 0, 79, 64, 42, 78, 0, 35, 49, 0, 45, 62, 80, 0, 13, 0, 6, 5, 55, 51, 61, 0, 54, 0, 56, 16, 0, 73, 30, 0, 41, 14, 37, 0, 72, 75, 47, 0, 63, 11, 0, 0, 23, 70, 0, 34, 40, 22, 12, 0, 9, 3, 0, 31, 0, 32
|0, 18, 77, 80, 11, 81, 31, 0, 0, 60, 0, 0, 0, 20, 3, 61, 65, 6, 66, 42, 14, 50, 53, 29, 73, 57, 36, 72, 33, 46, 44, 16, 0, 4, 0, 23, 10, 0, 0, 0, 0, 69, 2, 30, 0, 58, 0, 0, 25, 8, 13, 28, 37, 70, 0, 40, 71, 27, 0, 62, 63, 64, 0, 12, 35, 68, 0, 79, 17, 0, 0, 45, 38, 1, 74, 67, 15, 51, 0, 75, 56
|56, 81, 29, 44, 62, 0, 47, 9, 43, 6, 60, 63, 0, 69, 0, 49, 31, 0, 15, 0, 0, 3, 80, 65, 0, 61, 0, 37, 39, 18, 26, 11, 52, 67, 13, 8, 0, 59, 0, 64, 73, 4, 46, 36, 5, 2, 71, 0, 50, 0, 0, 19, 32, 0, 45, 0, 68, 24, 75, 48, 41, 66, 21, 0, 76, 51, 7, 42, 0, 33, 27, 28, 1, 10, 77, 30, 54, 0, 0, 0, 14
|13, 1, 5, 77, 78, 16, 0, 0, 40, 0, 10, 38, 75, 57, 0, 23, 50, 0, 31, 53, 0, 11, 0, 45, 19, 55, 0, 0, 76, 51, 36, 65, 14, 0, 0, 15, 7, 60, 63, 70, 25, 3, 56, 18, 0, 0, 0, 59, 47, 0, 67, 64, 12, 0, 72, 20, 69, 22, 4, 54, 0, 73, 71, 46, 0, 0, 21, 0, 9, 74, 17, 24, 37, 49, 0, 0, 0, 34, 80, 58, 44
|72, 67, 0, 19, 0, 60, 45, 2, 52, 59, 0, 77, 20, 26, 33, 55, 37, 13, 46, 0, 44, 0, 12, 42, 51, 38, 54, 0, 32, 0, 63, 43, 5, 28, 49, 0, 69, 15, 41, 0, 76, 75, 22, 10, 0, 16, 17, 79, 74, 0, 14, 66, 81, 62, 0, 35, 11, 47, 6, 8, 0, 27, 25, 0, 0, 0, 0, 64, 68, 1, 0, 36, 7, 0, 0, 0, 0, 53, 78, 0, 9
|20, 24, 4, 27, 14, 10, 12, 21, 11, 0, 81, 7, 30, 73, 15, 18, 0, 28, 0, 9, 72, 0, 63, 0, 41, 32, 8, 2, 75, 25, 0, 42, 0, 66, 19, 58, 0, 31, 79, 38, 0, 33, 44, 57, 47, 0, 49, 39, 51, 0, 0, 45, 0, 36, 1, 26, 0, 0, 64, 0, 74, 46, 34, 53, 13, 0, 37, 50, 0, 55, 48, 35, 29, 0, 23, 0, 0, 62, 52, 68, 0
|0, 64, 0, 0, 22, 0, 0, 57, 66, 0, 3, 53, 0, 0, 0, 24, 67, 0, 16, 30, 0, 0, 0, 0, 29, 0, 81, 12, 50, 27, 69, 4, 45, 0, 40, 0, 0, 0, 20, 0, 19, 0, 34, 71, 26, 52, 0, 0, 15, 5, 0, 0, 7, 0, 56, 28, 10, 61, 0, 39, 43, 14, 77, 0, 0, 79, 0, 73, 2, 47, 31, 54, 51, 25, 0, 76, 41, 46, 0, 33, 0
|0, 61, 0, 28, 53, 46, 39, 0, 74, 0, 29, 47, 9, 40, 0, 52, 0, 21, 71, 0, 23, 0, 62, 27, 49, 5, 66, 59, 16, 0, 0, 20, 0, 35, 81, 54, 0, 68, 77, 0, 12, 32, 14, 42, 1, 10, 0, 43, 63, 22, 48, 0, 24, 37, 13, 0, 0, 0, 0, 51, 0, 7, 50, 78, 8, 0, 0, 56, 26, 0, 4, 15, 64, 79, 65, 0, 38, 0, 69, 72, 11
|17, 41, 80, 55, 76, 0, 58, 50, 38, 0, 8, 0, 0, 0, 34, 35, 54, 0, 18, 28, 48, 77, 24, 47, 0, 2, 26, 0, 68, 0, 0, 62, 0, 56, 64, 21, 0, 53, 51, 67, 0, 0, 11, 49, 6, 0, 0, 9, 23, 70, 0, 61, 20, 60, 0, 37, 0, 78, 0, 0, 0, 36, 0, 0, 29, 16, 0, 3, 75, 69, 0, 63, 5, 0, 59, 0, 74, 0, 19, 32, 39
|51, 32, 49, 26, 8, 69, 54, 59, 71, 44, 65, 48, 0, 0, 19, 68, 0, 0, 70, 64, 36, 33, 0, 75, 78, 14, 67, 23, 0, 9, 74, 0, 0, 0, 53, 0, 27, 37, 81, 0, 50, 17, 61, 28, 55, 0, 42, 31, 38, 41, 58, 0, 56, 21, 15, 29, 30, 0, 0, 16, 76, 63, 0, 6, 12, 0, 57, 52, 72, 5, 77, 10, 45, 2, 13, 24, 35, 40, 22, 43, 3
|37, 33, 7, 25, 23, 0, 0, 0, 34, 0, 71, 0, 0, 5, 0, 79, 64, 14, 76, 74, 10, 13, 43, 0, 0, 0, 50, 61, 44, 6, 72, 0, 17, 60, 3, 31, 78, 2, 24, 0, 0, 54, 48, 45, 8, 11, 73, 40, 1, 57, 68, 0, 77, 0, 0, 59, 55, 9, 18, 38, 52, 0, 32, 0, 66, 70, 58, 67, 20, 19, 81, 62, 0, 42, 0, 16, 0, 0, 63, 28, 36
|0, 0, 25, 20, 65, 11, 42, 40, 0, 79, 0, 45, 19, 0, 0, 0, 63, 37, 34, 24, 26, 0, 58, 54, 0, 33, 1, 0, 5, 62, 17, 59, 36, 0, 0, 22, 6, 39, 0, 74, 31, 0, 55, 51, 71, 12, 70, 30, 0, 28, 3, 0, 46, 7, 47, 0, 53, 75, 72, 67, 69, 0, 43, 0, 49, 2, 56, 15, 35, 0, 13, 32, 80, 78, 64, 18, 0, 38, 4, 0, 0
|2, 0, 35, 0, 0, 37, 63, 74, 49, 0, 0, 54, 15, 61, 22, 65, 51, 33, 32, 73, 40, 0, 0, 5, 53, 0, 68, 39, 0, 19, 45, 55, 30, 76, 0, 34, 14, 0, 75, 0, 0, 11, 0, 0, 69, 48, 20, 0, 80, 58, 66, 0, 71, 0, 44, 27, 46, 0, 81, 56, 6, 25, 41, 70, 0, 77, 31, 0, 57, 26, 43, 8, 62, 23, 52, 0, 28, 42, 7, 0, 24
|15, 70, 30, 18, 67, 0, 46, 79, 53, 0, 50, 0, 56, 32, 57, 38, 10, 73, 0, 76, 6, 0, 0, 0, 0, 80, 69, 26, 12, 28, 47, 31, 0, 0, 1, 4, 19, 0, 0, 49, 54, 35, 23, 0, 43, 0, 63, 44, 0, 52, 29, 78, 0, 61, 37, 0, 0, 3, 0, 0, 9, 11, 2, 66, 7, 71, 24, 0, 45, 0, 20, 0, 77, 0, 39, 33, 72, 0, 74, 55, 0
|77, 68, 0, 43, 31, 9, 59, 14, 21, 0, 0, 4, 80, 0, 70, 47, 53, 8, 0, 37, 0, 0, 72, 3, 42, 0, 2, 35, 79, 29, 16, 6, 65, 0, 15, 0, 18, 73, 5, 46, 66, 12, 57, 52, 81, 56, 11, 60, 27, 40, 55, 0, 75, 13, 20, 0, 19, 45, 0, 30, 51, 38, 7, 64, 0, 0, 54, 0, 61, 10, 76, 41, 17, 26, 0, 48, 0, 25, 32, 49, 0
|0, 0, 39, 58, 26, 0, 19, 0, 64, 0, 42, 28, 69, 30, 35, 48, 75, 71, 38, 0, 63, 23, 0, 20, 15, 0, 9, 7, 72, 10, 0, 0, 0, 0, 0, 24, 32, 33, 47, 44, 16, 0, 53, 67, 70, 0, 74, 22, 79, 21, 37, 43, 8, 59, 0, 66, 4, 0, 55, 80, 60, 0, 57, 65, 0, 17, 29, 81, 46, 73, 52, 5, 0, 0, 0, 6, 12, 56, 11, 0, 34
|0, 7, 44, 38, 66, 22, 76, 29, 80, 0, 58, 0, 0, 39, 1, 0, 0, 43, 30, 0, 0, 46, 50, 51, 0, 0, 35, 48, 0, 14, 56, 0, 0, 33, 75, 11, 37, 61, 0, 4, 24, 28, 62, 21, 0, 0, 15, 18, 81, 34, 53, 77, 9, 47, 32, 74, 16, 26, 68, 59, 70, 0, 0, 0, 55, 0, 67, 72, 79, 27, 0, 23, 0, 13, 36, 73, 0, 0, 20, 10, 69
|34, 27, 60, 0, 0, 0, 0, 4, 3, 0, 0, 68, 67, 0, 55, 59, 0, 72, 65, 10, 45, 0, 44, 16, 74, 66, 21, 64, 0, 58, 20, 38, 40, 43, 23, 42, 2, 0, 0, 76, 0, 26, 79, 80, 56, 0, 35, 33, 54, 19, 17, 0, 49, 0, 0, 0, 28, 0, 0, 0, 0, 0, 14, 47, 50, 62, 6, 36, 78, 75, 69, 11, 70, 0, 63, 0, 0, 1, 0, 9, 57
|54, 0, 75, 0, 57, 55, 0, 69, 0, 20, 0, 5, 0, 16, 31, 11, 46, 81, 39, 14, 12, 19, 0, 13, 4, 47, 56, 0, 67, 37, 70, 3, 53, 80, 73, 0, 48, 27, 59, 50, 0, 10, 0, 64, 15, 0, 62, 1, 0, 65, 0, 36, 0, 2, 77, 78, 42, 0, 40, 49, 33, 21, 23, 74, 9, 0, 63, 60, 0, 51, 25, 44, 43, 0, 0, 79, 66, 58, 35, 61, 45
|5, 0, 48, 73, 16, 24, 6, 1, 0, 40, 0, 0, 0, 2, 26, 44, 18, 49, 55, 75, 11, 71, 70, 43, 31, 59, 0, 78, 9, 66, 32, 41, 81, 13, 46, 60, 30, 38, 45, 0, 0, 20, 0, 58, 63, 23, 25, 67, 72, 0, 69, 10, 68, 57, 62, 8, 0, 0, 0, 12, 54, 34, 79, 14, 39, 80, 0, 4, 33, 42, 53, 37, 65, 0, 0, 19, 0, 0, 0, 22, 0|];