order = 5;
grid = [|1, 10, 13, 0, 14, 12, 0, 0, 7, 0, 6, 0, 3, 23, 0, 0, 0, 19, 0, 5, 0, 0, 0, 0, 0
|0, 12, 0, 20, 4, 0, 22, 11, 13, 0, 14, 18, 21, 8, 0, 23, 0, 17, 0, 0, 0, 1, 0, 0, 5
|0, 0, 0, 23, 0, 17, 16, 0, 24, 25, 0, 19, 0, 13, 0, 4, 0, 21, 22, 0, 0, 20, 3, 0, 14
|19, 0, 17, 0, 0, 6, 23, 1, 0, 0, 0, 12, 0, 0, 11, 0, 14, 0, 8, 0, 0, 0, 10, 0, 0
|0, 0, 6, 3, 15, 4, 20, 21, 8, 0, 0, 0, 0, 22, 0, 1, 13, 0, 0, 0, 0, 0, 2, 0, 19
|4, 6, 0, 0, 0, 0, 17, 9, 0, 2, 0, 7, 0, 0, 0, 20, 19, 11, 0, 0, 18, 0, 0, 3, 0
|13, 0, 0, 0, 18, 0, 21, 19, 4, 0, 0, 0, 6, 0, 0, 0, 1, 0, 10, 0, 9, 8, 7, 24, 0
|0, 0, 0, 1, 0, 0, 24, 13, 20, 6, 0, 0, 0, 0, 4, 21, 0, 18, 5, 2, 0, 19, 0, 0, 0
|17, 0, 11, 24, 19, 0, 8, 0, 0, 16, 13, 2, 0, 0, 3, 0, 7, 0, 0, 9, 20, 5, 0, 10, 0
|9, 25, 0, 0, 0, 18, 0, 0, 0, 7, 19, 17, 11, 0, 0, 0, 12, 0, 0, 8, 0, 2, 16, 0, 21
|0, 0, 19, 6, 0, 0, 14, 3, 0, 0, 0, 25, 0, 0, 0, 0, 0, 8, 13, 18, 0, 12, 0, 0, 0
|0, 18, 7, 13, 0, 2, 0, 16, 6, 10, 3, 0, 22, 0, 0, 0, 21, 4, 12, 0, 0, 24, 20, 0, 17
|0, 0, 22, 4, 1, 0, 0, 12, 19, 0, 15, 10, 18, 0, 6, 16, 0, 23, 17, 20, 0, 7, 0, 0, 2
|21, 0, 9, 0, 0, 0, 15, 18, 17, 1, 2, 24, 23, 7, 8, 0, 5, 6, 14, 10, 16, 25, 0, 0, 0
|5, 17, 0, 0, 8, 24, 0, 0, 0, 0, 12, 1, 0, 21, 0, 0, 0, 0, 0, 7, 0, 0, 18, 0, 0
|20, 5, 2, 22, 0, 16, 19, 0, 0, 0, 0, 0, 0, 0, 14, 0, 0, 10, 0, 11, 17, 23, 0, 0, 24
|0, 23, 15, 0, 0, 0, 11, 0, 25, 20, 16, 8, 24, 3, 0, 0, 0, 2, 6, 0, 1, 10, 9, 0, 0
|8, 0, 0, 11, 10, 22, 0, 24, 5, 0, 4, 21, 0, 6, 23, 0, 3, 13, 0, 17, 0, 0, 25, 0, 20
|0, 9, 4, 0, 0, 0, 1, 23, 0, 8, 0, 0, 0, 0, 0, 15, 16, 0, 0, 0, 22, 0, 5, 19, 11
|6, 1, 24, 17, 12, 10, 0, 7, 2, 0, 0, 0, 5, 15, 0, 25, 0, 20, 0, 0, 0, 3, 0, 0, 0
|22, 0, 12, 8, 9, 0, 0, 4, 0, 11, 23, 3, 14, 10, 18, 0, 0, 1, 0, 6, 0, 0, 0, 0, 0
|23, 0, 0, 0, 11, 0, 3, 0, 10, 24, 0, 0, 25, 17, 0, 0, 20, 0, 0, 13, 0, 0, 12, 8, 9
|10, 0, 0, 0, 6, 5, 12, 0, 0, 15, 0, 9, 7, 0, 13, 19, 0, 0, 21, 0, 0, 22, 0, 0, 16
|0, 0, 0, 0, 0, 0, 6, 20, 9, 0, 8, 15, 1, 0, 12, 10, 0, 7, 11, 22, 0, 0, 23, 0, 3
|0, 0, 21, 25, 0, 23, 0, 14, 0, 0, 0, 4, 0, 16, 0, 0, 9, 0, 0, 12, 0, 0, 0, 2, 0|];