order = 5;
grid = [|9, 0, 8, 12, 0, 5, 10, 0, 0, 4, 0, 0, 22, 2, 19, 0, 0, 25, 6, 0, 0, 0, 0, 16, 13
|0, 0, 0, 22, 0, 7, 9, 0, 0, 0, 5, 11, 1, 24, 0, 23, 20, 0, 4, 8, 0, 15, 0, 0, 21
|7, 0, 21, 23, 0, 18, 0, 0, 8, 0, 6, 17, 0, 0, 0, 0, 24, 22, 0, 13, 0, 0, 11, 5, 0
|25, 0, 0, 0, 0, 0, 11, 14, 0, 24, 0, 12, 0, 8, 4, 17, 0, 3, 2, 16, 0, 0, 9, 6, 19
|0, 0, 0, 0, 0, 2, 15, 0, 13, 25, 0, 3, 0, 0, 16, 1, 0, 19, 0, 5, 8, 7, 17, 20, 22
|0, 2, 0, 3, 25, 0, 0, 0, 4, 0, 0, 0, 0, 0, 0, 0, 16, 0, 0, 12, 0, 0, 0, 0, 24
|0, 0, 23, 21, 0, 3, 0, 0, 0, 0, 0, 8, 0, 0, 0, 25, 17, 1, 0, 9, 0, 0, 22, 4, 0
|0, 17, 0, 15, 19, 13, 0, 0, 24, 0, 0, 1, 0, 0, 0, 0, 3, 14, 20, 10, 0, 6, 8, 0, 0
|0, 0, 0, 8, 20, 0, 7, 0, 0, 0, 14, 0, 15, 22, 24, 13, 0, 4, 0, 23, 25, 0, 0, 0, 0
|0, 0, 0, 9, 14, 8, 0, 0, 0, 17, 0, 0, 0, 21, 20, 22, 0, 24, 0, 0, 2, 0, 12, 0, 0
|23, 0, 0, 0, 0, 0, 0, 8, 7, 0, 25, 16, 0, 0, 12, 3, 0, 0, 0, 0, 5, 22, 0, 0, 0
|3, 0, 14, 16, 7, 0, 0, 0, 0, 0, 0, 18, 8, 5, 0, 0, 0, 17, 0, 0, 21, 0, 4, 0, 0
|21, 0, 24, 0, 8, 0, 12, 0, 0, 5, 17, 0, 2, 0, 7, 0, 23, 0, 13, 0, 11, 14, 16, 10, 0
|4, 18, 0, 0, 0, 0, 0, 17, 0, 2, 24, 21, 0, 6, 10, 0, 8, 0, 0, 0, 0, 0, 23, 0, 25
|0, 0, 13, 1, 0, 0, 3, 0, 20, 0, 0, 0, 11, 0, 23, 0, 0, 16, 14, 0, 18, 0, 0, 0, 0
|0, 0, 0, 0, 5, 21, 0, 0, 9, 0, 0, 0, 24, 15, 0, 0, 0, 0, 1, 0, 17, 0, 10, 12, 18
|22, 0, 0, 0, 1, 0, 4, 0, 15, 20, 0, 0, 16, 0, 0, 14, 9, 0, 17, 0, 19, 0, 0, 11, 0
|8, 13, 19, 0, 6, 24, 0, 0, 18, 14, 10, 0, 9, 0, 21, 0, 0, 2, 0, 7, 16, 0, 0, 0, 0
|20, 15, 0, 0, 24, 16, 0, 13, 0, 10, 19, 0, 0, 11, 0, 0, 21, 0, 8, 18, 0, 0, 2, 9, 23
|0, 0, 3, 18, 16, 11, 25, 5, 0, 23, 0, 0, 0, 0, 1, 0, 22, 6, 10, 0, 13, 0, 0, 0, 15
|1, 0, 0, 24, 0, 15, 0, 23, 0, 0, 0, 0, 0, 0, 3, 0, 0, 7, 16, 22, 0, 0, 0, 18, 9
|19, 0, 0, 2, 22, 17, 13, 0, 0, 0, 0, 9, 10, 0, 0, 0, 4, 20, 0, 3, 0, 0, 21, 0, 14
|0, 3, 16, 7, 0, 10, 19, 9, 25, 18, 22, 6, 0, 0, 0, 2, 14, 0, 24, 17, 4, 12, 5, 1, 0
|18, 0, 20, 6, 21, 1, 0, 0, 11, 3, 16, 14, 23, 7, 15, 0, 13, 0, 25, 0, 22, 10, 24, 17, 0
|15, 4, 0, 17, 0, 20, 14, 16, 0, 0, 0, 24, 0, 25, 5, 0, 12, 0, 0, 1, 0, 3, 0, 7, 0|];