order = 5;
grid = [|23, 0, 11, 22, 4, 7, 0, 0, 16, 0, 15, 0, 3, 0, 0, 0, 0, 13, 0, 1, 17, 8, 25, 0, 0
|0, 3, 9, 7, 1, 20, 18, 12, 8, 14, 25, 0, 0, 10, 17, 0, 0, 0, 22, 6, 2, 21, 4, 0, 0
|6, 25, 0, 21, 17, 0, 13, 11, 0, 23, 19, 5, 8, 4, 12, 0, 0, 10, 16, 15, 0, 0, 0, 0, 0
|0, 18, 0, 0, 10, 0, 25, 4, 0, 5, 14, 6, 7, 24, 11, 21, 0, 17, 0, 0, 0, 13, 0, 0, 23
|0, 0, 5, 16, 8, 6, 0, 0, 0, 0, 0, 0, 0, 0, 22, 0, 4, 25, 0, 14, 0, 0, 0, 0, 0
|5, 20, 0, 11, 3, 17, 0, 0, 21, 0, 0, 10, 0, 22, 19, 24, 12, 0, 0, 0, 0, 2, 0, 4, 7
|0, 0, 8, 12, 9, 0, 0, 0, 15, 24, 0, 20, 17, 3, 14, 0, 6, 0, 7, 0, 0, 0, 0, 0, 16
|0, 7, 0, 17, 16, 0, 2, 1, 0, 10, 4, 0, 0, 15, 0, 11, 0, 20, 14, 25, 24, 12, 3, 0, 22
|0, 0, 0, 18, 23, 0, 0, 0, 6, 3, 0, 16, 0, 21, 24, 13, 10, 0, 0, 0, 0, 0, 9, 15, 0
|21, 0, 0, 0, 0, 0, 11, 0, 0, 0, 0, 7, 12, 1, 0, 8, 22, 0, 5, 9, 25, 6, 17, 0, 0
|0, 22, 21, 5, 0, 3, 0, 23, 0, 6, 13, 0, 15, 14, 8, 0, 25, 0, 2, 12, 10, 16, 24, 7, 4
|8, 1, 15, 13, 7, 0, 16, 0, 14, 20, 6, 23, 0, 0, 21, 0, 0, 0, 19, 5, 0, 0, 2, 0, 0
|24, 0, 14, 0, 2, 8, 0, 22, 13, 12, 17, 11, 10, 5, 3, 0, 20, 15, 23, 18, 9, 19, 0, 25, 21
|0, 11, 0, 0, 0, 0, 4, 24, 0, 0, 16, 0, 2, 0, 25, 0, 0, 8, 0, 0, 22, 0, 13, 0, 15
|10, 16, 12, 0, 19, 0, 1, 2, 17, 15, 0, 22, 24, 7, 0, 0, 13, 9, 3, 0, 23, 0, 8, 0, 0
|19, 23, 13, 0, 15, 14, 0, 16, 5, 0, 12, 0, 0, 0, 7, 0, 2, 6, 21, 22, 4, 0, 20, 9, 0
|25, 0, 2, 1, 11, 0, 12, 0, 0, 18, 10, 21, 14, 0, 0, 3, 0, 23, 4, 20, 0, 0, 22, 16, 13
|3, 4, 0, 0, 12, 0, 0, 20, 0, 13, 0, 0, 0, 11, 0, 0, 0, 0, 18, 17, 5, 0, 0, 2, 24
|18, 0, 0, 0, 14, 0, 23, 15, 0, 0, 0, 0, 0, 0, 0, 0, 9, 12, 11, 13, 0, 0, 0, 17, 8
|22, 0, 0, 9, 0, 0, 3, 0, 0, 25, 0, 0, 13, 0, 0, 15, 19, 0, 0, 0, 12, 0, 0, 0, 0
|0, 0, 1, 0, 25, 4, 0, 3, 23, 22, 24, 0, 0, 0, 0, 7, 0, 0, 13, 0, 0, 0, 0, 12, 2
|14, 0, 0, 2, 0, 1, 0, 19, 0, 0, 21, 25, 0, 0, 15, 0, 0, 4, 8, 0, 0, 0, 16, 13, 9
|0, 8, 0, 15, 0, 0, 0, 14, 11, 0, 0, 0, 0, 13, 1, 0, 21, 18, 25, 0, 6, 4, 7, 5, 0
|11, 0, 18, 3, 21, 0, 15, 9, 12, 16, 0, 0, 20, 6, 2, 0, 17, 5, 0, 19, 0, 24, 23, 0, 25
|7, 12, 0, 0, 13, 18, 0, 5, 0, 0, 23, 14, 22, 8, 10, 9, 16, 2, 6, 24, 20, 15, 11, 0, 0|];