order = 5;
grid = [|22, 17, 18, 23, 0, 24, 0, 1, 21, 0, 16, 15, 7, 0, 25, 20, 11, 19, 3, 9, 0, 0, 12, 0, 0
|19, 0, 0, 9, 0, 20, 0, 0, 0, 0, 0, 0, 17, 5, 18, 0, 4, 0, 0, 8, 21, 0, 11, 0, 7
|5, 0, 8, 11, 0, 0, 17, 15, 6, 0, 0, 21, 20, 0, 0, 0, 10, 0, 0, 16, 0, 0, 0, 23, 24
|0, 0, 7, 0, 4, 0, 11, 0, 19, 22, 10, 0, 8, 3, 0, 0, 2, 12, 0, 0, 0, 0, 0, 6, 0
|0, 0, 14, 6, 10, 4, 12, 0, 3, 9, 0, 0, 0, 0, 1, 0, 0, 0, 7, 0, 0, 0, 0, 0, 0
|17, 0, 13, 19, 0, 0, 15, 0, 0, 0, 12, 0, 0, 20, 0, 0, 24, 0, 10, 0, 0, 14, 16, 8, 25
|2, 25, 10, 5, 11, 0, 0, 16, 0, 0, 8, 3, 0, 14, 6, 17, 12, 0, 0, 0, 0, 7, 0, 1, 0
|15, 0, 0, 0, 21, 13, 0, 14, 10, 0, 1, 0, 5, 0, 7, 0, 0, 16, 25, 20, 12, 0, 2, 0, 0
|0, 20, 0, 14, 3, 0, 0, 4, 2, 12, 13, 25, 0, 23, 9, 22, 18, 0, 19, 0, 0, 0, 0, 21, 10
|0, 0, 0, 0, 0, 7, 0, 20, 0, 0, 19, 10, 16, 24, 0, 4, 0, 9, 0, 0, 15, 11, 3, 13, 17
|4, 19, 0, 0, 0, 0, 16, 25, 0, 5, 2, 0, 6, 0, 0, 18, 0, 1, 12, 11, 0, 0, 0, 0, 20
|0, 2, 3, 22, 25, 15, 13, 24, 0, 0, 0, 0, 19, 0, 0, 6, 5, 0, 0, 0, 16, 1, 10, 0, 21
|6, 5, 0, 24, 16, 2, 0, 11, 18, 0, 3, 20, 0, 0, 15, 0, 23, 22, 0, 25, 0, 9, 7, 12, 0
|0, 11, 0, 7, 0, 10, 0, 6, 0, 0, 14, 0, 25, 0, 0, 16, 19, 0, 0, 0, 2, 17, 23, 0, 3
|13, 0, 21, 0, 14, 0, 1, 0, 0, 0, 5, 0, 24, 0, 10, 0, 0, 0, 0, 4, 0, 19, 6, 25, 0
|0, 10, 2, 0, 22, 6, 0, 0, 16, 0, 11, 19, 23, 0, 0, 0, 13, 24, 4, 17, 0, 21, 8, 0, 1
|23, 14, 11, 25, 19, 0, 0, 0, 12, 18, 0, 1, 3, 10, 0, 0, 7, 2, 0, 0, 0, 13, 0, 15, 0
|7, 0, 0, 1, 6, 0, 25, 17, 0, 24, 18, 0, 9, 0, 0, 0, 0, 10, 0, 0, 0, 12, 0, 14, 0
|24, 13, 4, 0, 9, 0, 0, 0, 15, 11, 6, 0, 21, 7, 5, 0, 16, 0, 0, 3, 0, 20, 0, 10, 0
|3, 21, 16, 0, 0, 1, 0, 0, 4, 10, 0, 0, 13, 0, 0, 9, 0, 0, 0, 0, 0, 23, 24, 0, 0
|14, 7, 19, 0, 0, 0, 0, 0, 11, 13, 20, 6, 0, 0, 23, 12, 0, 4, 0, 15, 0, 0, 9, 22, 18
|0, 0, 0, 0, 0, 5, 6, 0, 7, 0, 4, 9, 14, 0, 17, 0, 0, 20, 16, 18, 0, 0, 0, 0, 8
|11, 6, 0, 16, 5, 18, 0, 2, 0, 0, 0, 0, 22, 0, 3, 0, 0, 13, 24, 21, 20, 0, 14, 0, 0
|18, 15, 0, 3, 0, 0, 9, 0, 0, 16, 7, 0, 10, 1, 19, 0, 14, 5, 0, 23, 25, 0, 0, 2, 0
|9, 0, 0, 13, 0, 0, 14, 0, 23, 1, 21, 5, 0, 18, 0, 0, 25, 6, 2, 0, 0, 0, 0, 3, 15|];