order = 5;
grid = [|22, 0, 0, 0, 24, 13, 14, 12, 0, 0, 23, 0, 0, 16, 0, 0, 4, 9, 21, 0, 5, 7, 8, 0, 0
|0, 0, 11, 0, 8, 10, 0, 0, 0, 0, 14, 0, 2, 4, 0, 3, 0, 7, 0, 24, 1, 0, 9, 23, 0
|0, 14, 0, 12, 3, 0, 4, 0, 0, 0, 0, 0, 0, 0, 0, 0, 0, 1, 22, 23, 0, 6, 0, 10, 25
|0, 0, 0, 0, 4, 19, 0, 0, 9, 22, 0, 6, 3, 0, 0, 0, 17, 0, 2, 0, 12, 14, 0, 0, 0
|0, 0, 9, 0, 0, 1, 0, 18, 0, 20, 13, 8, 15, 24, 12, 16, 0, 11, 6, 14, 0, 0, 22, 4, 19
|19, 0, 1, 0, 23, 0, 0, 0, 0, 11, 2, 12, 21, 9, 7, 4, 0, 6, 10, 0, 18, 17, 0, 24, 3
|0, 9, 3, 8, 0, 0, 5, 21, 18, 2, 11, 4, 0, 0, 19, 24, 0, 12, 7, 16, 23, 0, 0, 1, 0
|0, 24, 13, 21, 0, 14, 0, 0, 3, 0, 16, 1, 0, 6, 23, 0, 18, 0, 0, 15, 0, 0, 0, 0, 10
|0, 0, 0, 0, 25, 12, 24, 15, 1, 0, 10, 0, 22, 0, 0, 0, 0, 0, 0, 11, 19, 0, 5, 0, 2
|0, 12, 22, 17, 11, 7, 23, 0, 0, 0, 15, 5, 24, 0, 0, 0, 1, 19, 0, 21, 0, 0, 0, 0, 0
|0, 0, 24, 13, 15, 21, 0, 0, 0, 0, 0, 0, 10, 14, 18, 0, 3, 0, 23, 0, 0, 0, 25, 0, 11
|3, 0, 4, 5, 0, 0, 0, 0, 10, 0, 9, 21, 7, 0, 6, 19, 14, 0, 24, 0, 20, 0, 0, 0, 0
|0, 6, 8, 0, 12, 0, 9, 0, 0, 14, 5, 0, 0, 0, 0, 0, 0, 10, 20, 18, 2, 24, 21, 0, 1
|0, 23, 0, 25, 0, 0, 2, 19, 12, 0, 22, 0, 20, 0, 0, 0, 0, 15, 0, 0, 0, 0, 0, 0, 8
|0, 11, 19, 18, 14, 6, 0, 25, 7, 23, 0, 0, 16, 0, 0, 2, 0, 13, 1, 9, 0, 22, 10, 0, 0
|0, 0, 18, 20, 0, 8, 10, 0, 0, 6, 0, 0, 0, 0, 16, 0, 12, 0, 3, 0, 24, 19, 7, 14, 5
|0, 0, 12, 0, 0, 0, 21, 0, 0, 0, 19, 3, 0, 0, 4, 0, 0, 0, 18, 1, 0, 13, 16, 2, 15
|15, 0, 0, 2, 0, 3, 0, 0, 0, 12, 24, 0, 0, 0, 14, 0, 0, 0, 4, 0, 0, 0, 23, 0, 9
|0, 0, 14, 23, 13, 20, 0, 0, 19, 4, 18, 9, 0, 0, 2, 11, 0, 0, 25, 0, 0, 0, 0, 0, 0
|0, 0, 0, 11, 1, 0, 0, 9, 2, 0, 6, 23, 8, 0, 0, 15, 0, 0, 19, 10, 21, 0, 17, 0, 4
|5, 22, 0, 0, 2, 0, 3, 0, 0, 16, 0, 0, 0, 0, 0, 12, 0, 0, 0, 13, 0, 18, 0, 9, 7
|0, 8, 0, 24, 0, 5, 11, 0, 0, 0, 0, 16, 0, 2, 1, 25, 10, 0, 9, 0, 15, 4, 19, 3, 0
|4, 0, 0, 9, 16, 0, 12, 1, 20, 7, 0, 18, 6, 0, 24, 0, 0, 0, 0, 0, 0, 0, 0, 0, 0
|0, 19, 0, 0, 7, 0, 18, 10, 8, 0, 21, 13, 0, 3, 0, 0, 0, 5, 16, 17, 0, 23, 2, 12, 0
|0, 0, 10, 3, 0, 4, 0, 0, 23, 0, 12, 0, 9, 5, 11, 20, 2, 24, 8, 22, 0, 0, 13, 25, 0|];