order = 5;
grid = [|0, 8, 0, 0, 0, 13, 0, 0, 0, 0, 2, 12, 0, 0, 7, 21, 0, 23, 18, 6, 11, 0, 0, 24, 0
|23, 10, 6, 9, 21, 0, 0, 4, 7, 0, 0, 0, 22, 0, 0, 20, 0, 0, 16, 0, 17, 12, 14, 2, 18
|1, 0, 0, 0, 0, 16, 22, 0, 18, 0, 0, 0, 9, 21, 0, 0, 0, 0, 14, 7, 8, 13, 4, 25, 6
|0, 15, 0, 0, 12, 25, 0, 0, 0, 0, 19, 11, 0, 14, 0, 9, 0, 0, 0, 0, 23, 5, 21, 0, 0
|0, 24, 11, 22, 16, 0, 0, 12, 0, 23, 18, 6, 4, 1, 13, 0, 0, 17, 3, 0, 0, 15, 7, 19, 0
|0, 0, 1, 14, 7, 0, 0, 20, 10, 0, 0, 0, 18, 0, 0, 23, 0, 0, 5, 17, 24, 0, 0, 6, 19
|10, 19, 0, 12, 17, 22, 9, 0, 0, 0, 0, 7, 0, 2, 23, 24, 0, 4, 0, 1, 0, 3, 0, 8, 0
|0, 23, 0, 18, 0, 0, 14, 0, 4, 0, 0, 0, 0, 22, 16, 0, 9, 8, 0, 25, 0, 0, 1, 0, 0
|21, 0, 20, 0, 0, 0, 0, 18, 25, 0, 0, 14, 0, 6, 12, 3, 0, 0, 0, 16, 0, 17, 23, 5, 11
|0, 0, 0, 0, 22, 0, 0, 0, 0, 0, 0, 0, 11, 20, 0, 0, 0, 0, 0, 0, 10, 0, 0, 0, 0
|0, 0, 0, 0, 0, 0, 19, 22, 0, 0, 15, 25, 0, 23, 21, 5, 0, 10, 6, 0, 1, 8, 0, 9, 0
|8, 14, 0, 0, 0, 21, 0, 23, 0, 5, 0, 0, 1, 0, 0, 19, 18, 0, 15, 22, 0, 0, 25, 20, 0
|15, 16, 22, 19, 20, 0, 0, 24, 2, 9, 0, 8, 0, 18, 14, 0, 0, 13, 21, 11, 0, 23, 3, 0, 0
|9, 11, 23, 0, 1, 6, 8, 3, 0, 0, 0, 0, 5, 0, 0, 0, 0, 2, 0, 0, 0, 0, 13, 0, 0
|0, 13, 0, 0, 0, 11, 18, 0, 1, 0, 16, 3, 0, 0, 4, 0, 23, 0, 25, 8, 0, 0, 0, 0, 7
|0, 0, 0, 15, 0, 20, 0, 11, 0, 14, 0, 21, 7, 0, 1, 0, 0, 25, 0, 5, 13, 0, 0, 0, 0
|0, 7, 14, 0, 0, 2, 5, 0, 15, 12, 0, 20, 25, 4, 0, 22, 8, 0, 0, 0, 9, 19, 0, 0, 21
|12, 0, 0, 0, 0, 23, 17, 21, 24, 0, 0, 0, 0, 0, 0, 0, 15, 0, 0, 3, 0, 10, 5, 0, 0
|24, 0, 10, 11, 19, 18, 0, 13, 0, 25, 0, 17, 0, 0, 15, 0, 20, 21, 0, 9, 0, 0, 0, 0, 0
|25, 5, 0, 0, 23, 0, 4, 0, 0, 22, 12, 24, 0, 10, 3, 17, 0, 1, 0, 13, 0, 16, 0, 0, 0
|0, 1, 0, 16, 0, 0, 0, 9, 11, 0, 22, 10, 0, 19, 6, 2, 17, 12, 13, 15, 5, 21, 0, 0, 0
|7, 9, 12, 0, 0, 0, 13, 1, 0, 0, 0, 0, 8, 11, 2, 25, 0, 20, 0, 0, 18, 14, 17, 15, 23
|20, 0, 0, 24, 0, 17, 2, 0, 22, 0, 4, 18, 0, 0, 0, 11, 0, 0, 8, 0, 0, 0, 10, 1, 0
|13, 17, 0, 0, 0, 8, 7, 0, 0, 20, 24, 1, 0, 0, 25, 0, 3, 0, 9, 0, 19, 0, 12, 0, 2
|0, 22, 0, 23, 2, 15, 12, 14, 0, 0, 0, 0, 3, 13, 0, 7, 1, 5, 19, 18, 0, 0, 6, 4, 0|];