order = 5;
grid = [|7, 9, 24, 25, 6, 0, 11, 0, 1, 0, 0, 5, 19, 0, 15, 0, 23, 0, 3, 8, 14, 0, 21, 0, 20
|11, 0, 20, 19, 15, 3, 0, 0, 14, 0, 0, 4, 0, 0, 1, 21, 0, 0, 0, 0, 0, 18, 0, 25, 0
|3, 0, 22, 21, 0, 0, 0, 16, 0, 0, 20, 0, 10, 0, 25, 0, 4, 1, 0, 18, 2, 8, 0, 0, 12
|0, 0, 0, 12, 1, 8, 19, 0, 15, 0, 22, 0, 0, 0, 0, 0, 5, 0, 24, 0, 0, 10, 16, 0, 0
|16, 8, 10, 18, 23, 0, 0, 0, 6, 20, 0, 7, 2, 0, 0, 0, 0, 0, 0, 0, 5, 15, 0, 0, 0
|22, 11, 0, 3, 20, 0, 0, 5, 4, 0, 21, 23, 17, 0, 0, 6, 0, 0, 7, 2, 24, 0, 0, 12, 9
|0, 10, 0, 23, 13, 1, 21, 20, 0, 3, 16, 0, 0, 0, 0, 14, 0, 0, 0, 0, 0, 0, 18, 0, 0
|18, 6, 0, 7, 0, 15, 0, 2, 0, 0, 19, 0, 9, 0, 4, 8, 24, 25, 0, 0, 0, 21, 11, 0, 0
|17, 24, 2, 9, 0, 10, 8, 0, 11, 0, 5, 3, 0, 0, 0, 1, 0, 0, 13, 22, 0, 23, 25, 0, 15
|0, 0, 0, 15, 8, 7, 6, 9, 0, 0, 0, 18, 22, 0, 20, 0, 0, 5, 23, 0, 0, 0, 19, 17, 13
|19, 21, 0, 0, 0, 0, 4, 22, 20, 0, 15, 0, 0, 0, 12, 18, 0, 3, 2, 0, 8, 7, 0, 0, 14
|24, 3, 0, 10, 25, 14, 1, 8, 0, 0, 11, 16, 7, 20, 0, 0, 0, 23, 15, 21, 0, 0, 0, 13, 4
|0, 15, 0, 20, 0, 5, 23, 0, 0, 0, 1, 0, 0, 22, 19, 0, 0, 0, 0, 7, 0, 9, 0, 0, 0
|12, 0, 11, 0, 0, 24, 0, 0, 7, 0, 0, 14, 23, 8, 0, 0, 22, 10, 0, 0, 0, 17, 20, 21, 0
|23, 0, 18, 4, 22, 0, 12, 0, 0, 10, 0, 24, 0, 5, 9, 20, 0, 0, 0, 17, 0, 16, 15, 2, 0
|0, 0, 0, 24, 0, 0, 0, 4, 16, 0, 0, 12, 0, 0, 0, 0, 7, 0, 21, 23, 17, 0, 8, 0, 2
|14, 0, 6, 8, 0, 0, 7, 24, 0, 0, 2, 19, 4, 0, 0, 0, 17, 16, 22, 0, 10, 12, 0, 0, 0
|2, 12, 23, 13, 0, 0, 25, 11, 0, 0, 7, 0, 0, 9, 10, 24, 3, 8, 4, 0, 0, 0, 0, 0, 18
|0, 20, 0, 1, 7, 18, 0, 17, 0, 0, 0, 8, 0, 11, 0, 2, 6, 0, 5, 0, 0, 25, 0, 4, 23
|4, 0, 15, 0, 0, 0, 10, 14, 2, 8, 3, 0, 0, 21, 17, 12, 25, 20, 18, 0, 13, 0, 0, 0, 0
|15, 19, 0, 0, 21, 22, 0, 6, 0, 11, 9, 20, 8, 4, 24, 23, 0, 0, 12, 16, 3, 13, 5, 14, 0
|0, 4, 5, 0, 0, 16, 0, 0, 18, 23, 0, 2, 0, 12, 0, 17, 0, 0, 10, 25, 0, 0, 0, 0, 8
|0, 0, 0, 2, 0, 12, 17, 7, 0, 0, 0, 1, 3, 14, 0, 0, 15, 0, 0, 0, 21, 0, 0, 0, 0
|0, 0, 13, 0, 24, 0, 0, 0, 8, 0, 17, 10, 0, 19, 7, 3, 21, 4, 0, 5, 0, 11, 2, 23, 0
|6, 0, 12, 0, 11, 0, 0, 0, 10, 0, 0, 15, 13, 18, 0, 0, 0, 0, 0, 14, 0, 0, 4, 9, 17|];