order = 5;
grid = [|19, 20, 0, 0, 23, 11, 0, 0, 0, 0, 0, 10, 0, 0, 0, 0, 18, 0, 24, 5, 0, 0, 25, 3, 12
|0, 12, 15, 0, 0, 4, 22, 0, 5, 0, 0, 9, 25, 0, 0, 0, 23, 2, 13, 0, 17, 0, 0, 0, 20
|0, 0, 0, 0, 24, 15, 10, 25, 0, 23, 0, 13, 1, 0, 20, 17, 11, 4, 19, 0, 7, 0, 9, 18, 22
|0, 0, 10, 0, 0, 20, 13, 24, 17, 7, 3, 0, 0, 0, 0, 0, 16, 25, 1, 0, 0, 6, 19, 0, 0
|0, 8, 0, 0, 0, 0, 2, 21, 0, 0, 7, 0, 4, 0, 11, 15, 0, 0, 0, 0, 0, 0, 24, 0, 13
|0, 25, 13, 0, 3, 0, 0, 20, 7, 10, 0, 23, 0, 0, 0, 0, 8, 0, 0, 0, 0, 0, 21, 0, 0
|5, 16, 11, 0, 19, 9, 0, 0, 0, 0, 0, 17, 8, 24, 0, 0, 0, 0, 23, 0, 0, 0, 20, 7, 10
|0, 9, 24, 0, 0, 0, 0, 8, 19, 0, 25, 5, 13, 0, 0, 0, 0, 21, 11, 7, 0, 0, 17, 6, 0
|10, 0, 0, 21, 2, 5, 0, 23, 22, 0, 0, 18, 20, 0, 7, 0, 0, 0, 0, 0, 1, 0, 0, 9, 0
|15, 7, 17, 0, 18, 2, 0, 11, 0, 0, 6, 0, 0, 0, 0, 0, 0, 0, 0, 24, 0, 0, 8, 13, 23
|0, 0, 0, 0, 0, 19, 0, 4, 0, 0, 0, 0, 5, 0, 2, 22, 0, 0, 0, 0, 0, 0, 3, 15, 0
|2, 0, 0, 5, 22, 17, 0, 0, 0, 0, 0, 25, 12, 0, 0, 7, 24, 0, 21, 0, 0, 0, 0, 0, 18
|0, 0, 0, 0, 8, 13, 0, 5, 15, 0, 21, 4, 0, 0, 0, 2, 0, 6, 0, 0, 20, 0, 0, 24, 9
|0, 15, 0, 0, 0, 18, 3, 0, 0, 14, 0, 22, 19, 8, 6, 0, 0, 5, 0, 4, 0, 0, 7, 25, 0
|0, 0, 0, 0, 1, 0, 0, 22, 0, 25, 10, 0, 17, 0, 0, 0, 14, 0, 0, 0, 0, 12, 5, 0, 0
|0, 0, 0, 0, 0, 25, 0, 0, 0, 21, 14, 0, 9, 0, 0, 24, 0, 19, 17, 1, 15, 18, 23, 5, 0
|0, 23, 0, 0, 15, 0, 24, 7, 6, 0, 0, 0, 18, 0, 0, 0, 0, 11, 0, 22, 0, 0, 0, 16, 21
|0, 0, 7, 25, 0, 0, 15, 16, 4, 0, 5, 3, 24, 10, 13, 23, 21, 20, 12, 0, 0, 0, 6, 19, 11
|9, 0, 1, 0, 6, 14, 0, 0, 20, 0, 0, 0, 0, 0, 23, 0, 0, 10, 0, 13, 0, 0, 0, 0, 4
|0, 0, 0, 0, 0, 8, 0, 17, 0, 0, 16, 0, 22, 11, 12, 0, 0, 0, 4, 6, 25, 20, 0, 10, 0
|0, 0, 0, 0, 0, 0, 25, 0, 0, 0, 17, 0, 6, 9, 0, 0, 0, 23, 0, 0, 0, 16, 18, 20, 0
|0, 17, 0, 19, 0, 3, 16, 0, 0, 0, 0, 8, 0, 13, 0, 0, 0, 18, 0, 9, 22, 1, 0, 21, 25
|11, 0, 9, 0, 13, 0, 20, 0, 1, 17, 18, 14, 7, 23, 0, 12, 0, 0, 0, 0, 8, 0, 15, 0, 6
|0, 0, 0, 18, 16, 0, 0, 2, 0, 13, 11, 0, 3, 0, 0, 0, 15, 0, 20, 0, 0, 9, 10, 0, 5
|0, 0, 0, 15, 0, 0, 9, 0, 18, 4, 0, 0, 0, 0, 0, 0, 22, 24, 0, 0, 0, 0, 11, 0, 3|];