order = 5;
grid = [|17, 0, 0, 0, 23, 19, 0, 0, 5, 0, 10, 20, 0, 0, 0, 0, 1, 14, 16, 8, 0, 0, 15, 0, 9
|0, 0, 0, 0, 16, 0, 0, 13, 24, 8, 25, 0, 0, 3, 4, 10, 2, 6, 0, 20, 0, 5, 12, 0, 0
|19, 0, 15, 7, 20, 1, 2, 0, 18, 0, 0, 11, 17, 21, 16, 0, 23, 4, 25, 0, 0, 0, 0, 0, 8
|0, 0, 0, 0, 0, 6, 17, 12, 0, 16, 22, 0, 1, 23, 0, 5, 0, 0, 0, 19, 0, 20, 24, 0, 0
|0, 0, 25, 1, 0, 10, 0, 22, 23, 0, 8, 0, 5, 14, 12, 0, 9, 0, 11, 7, 3, 2, 17, 19, 0
|16, 0, 0, 25, 0, 15, 0, 5, 14, 0, 20, 0, 0, 18, 0, 0, 22, 7, 19, 13, 11, 23, 0, 0, 6
|5, 20, 4, 23, 18, 11, 6, 0, 0, 0, 9, 15, 22, 0, 25, 21, 3, 0, 0, 0, 0, 7, 14, 0, 0
|24, 6, 8, 19, 0, 13, 0, 0, 0, 0, 0, 0, 4, 0, 0, 0, 0, 0, 5, 15, 0, 22, 0, 0, 0
|1, 0, 2, 12, 0, 0, 0, 0, 0, 0, 3, 5, 19, 0, 0, 11, 0, 0, 0, 16, 18, 8, 13, 0, 0
|21, 14, 0, 13, 0, 25, 22, 7, 0, 0, 23, 8, 2, 16, 24, 0, 0, 18, 10, 4, 20, 0, 5, 15, 12
|15, 0, 0, 8, 11, 24, 19, 10, 0, 0, 0, 0, 0, 22, 6, 16, 0, 0, 0, 0, 0, 0, 7, 5, 0
|0, 23, 0, 0, 9, 0, 0, 1, 7, 12, 2, 0, 0, 17, 5, 0, 10, 13, 0, 0, 22, 0, 21, 11, 0
|12, 0, 0, 18, 25, 0, 14, 23, 22, 0, 13, 3, 0, 1, 0, 0, 19, 11, 0, 0, 15, 0, 6, 0, 10
|0, 0, 0, 0, 10, 0, 0, 0, 0, 6, 0, 24, 11, 0, 0, 7, 25, 0, 0, 0, 8, 13, 0, 0, 4
|13, 0, 0, 22, 1, 17, 0, 25, 11, 0, 15, 16, 0, 9, 0, 0, 0, 0, 23, 0, 24, 14, 0, 12, 2
|18, 15, 6, 0, 0, 14, 0, 9, 10, 22, 0, 23, 0, 0, 17, 19, 0, 0, 0, 0, 4, 12, 0, 7, 13
|22, 0, 0, 0, 0, 0, 0, 0, 6, 13, 19, 0, 20, 0, 0, 17, 5, 8, 0, 0, 0, 15, 0, 21, 0
|0, 12, 0, 9, 21, 3, 7, 0, 20, 0, 6, 0, 0, 0, 0, 0, 0, 15, 0, 23, 16, 0, 11, 17, 24
|25, 0, 0, 0, 0, 16, 8, 0, 0, 11, 4, 13, 24, 0, 1, 2, 7, 0, 0, 0, 0, 18, 0, 0, 0
|0, 0, 0, 11, 4, 0, 0, 0, 19, 24, 21, 2, 0, 5, 0, 0, 0, 16, 22, 3, 1, 6, 25, 9, 0
|23, 0, 0, 0, 0, 0, 12, 11, 2, 0, 5, 10, 0, 8, 0, 1, 16, 0, 0, 0, 0, 24, 0, 0, 0
|14, 9, 0, 15, 5, 0, 0, 0, 0, 0, 17, 21, 13, 0, 0, 0, 4, 0, 0, 25, 10, 0, 1, 0, 7
|0, 0, 0, 0, 0, 9, 13, 16, 0, 15, 0, 22, 0, 4, 3, 0, 0, 19, 0, 17, 0, 25, 20, 0, 0
|11, 1, 13, 0, 0, 5, 0, 0, 0, 21, 7, 25, 9, 19, 0, 0, 0, 22, 8, 10, 12, 0, 0, 0, 0
|20, 0, 0, 3, 22, 23, 0, 0, 0, 14, 1, 12, 0, 0, 18, 0, 0, 5, 21, 2, 19, 0, 0, 8, 17|];