order = 5;
grid = [|15, 3, 13, 6, 10, 1, 0, 5, 16, 8, 7, 12, 0, 9, 0, 22, 11, 23, 0, 0, 0, 25, 21, 0, 4
|16, 0, 0, 0, 0, 21, 0, 0, 4, 0, 22, 2, 3, 5, 15, 1, 24, 20, 0, 0, 14, 11, 19, 9, 13
|9, 0, 2, 1, 0, 15, 0, 17, 0, 24, 20, 0, 0, 4, 0, 5, 0, 19, 7, 0, 0, 0, 3, 16, 23
|0, 24, 21, 0, 0, 2, 19, 0, 13, 0, 0, 6, 8, 0, 25, 3, 12, 0, 0, 0, 0, 0, 0, 0, 5
|0, 5, 0, 22, 25, 12, 0, 6, 3, 0, 11, 0, 0, 0, 1, 10, 4, 21, 15, 13, 2, 0, 8, 24, 7
|0, 10, 11, 0, 9, 23, 24, 21, 0, 6, 17, 7, 16, 0, 14, 0, 0, 5, 0, 15, 0, 0, 20, 12, 3
|17, 2, 0, 0, 0, 0, 22, 0, 19, 0, 0, 3, 0, 0, 13, 6, 1, 0, 0, 18, 9, 0, 0, 5, 8
|0, 0, 12, 5, 15, 7, 0, 9, 0, 2, 0, 0, 11, 0, 0, 17, 13, 0, 4, 3, 0, 0, 18, 0, 14
|20, 0, 0, 0, 0, 8, 0, 0, 10, 0, 0, 4, 2, 0, 12, 24, 0, 9, 0, 23, 0, 0, 13, 0, 0
|18, 14, 24, 0, 0, 0, 0, 0, 0, 5, 0, 0, 0, 23, 6, 0, 7, 11, 0, 0, 1, 2, 0, 22, 0
|3, 0, 8, 0, 18, 20, 12, 0, 0, 0, 0, 24, 23, 0, 0, 0, 6, 0, 0, 0, 0, 1, 0, 0, 19
|0, 21, 10, 0, 23, 0, 2, 8, 11, 0, 0, 0, 0, 16, 3, 7, 20, 0, 0, 0, 24, 18, 12, 0, 0
|0, 4, 6, 9, 2, 19, 0, 1, 0, 0, 0, 0, 0, 0, 0, 0, 0, 0, 5, 8, 0, 21, 15, 7, 0
|12, 0, 16, 25, 0, 0, 0, 18, 7, 13, 14, 8, 0, 0, 0, 15, 0, 2, 0, 0, 17, 5, 0, 0, 22
|0, 13, 0, 0, 0, 24, 15, 0, 6, 16, 2, 9, 1, 7, 18, 12, 0, 17, 0, 10, 0, 0, 0, 0, 0
|0, 0, 0, 18, 0, 0, 21, 10, 2, 7, 0, 0, 24, 0, 0, 9, 0, 4, 3, 1, 0, 14, 0, 8, 0
|0, 0, 0, 4, 0, 13, 0, 0, 0, 20, 10, 0, 9, 15, 0, 0, 23, 25, 0, 0, 7, 0, 24, 3, 0
|1, 15, 0, 2, 0, 0, 0, 0, 5, 0, 8, 23, 0, 0, 11, 0, 0, 0, 21, 7, 0, 0, 9, 0, 12
|0, 9, 0, 24, 20, 0, 8, 22, 0, 1, 6, 19, 0, 0, 0, 0, 0, 0, 0, 0, 11, 0, 23, 0, 0
|10, 12, 14, 0, 16, 0, 9, 15, 0, 3, 18, 25, 0, 21, 0, 0, 0, 8, 0, 11, 0, 13, 0, 4, 0
|7, 8, 20, 0, 0, 22, 5, 0, 15, 4, 0, 0, 0, 11, 9, 0, 10, 24, 1, 0, 25, 0, 6, 19, 16
|2, 0, 18, 16, 0, 3, 7, 13, 8, 0, 0, 14, 0, 0, 0, 19, 0, 15, 0, 0, 0, 17, 0, 20, 24
|5, 6, 1, 0, 17, 25, 0, 0, 24, 0, 0, 0, 0, 2, 19, 0, 16, 18, 8, 0, 0, 0, 0, 14, 15
|0, 22, 0, 0, 0, 6, 17, 16, 18, 0, 25, 15, 7, 0, 0, 0, 0, 14, 0, 5, 0, 8, 0, 13, 0
|0, 25, 15, 0, 0, 0, 0, 0, 21, 14, 16, 0, 17, 0, 0, 0, 0, 0, 6, 20, 4, 0, 22, 2, 18|];