order = 5;
grid = [|5, 7, 0, 14, 0, 2, 6, 25, 0, 0, 0, 0, 0, 11, 16, 15, 18, 20, 0, 24, 3, 0, 21, 13, 10
|15, 1, 0, 0, 0, 17, 16, 0, 0, 20, 0, 2, 19, 18, 0, 25, 0, 21, 0, 0, 7, 22, 0, 6, 0
|18, 0, 20, 24, 11, 0, 0, 9, 4, 0, 12, 25, 0, 0, 21, 23, 0, 3, 2, 0, 14, 5, 17, 16, 19
|12, 0, 17, 6, 21, 5, 15, 0, 0, 3, 0, 23, 14, 22, 13, 0, 16, 0, 4, 0, 0, 20, 1, 0, 0
|16, 0, 9, 19, 8, 10, 18, 0, 0, 23, 0, 0, 4, 7, 3, 0, 5, 14, 0, 22, 0, 25, 12, 24, 0
|11, 0, 0, 0, 9, 1, 0, 0, 15, 0, 0, 14, 2, 21, 0, 0, 13, 0, 0, 7, 0, 18, 3, 12, 25
|17, 0, 16, 15, 3, 0, 4, 0, 11, 0, 22, 7, 25, 0, 0, 6, 0, 23, 21, 18, 0, 2, 0, 9, 0
|0, 14, 6, 0, 24, 21, 0, 16, 22, 18, 9, 0, 0, 0, 0, 3, 0, 25, 12, 5, 17, 0, 0, 4, 7
|0, 21, 0, 0, 5, 0, 13, 12, 3, 9, 17, 18, 16, 20, 6, 4, 2, 1, 0, 14, 0, 19, 0, 15, 11
|13, 12, 0, 0, 18, 0, 0, 7, 0, 19, 0, 0, 0, 0, 0, 0, 0, 0, 15, 9, 21, 0, 0, 23, 6
|0, 19, 12, 17, 16, 0, 7, 20, 0, 15, 2, 9, 0, 0, 0, 14, 8, 11, 0, 0, 6, 0, 25, 0, 0
|0, 0, 18, 8, 0, 0, 0, 0, 2, 17, 0, 0, 0, 0, 7, 0, 23, 6, 0, 0, 16, 0, 0, 0, 12
|9, 0, 0, 0, 1, 0, 12, 0, 0, 16, 0, 22, 15, 23, 0, 18, 0, 17, 0, 2, 19, 10, 24, 0, 8
|2, 11, 0, 0, 0, 0, 0, 8, 0, 0, 0, 20, 0, 0, 18, 12, 4, 0, 10, 16, 9, 15, 23, 17, 0
|0, 0, 4, 21, 10, 25, 14, 5, 0, 0, 16, 0, 0, 0, 17, 19, 24, 0, 0, 0, 0, 0, 18, 11, 0
|0, 0, 7, 0, 0, 12, 0, 22, 0, 0, 0, 0, 0, 6, 0, 17, 14, 18, 0, 0, 0, 9, 0, 0, 0
|0, 9, 0, 0, 0, 0, 10, 19, 0, 24, 0, 21, 0, 17, 0, 5, 0, 0, 0, 0, 0, 0, 0, 0, 0
|22, 0, 0, 20, 17, 0, 0, 23, 16, 0, 1, 0, 0, 0, 0, 8, 0, 0, 0, 0, 0, 0, 2, 10, 14
|1, 0, 10, 0, 0, 0, 8, 3, 25, 2, 19, 5, 0, 0, 9, 21, 0, 0, 0, 12, 0, 0, 0, 0, 0
|6, 18, 21, 0, 12, 13, 0, 15, 9, 7, 0, 10, 22, 0, 0, 24, 1, 0, 0, 0, 0, 0, 20, 0, 0
|4, 5, 0, 9, 0, 7, 0, 13, 17, 14, 0, 0, 0, 0, 15, 0, 10, 24, 0, 0, 2, 0, 0, 0, 20
|14, 17, 24, 0, 7, 16, 0, 0, 0, 4, 0, 0, 0, 5, 22, 0, 0, 0, 18, 15, 10, 0, 6, 0, 9
|0, 0, 22, 18, 15, 19, 0, 0, 0, 8, 14, 12, 24, 0, 4, 2, 0, 0, 0, 17, 23, 0, 16, 0, 1
|21, 8, 0, 12, 0, 15, 24, 6, 10, 0, 7, 0, 0, 9, 23, 0, 11, 0, 0, 20, 0, 0, 19, 0, 0
|0, 0, 0, 0, 20, 11, 0, 0, 5, 22, 3, 8, 0, 10, 0, 7, 0, 12, 0, 0, 0, 17, 15, 14, 24|];