order = 5;
grid = [|0, 4, 0, 5, 0, 23, 11, 22, 0, 0, 21, 0, 0, 14, 9, 19, 0, 0, 0, 0, 24, 0, 7, 2, 0
|0, 0, 9, 0, 25, 12, 0, 13, 0, 10, 2, 11, 18, 20, 0, 23, 7, 17, 0, 0, 16, 4, 14, 21, 0
|12, 0, 0, 20, 0, 5, 0, 2, 0, 17, 19, 0, 0, 0, 0, 4, 0, 0, 9, 0, 18, 6, 10, 0, 0
|2, 0, 18, 16, 0, 0, 24, 9, 21, 0, 0, 3, 0, 23, 10, 22, 12, 0, 14, 0, 0, 13, 0, 11, 19
|0, 15, 0, 0, 0, 19, 0, 7, 16, 0, 0, 6, 8, 0, 24, 0, 0, 0, 0, 11, 0, 0, 0, 0, 22
|0, 12, 14, 7, 19, 13, 0, 8, 0, 20, 22, 24, 0, 0, 6, 3, 0, 0, 0, 16, 5, 17, 0, 15, 0
|24, 0, 0, 3, 8, 0, 0, 21, 0, 0, 14, 17, 1, 0, 0, 9, 0, 13, 0, 0, 0, 19, 6, 0, 0
|1, 9, 0, 23, 11, 0, 15, 0, 25, 12, 7, 18, 0, 16, 0, 0, 2, 0, 19, 21, 0, 0, 13, 0, 24
|20, 13, 15, 2, 17, 0, 9, 0, 0, 16, 0, 19, 0, 0, 0, 0, 1, 0, 0, 0, 0, 12, 3, 25, 0
|16, 0, 10, 18, 0, 3, 17, 0, 0, 0, 20, 0, 9, 0, 23, 0, 0, 0, 8, 12, 2, 11, 0, 4, 0
|14, 0, 1, 15, 2, 0, 19, 3, 0, 0, 0, 10, 24, 0, 0, 0, 0, 0, 0, 9, 12, 0, 8, 0, 17
|0, 3, 0, 0, 0, 0, 0, 10, 0, 0, 25, 23, 19, 12, 17, 0, 0, 21, 0, 14, 0, 2, 0, 0, 0
|6, 0, 0, 17, 0, 21, 16, 0, 24, 0, 9, 22, 20, 5, 0, 0, 15, 1, 4, 10, 0, 0, 0, 0, 14
|11, 0, 0, 13, 5, 18, 14, 12, 0, 2, 0, 8, 0, 3, 1, 7, 0, 0, 22, 0, 0, 9, 0, 0, 25
|25, 8, 24, 19, 10, 20, 7, 0, 17, 9, 11, 21, 14, 18, 0, 0, 0, 2, 23, 3, 22, 1, 0, 5, 0
|19, 0, 0, 6, 24, 25, 0, 0, 2, 0, 0, 0, 4, 22, 0, 8, 9, 0, 0, 7, 0, 14, 11, 0, 0
|0, 17, 11, 22, 12, 0, 0, 0, 0, 0, 0, 0, 25, 19, 0, 14, 20, 3, 1, 0, 0, 0, 0, 24, 2
|4, 0, 0, 10, 9, 11, 0, 19, 18, 24, 3, 2, 0, 6, 0, 5, 0, 16, 0, 23, 1, 0, 25, 22, 0
|0, 2, 13, 0, 16, 0, 0, 17, 3, 15, 0, 0, 12, 8, 11, 6, 0, 22, 0, 19, 4, 18, 23, 0, 0
|0, 0, 25, 8, 3, 7, 0, 20, 0, 0, 13, 9, 17, 0, 0, 0, 11, 0, 0, 2, 0, 16, 0, 19, 0
|8, 5, 0, 0, 0, 16, 2, 0, 0, 0, 0, 0, 0, 0, 20, 1, 17, 0, 0, 0, 21, 3, 18, 0, 12
|3, 22, 16, 12, 0, 4, 20, 0, 0, 21, 0, 15, 6, 7, 0, 18, 14, 10, 0, 0, 0, 25, 0, 17, 0
|0, 0, 0, 0, 4, 0, 0, 0, 0, 0, 12, 5, 0, 9, 0, 0, 0, 0, 2, 0, 19, 24, 0, 0, 15
|18, 10, 2, 9, 15, 0, 0, 14, 12, 19, 0, 4, 0, 17, 25, 21, 0, 5, 0, 0, 0, 0, 0, 0, 0
|0, 0, 17, 21, 20, 9, 0, 1, 15, 11, 0, 0, 0, 0, 8, 16, 19, 0, 6, 0, 10, 23, 0, 7, 4|];