order = 5;
grid = [|3, 0, 0, 0, 0, 0, 10, 0, 0, 23, 0, 0, 5, 0, 9, 14, 25, 4, 11, 0, 0, 22, 6, 12, 0
|0, 0, 21, 0, 0, 0, 0, 0, 0, 20, 11, 23, 14, 18, 0, 6, 13, 0, 0, 0, 10, 0, 0, 0, 0
|0, 20, 2, 0, 17, 0, 0, 0, 6, 19, 24, 0, 21, 0, 12, 10, 18, 0, 0, 0, 14, 0, 0, 4, 25
|22, 4, 0, 0, 0, 0, 0, 0, 0, 0, 0, 0, 13, 25, 0, 0, 0, 0, 0, 0, 0, 0, 0, 11, 3
|6, 10, 18, 0, 0, 15, 0, 0, 0, 0, 0, 4, 3, 2, 8, 0, 0, 23, 0, 12, 0, 16, 1, 13, 9
|0, 8, 0, 0, 9, 12, 0, 0, 20, 2, 0, 0, 11, 0, 19, 0, 1, 0, 3, 16, 23, 0, 0, 14, 0
|18, 24, 4, 6, 7, 11, 22, 3, 0, 25, 23, 8, 1, 0, 15, 17, 0, 0, 0, 5, 19, 20, 2, 0, 13
|2, 0, 1, 3, 23, 0, 0, 21, 0, 0, 20, 0, 0, 6, 0, 0, 0, 0, 0, 4, 5, 10, 0, 24, 0
|21, 14, 17, 0, 0, 0, 0, 0, 0, 13, 0, 5, 0, 4, 22, 15, 23, 18, 0, 0, 0, 12, 8, 0, 11
|0, 0, 0, 0, 0, 0, 0, 0, 0, 8, 0, 0, 17, 0, 24, 13, 22, 0, 0, 10, 0, 0, 18, 0, 7
|23, 0, 0, 2, 21, 24, 16, 20, 0, 0, 0, 15, 0, 0, 4, 9, 11, 0, 22, 0, 0, 0, 10, 7, 14
|9, 17, 15, 0, 0, 13, 0, 23, 21, 3, 0, 14, 18, 0, 0, 8, 10, 20, 0, 7, 16, 0, 11, 5, 0
|0, 0, 7, 0, 16, 0, 19, 10, 0, 0, 8, 0, 9, 22, 3, 18, 0, 15, 13, 0, 12, 25, 0, 23, 6
|0, 0, 0, 0, 0, 22, 0, 4, 0, 14, 10, 16, 23, 7, 0, 0, 2, 0, 0, 0, 20, 0, 13, 0, 21
|0, 0, 14, 0, 0, 7, 8, 9, 0, 0, 0, 1, 20, 0, 0, 0, 6, 0, 12, 23, 0, 0, 22, 0, 0
|0, 11, 16, 1, 3, 25, 0, 0, 0, 10, 0, 0, 12, 23, 6, 20, 0, 13, 8, 0, 2, 17, 0, 18, 24
|25, 23, 9, 21, 24, 16, 20, 0, 0, 7, 0, 2, 4, 0, 0, 19, 12, 6, 0, 11, 0, 0, 14, 10, 8
|0, 6, 10, 0, 5, 1, 0, 12, 23, 0, 0, 0, 0, 16, 0, 0, 14, 0, 0, 24, 13, 11, 0, 0, 0
|20, 13, 19, 17, 2, 3, 24, 14, 0, 0, 15, 0, 10, 0, 21, 0, 0, 0, 0, 0, 0, 0, 0, 6, 12
|4, 7, 0, 0, 18, 19, 2, 6, 0, 17, 14, 13, 24, 8, 0, 0, 0, 0, 0, 0, 0, 0, 16, 0, 23
|0, 9, 0, 0, 0, 23, 6, 0, 0, 0, 0, 24, 0, 3, 14, 12, 20, 11, 5, 0, 0, 15, 0, 21, 17
|12, 2, 0, 23, 14, 20, 0, 0, 0, 0, 4, 18, 0, 0, 17, 25, 0, 22, 16, 0, 1, 24, 9, 19, 0
|24, 0, 0, 0, 15, 9, 0, 11, 0, 0, 0, 0, 0, 19, 0, 3, 17, 7, 10, 18, 8, 14, 23, 20, 16
|0, 16, 0, 19, 20, 0, 5, 0, 0, 0, 21, 0, 15, 13, 0, 2, 0, 0, 4, 1, 6, 18, 3, 22, 10
|0, 3, 0, 0, 1, 0, 0, 0, 19, 0, 0, 7, 22, 0, 0, 0, 0, 8, 21, 6, 11, 13, 12, 2, 4|];