order = 5;
grid = [|0, 4, 0, 10, 0, 0, 0, 5, 0, 23, 0, 0, 0, 0, 14, 7, 0, 0, 0, 8, 0, 6, 0, 19, 0
|0, 0, 0, 0, 0, 24, 0, 0, 0, 7, 0, 11, 0, 0, 0, 20, 16, 0, 0, 0, 0, 0, 0, 3, 17
|0, 2, 22, 0, 23, 11, 25, 0, 0, 16, 1, 0, 0, 7, 0, 24, 0, 0, 0, 4, 0, 0, 0, 5, 20
|6, 0, 11, 0, 14, 0, 0, 17, 19, 2, 24, 20, 0, 25, 0, 18, 15, 1, 3, 0, 0, 13, 7, 0, 0
|0, 24, 0, 0, 0, 14, 22, 0, 0, 0, 0, 4, 8, 9, 3, 0, 13, 11, 2, 5, 0, 21, 0, 0, 0
|4, 0, 0, 0, 13, 0, 0, 0, 17, 0, 22, 2, 0, 0, 0, 0, 0, 0, 0, 0, 0, 15, 12, 0, 25
|17, 23, 0, 0, 16, 2, 0, 0, 0, 5, 0, 15, 19, 0, 0, 10, 0, 0, 12, 0, 0, 0, 22, 0, 0
|0, 15, 2, 0, 22, 9, 0, 0, 6, 0, 0, 18, 0, 0, 0, 0, 4, 21, 16, 0, 0, 5, 0, 0, 24
|10, 6, 0, 3, 0, 23, 0, 22, 11, 0, 21, 5, 25, 12, 4, 14, 0, 19, 15, 20, 18, 9, 13, 0, 2
|11, 12, 25, 19, 0, 4, 0, 18, 0, 0, 0, 24, 0, 0, 16, 22, 23, 0, 0, 0, 0, 0, 0, 0, 6
|0, 21, 16, 20, 0, 18, 0, 13, 10, 0, 23, 0, 12, 11, 1, 15, 0, 7, 0, 14, 0, 4, 17, 0, 0
|0, 0, 0, 22, 5, 0, 0, 11, 0, 0, 0, 25, 2, 4, 8, 19, 3, 20, 21, 12, 24, 23, 0, 0, 10
|0, 1, 9, 0, 3, 25, 0, 8, 0, 4, 0, 7, 10, 13, 19, 0, 0, 23, 18, 0, 5, 14, 16, 11, 21
|25, 0, 15, 0, 8, 0, 0, 0, 0, 0, 6, 0, 20, 0, 0, 4, 0, 0, 11, 0, 0, 22, 2, 0, 13
|0, 11, 0, 0, 4, 0, 0, 0, 22, 19, 17, 3, 0, 0, 21, 2, 24, 13, 0, 16, 0, 20, 0, 7, 0
|21, 18, 0, 4, 0, 3, 6, 0, 0, 0, 25, 14, 0, 0, 22, 5, 17, 0, 0, 0, 0, 11, 0, 0, 0
|0, 16, 0, 9, 0, 0, 15, 0, 7, 14, 0, 10, 3, 23, 0, 21, 8, 0, 0, 18, 0, 0, 6, 25, 0
|0, 0, 0, 11, 6, 0, 0, 0, 0, 0, 4, 0, 0, 0, 0, 0, 19, 2, 10, 0, 0, 24, 15, 20, 0
|23, 0, 0, 2, 24, 8, 0, 0, 9, 0, 7, 0, 1, 0, 15, 0, 0, 12, 22, 0, 4, 17, 21, 13, 16
|0, 13, 0, 0, 0, 0, 0, 24, 4, 0, 12, 0, 0, 0, 0, 6, 11, 16, 0, 0, 7, 10, 3, 18, 0
|0, 22, 0, 0, 0, 5, 11, 6, 0, 0, 0, 17, 14, 8, 7, 16, 0, 0, 0, 0, 20, 3, 9, 4, 0
|0, 0, 18, 13, 0, 0, 0, 19, 0, 8, 20, 0, 5, 0, 6, 9, 0, 0, 0, 0, 0, 0, 10, 0, 0
|0, 0, 24, 6, 21, 0, 0, 0, 0, 0, 0, 0, 4, 16, 11, 13, 0, 0, 0, 0, 17, 0, 8, 0, 23
|0, 5, 4, 1, 2, 0, 0, 0, 0, 13, 18, 0, 15, 0, 0, 0, 20, 17, 7, 0, 6, 0, 0, 0, 22
|7, 0, 0, 16, 17, 0, 10, 0, 0, 25, 0, 0, 0, 0, 0, 11, 0, 14, 23, 0, 0, 19, 0, 0, 18|];