order = 5;
grid = [|11, 0, 0, 13, 3, 0, 17, 0, 18, 0, 0, 0, 10, 0, 9, 23, 0, 0, 7, 0, 0, 16, 19, 0, 0
|0, 22, 0, 24, 1, 2, 5, 0, 19, 0, 0, 0, 0, 8, 0, 0, 10, 0, 0, 0, 0, 0, 17, 23, 0
|0, 0, 6, 0, 2, 0, 15, 23, 0, 0, 25, 11, 0, 5, 19, 17, 14, 0, 0, 0, 0, 0, 0, 20, 22
|0, 0, 16, 0, 23, 0, 20, 0, 24, 0, 4, 0, 15, 0, 22, 0, 19, 12, 8, 0, 2, 0, 18, 0, 0
|0, 15, 7, 0, 9, 4, 25, 12, 10, 0, 0, 2, 0, 17, 24, 0, 0, 0, 0, 11, 0, 8, 0, 13, 1
|14, 18, 24, 2, 0, 0, 0, 16, 21, 17, 0, 0, 0, 0, 23, 12, 15, 5, 19, 0, 0, 0, 0, 1, 8
|10, 9, 0, 0, 19, 0, 0, 3, 0, 0, 2, 0, 0, 18, 0, 21, 0, 7, 0, 0, 0, 0, 16, 0, 0
|0, 25, 0, 15, 7, 0, 6, 19, 23, 0, 20, 8, 0, 0, 0, 24, 0, 17, 1, 0, 9, 0, 0, 0, 2
|6, 8, 20, 12, 0, 0, 1, 0, 13, 0, 24, 10, 0, 0, 15, 0, 16, 0, 9, 0, 4, 21, 7, 0, 17
|0, 0, 22, 0, 17, 8, 0, 5, 15, 0, 0, 9, 1, 0, 6, 0, 0, 10, 0, 25, 0, 12, 20, 24, 19
|0, 2, 0, 0, 0, 17, 0, 0, 3, 11, 0, 0, 0, 0, 0, 0, 0, 0, 0, 7, 8, 22, 0, 0, 0
|3, 1, 0, 22, 4, 15, 0, 0, 0, 20, 14, 0, 0, 0, 0, 0, 17, 16, 24, 2, 18, 0, 0, 21, 5
|0, 16, 18, 0, 21, 6, 12, 1, 14, 22, 3, 0, 8, 0, 20, 9, 13, 0, 4, 10, 0, 0, 2, 0, 23
|24, 19, 0, 0, 6, 0, 0, 0, 5, 23, 0, 0, 0, 0, 1, 0, 21, 8, 0, 18, 0, 14, 25, 4, 0
|20, 11, 0, 0, 0, 25, 0, 0, 2, 0, 7, 0, 6, 4, 10, 19, 0, 0, 0, 14, 3, 1, 9, 16, 13
|12, 0, 17, 0, 13, 5, 0, 21, 0, 0, 15, 22, 2, 1, 0, 16, 24, 0, 10, 9, 19, 0, 0, 0, 7
|0, 0, 0, 4, 18, 0, 9, 24, 0, 0, 10, 0, 0, 0, 7, 13, 0, 2, 0, 17, 11, 0, 1, 0, 21
|0, 0, 0, 8, 24, 23, 3, 6, 0, 19, 16, 0, 0, 0, 18, 1, 0, 21, 14, 4, 13, 17, 15, 5, 10
|15, 10, 0, 14, 25, 20, 7, 0, 17, 1, 9, 21, 0, 13, 0, 0, 0, 0, 3, 6, 0, 0, 0, 0, 0
|1, 0, 11, 16, 20, 13, 18, 10, 4, 0, 17, 3, 0, 0, 5, 8, 7, 19, 0, 0, 22, 25, 6, 0, 0
|23, 14, 2, 25, 16, 24, 22, 13, 12, 0, 11, 0, 0, 10, 3, 0, 1, 15, 21, 8, 0, 19, 5, 0, 0
|0, 6, 13, 0, 0, 21, 23, 14, 1, 9, 5, 0, 7, 24, 17, 0, 3, 0, 0, 0, 0, 2, 8, 11, 4
|21, 0, 0, 17, 12, 7, 8, 0, 0, 0, 19, 0, 22, 0, 25, 4, 0, 0, 0, 16, 10, 15, 0, 3, 18
|9, 5, 8, 0, 22, 0, 4, 0, 25, 0, 1, 0, 0, 0, 2, 0, 6, 24, 0, 0, 16, 0, 21, 0, 14
|0, 4, 0, 11, 10, 0, 2, 17, 6, 16, 8, 0, 21, 0, 0, 0, 0, 0, 25, 5, 0, 0, 12, 0, 24|];