order = 5;
grid = [|25, 7, 0, 18, 0, 0, 11, 10, 5, 0, 0, 19, 0, 0, 9, 0, 22, 15, 0, 0, 0, 0, 3, 13, 0
|0, 0, 4, 0, 3, 22, 0, 0, 0, 0, 0, 0, 0, 0, 0, 20, 11, 0, 21, 6, 0, 0, 0, 0, 5
|2, 0, 16, 12, 0, 0, 4, 0, 0, 0, 0, 0, 20, 0, 0, 0, 24, 5, 19, 23, 0, 0, 7, 0, 0
|0, 15, 11, 23, 21, 0, 8, 0, 0, 0, 0, 0, 0, 24, 10, 16, 25, 9, 0, 0, 0, 4, 22, 12, 0
|17, 0, 5, 9, 1, 0, 0, 0, 24, 0, 0, 0, 16, 0, 4, 0, 7, 12, 18, 3, 20, 0, 0, 0, 2
|10, 9, 0, 22, 15, 11, 21, 3, 8, 0, 13, 16, 18, 0, 23, 7, 14, 24, 0, 0, 0, 25, 2, 5, 0
|0, 0, 0, 7, 16, 0, 22, 0, 20, 5, 0, 24, 0, 0, 0, 9, 12, 0, 11, 0, 0, 0, 14, 0, 4
|24, 20, 0, 25, 0, 2, 0, 0, 0, 0, 0, 0, 0, 5, 0, 17, 3, 0, 0, 0, 8, 0, 11, 0, 12
|0, 0, 2, 0, 6, 24, 0, 0, 0, 16, 12, 21, 0, 19, 3, 0, 0, 0, 0, 25, 23, 0, 20, 9, 0
|5, 14, 1, 17, 0, 0, 0, 12, 13, 0, 0, 0, 0, 0, 0, 2, 16, 0, 0, 4, 0, 3, 0, 18, 0
|0, 0, 0, 0, 0, 0, 3, 0, 1, 18, 0, 0, 0, 23, 7, 0, 17, 0, 2, 16, 25, 0, 9, 0, 6
|4, 0, 0, 21, 0, 5, 0, 16, 0, 0, 18, 0, 0, 0, 1, 0, 8, 6, 0, 0, 22, 11, 12, 0, 0
|0, 25, 3, 16, 24, 8, 20, 22, 0, 15, 14, 6, 19, 0, 0, 0, 0, 0, 12, 0, 0, 0, 0, 0, 1
|13, 0, 10, 0, 0, 0, 0, 0, 0, 0, 0, 12, 0, 3, 16, 15, 0, 18, 5, 1, 7, 0, 0, 0, 0
|19, 1, 0, 11, 18, 0, 0, 9, 0, 0, 5, 0, 2, 0, 22, 0, 0, 0, 0, 0, 0, 16, 13, 17, 15
|18, 0, 0, 4, 0, 0, 0, 20, 17, 25, 0, 0, 0, 16, 8, 6, 13, 0, 0, 12, 1, 5, 0, 14, 3
|3, 0, 25, 14, 0, 0, 0, 6, 16, 0, 23, 0, 5, 0, 0, 0, 4, 0, 24, 0, 0, 0, 0, 0, 0
|0, 24, 21, 10, 0, 0, 0, 0, 3, 0, 11, 0, 1, 14, 0, 19, 5, 0, 0, 0, 4, 0, 6, 8, 0
|0, 0, 22, 0, 9, 7, 24, 0, 0, 8, 19, 3, 0, 0, 25, 0, 23, 0, 0, 0, 0, 0, 0, 21, 10
|0, 0, 0, 5, 12, 0, 13, 19, 21, 0, 17, 0, 0, 0, 24, 3, 18, 14, 25, 9, 0, 0, 16, 0, 23
|0, 12, 0, 0, 10, 0, 0, 0, 0, 24, 0, 17, 4, 0, 21, 0, 20, 0, 0, 22, 0, 19, 0, 15, 8
|0, 21, 0, 0, 0, 6, 5, 0, 19, 13, 0, 0, 0, 2, 18, 0, 0, 25, 0, 0, 0, 0, 1, 7, 0
|0, 0, 0, 0, 11, 0, 12, 0, 0, 0, 20, 0, 8, 0, 15, 24, 19, 0, 0, 5, 14, 18, 0, 25, 9
|0, 0, 17, 0, 25, 0, 18, 0, 15, 20, 0, 14, 24, 22, 0, 11, 0, 0, 3, 10, 0, 23, 4, 2, 13
|0, 18, 0, 3, 0, 0, 17, 0, 0, 0, 0, 23, 12, 25, 0, 4, 0, 0, 0, 13, 0, 0, 0, 0, 20|];