order = 5;
grid = [|13, 0, 0, 0, 25, 0, 0, 0, 0, 0, 14, 22, 0, 0, 0, 0, 0, 24, 4, 1, 0, 0, 0, 10, 16
|0, 9, 10, 22, 0, 21, 0, 1, 0, 7, 17, 0, 0, 16, 0, 25, 2, 0, 0, 8, 0, 0, 19, 0, 0
|3, 17, 2, 7, 15, 20, 0, 9, 0, 0, 0, 10, 0, 4, 1, 0, 0, 0, 0, 14, 8, 0, 0, 25, 0
|5, 0, 0, 4, 19, 22, 17, 25, 0, 15, 11, 0, 0, 0, 23, 6, 3, 0, 9, 10, 0, 0, 0, 21, 0
|6, 0, 14, 16, 0, 3, 11, 0, 0, 10, 0, 9, 0, 0, 0, 0, 18, 19, 13, 0, 0, 23, 0, 22, 24
|11, 0, 8, 0, 14, 0, 3, 20, 2, 0, 21, 23, 0, 0, 0, 0, 12, 0, 17, 24, 0, 7, 13, 0, 15
|0, 13, 0, 3, 0, 0, 21, 6, 8, 24, 0, 4, 0, 0, 11, 18, 0, 23, 0, 19, 22, 0, 0, 0, 0
|0, 4, 0, 0, 21, 9, 0, 17, 0, 16, 8, 24, 0, 7, 25, 3, 0, 13, 0, 0, 2, 0, 6, 19, 0
|0, 16, 9, 10, 0, 25, 0, 23, 0, 4, 3, 0, 20, 0, 15, 21, 0, 8, 0, 0, 5, 0, 0, 0, 0
|12, 0, 0, 0, 0, 10, 22, 5, 15, 0, 13, 6, 16, 1, 14, 2, 0, 0, 7, 4, 20, 0, 0, 8, 0
|1, 0, 21, 20, 10, 16, 0, 8, 0, 17, 0, 0, 0, 24, 0, 0, 0, 6, 18, 23, 7, 25, 0, 0, 2
|0, 0, 0, 8, 22, 12, 0, 14, 0, 0, 1, 0, 10, 20, 17, 11, 13, 0, 0, 15, 18, 0, 0, 0, 0
|16, 2, 0, 0, 9, 11, 13, 22, 1, 18, 23, 25, 5, 19, 6, 0, 0, 0, 24, 0, 0, 15, 0, 3, 0
|0, 0, 0, 0, 3, 23, 0, 0, 0, 21, 0, 0, 4, 0, 0, 0, 16, 14, 0, 0, 13, 0, 17, 0, 0
|0, 0, 24, 0, 0, 15, 2, 0, 0, 20, 0, 0, 0, 0, 9, 0, 4, 0, 22, 25, 11, 0, 1, 23, 0
|0, 8, 0, 0, 16, 13, 0, 0, 23, 6, 2, 17, 0, 14, 0, 0, 7, 18, 12, 9, 10, 0, 0, 20, 0
|0, 22, 0, 17, 0, 0, 20, 21, 0, 0, 4, 11, 25, 0, 0, 14, 8, 0, 0, 13, 0, 2, 15, 16, 0
|0, 19, 25, 21, 0, 4, 0, 0, 10, 12, 0, 0, 0, 0, 0, 0, 0, 0, 0, 0, 17, 6, 0, 0, 0
|4, 0, 23, 2, 1, 0, 0, 0, 9, 14, 6, 0, 15, 0, 0, 0, 0, 21, 0, 17, 0, 8, 12, 0, 5
|0, 20, 13, 0, 6, 17, 0, 0, 0, 0, 10, 8, 0, 21, 0, 0, 1, 0, 0, 3, 0, 0, 0, 0, 7
|0, 0, 0, 19, 0, 0, 0, 4, 0, 9, 0, 1, 0, 25, 0, 0, 6, 0, 0, 11, 24, 14, 5, 0, 10
|0, 0, 0, 9, 5, 14, 10, 0, 0, 0, 7, 16, 0, 13, 4, 0, 20, 15, 0, 22, 0, 3, 23, 0, 0
|0, 0, 20, 0, 0, 7, 0, 0, 11, 0, 0, 5, 0, 6, 0, 0, 0, 9, 10, 21, 0, 0, 8, 15, 25
|17, 0, 6, 0, 13, 2, 0, 0, 24, 0, 15, 14, 0, 10, 21, 4, 25, 7, 0, 0, 1, 0, 20, 11, 0
|10, 0, 0, 24, 0, 0, 16, 15, 21, 0, 0, 12, 0, 11, 8, 0, 0, 0, 23, 0, 0, 13, 0, 0, 9|];