order = 5;
grid = [|19, 7, 16, 10, 5, 0, 0, 0, 4, 0, 0, 0, 0, 0, 0, 0, 0, 2, 21, 14, 0, 0, 8, 0, 0
|3, 4, 0, 0, 0, 0, 15, 0, 0, 14, 20, 0, 0, 0, 0, 0, 5, 0, 0, 1, 0, 12, 7, 19, 13
|15, 0, 0, 25, 23, 0, 2, 0, 1, 17, 9, 0, 16, 0, 0, 0, 0, 0, 12, 0, 18, 10, 0, 0, 5
|22, 0, 0, 18, 0, 0, 24, 7, 0, 0, 0, 14, 19, 15, 0, 10, 16, 4, 0, 6, 0, 9, 0, 21, 0
|9, 0, 0, 20, 0, 21, 16, 10, 0, 0, 3, 18, 0, 0, 7, 23, 13, 0, 0, 0, 2, 4, 0, 0, 0
|0, 19, 0, 2, 0, 0, 0, 8, 24, 0, 18, 21, 0, 14, 0, 15, 7, 0, 5, 0, 3, 0, 10, 20, 0
|0, 0, 0, 6, 20, 23, 18, 14, 9, 3, 0, 0, 15, 5, 2, 0, 19, 0, 16, 24, 0, 0, 0, 12, 0
|0, 25, 3, 0, 0, 15, 20, 21, 0, 22, 16, 6, 0, 0, 0, 8, 1, 9, 4, 17, 19, 0, 5, 14, 0
|0, 0, 0, 0, 15, 1, 10, 0, 0, 0, 11, 0, 0, 0, 0, 2, 21, 20, 0, 0, 0, 0, 0, 0, 0
|4, 10, 0, 5, 0, 16, 12, 17, 0, 7, 19, 24, 9, 3, 0, 14, 23, 0, 0, 0, 21, 13, 2, 25, 0
|0, 0, 0, 17, 0, 0, 8, 0, 0, 0, 4, 23, 0, 20, 1, 12, 0, 5, 0, 0, 0, 0, 0, 15, 0
|0, 18, 0, 0, 14, 0, 0, 2, 23, 0, 0, 12, 17, 22, 5, 0, 25, 15, 0, 19, 11, 8, 3, 0, 0
|0, 0, 5, 0, 2, 0, 25, 15, 0, 16, 0, 19, 0, 0, 0, 0, 0, 0, 0, 0, 0, 0, 0, 9, 0
|8, 0, 0, 15, 3, 12, 19, 0, 17, 0, 0, 11, 2, 18, 0, 7, 0, 22, 13, 0, 0, 0, 25, 24, 21
|0, 23, 7, 0, 0, 0, 0, 3, 0, 13, 24, 9, 8, 25, 15, 6, 0, 21, 2, 0, 12, 18, 16, 10, 19
|21, 0, 0, 23, 0, 0, 14, 0, 0, 0, 0, 5, 0, 8, 18, 19, 12, 13, 17, 0, 4, 3, 9, 0, 22
|0, 0, 9, 3, 0, 22, 1, 24, 13, 0, 6, 0, 0, 16, 19, 0, 0, 0, 8, 0, 0, 2, 12, 0, 0
|13, 15, 0, 8, 0, 25, 23, 0, 3, 2, 21, 0, 4, 0, 0, 0, 0, 14, 0, 0, 0, 0, 20, 5, 16
|0, 2, 0, 0, 22, 9, 7, 18, 0, 0, 23, 0, 0, 0, 24, 0, 0, 16, 25, 3, 0, 0, 15, 11, 8
|10, 0, 6, 16, 12, 19, 17, 4, 0, 0, 15, 0, 0, 0, 0, 20, 0, 0, 23, 0, 14, 21, 13, 7, 0
|0, 0, 0, 0, 0, 0, 0, 0, 0, 6, 0, 2, 1, 0, 0, 0, 11, 0, 0, 0, 13, 16, 18, 0, 14
|0, 0, 23, 13, 18, 17, 0, 0, 0, 1, 0, 0, 11, 7, 0, 16, 0, 0, 14, 0, 15, 0, 0, 0, 0
|5, 9, 0, 0, 0, 0, 11, 0, 15, 24, 0, 16, 10, 0, 14, 0, 8, 0, 0, 0, 1, 0, 19, 0, 0
|20, 16, 0, 0, 10, 14, 0, 22, 0, 4, 12, 0, 0, 0, 0, 1, 0, 0, 15, 2, 9, 0, 0, 0, 7
|6, 8, 14, 0, 0, 0, 0, 0, 16, 18, 22, 0, 0, 24, 0, 0, 10, 19, 0, 0, 0, 0, 0, 0, 12|];