order = 5;
grid = [|12, 13, 0, 6, 1, 0, 23, 0, 19, 0, 7, 9, 0, 20, 0, 4, 5, 24, 21, 0, 0, 0, 18, 0, 14
|8, 0, 4, 0, 0, 0, 20, 0, 0, 0, 0, 25, 23, 0, 0, 0, 6, 12, 0, 18, 0, 0, 7, 0, 0
|22, 10, 0, 20, 0, 0, 0, 0, 0, 9, 11, 0, 0, 18, 6, 0, 0, 0, 0, 0, 12, 13, 0, 21, 0
|0, 0, 7, 23, 2, 10, 1, 13, 0, 18, 0, 21, 0, 24, 0, 0, 17, 15, 22, 0, 3, 0, 0, 16, 0
|25, 15, 16, 0, 24, 0, 0, 0, 21, 0, 0, 17, 0, 0, 0, 0, 0, 0, 0, 0, 0, 4, 1, 0, 22
|0, 19, 20, 5, 25, 0, 10, 7, 0, 13, 0, 0, 0, 15, 0, 11, 0, 0, 6, 0, 16, 0, 9, 4, 0
|0, 0, 0, 13, 17, 0, 0, 0, 0, 12, 0, 16, 0, 7, 4, 0, 0, 0, 0, 0, 6, 0, 0, 1, 0
|6, 0, 0, 2, 0, 11, 0, 19, 0, 0, 0, 0, 1, 12, 20, 17, 10, 0, 0, 25, 0, 0, 8, 24, 21
|0, 0, 0, 4, 0, 0, 18, 1, 0, 15, 0, 8, 19, 10, 24, 0, 0, 0, 3, 9, 0, 0, 0, 2, 0
|10, 24, 18, 0, 16, 20, 0, 5, 0, 2, 0, 0, 0, 0, 0, 12, 0, 0, 23, 0, 0, 0, 0, 0, 0
|0, 20, 0, 3, 0, 7, 15, 0, 0, 21, 9, 0, 11, 4, 0, 6, 2, 0, 0, 1, 5, 0, 0, 13, 0
|21, 0, 0, 0, 14, 0, 0, 18, 1, 0, 0, 0, 0, 0, 0, 0, 0, 0, 0, 24, 0, 0, 0, 0, 0
|0, 0, 2, 19, 0, 9, 0, 16, 0, 23, 1, 14, 0, 0, 12, 10, 0, 17, 0, 22, 8, 0, 0, 0, 7
|15, 0, 1, 0, 8, 2, 19, 0, 11, 22, 21, 24, 0, 0, 0, 5, 20, 0, 0, 0, 0, 0, 25, 14, 0
|11, 25, 23, 22, 0, 0, 3, 20, 0, 0, 0, 0, 8, 5, 0, 7, 15, 0, 9, 19, 17, 12, 4, 6, 0
|0, 0, 25, 0, 0, 0, 2, 0, 0, 19, 0, 6, 0, 0, 0, 3, 22, 0, 16, 14, 20, 0, 0, 0, 0
|17, 1, 0, 14, 4, 16, 0, 11, 10, 0, 3, 0, 0, 0, 0, 0, 21, 0, 20, 0, 0, 0, 2, 12, 0
|0, 12, 0, 0, 6, 13, 0, 0, 15, 0, 0, 18, 10, 23, 0, 0, 0, 0, 17, 0, 11, 14, 0, 22, 16
|0, 0, 0, 0, 0, 0, 8, 0, 5, 0, 0, 0, 12, 14, 0, 0, 13, 0, 0, 0, 24, 9, 0, 0, 0
|20, 0, 0, 0, 0, 0, 22, 25, 0, 6, 0, 5, 17, 16, 0, 24, 19, 7, 12, 15, 0, 0, 3, 0, 0
|1, 0, 0, 15, 20, 0, 0, 0, 16, 7, 0, 0, 0, 0, 5, 0, 3, 14, 13, 12, 18, 25, 0, 0, 17
|0, 0, 24, 8, 0, 0, 0, 2, 0, 0, 0, 12, 14, 21, 0, 0, 0, 22, 10, 17, 0, 3, 20, 23, 5
|0, 17, 19, 12, 0, 3, 13, 0, 23, 5, 0, 7, 0, 2, 0, 21, 0, 11, 25, 20, 1, 0, 0, 0, 0
|5, 23, 0, 25, 3, 0, 0, 15, 0, 1, 0, 10, 9, 0, 0, 19, 16, 0, 2, 4, 13, 22, 12, 0, 0
|16, 0, 13, 21, 0, 0, 12, 0, 0, 10, 0, 0, 18, 0, 0, 23, 7, 6, 24, 0, 0, 0, 0, 0, 0|];