order = 5;
grid = [|11, 15, 0, 0, 0, 0, 0, 12, 25, 0, 4, 0, 17, 0, 14, 3, 0, 0, 6, 0, 10, 0, 0, 23, 2
|0, 17, 1, 23, 0, 18, 4, 0, 0, 10, 0, 0, 0, 0, 0, 0, 0, 13, 0, 7, 0, 16, 0, 14, 20
|0, 14, 0, 0, 19, 0, 16, 0, 15, 0, 6, 1, 0, 8, 13, 10, 0, 0, 11, 20, 7, 0, 0, 0, 5
|0, 7, 21, 0, 10, 0, 3, 0, 2, 0, 0, 19, 5, 16, 9, 22, 0, 23, 17, 0, 13, 24, 15, 25, 6
|0, 13, 0, 0, 25, 20, 23, 0, 5, 0, 0, 10, 11, 2, 7, 0, 14, 15, 0, 0, 21, 3, 17, 0, 1
|0, 0, 0, 0, 0, 0, 17, 10, 14, 0, 7, 16, 3, 4, 0, 1, 13, 0, 25, 0, 0, 0, 0, 15, 0
|19, 10, 0, 17, 0, 0, 0, 13, 4, 23, 0, 0, 0, 0, 12, 0, 0, 8, 0, 9, 3, 0, 0, 7, 0
|23, 0, 0, 0, 11, 24, 0, 3, 0, 0, 13, 20, 1, 9, 0, 0, 4, 0, 0, 10, 0, 17, 5, 21, 0
|13, 2, 0, 1, 3, 0, 22, 9, 7, 0, 18, 17, 0, 10, 24, 14, 0, 21, 0, 11, 12, 19, 4, 0, 0
|0, 8, 12, 0, 7, 0, 2, 0, 0, 19, 0, 15, 25, 6, 5, 17, 22, 0, 23, 0, 1, 0, 10, 0, 24
|10, 0, 0, 15, 6, 19, 0, 2, 17, 4, 0, 14, 13, 5, 0, 7, 0, 11, 0, 0, 23, 0, 25, 0, 8
|0, 4, 0, 14, 0, 8, 25, 0, 0, 11, 0, 18, 2, 1, 16, 0, 0, 0, 0, 0, 15, 22, 0, 12, 0
|0, 0, 0, 0, 22, 0, 0, 0, 0, 0, 17, 0, 0, 23, 11, 4, 0, 10, 2, 1, 5, 0, 0, 0, 3
|0, 5, 8, 2, 0, 3, 0, 14, 0, 0, 19, 0, 7, 20, 0, 0, 23, 0, 13, 12, 0, 9, 24, 0, 0
|0, 11, 23, 0, 0, 6, 13, 0, 0, 0, 15, 4, 0, 0, 0, 20, 17, 25, 24, 0, 2, 10, 18, 0, 16
|7, 12, 0, 24, 0, 22, 14, 0, 13, 0, 1, 0, 16, 17, 20, 0, 0, 18, 3, 8, 19, 0, 23, 9, 0
|22, 6, 0, 5, 0, 10, 21, 16, 11, 24, 0, 13, 0, 0, 0, 23, 0, 19, 12, 17, 0, 0, 0, 0, 25
|15, 0, 11, 16, 9, 23, 18, 0, 0, 0, 0, 12, 0, 19, 3, 6, 10, 24, 4, 0, 22, 0, 2, 5, 0
|14, 0, 3, 13, 0, 25, 19, 0, 1, 5, 0, 11, 0, 22, 10, 16, 0, 9, 0, 0, 4, 0, 21, 0, 17
|0, 0, 0, 19, 0, 12, 9, 0, 0, 7, 0, 0, 0, 0, 4, 0, 0, 0, 0, 0, 0, 0, 0, 24, 10
|0, 20, 25, 0, 0, 2, 5, 21, 23, 0, 8, 9, 0, 0, 6, 18, 19, 3, 0, 22, 24, 15, 13, 0, 0
|0, 0, 2, 3, 17, 0, 0, 0, 0, 12, 16, 0, 0, 0, 0, 0, 0, 20, 0, 0, 14, 0, 0, 10, 9
|24, 16, 0, 11, 0, 0, 0, 18, 0, 22, 0, 3, 0, 14, 0, 0, 12, 0, 1, 0, 25, 5, 6, 20, 19
|0, 0, 0, 22, 0, 14, 6, 0, 0, 17, 0, 23, 20, 24, 0, 21, 0, 4, 0, 0, 0, 0, 8, 3, 12
|0, 18, 19, 12, 0, 15, 20, 0, 0, 0, 5, 22, 0, 25, 0, 11, 0, 0, 14, 0, 0, 4, 1, 2, 0|];