order = 5;
grid = [|0, 16, 2, 0, 0, 8, 10, 21, 3, 25, 17, 22, 4, 0, 13, 23, 0, 0, 11, 0, 0, 0, 18, 0, 0
|0, 4, 24, 12, 11, 0, 9, 22, 5, 0, 23, 21, 2, 0, 25, 3, 16, 1, 0, 0, 0, 0, 0, 6, 19
|10, 17, 0, 9, 0, 0, 0, 20, 12, 23, 19, 0, 5, 6, 0, 0, 25, 8, 0, 7, 22, 14, 3, 0, 0
|8, 7, 0, 25, 0, 2, 0, 19, 11, 0, 0, 0, 0, 3, 0, 0, 0, 0, 0, 22, 0, 0, 17, 0, 15
|0, 0, 23, 0, 0, 15, 0, 4, 0, 6, 7, 0, 8, 1, 0, 12, 0, 0, 0, 0, 2, 0, 0, 0, 16
|0, 0, 25, 0, 23, 5, 19, 0, 2, 21, 0, 17, 0, 0, 3, 0, 0, 0, 10, 0, 0, 9, 0, 14, 6
|7, 21, 0, 0, 24, 4, 13, 0, 22, 20, 0, 10, 0, 0, 1, 9, 0, 0, 6, 3, 0, 0, 15, 23, 0
|0, 0, 19, 3, 0, 24, 1, 23, 0, 18, 0, 25, 11, 22, 12, 7, 5, 21, 0, 20, 0, 17, 0, 0, 10
|0, 0, 0, 0, 0, 9, 12, 25, 6, 0, 13, 0, 0, 7, 8, 24, 0, 0, 19, 0, 0, 4, 5, 0, 3
|1, 11, 12, 5, 0, 0, 7, 14, 0, 0, 0, 0, 15, 9, 2, 0, 0, 0, 0, 0, 21, 0, 24, 0, 0
|4, 19, 18, 0, 0, 14, 0, 0, 13, 24, 0, 8, 12, 23, 0, 17, 20, 6, 0, 21, 3, 7, 0, 10, 1
|0, 8, 0, 1, 0, 0, 0, 0, 0, 2, 0, 4, 0, 0, 6, 0, 10, 3, 9, 0, 18, 15, 0, 20, 0
|0, 0, 13, 0, 0, 25, 8, 0, 20, 19, 15, 0, 0, 10, 0, 0, 0, 0, 0, 11, 0, 22, 0, 12, 2
|5, 20, 0, 0, 2, 6, 0, 12, 0, 10, 0, 0, 0, 0, 0, 0, 0, 0, 0, 19, 4, 16, 25, 21, 17
|21, 6, 15, 10, 3, 0, 0, 16, 1, 4, 0, 0, 0, 0, 19, 25, 0, 2, 0, 14, 13, 24, 9, 0, 0
|2, 13, 14, 6, 12, 21, 0, 0, 0, 7, 5, 16, 0, 0, 15, 20, 1, 9, 0, 25, 17, 3, 0, 18, 0
|18, 15, 0, 4, 0, 0, 0, 0, 0, 13, 3, 14, 17, 25, 0, 19, 21, 0, 0, 0, 0, 0, 0, 8, 0
|0, 5, 0, 0, 9, 16, 11, 0, 0, 14, 12, 0, 6, 4, 20, 10, 2, 22, 17, 18, 0, 19, 1, 15, 7
|0, 22, 20, 8, 0, 10, 17, 0, 0, 15, 0, 0, 18, 19, 0, 11, 0, 14, 5, 16, 0, 12, 0, 13, 0
|0, 0, 7, 11, 19, 20, 0, 0, 18, 22, 24, 0, 1, 8, 0, 6, 15, 12, 13, 0, 14, 21, 0, 16, 9
|11, 2, 0, 0, 20, 0, 0, 0, 0, 5, 8, 0, 25, 0, 18, 21, 0, 0, 1, 13, 7, 6, 16, 0, 24
|19, 0, 16, 0, 22, 0, 0, 2, 0, 9, 10, 20, 0, 15, 0, 14, 24, 0, 25, 0, 0, 8, 4, 3, 5
|6, 12, 4, 0, 8, 0, 0, 0, 0, 0, 16, 0, 23, 0, 11, 15, 7, 20, 0, 10, 0, 2, 0, 9, 14
|25, 0, 21, 0, 0, 11, 14, 13, 0, 0, 9, 19, 22, 2, 24, 0, 0, 0, 0, 5, 0, 0, 12, 0, 0
|0, 10, 0, 17, 0, 0, 20, 7, 24, 0, 1, 6, 0, 21, 4, 16, 0, 0, 0, 0, 0, 18, 22, 25, 0|];