order = 5;
grid = [|0, 8, 0, 21, 0, 7, 6, 0, 0, 14, 23, 13, 0, 0, 0, 0, 24, 18, 15, 0, 0, 0, 10, 0, 12
|0, 0, 0, 5, 0, 10, 25, 0, 15, 0, 2, 20, 0, 0, 18, 16, 21, 23, 13, 0, 14, 1, 0, 6, 9
|0, 0, 0, 6, 0, 0, 0, 8, 1, 0, 0, 0, 25, 17, 0, 14, 22, 9, 12, 4, 20, 21, 24, 18, 0
|0, 0, 0, 10, 0, 0, 0, 0, 0, 0, 8, 12, 0, 0, 0, 17, 6, 3, 2, 7, 23, 0, 19, 0, 0
|15, 13, 12, 23, 1, 0, 0, 0, 17, 4, 0, 0, 24, 11, 14, 0, 0, 0, 20, 19, 25, 0, 16, 0, 2
|0, 0, 0, 0, 0, 0, 10, 0, 0, 0, 0, 2, 23, 0, 12, 20, 7, 0, 5, 22, 0, 15, 0, 0, 24
|0, 0, 15, 1, 17, 21, 3, 0, 0, 9, 13, 24, 0, 0, 0, 10, 14, 0, 16, 0, 0, 0, 0, 23, 0
|21, 24, 0, 0, 0, 8, 18, 17, 6, 15, 0, 16, 0, 0, 25, 0, 0, 13, 19, 0, 0, 5, 0, 11, 3
|0, 0, 0, 8, 0, 20, 19, 23, 16, 24, 0, 3, 4, 0, 9, 0, 0, 21, 1, 6, 12, 10, 0, 13, 0
|10, 0, 25, 19, 5, 2, 7, 0, 4, 0, 0, 0, 15, 0, 0, 11, 3, 0, 23, 24, 0, 0, 0, 8, 1
|0, 0, 0, 0, 0, 22, 0, 0, 14, 0, 0, 15, 6, 0, 0, 0, 9, 20, 0, 0, 3, 0, 0, 0, 18
|0, 0, 9, 0, 0, 15, 5, 2, 0, 0, 16, 14, 0, 0, 8, 13, 12, 11, 18, 0, 4, 23, 0, 0, 22
|13, 15, 10, 18, 8, 0, 0, 0, 0, 16, 0, 0, 0, 0, 0, 0, 0, 0, 7, 0, 0, 0, 0, 14, 21
|0, 14, 0, 0, 4, 0, 0, 3, 10, 0, 0, 17, 0, 9, 0, 21, 19, 0, 0, 0, 0, 7, 13, 12, 0
|0, 22, 21, 0, 3, 0, 17, 7, 8, 0, 12, 0, 0, 0, 0, 0, 15, 0, 24, 0, 0, 9, 0, 0, 0
|8, 0, 0, 0, 13, 19, 0, 16, 0, 10, 21, 7, 2, 0, 17, 22, 23, 0, 0, 0, 0, 11, 1, 0, 5
|0, 5, 17, 0, 11, 0, 22, 0, 0, 0, 0, 10, 20, 0, 23, 2, 0, 24, 0, 21, 7, 0, 0, 4, 16
|18, 0, 0, 24, 15, 0, 20, 0, 0, 11, 0, 0, 12, 4, 0, 0, 10, 19, 25, 0, 22, 0, 23, 0, 14
|0, 21, 0, 16, 10, 0, 0, 6, 5, 2, 3, 0, 0, 0, 0, 0, 0, 0, 0, 0, 13, 0, 0, 0, 0
|20, 0, 6, 0, 0, 0, 0, 0, 7, 0, 0, 25, 13, 24, 22, 1, 0, 5, 0, 15, 0, 0, 0, 10, 17
|0, 10, 13, 0, 0, 0, 4, 0, 0, 0, 9, 0, 16, 0, 0, 18, 0, 14, 21, 5, 24, 0, 7, 15, 0
|0, 0, 0, 0, 0, 13, 14, 10, 19, 0, 15, 8, 0, 0, 24, 9, 20, 0, 3, 25, 0, 18, 2, 0, 0
|1, 0, 20, 14, 0, 5, 8, 15, 0, 0, 0, 0, 0, 25, 10, 0, 2, 22, 6, 13, 17, 0, 3, 0, 11
|24, 2, 0, 4, 0, 11, 16, 0, 0, 0, 22, 0, 0, 13, 7, 8, 1, 15, 10, 23, 21, 0, 12, 19, 6
|0, 6, 0, 0, 21, 0, 0, 9, 0, 0, 11, 0, 14, 20, 3, 0, 17, 0, 4, 0, 10, 13, 0, 25, 0|];