order = 5;
grid = [|0, 0, 11, 0, 19, 14, 13, 0, 1, 0, 15, 0, 18, 8, 6, 20, 0, 3, 23, 0, 25, 7, 16, 10, 0
|0, 0, 0, 0, 14, 0, 16, 22, 0, 3, 17, 4, 0, 0, 11, 0, 0, 0, 0, 13, 0, 15, 0, 0, 6
|0, 23, 3, 0, 6, 0, 0, 5, 0, 18, 0, 0, 10, 7, 21, 11, 0, 25, 22, 0, 0, 20, 17, 19, 14
|7, 0, 0, 9, 0, 21, 0, 0, 0, 0, 22, 0, 25, 3, 19, 0, 10, 0, 0, 0, 12, 5, 4, 0, 0
|0, 0, 0, 17, 0, 0, 2, 0, 10, 25, 0, 0, 13, 0, 14, 0, 0, 0, 0, 0, 0, 24, 22, 0, 21
|0, 0, 5, 20, 12, 0, 0, 0, 25, 0, 0, 0, 21, 0, 0, 0, 0, 16, 0, 19, 9, 14, 0, 0, 0
|13, 0, 19, 15, 21, 3, 0, 0, 9, 0, 0, 25, 0, 0, 17, 2, 0, 0, 7, 1, 4, 0, 0, 0, 16
|0, 22, 0, 0, 0, 11, 0, 0, 13, 0, 0, 7, 0, 0, 0, 25, 20, 0, 24, 3, 0, 0, 0, 17, 0
|0, 0, 0, 0, 0, 16, 8, 0, 6, 0, 0, 0, 20, 0, 0, 5, 0, 12, 0, 14, 0, 0, 0, 0, 24
|0, 3, 10, 6, 11, 17, 5, 21, 0, 0, 0, 14, 0, 19, 0, 13, 0, 15, 0, 0, 20, 0, 0, 7, 25
|0, 11, 21, 1, 17, 0, 0, 13, 14, 0, 0, 19, 24, 2, 0, 0, 0, 8, 0, 23, 0, 0, 0, 16, 0
|0, 12, 4, 7, 13, 0, 0, 8, 21, 0, 0, 0, 11, 22, 15, 3, 0, 24, 19, 0, 0, 23, 0, 0, 5
|0, 0, 14, 24, 0, 0, 0, 0, 0, 7, 10, 0, 0, 21, 18, 0, 17, 22, 0, 5, 11, 25, 6, 9, 0
|0, 0, 8, 19, 0, 0, 0, 3, 2, 22, 7, 0, 0, 4, 25, 0, 9, 0, 0, 0, 1, 0, 21, 14, 0
|22, 0, 0, 5, 0, 6, 0, 0, 0, 19, 20, 0, 0, 0, 9, 0, 0, 21, 0, 0, 24, 0, 0, 4, 8
|1, 14, 18, 0, 24, 0, 7, 2, 0, 23, 0, 0, 3, 16, 0, 19, 6, 9, 11, 0, 17, 0, 0, 21, 0
|19, 0, 13, 0, 0, 12, 0, 0, 0, 1, 6, 10, 9, 17, 0, 0, 0, 0, 0, 0, 8, 0, 0, 25, 0
|0, 0, 0, 0, 0, 0, 0, 0, 0, 0, 21, 2, 14, 0, 0, 0, 13, 0, 0, 24, 15, 11, 0, 5, 0
|0, 9, 0, 2, 0, 0, 0, 10, 0, 0, 0, 11, 15, 1, 0, 17, 0, 0, 8, 4, 19, 0, 14, 0, 13
|0, 21, 16, 23, 15, 13, 0, 0, 0, 11, 19, 5, 4, 18, 0, 0, 3, 0, 14, 25, 10, 6, 0, 0, 20
|0, 15, 0, 16, 0, 0, 3, 24, 5, 0, 18, 12, 2, 0, 0, 0, 0, 0, 0, 20, 14, 17, 0, 0, 11
|12, 10, 7, 0, 22, 18, 0, 0, 0, 0, 0, 20, 19, 0, 0, 0, 0, 0, 3, 0, 23, 0, 1, 0, 2
|0, 19, 20, 18, 0, 2, 0, 0, 0, 9, 0, 3, 6, 0, 0, 0, 12, 0, 0, 8, 16, 0, 0, 0, 0
|24, 0, 2, 0, 0, 10, 11, 0, 12, 20, 8, 21, 0, 9, 1, 23, 14, 5, 16, 0, 6, 0, 18, 0, 0
|11, 8, 23, 3, 9, 15, 1, 0, 0, 0, 4, 0, 17, 0, 16, 0, 24, 0, 6, 0, 5, 0, 0, 0, 0|];