order = 5;
grid = [|0, 11, 0, 10, 25, 1, 4, 13, 5, 2, 16, 23, 0, 0, 0, 8, 3, 9, 17, 0, 20, 6, 0, 22, 0
|0, 0, 0, 22, 0, 0, 0, 16, 24, 0, 0, 0, 0, 0, 0, 0, 0, 25, 0, 5, 0, 0, 18, 0, 3
|23, 5, 0, 0, 12, 15, 3, 6, 14, 20, 0, 0, 7, 0, 9, 0, 2, 0, 18, 0, 0, 4, 8, 0, 0
|0, 24, 0, 18, 3, 0, 0, 7, 0, 19, 2, 0, 6, 4, 21, 0, 0, 20, 0, 13, 25, 17, 5, 0, 1
|0, 17, 14, 7, 0, 0, 25, 9, 0, 8, 11, 0, 5, 3, 20, 6, 15, 1, 0, 23, 0, 0, 0, 12, 21
|19, 10, 1, 4, 0, 18, 23, 8, 0, 7, 13, 12, 17, 16, 2, 0, 25, 0, 0, 3, 0, 15, 0, 0, 0
|0, 0, 17, 0, 0, 2, 0, 0, 20, 13, 0, 0, 0, 0, 6, 0, 0, 0, 8, 11, 0, 0, 10, 7, 0
|0, 25, 0, 23, 8, 9, 24, 0, 16, 21, 0, 15, 0, 5, 0, 7, 0, 0, 0, 0, 0, 22, 6, 3, 17
|0, 15, 13, 0, 14, 0, 11, 0, 3, 0, 0, 7, 0, 0, 23, 0, 6, 0, 9, 0, 18, 0, 16, 0, 8
|5, 21, 0, 0, 0, 0, 0, 0, 0, 0, 0, 0, 18, 0, 0, 0, 17, 0, 15, 0, 13, 0, 0, 4, 20
|0, 0, 0, 0, 20, 0, 0, 0, 2, 9, 25, 16, 23, 0, 0, 13, 0, 17, 10, 22, 21, 0, 12, 24, 0
|0, 2, 18, 0, 9, 20, 0, 0, 0, 0, 0, 0, 0, 13, 0, 0, 1, 0, 3, 0, 0, 10, 23, 6, 15
|8, 12, 3, 16, 23, 0, 0, 0, 21, 18, 7, 19, 9, 0, 24, 0, 0, 0, 0, 0, 0, 1, 14, 0, 0
|15, 0, 0, 13, 1, 24, 19, 25, 17, 0, 0, 6, 0, 10, 5, 0, 14, 12, 2, 8, 3, 0, 0, 20, 11
|0, 19, 10, 0, 0, 0, 0, 11, 0, 15, 3, 17, 0, 0, 1, 9, 23, 7, 0, 0, 0, 18, 13, 5, 2
|24, 9, 5, 0, 0, 21, 17, 22, 0, 25, 12, 0, 8, 6, 10, 18, 0, 14, 0, 7, 15, 0, 0, 11, 0
|7, 14, 0, 20, 15, 6, 13, 18, 1, 0, 0, 0, 16, 21, 22, 17, 24, 0, 11, 0, 4, 8, 3, 10, 0
|10, 16, 0, 0, 0, 19, 0, 0, 0, 14, 0, 3, 1, 24, 4, 5, 0, 0, 22, 20, 23, 0, 25, 0, 0
|0, 0, 22, 0, 19, 0, 7, 24, 15, 0, 0, 18, 0, 23, 17, 0, 0, 10, 0, 0, 0, 0, 0, 14, 16
|0, 18, 0, 0, 2, 0, 5, 20, 0, 0, 19, 13, 0, 7, 0, 1, 21, 0, 0, 4, 0, 24, 22, 0, 0
|0, 13, 0, 17, 0, 0, 0, 15, 0, 24, 10, 4, 3, 0, 16, 21, 0, 0, 0, 0, 1, 14, 0, 0, 0
|1, 0, 24, 15, 0, 14, 9, 21, 0, 11, 0, 5, 2, 0, 0, 25, 22, 0, 0, 0, 7, 13, 17, 0, 4
|4, 0, 12, 11, 0, 5, 18, 23, 0, 6, 0, 0, 14, 0, 7, 0, 0, 0, 0, 1, 0, 3, 2, 19, 25
|3, 22, 9, 25, 0, 7, 2, 0, 0, 0, 23, 0, 0, 0, 8, 12, 0, 0, 5, 14, 24, 0, 0, 0, 6
|0, 23, 6, 19, 5, 4, 10, 0, 8, 0, 0, 1, 24, 15, 0, 0, 0, 11, 0, 17, 0, 0, 0, 18, 0|];