order = 5;
grid = [|0, 16, 0, 13, 0, 0, 0, 25, 0, 0, 0, 19, 0, 0, 2, 18, 5, 0, 11, 0, 8, 20, 0, 7, 0
|0, 14, 11, 0, 2, 0, 6, 17, 0, 9, 16, 0, 3, 0, 7, 13, 20, 19, 0, 0, 25, 12, 0, 23, 15
|0, 0, 7, 23, 0, 0, 0, 0, 0, 0, 15, 0, 0, 0, 0, 0, 3, 16, 12, 22, 2, 5, 0, 9, 19
|0, 0, 5, 24, 0, 15, 11, 1, 7, 12, 22, 0, 18, 0, 0, 0, 0, 0, 0, 0, 10, 0, 0, 6, 0
|22, 12, 0, 25, 15, 20, 0, 0, 23, 0, 0, 0, 0, 5, 0, 4, 10, 0, 0, 0, 1, 0, 0, 3, 13
|7, 24, 0, 12, 0, 9, 15, 6, 0, 20, 0, 21, 0, 0, 0, 0, 25, 13, 22, 4, 23, 0, 5, 0, 0
|13, 4, 9, 0, 23, 18, 2, 11, 12, 17, 7, 15, 5, 24, 0, 0, 0, 3, 19, 21, 0, 0, 0, 0, 1
|0, 0, 15, 10, 25, 0, 21, 0, 0, 0, 0, 20, 0, 0, 6, 0, 0, 0, 23, 0, 19, 0, 4, 22, 3
|0, 0, 0, 3, 8, 23, 0, 0, 22, 0, 2, 4, 0, 0, 12, 0, 24, 18, 0, 0, 17, 7, 9, 0, 0
|0, 17, 2, 20, 6, 0, 0, 0, 5, 0, 3, 0, 9, 0, 22, 7, 15, 0, 10, 0, 0, 0, 0, 8, 24
|0, 0, 0, 0, 21, 12, 20, 4, 9, 15, 25, 3, 0, 0, 5, 0, 1, 0, 6, 0, 24, 16, 0, 0, 10
|0, 0, 0, 16, 0, 25, 0, 24, 0, 0, 9, 0, 0, 0, 1, 0, 0, 4, 0, 0, 21, 8, 0, 14, 0
|14, 25, 12, 5, 0, 2, 0, 0, 16, 21, 23, 7, 11, 10, 24, 0, 0, 0, 17, 8, 20, 0, 0, 1, 0
|0, 0, 24, 1, 0, 22, 0, 0, 14, 0, 0, 8, 0, 20, 0, 5, 0, 0, 13, 0, 0, 0, 0, 2, 0
|0, 7, 23, 2, 0, 0, 3, 0, 1, 18, 6, 0, 0, 19, 0, 0, 0, 22, 20, 25, 0, 0, 13, 12, 9
|12, 0, 0, 0, 18, 0, 23, 0, 11, 0, 13, 0, 0, 0, 25, 0, 14, 0, 0, 1, 0, 10, 20, 19, 5
|6, 0, 0, 9, 0, 21, 0, 20, 2, 13, 17, 0, 0, 0, 0, 11, 0, 25, 0, 19, 0, 0, 0, 0, 12
|0, 23, 13, 0, 1, 0, 0, 0, 17, 22, 10, 0, 0, 21, 0, 6, 0, 20, 0, 9, 15, 0, 0, 0, 0
|2, 5, 0, 0, 0, 0, 14, 9, 0, 1, 8, 0, 0, 0, 18, 0, 0, 0, 0, 13, 0, 0, 0, 0, 7
|0, 0, 14, 0, 0, 6, 0, 0, 0, 0, 0, 1, 0, 11, 20, 0, 21, 0, 0, 0, 0, 0, 0, 0, 18
|0, 0, 0, 0, 0, 4, 24, 0, 0, 11, 5, 0, 0, 0, 17, 0, 13, 0, 15, 0, 6, 9, 0, 0, 0
|8, 0, 18, 0, 5, 17, 0, 22, 15, 7, 0, 23, 0, 6, 0, 0, 9, 11, 21, 20, 0, 0, 1, 25, 2
|0, 9, 0, 0, 13, 19, 5, 12, 0, 23, 21, 16, 0, 1, 15, 0, 0, 0, 24, 0, 11, 14, 3, 0, 0
|24, 0, 0, 6, 0, 1, 0, 2, 0, 0, 0, 0, 0, 7, 0, 0, 4, 0, 25, 17, 0, 0, 0, 5, 0
|0, 2, 21, 11, 19, 8, 25, 0, 0, 16, 0, 0, 0, 0, 0, 1, 23, 5, 7, 0, 0, 22, 0, 24, 17|];