order = 5;
grid = [|7, 0, 3, 2, 0, 0, 16, 10, 0, 18, 5, 0, 0, 0, 23, 8, 22, 0, 13, 0, 0, 6, 21, 0, 0
|6, 8, 0, 0, 25, 17, 19, 0, 0, 0, 0, 0, 15, 13, 4, 23, 21, 20, 0, 12, 3, 22, 16, 0, 7
|0, 17, 0, 21, 0, 7, 3, 0, 0, 2, 19, 18, 0, 0, 0, 4, 0, 24, 11, 10, 0, 5, 0, 0, 20
|0, 0, 11, 22, 0, 8, 4, 0, 0, 6, 3, 20, 0, 16, 0, 25, 5, 9, 0, 0, 24, 23, 12, 0, 14
|0, 5, 0, 0, 14, 0, 12, 0, 0, 23, 22, 2, 7, 0, 21, 16, 1, 15, 0, 3, 19, 0, 10, 11, 0
|14, 11, 13, 5, 0, 0, 18, 7, 25, 0, 4, 0, 0, 0, 0, 0, 0, 1, 0, 0, 2, 12, 0, 19, 0
|0, 24, 0, 4, 3, 22, 6, 8, 0, 0, 1, 13, 0, 11, 12, 21, 9, 7, 0, 0, 17, 0, 0, 0, 23
|22, 0, 15, 19, 0, 4, 0, 0, 0, 0, 0, 6, 14, 10, 0, 0, 13, 0, 12, 0, 0, 0, 8, 21, 0
|25, 20, 7, 0, 0, 0, 5, 0, 12, 14, 16, 15, 0, 18, 2, 0, 0, 11, 0, 4, 0, 1, 13, 6, 0
|0, 12, 8, 1, 17, 0, 21, 13, 0, 11, 9, 7, 19, 0, 22, 0, 14, 3, 20, 0, 25, 18, 0, 10, 0
|0, 0, 24, 25, 13, 0, 7, 16, 0, 19, 17, 0, 12, 0, 20, 0, 0, 0, 0, 14, 21, 11, 9, 23, 0
|5, 0, 0, 15, 0, 0, 9, 0, 11, 3, 0, 0, 0, 0, 0, 0, 2, 18, 24, 0, 0, 0, 0, 16, 0
|0, 7, 21, 0, 0, 0, 14, 0, 0, 24, 0, 0, 25, 19, 11, 20, 10, 4, 0, 0, 0, 8, 3, 1, 12
|0, 0, 0, 20, 0, 23, 25, 17, 0, 0, 0, 24, 18, 14, 16, 0, 0, 12, 7, 1, 0, 19, 6, 15, 0
|0, 0, 12, 0, 0, 21, 0, 18, 15, 0, 0, 0, 0, 9, 0, 0, 0, 16, 0, 23, 20, 24, 0, 0, 5
|0, 4, 0, 0, 5, 1, 0, 11, 18, 20, 0, 16, 0, 0, 6, 0, 23, 0, 0, 0, 0, 13, 25, 8, 0
|8, 13, 18, 17, 0, 9, 24, 3, 6, 0, 25, 21, 22, 2, 5, 0, 0, 0, 0, 16, 0, 0, 0, 7, 10
|0, 23, 6, 14, 12, 0, 0, 21, 8, 0, 11, 0, 0, 20, 15, 22, 7, 0, 0, 18, 0, 9, 2, 3, 19
|11, 21, 25, 0, 0, 0, 23, 0, 0, 0, 0, 0, 9, 7, 0, 0, 24, 8, 4, 13, 12, 0, 22, 5, 6
|0, 0, 9, 0, 20, 2, 0, 4, 0, 0, 0, 19, 13, 8, 0, 6, 12, 5, 0, 15, 0, 0, 17, 0, 0
|21, 22, 23, 0, 10, 14, 15, 19, 0, 0, 0, 0, 6, 4, 7, 9, 0, 0, 0, 0, 8, 0, 0, 20, 0
|3, 6, 17, 11, 0, 0, 0, 20, 13, 22, 8, 9, 5, 12, 0, 7, 4, 0, 15, 2, 0, 0, 0, 25, 1
|20, 0, 0, 13, 0, 18, 8, 0, 23, 0, 0, 14, 11, 0, 0, 1, 0, 25, 0, 0, 0, 2, 15, 12, 21
|0, 14, 1, 0, 0, 25, 0, 5, 24, 4, 0, 23, 0, 0, 0, 12, 16, 0, 0, 0, 0, 3, 7, 0, 13
|15, 25, 0, 8, 0, 12, 2, 0, 17, 0, 13, 3, 0, 1, 24, 14, 18, 6, 0, 0, 5, 0, 0, 0, 0|];