order = 5;
grid = [|0, 0, 0, 6, 0, 13, 14, 0, 0, 0, 0, 0, 25, 16, 0, 18, 0, 0, 21, 0, 5, 7, 0, 0, 17
|0, 0, 0, 19, 8, 0, 0, 5, 0, 0, 14, 22, 2, 0, 0, 0, 0, 7, 0, 24, 1, 0, 0, 0, 0
|0, 0, 0, 12, 0, 0, 0, 2, 0, 0, 7, 17, 0, 0, 0, 0, 0, 0, 22, 0, 0, 0, 0, 0, 0
|13, 0, 0, 0, 4, 19, 7, 0, 0, 22, 1, 0, 0, 11, 0, 0, 0, 0, 2, 0, 12, 0, 0, 0, 0
|23, 0, 0, 0, 0, 0, 17, 0, 0, 0, 0, 0, 15, 0, 0, 16, 0, 11, 0, 0, 3, 0, 0, 0, 0
|0, 0, 1, 0, 0, 0, 0, 0, 0, 0, 0, 0, 0, 0, 0, 4, 0, 6, 0, 0, 0, 0, 14, 0, 0
|0, 0, 3, 0, 0, 0, 0, 21, 18, 2, 0, 4, 0, 0, 0, 0, 20, 0, 0, 0, 0, 0, 0, 0, 0
|0, 0, 0, 0, 20, 0, 25, 0, 0, 19, 0, 0, 0, 0, 0, 0, 0, 0, 0, 0, 9, 0, 0, 0, 0
|0, 0, 0, 4, 25, 12, 0, 0, 1, 0, 0, 0, 0, 0, 20, 0, 23, 0, 0, 0, 0, 21, 5, 7, 0
|0, 12, 0, 0, 0, 0, 0, 0, 0, 0, 0, 0, 24, 0, 0, 0, 1, 19, 0, 0, 13, 25, 0, 0, 0
|1, 0, 0, 0, 0, 21, 0, 0, 0, 17, 0, 2, 0, 0, 0, 0, 0, 0, 0, 0, 0, 0, 0, 0, 0
|0, 0, 0, 5, 0, 11, 22, 0, 0, 0, 0, 0, 0, 12, 6, 19, 0, 0, 0, 8, 0, 0, 0, 0, 0
|0, 0, 8, 0, 0, 0, 9, 3, 0, 14, 5, 0, 0, 0, 0, 0, 11, 0, 0, 18, 0, 0, 0, 0, 1
|0, 23, 7, 25, 9, 0, 0, 0, 0, 0, 0, 0, 0, 0, 13, 0, 0, 0, 17, 4, 14, 5, 3, 0, 0
|21, 0, 0, 0, 0, 0, 0, 0, 0, 0, 0, 0, 0, 15, 0, 0, 0, 0, 1, 0, 0, 0, 0, 0, 0
|9, 0, 0, 0, 0, 8, 0, 0, 0, 6, 0, 0, 0, 0, 0, 0, 0, 0, 3, 2, 24, 0, 0, 0, 5
|24, 0, 0, 10, 0, 23, 0, 22, 0, 0, 19, 0, 11, 0, 0, 8, 0, 0, 0, 0, 0, 13, 0, 2, 0
|0, 0, 17, 2, 0, 3, 1, 0, 0, 12, 0, 0, 0, 0, 14, 0, 22, 16, 0, 0, 0, 8, 0, 0, 0
|0, 0, 0, 0, 0, 0, 15, 24, 0, 4, 0, 0, 0, 21, 2, 0, 0, 0, 0, 0, 0, 0, 0, 0, 0
|0, 0, 5, 0, 0, 0, 0, 9, 0, 18, 6, 0, 0, 7, 22, 0, 0, 0, 0, 0, 0, 12, 0, 0, 0
|5, 0, 0, 0, 2, 25, 3, 0, 24, 16, 0, 0, 0, 10, 0, 0, 0, 0, 0, 13, 17, 18, 0, 0, 0
|0, 0, 0, 24, 21, 0, 11, 0, 0, 0, 0, 0, 0, 0, 0, 0, 0, 18, 0, 0, 0, 4, 19, 0, 0
|4, 0, 25, 0, 16, 2, 12, 0, 0, 0, 17, 18, 0, 0, 24, 14, 0, 0, 0, 0, 0, 10, 11, 5, 0
|0, 0, 0, 0, 0, 0, 0, 0, 8, 15, 0, 13, 4, 3, 0, 0, 0, 0, 16, 0, 0, 23, 2, 0, 0
|17, 15, 0, 3, 18, 0, 0, 0, 0, 0, 0, 7, 9, 0, 0, 0, 2, 24, 0, 22, 0, 0, 0, 0, 0|];