order = 5;
grid = [|3, 19, 24, 0, 13, 0, 0, 0, 0, 23, 0, 0, 5, 0, 0, 0, 0, 0, 0, 0, 0, 0, 0, 0, 0
|1, 0, 0, 7, 0, 4, 12, 0, 3, 20, 0, 0, 0, 18, 0, 6, 0, 0, 24, 9, 10, 0, 15, 0, 0
|0, 20, 0, 0, 0, 0, 0, 0, 0, 19, 0, 0, 0, 0, 0, 0, 18, 16, 7, 3, 14, 23, 0, 0, 25
|0, 0, 23, 0, 0, 14, 17, 0, 16, 9, 19, 0, 0, 25, 0, 21, 0, 1, 15, 2, 0, 0, 0, 0, 0
|0, 10, 0, 14, 0, 0, 0, 0, 0, 0, 17, 0, 0, 0, 0, 0, 0, 0, 0, 0, 0, 0, 0, 0, 0
|0, 0, 0, 0, 9, 0, 15, 0, 0, 2, 0, 10, 11, 0, 0, 0, 0, 24, 0, 0, 23, 6, 4, 0, 0
|18, 24, 4, 0, 0, 0, 0, 3, 0, 0, 0, 0, 0, 0, 15, 0, 0, 0, 0, 0, 0, 0, 0, 16, 0
|2, 22, 0, 0, 0, 0, 0, 0, 0, 0, 20, 12, 0, 6, 0, 11, 0, 19, 0, 0, 0, 10, 0, 0, 15
|21, 0, 0, 0, 0, 6, 1, 0, 0, 0, 0, 5, 0, 0, 0, 0, 0, 0, 0, 0, 0, 12, 8, 0, 0
|0, 0, 0, 0, 0, 0, 0, 0, 4, 0, 2, 0, 0, 0, 24, 0, 0, 9, 0, 10, 0, 0, 18, 0, 0
|0, 0, 0, 0, 0, 0, 0, 20, 0, 6, 0, 15, 19, 0, 0, 0, 0, 0, 0, 0, 0, 0, 10, 0, 14
|0, 17, 0, 24, 22, 0, 0, 0, 21, 0, 0, 0, 0, 12, 0, 8, 10, 0, 19, 0, 16, 0, 11, 0, 1
|11, 0, 0, 0, 16, 0, 19, 10, 17, 0, 8, 0, 0, 0, 0, 0, 4, 0, 0, 14, 0, 0, 0, 0, 0
|0, 0, 0, 0, 6, 0, 0, 0, 0, 0, 0, 0, 23, 0, 0, 0, 2, 5, 0, 17, 0, 0, 0, 15, 21
|0, 0, 0, 0, 10, 7, 0, 0, 0, 0, 0, 0, 0, 0, 0, 0, 6, 21, 0, 23, 0, 0, 22, 0, 2
|14, 11, 0, 0, 3, 25, 0, 0, 9, 0, 0, 19, 0, 0, 6, 0, 0, 0, 8, 0, 2, 0, 0, 0, 24
|0, 0, 0, 21, 0, 0, 20, 15, 0, 0, 1, 2, 0, 5, 0, 19, 0, 0, 0, 0, 0, 0, 0, 10, 0
|0, 6, 0, 15, 5, 0, 21, 0, 0, 22, 0, 0, 0, 16, 0, 0, 14, 0, 18, 0, 0, 11, 19, 0, 0
|0, 0, 19, 0, 2, 0, 24, 14, 0, 18, 0, 0, 10, 0, 21, 1, 0, 0, 0, 0, 4, 5, 7, 0, 12
|0, 0, 0, 0, 0, 19, 0, 0, 0, 0, 0, 0, 0, 0, 0, 0, 0, 0, 0, 0, 0, 0, 0, 0, 0
|0, 9, 0, 0, 0, 0, 0, 0, 0, 1, 0, 24, 0, 3, 14, 12, 0, 11, 0, 19, 0, 0, 25, 21, 17
|0, 0, 0, 23, 14, 20, 0, 8, 0, 0, 4, 0, 0, 0, 0, 25, 0, 0, 0, 0, 0, 24, 9, 0, 0
|24, 0, 0, 0, 0, 0, 0, 0, 0, 0, 12, 0, 2, 19, 0, 0, 17, 7, 10, 0, 0, 0, 23, 0, 0
|0, 16, 8, 0, 0, 0, 0, 0, 0, 0, 0, 11, 15, 13, 0, 0, 9, 0, 0, 1, 6, 0, 3, 22, 0
|0, 0, 25, 18, 0, 10, 0, 0, 0, 0, 9, 7, 0, 0, 0, 23, 0, 0, 0, 0, 11, 0, 0, 0, 0|];