order = 5;
grid = [|0, 0, 0, 14, 0, 0, 9, 15, 0, 0, 0, 0, 0, 0, 11, 0, 4, 23, 18, 0, 1, 12, 0, 0, 0
|0, 0, 24, 9, 0, 20, 0, 0, 0, 0, 0, 0, 8, 0, 0, 0, 0, 22, 0, 0, 0, 15, 0, 0, 3
|2, 0, 0, 0, 23, 0, 6, 8, 3, 1, 0, 0, 0, 14, 0, 0, 0, 19, 0, 0, 0, 17, 0, 21, 0
|0, 17, 18, 0, 0, 22, 2, 0, 0, 0, 23, 0, 0, 0, 1, 0, 0, 8, 0, 0, 0, 0, 6, 4, 0
|0, 0, 0, 0, 0, 0, 0, 0, 18, 0, 0, 16, 0, 0, 0, 0, 0, 0, 0, 0, 0, 0, 0, 24, 0
|19, 8, 0, 0, 0, 0, 22, 1, 24, 0, 0, 0, 0, 0, 0, 14, 0, 0, 0, 0, 16, 2, 0, 0, 0
|0, 0, 9, 0, 0, 6, 20, 0, 0, 0, 18, 0, 7, 0, 0, 0, 16, 10, 11, 0, 0, 0, 0, 0, 1
|0, 0, 23, 0, 0, 0, 0, 0, 4, 0, 21, 0, 0, 0, 20, 17, 0, 0, 0, 0, 14, 25, 0, 8, 5
|5, 0, 25, 1, 20, 0, 0, 0, 0, 14, 0, 24, 0, 0, 0, 8, 0, 0, 0, 4, 0, 0, 21, 9, 0
|11, 7, 0, 0, 3, 0, 0, 0, 9, 0, 0, 0, 13, 0, 0, 0, 0, 0, 0, 2, 4, 6, 0, 0, 0
|0, 0, 0, 0, 0, 0, 0, 0, 19, 12, 16, 0, 0, 0, 0, 0, 0, 4, 0, 0, 0, 0, 11, 0, 21
|0, 0, 0, 0, 0, 0, 0, 4, 0, 0, 0, 12, 0, 0, 2, 0, 0, 0, 0, 0, 0, 0, 17, 10, 0
|0, 12, 0, 0, 0, 0, 0, 9, 0, 22, 0, 0, 0, 0, 0, 18, 19, 0, 0, 0, 23, 0, 0, 0, 15
|0, 0, 0, 0, 0, 25, 0, 0, 0, 0, 0, 18, 0, 0, 0, 0, 23, 0, 0, 0, 3, 0, 0, 12, 9
|0, 0, 0, 0, 0, 0, 0, 0, 0, 13, 0, 0, 0, 24, 7, 15, 12, 0, 0, 0, 5, 0, 0, 0, 25
|22, 0, 0, 0, 0, 0, 0, 10, 7, 0, 0, 0, 14, 0, 23, 0, 0, 0, 0, 0, 0, 0, 24, 0, 12
|0, 18, 0, 12, 0, 0, 19, 0, 0, 0, 0, 0, 0, 0, 0, 0, 0, 0, 0, 0, 0, 0, 0, 0, 2
|16, 0, 0, 15, 9, 0, 0, 0, 0, 0, 25, 7, 6, 5, 0, 0, 0, 0, 0, 0, 17, 0, 23, 0, 0
|23, 0, 0, 0, 0, 0, 0, 13, 0, 0, 2, 0, 0, 0, 0, 0, 0, 16, 0, 0, 0, 0, 8, 0, 7
|0, 0, 13, 0, 19, 2, 0, 0, 0, 20, 0, 0, 0, 4, 0, 0, 25, 0, 8, 0, 0, 14, 0, 0, 0
|0, 0, 8, 0, 25, 11, 0, 0, 0, 9, 0, 20, 0, 12, 0, 0, 10, 0, 3, 19, 0, 0, 4, 0, 0
|0, 0, 0, 0, 0, 0, 17, 0, 0, 0, 0, 0, 2, 0, 0, 0, 18, 24, 4, 0, 0, 0, 12, 0, 0
|13, 0, 0, 0, 0, 19, 4, 0, 0, 21, 0, 25, 11, 16, 0, 0, 0, 0, 0, 0, 0, 18, 0, 0, 0
|9, 0, 19, 4, 2, 0, 8, 0, 22, 0, 0, 14, 0, 0, 0, 0, 0, 0, 0, 0, 0, 0, 0, 0, 0
|14, 0, 0, 0, 6, 0, 0, 0, 0, 0, 0, 0, 0, 1, 0, 13, 0, 0, 0, 0, 0, 9, 16, 0, 0|];