order = 5;
grid = [|7, 5, 0, 0, 0, 20, 0, 13, 24, 0, 6, 0, 10, 1, 0, 0, 25, 0, 0, 0, 14, 3, 0, 0, 16
|0, 0, 0, 0, 16, 11, 0, 21, 0, 0, 0, 0, 0, 0, 0, 24, 0, 6, 3, 0, 0, 0, 1, 0, 0
|10, 0, 0, 0, 0, 0, 0, 5, 4, 7, 0, 0, 0, 0, 16, 14, 0, 0, 0, 0, 0, 0, 0, 0, 18
|0, 0, 0, 23, 9, 12, 0, 0, 0, 0, 0, 0, 0, 0, 0, 0, 0, 11, 0, 0, 0, 8, 0, 13, 0
|0, 0, 0, 0, 0, 0, 0, 3, 8, 14, 0, 0, 0, 22, 18, 13, 0, 0, 0, 12, 24, 11, 0, 23, 0
|0, 24, 0, 8, 20, 0, 0, 22, 9, 1, 0, 0, 0, 0, 0, 0, 0, 0, 12, 0, 0, 23, 6, 21, 0
|0, 21, 0, 0, 1, 15, 3, 2, 0, 24, 0, 0, 0, 0, 23, 0, 0, 0, 0, 0, 0, 0, 7, 0, 11
|23, 0, 14, 0, 0, 0, 0, 0, 0, 0, 0, 1, 0, 0, 0, 0, 0, 8, 0, 0, 22, 0, 0, 0, 20
|0, 2, 0, 0, 0, 0, 0, 19, 0, 0, 0, 12, 0, 14, 6, 3, 0, 21, 0, 0, 0, 0, 13, 0, 0
|0, 22, 0, 6, 0, 0, 13, 0, 0, 21, 0, 0, 0, 0, 2, 0, 15, 23, 17, 25, 1, 12, 3, 0, 0
|0, 17, 0, 0, 15, 0, 0, 0, 0, 0, 0, 0, 0, 0, 0, 0, 21, 0, 0, 0, 0, 0, 0, 0, 22
|0, 0, 0, 0, 0, 0, 0, 0, 0, 20, 0, 0, 0, 0, 0, 0, 0, 0, 0, 0, 0, 0, 0, 0, 0
|0, 23, 8, 0, 0, 2, 25, 0, 0, 0, 0, 4, 0, 0, 21, 0, 0, 0, 22, 0, 9, 10, 14, 0, 0
|0, 0, 0, 0, 25, 0, 0, 16, 0, 17, 14, 24, 19, 0, 0, 0, 0, 10, 0, 15, 5, 0, 20, 0, 0
|0, 0, 0, 0, 0, 14, 0, 10, 18, 0, 25, 0, 0, 0, 0, 0, 0, 0, 20, 0, 0, 0, 11, 0, 0
|6, 0, 0, 19, 0, 24, 0, 18, 0, 11, 0, 14, 23, 0, 9, 0, 12, 25, 0, 0, 0, 0, 0, 0, 0
|22, 10, 0, 16, 0, 0, 9, 12, 0, 2, 0, 0, 0, 0, 0, 0, 14, 0, 0, 0, 0, 15, 0, 0, 0
|17, 0, 0, 4, 3, 13, 19, 0, 0, 6, 0, 25, 0, 0, 0, 5, 0, 22, 0, 0, 0, 0, 0, 8, 0
|0, 11, 0, 7, 0, 5, 0, 0, 0, 3, 0, 0, 0, 0, 24, 0, 0, 18, 0, 0, 0, 0, 0, 1, 0
|0, 0, 20, 2, 0, 0, 0, 0, 7, 0, 0, 5, 3, 0, 0, 21, 0, 0, 0, 4, 0, 0, 0, 0, 0
|0, 15, 0, 17, 0, 0, 0, 11, 0, 0, 0, 0, 2, 0, 0, 0, 0, 0, 0, 0, 0, 0, 8, 0, 1
|11, 16, 0, 0, 0, 19, 15, 0, 6, 13, 0, 0, 0, 0, 0, 0, 0, 0, 0, 17, 0, 0, 22, 0, 3
|0, 0, 2, 0, 0, 1, 8, 0, 21, 0, 0, 6, 0, 25, 15, 0, 3, 0, 0, 0, 0, 0, 0, 0, 0
|0, 19, 3, 0, 0, 23, 12, 17, 2, 22, 0, 9, 16, 0, 7, 0, 0, 0, 0, 0, 0, 0, 0, 0, 13
|0, 0, 0, 0, 0, 16, 0, 0, 0, 0, 0, 18, 0, 0, 0, 0, 0, 0, 0, 0, 0, 0, 0, 2, 0|];