order = 5;
grid = [|0, 0, 0, 0, 0, 0, 0, 17, 0, 0, 0, 0, 16, 0, 8, 0, 15, 19, 0, 23, 0, 22, 13, 21, 0
|19, 0, 0, 8, 0, 0, 0, 0, 0, 0, 0, 0, 17, 0, 0, 0, 22, 0, 0, 0, 0, 16, 23, 0, 0
|5, 0, 16, 0, 0, 6, 0, 0, 0, 0, 0, 0, 10, 0, 0, 0, 13, 0, 25, 0, 0, 0, 14, 0, 0
|0, 22, 7, 0, 0, 0, 0, 0, 0, 0, 23, 0, 0, 0, 0, 11, 0, 16, 17, 0, 0, 0, 0, 0, 0
|0, 0, 0, 0, 0, 0, 10, 0, 0, 0, 22, 0, 0, 25, 0, 0, 9, 24, 0, 0, 0, 0, 0, 0, 0
|0, 0, 0, 0, 21, 0, 22, 0, 7, 0, 0, 0, 0, 18, 0, 0, 24, 0, 0, 17, 0, 9, 12, 0, 0
|0, 0, 0, 0, 0, 1, 0, 0, 0, 0, 0, 0, 21, 0, 0, 0, 20, 13, 0, 25, 11, 0, 0, 0, 14
|0, 0, 9, 0, 0, 0, 0, 11, 6, 0, 0, 19, 25, 4, 7, 0, 23, 21, 18, 0, 0, 0, 0, 0, 20
|0, 0, 0, 25, 0, 0, 0, 0, 24, 0, 0, 0, 1, 0, 20, 0, 0, 14, 0, 22, 3, 0, 0, 0, 0
|0, 0, 0, 0, 0, 0, 0, 0, 0, 0, 8, 12, 14, 22, 0, 0, 0, 7, 19, 0, 0, 0, 0, 0, 0
|0, 0, 0, 0, 0, 22, 0, 0, 0, 0, 0, 0, 3, 0, 4, 0, 0, 25, 0, 0, 0, 19, 18, 0, 24
|0, 16, 6, 0, 24, 0, 18, 0, 17, 0, 0, 8, 0, 0, 0, 7, 0, 0, 2, 5, 0, 0, 0, 0, 0
|0, 25, 0, 0, 0, 0, 0, 0, 0, 0, 0, 14, 0, 0, 21, 0, 0, 22, 0, 19, 0, 0, 0, 5, 0
|4, 0, 0, 0, 11, 14, 0, 0, 0, 0, 0, 0, 0, 0, 16, 0, 0, 9, 15, 20, 22, 0, 0, 3, 25
|0, 0, 0, 0, 0, 0, 0, 3, 25, 0, 7, 20, 0, 0, 0, 0, 0, 11, 10, 13, 14, 0, 0, 0, 0
|0, 0, 19, 0, 0, 0, 0, 12, 0, 0, 0, 21, 20, 13, 0, 0, 7, 17, 0, 0, 0, 3, 0, 0, 22
|18, 15, 0, 0, 0, 7, 4, 0, 20, 0, 25, 10, 5, 0, 0, 0, 0, 0, 23, 21, 0, 0, 0, 14, 0
|11, 0, 0, 12, 0, 0, 0, 0, 16, 23, 24, 0, 9, 0, 0, 14, 2, 0, 13, 0, 0, 0, 0, 20, 7
|0, 0, 0, 22, 0, 0, 15, 0, 14, 0, 0, 0, 0, 0, 0, 0, 0, 5, 24, 0, 23, 0, 0, 0, 18
|0, 17, 0, 16, 0, 0, 0, 0, 21, 0, 0, 0, 0, 0, 0, 22, 10, 18, 0, 12, 0, 0, 0, 0, 0
|0, 0, 0, 18, 0, 0, 0, 0, 0, 0, 0, 0, 0, 12, 0, 0, 0, 0, 0, 8, 5, 0, 0, 0, 0
|15, 0, 0, 0, 0, 12, 0, 0, 4, 0, 0, 0, 0, 16, 3, 0, 0, 0, 0, 0, 0, 1, 0, 7, 0
|0, 2, 0, 0, 0, 0, 0, 20, 1, 0, 0, 0, 7, 21, 0, 0, 0, 0, 0, 18, 8, 0, 0, 0, 0
|17, 21, 0, 0, 1, 15, 5, 14, 10, 0, 0, 0, 24, 0, 0, 0, 0, 12, 0, 7, 18, 0, 0, 2, 0
|0, 23, 25, 0, 0, 0, 0, 0, 0, 18, 0, 0, 0, 0, 0, 9, 0, 0, 22, 0, 19, 0, 3, 24, 0|];