order = 5;
grid = [|9, 0, 0, 0, 0, 0, 0, 0, 0, 0, 0, 0, 5, 16, 4, 25, 0, 0, 0, 0, 0, 0, 10, 17, 0
|0, 0, 0, 5, 0, 0, 25, 0, 15, 0, 0, 0, 0, 0, 0, 0, 21, 0, 0, 0, 0, 1, 0, 6, 0
|0, 0, 2, 0, 0, 3, 0, 8, 1, 0, 0, 0, 0, 0, 0, 0, 22, 0, 0, 0, 0, 0, 0, 0, 0
|0, 0, 0, 0, 18, 0, 0, 0, 0, 22, 0, 0, 0, 21, 0, 0, 0, 0, 2, 7, 0, 0, 19, 5, 0
|0, 0, 0, 0, 0, 0, 0, 0, 0, 4, 0, 22, 0, 0, 0, 0, 8, 0, 0, 19, 25, 3, 0, 0, 0
|0, 3, 0, 13, 6, 25, 0, 0, 0, 1, 0, 2, 0, 18, 0, 0, 0, 0, 0, 0, 0, 0, 0, 0, 24
|0, 20, 15, 0, 0, 0, 0, 0, 22, 0, 0, 24, 0, 0, 0, 0, 0, 0, 0, 0, 0, 0, 0, 0, 19
|21, 0, 0, 0, 0, 0, 0, 0, 0, 15, 0, 0, 0, 0, 0, 0, 0, 0, 19, 0, 0, 0, 0, 11, 0
|0, 0, 0, 0, 0, 0, 19, 23, 16, 0, 0, 0, 0, 0, 0, 0, 0, 0, 1, 0, 0, 0, 22, 0, 0
|0, 0, 0, 0, 0, 2, 0, 0, 0, 0, 0, 21, 0, 0, 0, 0, 0, 0, 23, 0, 16, 0, 0, 0, 0
|0, 1, 5, 12, 0, 0, 13, 11, 0, 0, 7, 0, 6, 0, 21, 0, 9, 0, 0, 0, 0, 0, 0, 0, 0
|0, 0, 0, 7, 0, 0, 5, 0, 0, 0, 16, 0, 0, 0, 0, 0, 12, 11, 18, 0, 4, 0, 0, 0, 22
|0, 0, 0, 0, 0, 0, 0, 0, 9, 16, 0, 0, 0, 0, 0, 0, 0, 0, 0, 0, 0, 0, 11, 0, 0
|0, 0, 23, 11, 0, 6, 0, 0, 0, 20, 0, 0, 0, 9, 0, 0, 0, 1, 22, 2, 0, 0, 0, 12, 8
|0, 0, 0, 20, 3, 18, 0, 0, 8, 0, 12, 4, 0, 0, 13, 0, 0, 0, 0, 14, 5, 0, 6, 1, 10
|8, 0, 4, 0, 0, 0, 15, 0, 0, 0, 21, 0, 0, 0, 0, 0, 0, 0, 0, 0, 0, 0, 0, 0, 5
|0, 0, 0, 0, 0, 0, 0, 25, 0, 0, 0, 0, 0, 0, 0, 2, 0, 24, 0, 0, 7, 0, 15, 4, 0
|0, 0, 0, 0, 15, 17, 0, 0, 13, 0, 5, 0, 0, 4, 16, 3, 0, 0, 0, 0, 22, 0, 0, 0, 0
|23, 0, 22, 0, 0, 0, 1, 6, 5, 0, 3, 11, 8, 0, 19, 0, 0, 0, 0, 0, 0, 0, 0, 0, 0
|20, 0, 0, 0, 0, 0, 9, 0, 0, 3, 0, 25, 0, 0, 0, 0, 0, 0, 11, 15, 0, 0, 21, 10, 0
|0, 10, 13, 0, 0, 0, 0, 0, 23, 0, 0, 0, 0, 0, 0, 0, 0, 0, 0, 0, 0, 0, 7, 15, 0
|0, 0, 0, 0, 7, 0, 14, 10, 0, 0, 0, 0, 21, 23, 0, 0, 0, 12, 0, 0, 0, 0, 0, 22, 4
|0, 0, 0, 0, 0, 0, 0, 0, 21, 0, 0, 0, 0, 25, 0, 24, 0, 22, 6, 0, 0, 0, 0, 0, 0
|24, 2, 18, 4, 9, 0, 0, 20, 3, 0, 0, 5, 0, 0, 7, 8, 0, 0, 0, 0, 0, 0, 0, 0, 6
|22, 0, 0, 0, 0, 24, 2, 0, 12, 18, 0, 0, 0, 0, 0, 0, 0, 0, 0, 16, 0, 0, 0, 0, 23|];