order = 5;
grid = [|0, 6, 0, 0, 0, 0, 0, 19, 25, 0, 0, 4, 0, 14, 3, 0, 0, 0, 22, 0, 0, 0, 21, 8, 12
|0, 0, 0, 0, 20, 0, 5, 0, 0, 0, 0, 25, 0, 0, 0, 0, 3, 11, 0, 15, 0, 0, 1, 0, 0
|0, 15, 10, 0, 17, 0, 9, 18, 22, 0, 0, 0, 0, 0, 12, 20, 13, 6, 0, 0, 23, 0, 25, 0, 4
|25, 12, 0, 2, 0, 23, 0, 0, 20, 0, 0, 0, 0, 0, 0, 0, 0, 4, 8, 10, 0, 24, 15, 0, 0
|11, 0, 0, 0, 0, 0, 0, 0, 4, 0, 2, 22, 0, 0, 0, 1, 21, 0, 0, 0, 13, 3, 10, 19, 0
|2, 0, 0, 25, 0, 22, 23, 0, 0, 0, 8, 15, 0, 11, 19, 0, 0, 0, 0, 0, 0, 0, 0, 0, 0
|23, 0, 0, 9, 0, 19, 17, 24, 0, 0, 0, 0, 0, 0, 20, 0, 0, 22, 5, 0, 15, 0, 12, 0, 21
|0, 0, 0, 0, 12, 4, 0, 0, 10, 0, 24, 21, 2, 0, 0, 0, 0, 19, 0, 8, 0, 1, 0, 0, 0
|15, 0, 6, 0, 0, 25, 7, 0, 0, 0, 0, 0, 0, 10, 0, 11, 0, 2, 14, 0, 0, 0, 0, 0, 0
|0, 0, 0, 5, 0, 0, 0, 2, 0, 0, 0, 0, 0, 0, 0, 0, 24, 13, 0, 4, 19, 0, 20, 3, 10
|18, 0, 0, 0, 0, 20, 0, 9, 0, 0, 0, 6, 0, 0, 0, 0, 0, 0, 24, 0, 0, 0, 0, 16, 19
|0, 2, 0, 0, 3, 0, 19, 0, 0, 0, 0, 0, 23, 0, 0, 0, 0, 0, 0, 5, 0, 0, 4, 0, 0
|0, 0, 9, 17, 0, 0, 0, 0, 24, 0, 11, 0, 0, 2, 0, 0, 0, 0, 0, 7, 0, 0, 3, 21, 0
|24, 7, 0, 13, 0, 0, 0, 0, 0, 0, 0, 20, 0, 22, 10, 8, 0, 1, 4, 0, 0, 0, 18, 0, 0
|12, 0, 22, 15, 1, 14, 13, 0, 0, 2, 0, 5, 0, 0, 0, 0, 16, 9, 11, 25, 20, 10, 0, 24, 0
|3, 0, 0, 0, 0, 0, 1, 0, 2, 0, 0, 13, 0, 21, 0, 4, 0, 5, 7, 12, 0, 0, 0, 18, 0
|0, 24, 17, 20, 0, 0, 14, 5, 0, 0, 0, 0, 0, 3, 0, 0, 23, 0, 0, 0, 0, 0, 0, 0, 0
|0, 0, 0, 12, 0, 18, 0, 0, 0, 0, 0, 0, 0, 0, 0, 0, 6, 0, 1, 0, 0, 0, 0, 0, 20
|0, 0, 0, 0, 7, 9, 24, 23, 0, 0, 0, 0, 0, 0, 0, 0, 17, 0, 0, 0, 0, 0, 0, 0, 0
|0, 0, 2, 0, 0, 0, 0, 0, 0, 0, 7, 0, 20, 5, 0, 25, 0, 0, 9, 0, 17, 0, 0, 0, 14
|0, 11, 0, 0, 0, 0, 0, 0, 0, 0, 0, 10, 4, 0, 0, 0, 0, 0, 0, 0, 0, 0, 13, 0, 0
|13, 0, 0, 0, 0, 0, 8, 0, 0, 0, 0, 0, 18, 0, 11, 0, 0, 21, 0, 16, 0, 6, 0, 15, 0
|0, 0, 0, 0, 0, 16, 0, 13, 14, 0, 0, 19, 0, 0, 0, 0, 0, 0, 0, 0, 0, 17, 7, 20, 0
|0, 0, 0, 0, 0, 0, 0, 0, 0, 7, 22, 0, 0, 0, 0, 0, 10, 0, 12, 0, 0, 0, 16, 0, 0
|0, 23, 0, 0, 16, 0, 0, 0, 3, 0, 0, 2, 0, 0, 0, 0, 0, 0, 0, 0, 0, 0, 0, 5, 1|];