order = 5;
grid = [|0, 21, 12, 11, 25, 0, 0, 2, 18, 0, 0, 0, 7, 15, 3, 0, 5, 24, 0, 0, 0, 0, 9, 10, 0
|0, 0, 10, 22, 0, 0, 0, 0, 0, 0, 0, 0, 6, 16, 12, 25, 2, 0, 15, 8, 3, 0, 19, 0, 0
|0, 0, 2, 0, 0, 20, 0, 0, 5, 0, 0, 0, 19, 0, 1, 0, 23, 0, 21, 14, 0, 12, 18, 0, 11
|5, 24, 0, 0, 19, 22, 17, 0, 0, 0, 11, 13, 8, 0, 0, 0, 0, 0, 0, 10, 0, 0, 7, 0, 20
|0, 1, 14, 0, 0, 3, 0, 0, 0, 0, 0, 0, 21, 0, 20, 0, 0, 19, 0, 0, 0, 0, 2, 0, 0
|11, 6, 8, 0, 0, 18, 0, 0, 2, 0, 21, 23, 22, 0, 0, 1, 0, 0, 0, 24, 0, 0, 0, 0, 0
|0, 0, 0, 3, 0, 0, 21, 0, 0, 0, 5, 0, 2, 0, 0, 0, 0, 23, 0, 0, 0, 0, 0, 0, 0
|0, 4, 5, 1, 0, 0, 0, 0, 12, 16, 8, 0, 18, 0, 0, 0, 0, 0, 0, 0, 0, 10, 0, 0, 0
|2, 0, 0, 0, 0, 0, 7, 0, 0, 0, 0, 0, 20, 0, 0, 21, 0, 0, 14, 0, 0, 0, 0, 0, 1
|0, 18, 19, 23, 0, 0, 0, 5, 0, 11, 0, 0, 0, 0, 14, 0, 0, 0, 0, 0, 0, 0, 3, 0, 0
|0, 0, 0, 0, 10, 16, 4, 8, 0, 0, 0, 0, 0, 0, 0, 0, 0, 0, 0, 23, 0, 25, 0, 14, 0
|0, 0, 0, 0, 0, 0, 0, 0, 0, 0, 0, 0, 0, 0, 17, 11, 0, 0, 0, 15, 0, 24, 0, 6, 19
|0, 0, 0, 0, 9, 0, 0, 0, 0, 0, 0, 25, 0, 0, 0, 0, 0, 0, 24, 12, 0, 0, 0, 3, 0
|0, 0, 0, 0, 0, 23, 0, 0, 0, 0, 0, 0, 4, 0, 0, 0, 0, 0, 0, 0, 0, 0, 0, 9, 0
|0, 0, 0, 0, 0, 15, 0, 10, 6, 0, 0, 7, 0, 3, 0, 0, 0, 0, 0, 0, 11, 5, 0, 0, 0
|0, 0, 0, 0, 0, 13, 0, 0, 0, 0, 0, 0, 0, 0, 0, 22, 7, 0, 12, 0, 10, 0, 21, 20, 0
|0, 22, 7, 17, 12, 5, 0, 0, 0, 1, 0, 0, 0, 0, 0, 14, 0, 0, 0, 13, 23, 0, 0, 0, 0
|0, 0, 0, 21, 0, 0, 0, 3, 10, 0, 0, 0, 0, 23, 0, 0, 0, 0, 0, 0, 0, 0, 14, 1, 22
|0, 10, 0, 0, 0, 24, 0, 0, 0, 0, 6, 0, 15, 22, 0, 0, 11, 0, 0, 0, 0, 0, 12, 0, 0
|0, 20, 0, 0, 6, 0, 15, 16, 0, 0, 0, 8, 0, 21, 19, 23, 0, 0, 25, 0, 0, 0, 0, 0, 0
|21, 0, 0, 19, 0, 0, 0, 0, 0, 0, 18, 0, 23, 25, 22, 13, 6, 0, 0, 11, 0, 0, 0, 0, 0
|8, 11, 0, 9, 0, 14, 0, 0, 0, 0, 7, 0, 24, 13, 0, 12, 20, 0, 19, 22, 21, 3, 23, 0, 0
|0, 0, 20, 18, 4, 0, 1, 0, 0, 22, 19, 0, 0, 0, 0, 0, 17, 9, 0, 21, 0, 0, 8, 15, 0
|17, 0, 0, 0, 0, 0, 0, 0, 0, 0, 15, 14, 0, 10, 21, 4, 0, 0, 0, 16, 1, 22, 20, 0, 0
|10, 0, 22, 24, 2, 0, 0, 0, 0, 0, 0, 0, 0, 0, 0, 5, 14, 0, 23, 18, 0, 13, 0, 7, 0|];