order = 5;
grid = [|0, 7, 24, 0, 0, 0, 11, 0, 0, 0, 0, 19, 14, 0, 0, 8, 22, 0, 0, 0, 0, 0, 3, 0, 0
|0, 0, 4, 19, 0, 0, 0, 0, 0, 0, 15, 0, 0, 0, 17, 20, 0, 1, 21, 6, 0, 14, 0, 24, 0
|0, 0, 16, 0, 22, 0, 0, 0, 9, 0, 0, 0, 20, 21, 0, 0, 24, 5, 19, 0, 0, 0, 0, 11, 0
|0, 15, 0, 0, 21, 0, 0, 0, 0, 3, 1, 0, 0, 0, 10, 16, 0, 9, 0, 0, 0, 4, 22, 0, 19
|17, 0, 0, 0, 0, 0, 15, 0, 0, 0, 0, 0, 16, 0, 0, 0, 0, 0, 18, 0, 0, 0, 0, 0, 0
|0, 0, 12, 0, 0, 0, 21, 0, 0, 0, 13, 0, 0, 0, 23, 0, 0, 0, 0, 20, 19, 0, 0, 0, 0
|0, 0, 0, 7, 0, 0, 0, 0, 20, 0, 0, 0, 0, 15, 2, 0, 12, 0, 0, 0, 0, 0, 14, 1, 4
|24, 0, 0, 0, 19, 2, 0, 0, 0, 0, 4, 0, 22, 0, 0, 0, 3, 0, 15, 21, 0, 0, 11, 0, 12
|0, 0, 0, 0, 0, 0, 0, 15, 18, 0, 12, 0, 0, 0, 3, 5, 1, 0, 10, 0, 23, 0, 0, 9, 0
|5, 0, 0, 17, 8, 0, 0, 0, 0, 9, 0, 0, 0, 0, 0, 2, 0, 0, 0, 0, 0, 0, 0, 0, 0
|0, 0, 0, 20, 0, 13, 3, 0, 0, 18, 0, 0, 0, 23, 0, 0, 0, 0, 0, 0, 0, 8, 0, 0, 0
|0, 0, 0, 21, 0, 0, 0, 0, 0, 0, 18, 20, 0, 0, 0, 0, 0, 0, 0, 19, 22, 0, 0, 0, 0
|0, 0, 0, 0, 0, 0, 0, 22, 0, 0, 0, 6, 0, 17, 0, 0, 21, 11, 0, 0, 0, 2, 0, 10, 0
|0, 22, 10, 0, 0, 0, 0, 24, 11, 0, 0, 0, 21, 0, 16, 0, 0, 18, 0, 0, 7, 0, 0, 4, 14
|19, 0, 6, 0, 0, 0, 0, 0, 0, 0, 0, 0, 2, 0, 0, 25, 0, 3, 20, 24, 21, 0, 0, 0, 0
|18, 0, 0, 0, 0, 0, 0, 0, 0, 0, 21, 0, 0, 0, 8, 6, 13, 0, 0, 0, 1, 5, 24, 14, 3
|3, 0, 0, 0, 0, 0, 0, 6, 16, 0, 0, 2, 5, 0, 0, 0, 0, 10, 0, 0, 15, 0, 0, 0, 11
|0, 0, 0, 0, 0, 0, 0, 2, 0, 0, 0, 0, 1, 0, 0, 0, 0, 0, 0, 15, 4, 0, 0, 8, 0
|0, 0, 0, 0, 0, 7, 0, 5, 0, 0, 0, 0, 0, 4, 0, 0, 0, 20, 0, 11, 0, 0, 17, 0, 10
|0, 0, 20, 5, 0, 0, 13, 0, 0, 11, 0, 0, 6, 0, 24, 0, 0, 0, 0, 9, 0, 7, 0, 22, 0
|0, 0, 14, 0, 0, 0, 0, 11, 2, 0, 0, 0, 0, 0, 0, 0, 0, 7, 1, 0, 0, 0, 0, 0, 8
|0, 0, 0, 24, 0, 6, 0, 23, 19, 0, 0, 0, 0, 0, 0, 12, 15, 0, 9, 14, 0, 0, 0, 0, 0
|0, 16, 13, 0, 11, 0, 0, 0, 0, 0, 0, 0, 0, 0, 15, 24, 19, 0, 0, 0, 0, 0, 0, 0, 0
|0, 0, 0, 1, 0, 0, 0, 0, 0, 0, 0, 0, 0, 0, 0, 0, 0, 0, 3, 0, 0, 23, 0, 2, 0
|15, 0, 0, 0, 0, 0, 0, 14, 0, 0, 0, 23, 0, 0, 0, 4, 0, 0, 0, 13, 0, 24, 0, 6, 20|];