order = 5;
grid = [|0, 0, 0, 0, 11, 17, 12, 9, 0, 0, 0, 0, 0, 0, 0, 0, 0, 0, 0, 0, 1, 4, 0, 14, 0
|0, 0, 0, 0, 0, 0, 0, 15, 0, 0, 0, 0, 0, 4, 11, 0, 0, 0, 0, 23, 0, 0, 0, 0, 21
|20, 0, 19, 0, 0, 0, 0, 0, 0, 5, 0, 0, 0, 0, 15, 0, 0, 0, 0, 0, 0, 0, 0, 16, 0
|0, 0, 0, 0, 0, 0, 0, 0, 0, 0, 0, 0, 0, 0, 0, 13, 25, 0, 0, 0, 0, 24, 0, 0, 10
|0, 0, 0, 0, 0, 0, 8, 2, 0, 0, 0, 0, 0, 0, 0, 0, 0, 0, 0, 0, 0, 0, 0, 0, 3
|12, 0, 20, 0, 0, 13, 0, 0, 2, 0, 19, 0, 0, 0, 0, 0, 14, 17, 25, 24, 0, 0, 0, 7, 0
|0, 0, 2, 5, 0, 4, 0, 12, 10, 0, 0, 0, 25, 0, 0, 20, 0, 13, 0, 1, 0, 23, 6, 0, 16
|0, 0, 0, 16, 0, 0, 0, 22, 0, 0, 0, 0, 0, 10, 0, 0, 0, 6, 0, 9, 0, 0, 0, 0, 0
|13, 0, 0, 0, 23, 0, 16, 0, 0, 0, 0, 0, 0, 0, 24, 0, 0, 0, 0, 0, 0, 0, 0, 0, 0
|1, 0, 6, 0, 19, 0, 0, 0, 9, 0, 7, 0, 0, 13, 0, 0, 0, 0, 5, 21, 0, 0, 0, 0, 0
|0, 19, 23, 0, 0, 0, 0, 6, 0, 0, 0, 0, 0, 9, 0, 0, 4, 0, 0, 25, 16, 13, 0, 0, 0
|0, 0, 0, 6, 0, 0, 0, 0, 0, 0, 8, 1, 0, 0, 0, 0, 0, 0, 20, 0, 0, 9, 0, 0, 0
|0, 0, 0, 0, 7, 3, 0, 0, 0, 23, 0, 0, 15, 12, 0, 0, 0, 0, 11, 0, 21, 0, 5, 0, 0
|0, 0, 0, 0, 16, 0, 10, 0, 0, 0, 11, 0, 0, 0, 0, 0, 9, 0, 0, 0, 0, 7, 0, 0, 0
|0, 15, 3, 0, 0, 12, 20, 16, 5, 0, 0, 0, 0, 24, 25, 0, 13, 0, 0, 0, 0, 0, 0, 0, 4
|9, 0, 5, 0, 2, 0, 15, 0, 0, 0, 0, 0, 0, 3, 0, 0, 0, 1, 0, 0, 0, 0, 0, 0, 0
|10, 11, 12, 0, 0, 23, 0, 0, 0, 0, 16, 0, 0, 0, 17, 0, 5, 0, 14, 0, 7, 18, 0, 0, 0
|0, 0, 8, 4, 0, 0, 14, 0, 0, 0, 24, 0, 0, 0, 0, 7, 0, 25, 0, 0, 20, 0, 0, 0, 0
|0, 0, 0, 21, 0, 20, 0, 17, 4, 0, 0, 0, 0, 7, 0, 0, 0, 9, 0, 0, 0, 0, 0, 0, 0
|0, 0, 0, 0, 24, 0, 0, 11, 12, 0, 0, 0, 9, 0, 0, 6, 0, 21, 0, 0, 19, 3, 14, 0, 5
|0, 0, 0, 0, 0, 19, 0, 0, 0, 0, 0, 25, 8, 0, 0, 0, 6, 0, 0, 0, 17, 0, 0, 13, 0
|0, 23, 0, 0, 0, 0, 3, 0, 0, 21, 0, 0, 12, 0, 0, 0, 0, 0, 0, 10, 0, 0, 0, 0, 25
|4, 0, 21, 0, 0, 0, 0, 0, 1, 0, 14, 0, 0, 0, 3, 0, 0, 0, 0, 0, 6, 0, 18, 0, 0
|0, 0, 17, 0, 0, 15, 0, 5, 6, 0, 0, 0, 0, 19, 0, 25, 0, 3, 0, 0, 9, 0, 0, 0, 11
|0, 0, 0, 0, 0, 0, 0, 0, 0, 12, 0, 0, 0, 0, 0, 15, 20, 0, 0, 5, 10, 0, 3, 1, 0|];