order = 5;
grid = [|0, 11, 0, 0, 0, 0, 0, 0, 0, 2, 0, 0, 23, 0, 24, 0, 0, 4, 0, 0, 0, 0, 9, 0, 12
|13, 0, 15, 6, 0, 0, 0, 0, 21, 0, 0, 0, 0, 0, 19, 0, 22, 0, 0, 0, 0, 2, 0, 0, 0
|0, 25, 0, 0, 20, 0, 0, 0, 0, 24, 21, 0, 0, 0, 0, 0, 0, 17, 0, 23, 5, 0, 3, 0, 0
|0, 5, 21, 0, 0, 0, 13, 0, 23, 19, 0, 6, 0, 0, 0, 0, 0, 10, 11, 0, 15, 0, 8, 25, 0
|0, 0, 9, 0, 18, 3, 10, 0, 17, 0, 15, 0, 0, 0, 0, 0, 0, 0, 0, 2, 0, 0, 0, 0, 0
|0, 0, 0, 0, 0, 0, 0, 0, 6, 16, 0, 25, 3, 0, 15, 0, 13, 0, 0, 0, 11, 18, 0, 0, 0
|0, 0, 23, 0, 0, 0, 19, 0, 18, 0, 0, 24, 0, 6, 0, 0, 0, 0, 0, 0, 0, 0, 0, 20, 3
|0, 6, 0, 0, 0, 25, 1, 0, 4, 0, 16, 0, 0, 11, 0, 24, 0, 0, 0, 22, 0, 8, 5, 0, 0
|0, 3, 0, 0, 0, 0, 0, 0, 0, 0, 0, 0, 0, 0, 22, 4, 0, 0, 0, 0, 0, 0, 0, 0, 16
|16, 12, 2, 25, 0, 0, 0, 0, 15, 21, 0, 0, 0, 0, 1, 0, 18, 11, 0, 0, 9, 0, 13, 0, 0
|0, 0, 0, 0, 25, 8, 0, 24, 11, 0, 0, 0, 5, 0, 0, 0, 0, 0, 0, 0, 0, 0, 16, 0, 0
|0, 17, 6, 0, 0, 0, 25, 0, 14, 0, 0, 11, 0, 0, 9, 20, 3, 0, 0, 0, 0, 0, 0, 8, 0
|0, 0, 0, 0, 0, 0, 17, 0, 0, 0, 18, 0, 0, 0, 0, 11, 0, 19, 0, 0, 6, 0, 0, 0, 25
|0, 0, 0, 0, 0, 0, 7, 15, 0, 0, 0, 0, 0, 24, 0, 5, 0, 0, 0, 0, 0, 0, 0, 0, 0
|0, 0, 0, 5, 24, 10, 0, 0, 0, 13, 0, 0, 0, 25, 16, 14, 0, 0, 0, 6, 19, 0, 21, 0, 0
|0, 9, 0, 0, 0, 0, 0, 19, 0, 0, 24, 12, 0, 0, 0, 0, 0, 16, 0, 0, 13, 17, 22, 0, 0
|0, 0, 0, 0, 23, 20, 0, 21, 0, 0, 0, 19, 0, 0, 0, 0, 0, 0, 12, 7, 0, 0, 0, 0, 0
|2, 14, 0, 0, 0, 0, 0, 0, 9, 0, 0, 5, 16, 0, 0, 0, 0, 0, 18, 19, 0, 0, 0, 0, 0
|0, 19, 16, 18, 3, 0, 2, 22, 0, 17, 0, 0, 0, 10, 7, 0, 0, 0, 0, 0, 25, 0, 15, 0, 0
|7, 0, 0, 0, 0, 0, 0, 0, 0, 0, 0, 1, 0, 0, 0, 17, 6, 3, 0, 0, 2, 0, 19, 0, 8
|0, 0, 19, 0, 0, 0, 0, 0, 0, 0, 6, 0, 0, 0, 13, 1, 0, 18, 0, 0, 0, 0, 0, 5, 0
|1, 0, 0, 17, 8, 0, 0, 0, 0, 0, 11, 0, 0, 0, 0, 0, 0, 0, 0, 0, 0, 0, 20, 0, 19
|0, 0, 0, 7, 0, 0, 21, 0, 22, 18, 0, 0, 8, 5, 0, 0, 16, 20, 6, 0, 0, 0, 0, 4, 0
|23, 0, 12, 22, 6, 0, 0, 0, 2, 0, 0, 0, 0, 0, 0, 0, 0, 0, 0, 0, 0, 0, 0, 11, 0
|0, 0, 0, 21, 0, 0, 5, 11, 0, 15, 23, 0, 0, 0, 17, 25, 24, 0, 0, 0, 8, 0, 0, 0, 0|];