order = 5;
grid = [|0, 0, 0, 0, 0, 2, 9, 0, 0, 0, 18, 23, 0, 0, 0, 1, 0, 0, 0, 0, 0, 0, 0, 17, 0
|4, 0, 0, 0, 0, 0, 0, 0, 0, 0, 22, 0, 1, 0, 0, 0, 0, 0, 17, 0, 0, 23, 0, 6, 0
|0, 0, 0, 0, 0, 0, 0, 24, 0, 8, 17, 0, 0, 0, 0, 0, 0, 0, 0, 0, 0, 0, 0, 0, 10
|2, 0, 0, 0, 0, 0, 0, 15, 0, 17, 0, 24, 0, 0, 0, 6, 0, 7, 0, 0, 0, 0, 0, 0, 0
|20, 6, 0, 0, 0, 0, 0, 21, 0, 0, 10, 0, 0, 5, 2, 0, 0, 3, 0, 0, 0, 0, 9, 0, 0
|8, 0, 0, 16, 23, 0, 0, 1, 0, 0, 0, 0, 0, 0, 0, 0, 0, 0, 0, 0, 0, 0, 0, 0, 0
|0, 0, 0, 0, 0, 18, 0, 0, 0, 19, 0, 0, 0, 0, 0, 4, 0, 0, 0, 0, 0, 0, 0, 0, 0
|24, 0, 17, 0, 0, 9, 0, 0, 0, 6, 0, 0, 25, 0, 5, 20, 0, 0, 0, 0, 0, 0, 0, 0, 13
|0, 0, 0, 20, 0, 14, 21, 16, 0, 0, 0, 1, 0, 0, 0, 0, 24, 0, 0, 0, 10, 0, 0, 0, 0
|0, 0, 0, 0, 0, 0, 12, 0, 0, 23, 0, 0, 6, 0, 0, 0, 0, 0, 0, 0, 0, 0, 0, 0, 9
|0, 0, 0, 0, 0, 0, 0, 20, 0, 21, 15, 0, 0, 0, 0, 0, 0, 9, 0, 0, 0, 0, 0, 0, 0
|25, 20, 0, 19, 0, 0, 0, 0, 15, 0, 0, 0, 0, 0, 18, 0, 0, 0, 11, 0, 13, 0, 0, 21, 0
|0, 2, 0, 0, 0, 16, 18, 0, 0, 1, 7, 0, 0, 11, 0, 0, 0, 15, 0, 20, 24, 0, 0, 0, 0
|0, 1, 24, 0, 4, 19, 0, 14, 0, 9, 0, 0, 20, 0, 0, 7, 0, 0, 0, 0, 17, 0, 0, 10, 8
|16, 17, 0, 0, 0, 0, 0, 0, 0, 24, 0, 0, 0, 0, 21, 0, 0, 0, 0, 0, 20, 18, 0, 0, 0
|23, 0, 21, 0, 0, 15, 24, 22, 0, 13, 25, 10, 17, 0, 0, 0, 0, 0, 0, 0, 0, 0, 0, 0, 7
|0, 0, 4, 0, 15, 0, 0, 18, 5, 0, 6, 0, 0, 7, 0, 0, 23, 20, 0, 0, 0, 14, 0, 0, 19
|12, 18, 0, 8, 0, 0, 0, 0, 0, 0, 19, 0, 0, 2, 0, 0, 22, 0, 25, 7, 0, 0, 0, 0, 0
|0, 0, 0, 0, 0, 0, 0, 9, 0, 0, 0, 18, 0, 24, 0, 0, 0, 2, 0, 12, 0, 0, 0, 0, 0
|0, 7, 0, 5, 0, 0, 17, 0, 23, 12, 0, 0, 0, 20, 15, 0, 0, 14, 0, 0, 0, 2, 0, 0, 0
|7, 24, 23, 0, 0, 21, 1, 0, 9, 22, 0, 8, 0, 0, 3, 0, 0, 0, 6, 16, 0, 0, 0, 0, 0
|5, 0, 0, 0, 0, 0, 0, 0, 0, 18, 14, 0, 16, 0, 13, 19, 11, 0, 0, 0, 12, 0, 0, 0, 0
|0, 0, 0, 21, 0, 3, 19, 23, 0, 0, 0, 12, 0, 4, 0, 0, 0, 0, 0, 1, 5, 0, 16, 18, 0
|14, 8, 0, 0, 0, 0, 13, 0, 16, 15, 11, 0, 0, 1, 0, 0, 0, 17, 4, 0, 0, 0, 22, 7, 24
|0, 4, 0, 0, 19, 10, 0, 0, 0, 0, 0, 0, 0, 0, 0, 0, 0, 18, 5, 25, 3, 0, 0, 9, 2|];