order = 5;
grid = [|0, 0, 25, 3, 0, 0, 14, 0, 0, 23, 0, 0, 0, 0, 0, 0, 11, 0, 0, 0, 0, 0, 0, 0, 10
|0, 0, 0, 0, 0, 0, 22, 11, 0, 0, 0, 18, 8, 15, 0, 0, 0, 10, 0, 12, 0, 2, 7, 0, 0
|0, 22, 20, 0, 0, 6, 4, 0, 0, 0, 0, 0, 0, 0, 0, 24, 0, 0, 7, 25, 0, 0, 0, 0, 1
|0, 19, 17, 0, 0, 0, 0, 0, 0, 24, 0, 0, 0, 6, 14, 0, 20, 0, 0, 0, 12, 0, 0, 0, 0
|0, 0, 13, 0, 0, 7, 12, 0, 3, 20, 24, 0, 0, 17, 0, 1, 9, 0, 19, 8, 0, 5, 0, 6, 0
|3, 0, 1, 0, 0, 0, 20, 0, 0, 0, 0, 0, 0, 16, 2, 0, 0, 0, 0, 14, 0, 0, 0, 0, 0
|0, 17, 0, 24, 0, 9, 16, 0, 21, 0, 0, 0, 0, 13, 0, 0, 0, 0, 0, 0, 0, 0, 0, 0, 6
|15, 0, 0, 0, 13, 14, 0, 7, 0, 6, 0, 0, 21, 25, 0, 0, 0, 0, 0, 0, 1, 3, 12, 0, 11
|0, 0, 0, 0, 0, 0, 0, 8, 15, 0, 0, 14, 0, 24, 0, 0, 0, 0, 0, 0, 0, 0, 0, 0, 0
|14, 0, 0, 22, 8, 0, 0, 0, 0, 11, 0, 0, 0, 0, 0, 0, 4, 0, 1, 5, 13, 9, 0, 0, 17
|25, 0, 0, 0, 0, 8, 0, 14, 0, 0, 9, 0, 23, 1, 0, 0, 0, 0, 3, 0, 0, 0, 21, 0, 0
|0, 13, 0, 11, 0, 0, 0, 0, 0, 0, 0, 0, 0, 21, 25, 0, 0, 4, 0, 0, 24, 18, 0, 0, 0
|0, 15, 0, 0, 0, 0, 13, 0, 0, 0, 0, 0, 0, 0, 0, 0, 0, 0, 18, 0, 0, 0, 23, 16, 3
|0, 0, 0, 0, 10, 18, 21, 25, 20, 0, 0, 3, 24, 0, 0, 0, 12, 0, 0, 17, 0, 6, 0, 9, 0
|0, 23, 21, 0, 20, 3, 0, 4, 0, 7, 6, 0, 16, 12, 0, 14, 0, 0, 0, 0, 0, 0, 0, 25, 0
|0, 0, 0, 0, 19, 1, 0, 9, 7, 0, 14, 25, 0, 0, 0, 0, 0, 0, 0, 23, 18, 0, 0, 11, 0
|6, 16, 0, 0, 0, 22, 0, 5, 0, 0, 21, 0, 0, 7, 15, 0, 25, 2, 10, 0, 0, 0, 0, 12, 0
|0, 0, 0, 0, 0, 0, 0, 0, 0, 0, 0, 0, 0, 0, 0, 0, 1, 0, 12, 13, 0, 0, 6, 0, 0
|0, 12, 0, 0, 18, 0, 0, 0, 0, 0, 0, 9, 4, 0, 0, 0, 24, 0, 0, 20, 0, 7, 1, 22, 2
|2, 0, 0, 13, 22, 20, 11, 24, 0, 0, 8, 1, 0, 0, 0, 0, 0, 0, 0, 7, 0, 10, 3, 0, 0
|22, 2, 0, 15, 21, 0, 25, 0, 17, 13, 0, 0, 5, 18, 23, 0, 0, 14, 0, 9, 7, 0, 0, 0, 24
|0, 0, 16, 0, 23, 0, 0, 6, 5, 0, 0, 0, 0, 20, 0, 0, 0, 0, 24, 0, 0, 12, 9, 0, 0
|4, 0, 10, 0, 0, 12, 9, 0, 0, 0, 0, 0, 0, 0, 0, 22, 0, 0, 0, 0, 0, 0, 0, 2, 0
|0, 0, 0, 0, 12, 0, 0, 0, 0, 0, 1, 0, 0, 0, 0, 25, 0, 0, 0, 11, 0, 0, 18, 0, 23
|13, 0, 0, 0, 0, 0, 0, 0, 10, 0, 0, 0, 9, 0, 0, 0, 0, 0, 0, 0, 6, 0, 0, 0, 21|];