order = 5;
grid = [|25, 14, 0, 2, 0, 0, 0, 0, 0, 0, 10, 0, 0, 0, 21, 15, 24, 0, 13, 0, 0, 0, 0, 18, 0
|0, 0, 0, 0, 0, 0, 25, 24, 0, 0, 0, 8, 0, 16, 0, 0, 14, 6, 0, 0, 23, 11, 0, 7, 4
|0, 0, 0, 0, 20, 0, 0, 0, 14, 9, 0, 0, 17, 3, 0, 0, 0, 0, 16, 0, 0, 0, 0, 0, 0
|0, 0, 21, 0, 0, 13, 0, 0, 0, 0, 0, 0, 0, 4, 0, 23, 25, 0, 12, 0, 0, 0, 15, 0, 0
|0, 0, 0, 0, 18, 16, 0, 0, 1, 5, 0, 24, 0, 0, 0, 0, 10, 0, 0, 9, 6, 20, 0, 0, 13
|20, 24, 0, 13, 7, 0, 0, 0, 0, 0, 0, 0, 0, 0, 0, 12, 0, 0, 4, 0, 0, 0, 0, 10, 0
|0, 18, 6, 0, 0, 0, 20, 0, 11, 25, 0, 0, 0, 0, 0, 0, 0, 0, 0, 21, 0, 3, 0, 0, 0
|0, 12, 0, 16, 10, 0, 0, 6, 0, 0, 0, 11, 0, 0, 0, 0, 7, 23, 0, 0, 5, 18, 13, 0, 0
|3, 23, 0, 0, 0, 0, 10, 0, 0, 0, 0, 12, 18, 0, 0, 0, 0, 0, 0, 0, 0, 0, 0, 0, 0
|0, 0, 0, 0, 0, 0, 0, 0, 0, 0, 4, 22, 0, 0, 0, 8, 6, 0, 0, 0, 0, 0, 16, 0, 11
|0, 21, 0, 0, 14, 11, 0, 22, 0, 6, 0, 0, 0, 0, 25, 0, 12, 16, 0, 0, 0, 0, 0, 0, 0
|0, 0, 0, 0, 12, 0, 0, 0, 7, 0, 0, 17, 0, 0, 9, 0, 0, 3, 10, 0, 21, 0, 5, 0, 0
|0, 0, 0, 0, 0, 20, 21, 0, 0, 0, 0, 0, 24, 0, 0, 0, 0, 0, 2, 0, 0, 0, 0, 22, 0
|7, 0, 0, 0, 0, 23, 0, 16, 0, 1, 3, 0, 10, 0, 0, 0, 21, 0, 0, 4, 12, 0, 0, 6, 0
|0, 0, 24, 0, 23, 0, 0, 0, 0, 2, 0, 0, 0, 11, 0, 0, 20, 25, 0, 0, 0, 14, 0, 1, 10
|0, 0, 0, 0, 0, 0, 0, 0, 12, 13, 0, 0, 0, 0, 0, 0, 0, 21, 5, 7, 8, 0, 24, 0, 9
|0, 9, 0, 8, 0, 0, 0, 0, 0, 21, 18, 0, 0, 0, 0, 20, 0, 24, 0, 0, 0, 0, 0, 0, 0
|0, 0, 12, 0, 13, 10, 9, 23, 0, 22, 0, 0, 0, 24, 8, 0, 0, 0, 0, 0, 0, 0, 0, 5, 0
|16, 0, 0, 0, 3, 0, 24, 0, 0, 0, 21, 0, 0, 9, 0, 0, 0, 0, 15, 0, 0, 0, 6, 20, 0
|0, 0, 5, 0, 0, 0, 0, 0, 2, 0, 0, 0, 0, 0, 0, 0, 0, 18, 0, 0, 13, 0, 0, 0, 0
|0, 0, 0, 0, 0, 0, 0, 0, 0, 0, 0, 9, 0, 0, 22, 0, 0, 0, 0, 0, 17, 0, 4, 12, 0
|0, 2, 20, 0, 0, 0, 8, 0, 0, 11, 7, 0, 0, 0, 0, 0, 0, 0, 0, 10, 0, 0, 0, 3, 6
|0, 19, 0, 0, 5, 0, 17, 0, 0, 0, 0, 0, 0, 12, 0, 0, 0, 0, 6, 0, 22, 9, 0, 0, 0
|0, 0, 0, 0, 0, 0, 0, 0, 0, 0, 0, 0, 11, 21, 0, 0, 0, 0, 0, 23, 0, 13, 0, 0, 0
|6, 4, 0, 14, 0, 0, 0, 0, 0, 20, 0, 18, 0, 10, 0, 9, 0, 0, 1, 0, 0, 0, 0, 0, 0|];