order = 5;
grid = [|0, 0, 1, 0, 0, 23, 12, 0, 0, 17, 0, 0, 7, 0, 0, 0, 4, 0, 0, 0, 0, 0, 0, 10, 0
|0, 7, 0, 0, 0, 0, 0, 0, 0, 13, 0, 0, 0, 0, 0, 0, 0, 16, 0, 15, 0, 20, 14, 0, 0
|0, 25, 10, 12, 11, 0, 0, 0, 0, 0, 5, 13, 0, 0, 0, 0, 0, 0, 0, 0, 17, 0, 4, 0, 0
|18, 0, 0, 0, 0, 0, 0, 0, 5, 0, 23, 14, 0, 0, 0, 0, 0, 0, 25, 0, 0, 13, 0, 7, 0
|0, 0, 24, 0, 0, 0, 0, 2, 8, 20, 0, 0, 0, 0, 0, 0, 0, 0, 0, 0, 0, 1, 0, 0, 23
|14, 0, 3, 23, 0, 0, 0, 5, 0, 0, 0, 0, 0, 0, 0, 0, 0, 0, 21, 0, 0, 0, 0, 0, 0
|0, 0, 0, 0, 0, 0, 16, 0, 0, 14, 0, 0, 0, 0, 0, 0, 0, 0, 0, 0, 0, 10, 0, 0, 17
|0, 6, 8, 1, 0, 0, 0, 12, 0, 0, 0, 0, 0, 0, 0, 0, 14, 0, 0, 0, 18, 0, 0, 0, 0
|0, 0, 25, 17, 0, 0, 0, 0, 0, 0, 6, 0, 0, 10, 0, 24, 0, 0, 0, 20, 0, 16, 21, 0, 0
|0, 0, 11, 24, 15, 0, 0, 0, 0, 0, 18, 0, 9, 0, 4, 0, 25, 0, 0, 23, 0, 0, 0, 14, 0
|3, 0, 0, 0, 20, 6, 0, 10, 0, 0, 7, 0, 4, 0, 9, 0, 0, 0, 0, 0, 0, 0, 0, 0, 0
|0, 0, 12, 0, 0, 0, 23, 0, 0, 3, 24, 0, 22, 0, 18, 0, 0, 0, 6, 13, 0, 0, 0, 0, 14
|0, 14, 0, 0, 0, 11, 0, 0, 0, 0, 8, 10, 0, 25, 0, 0, 0, 0, 0, 0, 0, 0, 0, 12, 0
|0, 0, 19, 0, 0, 0, 13, 0, 0, 0, 0, 0, 0, 0, 0, 0, 0, 0, 24, 0, 0, 15, 16, 0, 0
|0, 24, 0, 0, 0, 8, 0, 0, 0, 12, 0, 0, 0, 0, 0, 0, 9, 0, 0, 0, 0, 0, 0, 0, 0
|4, 19, 0, 0, 0, 25, 6, 7, 0, 0, 0, 0, 20, 0, 0, 0, 18, 0, 0, 11, 0, 3, 0, 0, 0
|0, 0, 0, 0, 18, 0, 10, 0, 16, 0, 0, 0, 0, 0, 0, 9, 0, 0, 20, 0, 0, 0, 0, 0, 6
|0, 0, 6, 0, 0, 21, 0, 0, 0, 0, 0, 18, 12, 23, 19, 0, 7, 0, 3, 0, 0, 0, 0, 0, 0
|0, 23, 15, 0, 0, 20, 1, 0, 22, 0, 0, 0, 0, 0, 0, 0, 0, 0, 0, 0, 12, 8, 0, 0, 18
|0, 0, 0, 0, 0, 4, 0, 0, 12, 18, 0, 25, 0, 0, 0, 5, 0, 0, 0, 0, 0, 0, 20, 2, 13
|0, 2, 23, 14, 0, 3, 0, 20, 0, 0, 0, 0, 8, 0, 0, 0, 0, 15, 0, 0, 0, 0, 19, 18, 0
|9, 0, 0, 21, 0, 0, 0, 0, 0, 0, 0, 0, 0, 0, 0, 0, 0, 0, 0, 7, 0, 12, 0, 0, 0
|0, 20, 17, 0, 4, 0, 0, 0, 21, 0, 0, 0, 0, 18, 6, 0, 16, 0, 0, 25, 0, 0, 0, 0, 1
|0, 0, 5, 19, 16, 0, 0, 0, 0, 8, 10, 0, 0, 0, 0, 18, 3, 23, 0, 0, 20, 0, 0, 17, 0
|0, 0, 0, 6, 0, 17, 0, 0, 0, 0, 0, 22, 3, 0, 0, 4, 0, 0, 0, 0, 21, 0, 5, 16, 0|];