order = 5;
grid = [|22, 0, 9, 0, 7, 0, 0, 0, 0, 0, 0, 0, 12, 24, 0, 0, 0, 0, 8, 0, 17, 0, 0, 0, 0
|0, 0, 0, 0, 0, 0, 0, 0, 0, 0, 0, 0, 11, 0, 0, 0, 25, 0, 13, 0, 0, 15, 0, 0, 0
|0, 0, 0, 0, 0, 0, 1, 0, 0, 0, 0, 21, 0, 0, 0, 0, 17, 0, 0, 0, 0, 0, 0, 0, 0
|0, 0, 0, 0, 8, 0, 13, 0, 16, 0, 19, 0, 0, 0, 0, 0, 0, 12, 0, 0, 0, 0, 0, 0, 0
|0, 0, 0, 19, 0, 0, 0, 25, 0, 0, 23, 13, 0, 0, 7, 0, 0, 0, 0, 0, 14, 21, 0, 8, 0
|0, 0, 0, 0, 0, 0, 0, 0, 17, 0, 0, 0, 25, 0, 0, 0, 0, 0, 1, 0, 0, 0, 0, 0, 5
|0, 0, 0, 0, 0, 22, 9, 0, 0, 0, 0, 19, 0, 21, 0, 0, 0, 0, 17, 11, 20, 0, 0, 0, 0
|0, 15, 0, 0, 0, 0, 0, 0, 25, 19, 14, 0, 0, 0, 4, 0, 0, 0, 21, 0, 0, 0, 0, 22, 0
|0, 9, 0, 0, 0, 0, 0, 0, 11, 15, 0, 0, 2, 7, 0, 0, 13, 0, 0, 0, 0, 8, 0, 17, 0
|23, 0, 0, 0, 0, 0, 0, 0, 0, 0, 0, 3, 0, 0, 11, 0, 2, 0, 0, 18, 0, 6, 15, 19, 0
|0, 0, 0, 0, 0, 0, 0, 9, 5, 0, 0, 0, 0, 6, 10, 0, 0, 18, 0, 0, 19, 0, 0, 0, 0
|0, 0, 0, 0, 0, 24, 18, 11, 0, 0, 0, 0, 0, 19, 0, 5, 0, 0, 0, 0, 0, 14, 0, 0, 0
|0, 0, 0, 2, 0, 0, 10, 16, 0, 0, 0, 0, 8, 25, 22, 12, 0, 4, 14, 0, 0, 0, 6, 24, 0
|0, 0, 0, 9, 0, 0, 0, 2, 8, 0, 0, 0, 0, 0, 24, 0, 0, 0, 0, 0, 0, 0, 5, 0, 0
|0, 0, 0, 0, 0, 0, 3, 0, 0, 6, 0, 0, 0, 15, 12, 20, 0, 0, 0, 0, 25, 9, 0, 0, 0
|0, 4, 17, 14, 0, 0, 0, 7, 0, 0, 0, 12, 0, 0, 0, 0, 0, 9, 0, 0, 1, 0, 8, 0, 0
|0, 0, 0, 0, 15, 8, 0, 0, 3, 0, 25, 0, 0, 17, 2, 0, 0, 1, 5, 0, 0, 0, 0, 0, 14
|9, 0, 25, 0, 0, 0, 0, 0, 0, 0, 0, 0, 22, 14, 0, 0, 4, 0, 0, 0, 0, 5, 13, 0, 10
|0, 18, 0, 1, 16, 0, 0, 17, 0, 9, 0, 0, 10, 20, 0, 0, 0, 13, 0, 0, 0, 0, 0, 0, 0
|13, 2, 0, 5, 0, 25, 0, 21, 0, 0, 0, 0, 0, 4, 9, 0, 0, 0, 0, 0, 18, 17, 16, 15, 0
|0, 0, 0, 0, 0, 0, 0, 0, 0, 0, 0, 0, 0, 0, 19, 0, 0, 0, 0, 1, 0, 10, 0, 13, 16
|18, 6, 14, 0, 11, 0, 7, 0, 9, 0, 8, 0, 0, 0, 3, 0, 0, 0, 0, 0, 12, 0, 0, 0, 21
|0, 0, 2, 0, 0, 20, 0, 0, 19, 0, 0, 0, 21, 18, 0, 0, 0, 0, 0, 5, 15, 0, 0, 0, 0
|21, 0, 8, 0, 0, 12, 0, 0, 0, 2, 20, 0, 0, 11, 0, 0, 0, 7, 0, 0, 0, 1, 14, 5, 0
|0, 0, 0, 0, 0, 5, 0, 0, 0, 0, 0, 23, 0, 0, 0, 0, 0, 19, 2, 0, 0, 0, 0, 0, 18|];