order = 5;
grid = [|19, 0, 0, 0, 0, 0, 1, 0, 0, 16, 0, 0, 2, 0, 22, 0, 18, 0, 0, 0, 0, 0, 25, 3, 0
|1, 0, 0, 7, 11, 0, 22, 0, 5, 18, 24, 0, 25, 0, 19, 21, 0, 0, 0, 0, 0, 0, 0, 8, 20
|0, 0, 2, 0, 0, 0, 0, 0, 12, 23, 0, 0, 1, 0, 0, 17, 11, 0, 19, 0, 0, 5, 0, 0, 0
|0, 0, 10, 0, 0, 20, 13, 0, 17, 0, 3, 12, 0, 0, 21, 0, 16, 0, 1, 8, 11, 6, 0, 0, 15
|0, 8, 25, 0, 0, 0, 0, 0, 0, 0, 0, 0, 0, 0, 0, 0, 12, 0, 22, 0, 23, 0, 0, 0, 0
|6, 0, 0, 0, 3, 24, 0, 20, 7, 0, 0, 0, 0, 0, 9, 19, 8, 0, 0, 0, 0, 0, 0, 22, 0
|0, 16, 0, 14, 0, 0, 21, 12, 0, 0, 0, 0, 8, 24, 0, 0, 0, 1, 0, 0, 18, 25, 0, 0, 0
|0, 0, 0, 0, 0, 16, 0, 8, 0, 15, 0, 5, 0, 0, 0, 0, 0, 0, 11, 0, 0, 0, 0, 6, 2
|10, 4, 0, 21, 0, 0, 14, 0, 22, 0, 19, 0, 20, 3, 0, 25, 0, 0, 0, 0, 0, 0, 0, 9, 0
|0, 0, 17, 0, 0, 0, 4, 0, 0, 1, 6, 0, 10, 0, 0, 0, 0, 0, 0, 0, 0, 0, 8, 0, 23
|0, 14, 0, 0, 25, 19, 0, 0, 0, 0, 0, 0, 0, 0, 0, 0, 0, 0, 0, 0, 0, 23, 3, 0, 0
|0, 19, 0, 0, 0, 17, 11, 0, 0, 0, 0, 0, 12, 1, 0, 0, 24, 0, 0, 0, 0, 0, 0, 0, 18
|0, 0, 3, 0, 8, 0, 0, 0, 0, 12, 21, 0, 0, 0, 18, 2, 0, 6, 0, 0, 0, 0, 1, 24, 0
|0, 0, 23, 20, 0, 0, 0, 0, 0, 0, 0, 0, 0, 0, 0, 0, 0, 0, 0, 0, 10, 0, 0, 0, 0
|21, 0, 4, 9, 0, 7, 0, 0, 2, 0, 0, 0, 0, 15, 0, 0, 14, 0, 18, 23, 6, 0, 0, 0, 19
|0, 0, 0, 0, 10, 0, 0, 0, 3, 21, 14, 6, 0, 4, 0, 24, 2, 0, 17, 0, 15, 0, 23, 0, 7
|0, 0, 0, 0, 0, 0, 0, 7, 0, 0, 0, 20, 0, 0, 0, 0, 0, 0, 0, 22, 0, 0, 13, 0, 0
|0, 0, 0, 0, 0, 0, 0, 16, 0, 0, 0, 3, 24, 0, 0, 0, 0, 0, 0, 0, 9, 8, 0, 0, 0
|0, 0, 0, 0, 6, 0, 19, 0, 20, 0, 2, 0, 0, 0, 23, 0, 0, 10, 0, 0, 0, 0, 0, 0, 4
|0, 0, 19, 0, 21, 0, 0, 0, 0, 0, 0, 0, 22, 11, 0, 0, 0, 0, 0, 0, 0, 0, 0, 0, 0
|0, 0, 22, 0, 4, 21, 0, 15, 0, 0, 0, 19, 0, 0, 0, 0, 7, 23, 0, 0, 0, 16, 0, 0, 0
|0, 17, 0, 0, 0, 0, 0, 0, 0, 0, 12, 0, 0, 0, 24, 0, 0, 18, 6, 0, 0, 0, 0, 21, 25
|0, 0, 9, 2, 13, 0, 0, 19, 0, 17, 0, 0, 0, 23, 0, 0, 0, 0, 0, 0, 0, 0, 0, 0, 0
|0, 0, 21, 0, 0, 0, 0, 2, 0, 0, 0, 0, 3, 22, 0, 8, 0, 0, 0, 17, 0, 9, 0, 0, 0
|8, 1, 0, 0, 0, 0, 9, 0, 18, 0, 20, 0, 0, 0, 10, 0, 0, 0, 0, 0, 12, 0, 0, 17, 3|];