order = 5;
grid = [|0, 0, 9, 4, 0, 0, 23, 0, 0, 0, 0, 0, 0, 0, 0, 0, 0, 0, 0, 0, 11, 0, 0, 21, 0
|16, 2, 0, 14, 11, 0, 0, 0, 0, 0, 0, 0, 0, 0, 17, 24, 0, 0, 0, 0, 0, 8, 0, 7, 0
|0, 10, 21, 12, 25, 14, 0, 0, 9, 0, 0, 0, 8, 23, 0, 0, 0, 0, 16, 17, 0, 0, 20, 0, 0
|0, 0, 15, 0, 22, 2, 0, 25, 13, 7, 0, 11, 0, 0, 0, 0, 12, 8, 0, 14, 0, 0, 0, 23, 0
|0, 0, 0, 24, 0, 0, 0, 0, 0, 20, 15, 0, 2, 0, 0, 19, 0, 0, 0, 0, 9, 0, 0, 6, 22
|0, 0, 0, 2, 0, 0, 14, 21, 0, 22, 0, 0, 0, 0, 0, 0, 0, 25, 0, 0, 0, 0, 7, 0, 6
|6, 0, 0, 0, 0, 0, 0, 0, 0, 18, 13, 0, 21, 0, 7, 4, 17, 1, 0, 0, 0, 0, 0, 0, 0
|12, 0, 0, 21, 0, 16, 0, 0, 0, 0, 0, 0, 0, 0, 0, 0, 0, 0, 13, 0, 0, 14, 0, 0, 15
|0, 0, 0, 0, 0, 7, 0, 0, 0, 0, 0, 0, 0, 0, 0, 0, 0, 0, 0, 0, 0, 0, 21, 0, 0
|0, 22, 0, 0, 0, 0, 0, 3, 0, 0, 0, 0, 0, 0, 0, 0, 0, 14, 9, 21, 0, 0, 0, 5, 2
|0, 0, 0, 0, 15, 3, 17, 0, 0, 0, 0, 0, 0, 0, 0, 0, 0, 6, 0, 0, 0, 0, 2, 0, 0
|2, 17, 0, 0, 0, 0, 18, 0, 0, 0, 0, 0, 0, 15, 3, 1, 0, 4, 0, 0, 7, 0, 12, 0, 0
|4, 0, 8, 13, 0, 0, 16, 0, 0, 0, 0, 0, 0, 0, 0, 0, 0, 17, 0, 0, 14, 0, 0, 25, 23
|0, 0, 18, 0, 0, 0, 0, 0, 0, 0, 14, 0, 17, 0, 0, 15, 0, 0, 0, 25, 0, 0, 0, 0, 21
|7, 0, 0, 0, 16, 0, 10, 0, 0, 0, 21, 23, 0, 0, 0, 0, 0, 0, 0, 0, 0, 5, 1, 0, 0
|0, 21, 4, 0, 0, 6, 0, 0, 0, 9, 0, 0, 15, 14, 0, 3, 13, 0, 0, 0, 5, 0, 0, 0, 0
|0, 19, 0, 3, 0, 0, 0, 0, 0, 0, 0, 0, 0, 7, 0, 0, 0, 0, 0, 0, 0, 0, 15, 0, 0
|0, 0, 0, 0, 13, 25, 0, 14, 0, 0, 0, 0, 0, 0, 0, 0, 22, 5, 19, 4, 0, 0, 0, 0, 0
|0, 0, 7, 0, 12, 11, 0, 0, 20, 0, 0, 1, 9, 0, 0, 0, 0, 0, 17, 6, 0, 0, 19, 0, 0
|1, 0, 0, 0, 2, 19, 21, 0, 0, 0, 0, 16, 22, 13, 0, 7, 0, 0, 25, 0, 0, 0, 0, 0, 14
|0, 0, 0, 8, 0, 0, 6, 0, 3, 0, 0, 21, 0, 0, 0, 0, 0, 0, 1, 0, 13, 7, 0, 0, 9
|11, 0, 22, 16, 0, 23, 0, 0, 0, 0, 0, 17, 7, 0, 8, 0, 0, 0, 0, 9, 0, 0, 0, 14, 0
|0, 25, 0, 0, 0, 0, 0, 0, 0, 0, 0, 0, 0, 0, 1, 0, 0, 0, 0, 0, 0, 0, 0, 0, 0
|0, 13, 0, 0, 0, 22, 0, 0, 0, 0, 2, 10, 0, 0, 0, 0, 18, 3, 0, 0, 8, 0, 5, 0, 0
|5, 0, 0, 0, 0, 0, 0, 0, 0, 0, 0, 0, 0, 11, 12, 0, 14, 20, 0, 0, 0, 0, 0, 0, 1|];