order = 5;
grid = [|16, 20, 0, 0, 19, 5, 0, 0, 0, 0, 6, 0, 0, 0, 0, 9, 21, 0, 13, 0, 11, 0, 8, 17, 0
|11, 15, 0, 0, 18, 0, 0, 20, 25, 14, 0, 9, 0, 0, 22, 0, 0, 0, 12, 0, 0, 0, 0, 0, 0
|2, 0, 0, 9, 0, 0, 0, 0, 0, 0, 0, 0, 25, 0, 0, 0, 23, 22, 5, 0, 0, 0, 0, 0, 0
|12, 0, 7, 0, 24, 0, 0, 0, 0, 0, 0, 11, 0, 0, 0, 0, 0, 0, 0, 18, 0, 0, 0, 0, 0
|0, 0, 0, 0, 0, 0, 24, 0, 0, 0, 8, 0, 0, 0, 0, 0, 0, 0, 0, 16, 0, 0, 0, 0, 18
|0, 0, 9, 0, 0, 0, 8, 0, 0, 6, 19, 13, 0, 11, 0, 0, 25, 0, 0, 12, 24, 0, 0, 0, 1
|0, 18, 0, 19, 0, 11, 0, 23, 16, 0, 0, 5, 0, 0, 0, 0, 0, 24, 0, 0, 13, 0, 0, 0, 9
|0, 0, 10, 6, 17, 0, 0, 3, 5, 0, 0, 21, 0, 0, 0, 18, 0, 0, 0, 0, 0, 0, 16, 0, 14
|0, 12, 0, 21, 0, 0, 0, 0, 7, 0, 0, 24, 0, 25, 8, 0, 0, 0, 0, 0, 0, 18, 0, 23, 0
|0, 0, 0, 0, 0, 0, 0, 0, 14, 0, 0, 3, 15, 4, 0, 0, 6, 19, 0, 20, 0, 0, 0, 0, 12
|0, 0, 2, 0, 0, 0, 9, 0, 0, 0, 0, 0, 1, 0, 0, 0, 0, 5, 0, 23, 25, 16, 4, 10, 0
|18, 0, 0, 0, 0, 0, 0, 16, 0, 10, 0, 14, 11, 0, 0, 25, 4, 0, 0, 6, 0, 0, 9, 0, 0
|0, 21, 0, 0, 4, 0, 0, 13, 0, 17, 23, 25, 0, 2, 0, 0, 0, 0, 0, 7, 6, 0, 12, 0, 0
|0, 9, 0, 10, 12, 24, 0, 5, 0, 0, 4, 0, 17, 0, 0, 11, 0, 0, 0, 0, 0, 0, 0, 0, 21
|0, 19, 0, 0, 0, 0, 0, 0, 0, 0, 0, 0, 0, 0, 9, 0, 14, 0, 0, 0, 0, 0, 0, 2, 0
|0, 13, 0, 0, 6, 0, 0, 25, 0, 0, 0, 0, 21, 3, 17, 0, 0, 0, 0, 0, 0, 0, 0, 0, 10
|0, 0, 11, 0, 0, 0, 0, 0, 18, 0, 0, 0, 16, 19, 5, 0, 0, 0, 6, 0, 0, 0, 22, 13, 0
|0, 0, 18, 22, 14, 0, 0, 0, 4, 0, 0, 0, 12, 8, 0, 0, 5, 7, 0, 0, 20, 0, 0, 0, 3
|0, 0, 15, 4, 0, 0, 0, 0, 0, 0, 0, 0, 0, 0, 0, 0, 0, 18, 21, 0, 0, 0, 0, 0, 17
|0, 8, 0, 0, 0, 0, 0, 0, 0, 0, 25, 6, 22, 0, 0, 0, 0, 4, 0, 0, 0, 0, 18, 0, 0
|0, 0, 0, 0, 0, 0, 0, 24, 0, 0, 0, 0, 0, 0, 0, 0, 0, 0, 0, 4, 0, 0, 0, 0, 0
|0, 5, 0, 0, 7, 23, 11, 0, 13, 0, 0, 0, 0, 1, 19, 0, 10, 0, 25, 0, 0, 0, 0, 0, 0
|8, 0, 12, 0, 0, 0, 16, 15, 0, 0, 14, 0, 0, 0, 0, 6, 0, 0, 0, 0, 0, 0, 0, 4, 19
|0, 0, 0, 0, 13, 0, 0, 0, 19, 0, 21, 0, 0, 20, 6, 0, 11, 0, 23, 0, 0, 0, 0, 3, 0
|10, 0, 0, 0, 0, 0, 25, 4, 0, 0, 15, 0, 8, 0, 0, 0, 0, 20, 0, 0, 0, 0, 0, 0, 0|];