order = 5;
grid = [|0, 0, 25, 0, 13, 0, 0, 15, 0, 0, 0, 0, 0, 0, 0, 18, 2, 1, 14, 0, 0, 0, 0, 10, 0
|6, 1, 0, 24, 0, 3, 0, 0, 10, 23, 0, 0, 0, 0, 0, 0, 21, 0, 9, 7, 4, 22, 17, 8, 5
|0, 0, 0, 0, 0, 8, 4, 0, 0, 0, 0, 0, 0, 0, 23, 5, 16, 0, 0, 17, 24, 15, 19, 0, 0
|4, 0, 0, 16, 0, 0, 7, 0, 0, 22, 0, 0, 0, 0, 0, 0, 11, 12, 0, 0, 9, 0, 0, 1, 18
|0, 19, 0, 0, 0, 0, 0, 5, 14, 9, 0, 0, 0, 1, 21, 8, 0, 23, 0, 0, 0, 0, 0, 0, 0
|0, 6, 0, 4, 1, 14, 0, 0, 0, 0, 5, 7, 0, 0, 20, 0, 8, 0, 25, 9, 0, 18, 0, 24, 0
|21, 0, 0, 12, 0, 0, 0, 0, 0, 0, 0, 6, 18, 0, 0, 0, 0, 0, 3, 0, 0, 0, 0, 0, 0
|0, 0, 0, 0, 0, 0, 3, 0, 0, 0, 25, 0, 0, 0, 0, 0, 0, 0, 12, 0, 10, 0, 0, 0, 0
|0, 0, 0, 25, 18, 16, 0, 0, 0, 0, 0, 0, 0, 23, 0, 0, 4, 0, 0, 0, 17, 0, 0, 0, 0
|0, 0, 16, 0, 0, 24, 0, 21, 0, 0, 8, 0, 0, 0, 0, 0, 18, 0, 0, 5, 0, 0, 1, 0, 0
|0, 0, 0, 0, 0, 12, 17, 24, 7, 0, 0, 0, 0, 0, 0, 0, 0, 0, 0, 0, 0, 0, 0, 0, 6
|0, 4, 0, 21, 0, 1, 14, 0, 0, 0, 0, 0, 0, 0, 0, 0, 19, 22, 0, 0, 0, 0, 24, 0, 0
|0, 0, 0, 0, 0, 0, 0, 0, 25, 0, 24, 4, 0, 8, 0, 17, 7, 0, 0, 0, 13, 0, 0, 14, 0
|0, 0, 13, 0, 0, 0, 0, 0, 0, 20, 0, 22, 0, 12, 6, 14, 0, 0, 0, 0, 3, 0, 0, 0, 15
|2, 0, 0, 0, 0, 0, 0, 0, 13, 0, 0, 0, 0, 0, 0, 0, 0, 0, 0, 0, 0, 0, 0, 0, 17
|0, 0, 0, 0, 21, 0, 0, 0, 5, 0, 0, 0, 0, 0, 0, 0, 0, 15, 0, 0, 0, 0, 0, 2, 0
|0, 0, 0, 0, 4, 0, 0, 0, 12, 0, 0, 0, 1, 19, 0, 0, 9, 0, 0, 0, 0, 0, 0, 0, 0
|23, 0, 0, 19, 0, 0, 0, 0, 0, 0, 0, 0, 0, 0, 16, 21, 0, 0, 7, 25, 0, 0, 12, 0, 0
|0, 0, 1, 8, 0, 0, 0, 20, 0, 11, 0, 2, 0, 24, 0, 0, 12, 0, 10, 0, 0, 0, 9, 0, 0
|0, 0, 0, 0, 0, 0, 0, 0, 0, 0, 21, 0, 11, 3, 5, 19, 0, 0, 0, 0, 0, 20, 0, 4, 0
|0, 0, 0, 0, 0, 0, 0, 0, 0, 0, 12, 0, 0, 0, 0, 0, 0, 5, 17, 0, 0, 0, 13, 0, 0
|0, 10, 7, 0, 25, 0, 0, 0, 17, 2, 0, 13, 0, 0, 0, 4, 0, 0, 0, 0, 0, 0, 3, 0, 0
|0, 23, 4, 0, 0, 9, 0, 0, 0, 21, 0, 24, 7, 0, 17, 12, 0, 0, 0, 0, 0, 0, 0, 0, 0
|0, 0, 24, 0, 17, 7, 5, 0, 0, 0, 0, 0, 4, 0, 0, 0, 0, 0, 8, 0, 0, 0, 14, 0, 19
|0, 0, 0, 0, 0, 15, 0, 0, 0, 0, 0, 0, 0, 0, 0, 0, 14, 0, 0, 0, 8, 0, 11, 0, 0|];