order = 5;
grid = [|14, 0, 0, 15, 0, 0, 10, 0, 0, 0, 0, 0, 0, 0, 13, 0, 0, 24, 11, 0, 0, 0, 0, 0, 0
|0, 0, 0, 12, 0, 0, 0, 22, 5, 0, 23, 0, 0, 0, 0, 0, 0, 0, 0, 0, 0, 0, 8, 0, 0
|0, 17, 1, 0, 18, 0, 0, 20, 0, 0, 0, 0, 0, 0, 16, 2, 0, 0, 0, 0, 0, 14, 0, 0, 0
|0, 7, 0, 0, 0, 2, 0, 0, 0, 0, 0, 12, 0, 0, 0, 13, 14, 10, 20, 0, 0, 23, 17, 0, 0
|0, 3, 0, 19, 0, 0, 0, 0, 14, 0, 0, 0, 0, 1, 0, 0, 0, 0, 21, 9, 0, 25, 20, 0, 16
|0, 0, 25, 0, 23, 0, 19, 0, 0, 0, 20, 17, 16, 0, 3, 0, 0, 0, 10, 0, 12, 0, 0, 0, 0
|7, 0, 0, 2, 24, 0, 0, 0, 0, 0, 14, 0, 0, 0, 0, 0, 0, 0, 0, 3, 0, 0, 0, 0, 18
|0, 0, 0, 0, 4, 0, 0, 0, 0, 0, 0, 25, 0, 0, 12, 0, 0, 0, 14, 0, 8, 0, 0, 0, 0
|16, 0, 17, 0, 0, 0, 12, 0, 6, 0, 13, 0, 0, 0, 8, 24, 0, 0, 0, 0, 1, 0, 0, 0, 0
|1, 0, 0, 0, 0, 0, 7, 0, 0, 0, 0, 0, 0, 0, 0, 0, 0, 0, 0, 17, 0, 0, 0, 0, 0
|0, 19, 0, 16, 0, 14, 0, 0, 0, 0, 2, 8, 0, 0, 0, 0, 0, 6, 15, 0, 0, 0, 0, 10, 0
|0, 0, 0, 0, 14, 0, 0, 0, 0, 0, 0, 0, 0, 0, 6, 5, 0, 0, 0, 0, 0, 15, 19, 0, 23
|9, 0, 0, 0, 0, 25, 8, 5, 0, 0, 0, 0, 0, 0, 21, 18, 0, 0, 0, 0, 0, 22, 0, 0, 2
|5, 20, 0, 7, 0, 6, 3, 12, 0, 0, 0, 0, 0, 0, 14, 1, 8, 0, 0, 0, 4, 0, 0, 0, 17
|21, 0, 0, 0, 0, 0, 0, 16, 0, 0, 0, 0, 0, 0, 0, 0, 0, 0, 0, 14, 0, 0, 0, 0, 0
|2, 0, 0, 0, 12, 0, 0, 0, 19, 0, 0, 0, 10, 0, 0, 0, 1, 9, 0, 0, 17, 0, 23, 0, 0
|18, 0, 10, 4, 0, 0, 0, 1, 9, 0, 3, 0, 17, 0, 22, 0, 0, 0, 0, 23, 0, 0, 6, 0, 11
|0, 5, 0, 0, 0, 16, 0, 0, 0, 14, 0, 13, 0, 0, 0, 10, 2, 0, 17, 0, 0, 0, 1, 0, 0
|24, 0, 20, 8, 0, 0, 0, 0, 23, 0, 21, 0, 18, 0, 0, 11, 0, 14, 0, 0, 0, 0, 2, 0, 0
|0, 25, 0, 0, 0, 0, 0, 0, 0, 0, 0, 0, 0, 0, 23, 6, 0, 0, 13, 0, 0, 0, 10, 0, 0
|0, 0, 9, 0, 0, 0, 15, 0, 4, 0, 8, 0, 0, 0, 18, 21, 0, 0, 0, 0, 7, 0, 0, 0, 24
|19, 0, 0, 13, 0, 23, 0, 2, 0, 9, 0, 20, 7, 0, 0, 0, 0, 18, 25, 12, 11, 8, 4, 3, 0
|6, 12, 0, 0, 0, 0, 0, 0, 17, 0, 0, 0, 23, 13, 0, 15, 0, 20, 22, 0, 0, 0, 0, 0, 0
|0, 0, 0, 18, 0, 0, 14, 0, 0, 0, 9, 19, 0, 0, 0, 0, 0, 0, 0, 0, 0, 0, 12, 1, 0
|0, 0, 0, 0, 15, 0, 20, 0, 24, 12, 0, 0, 0, 0, 0, 0, 0, 0, 0, 8, 0, 18, 0, 0, 0|];