order = 5;
grid = [|0, 8, 0, 0, 20, 0, 0, 4, 0, 17, 12, 0, 0, 0, 0, 0, 0, 14, 0, 0, 0, 0, 0, 0, 0
|0, 0, 22, 18, 0, 0, 6, 0, 8, 0, 0, 0, 0, 0, 11, 0, 0, 0, 13, 0, 0, 0, 0, 3, 0
|0, 0, 0, 0, 6, 0, 0, 0, 15, 1, 24, 0, 18, 0, 0, 0, 21, 0, 25, 0, 0, 0, 0, 0, 0
|0, 13, 0, 11, 19, 0, 0, 0, 0, 0, 0, 0, 1, 0, 0, 0, 0, 0, 0, 20, 9, 15, 18, 0, 23
|0, 0, 0, 14, 0, 0, 0, 3, 0, 0, 9, 13, 0, 0, 0, 0, 0, 15, 0, 0, 0, 17, 0, 0, 0
|22, 0, 0, 16, 0, 0, 0, 0, 0, 0, 19, 0, 12, 11, 14, 0, 23, 0, 2, 0, 0, 0, 0, 0, 0
|11, 19, 0, 0, 0, 0, 0, 0, 6, 0, 0, 0, 0, 0, 0, 0, 10, 16, 0, 0, 20, 0, 0, 0, 0
|0, 3, 0, 0, 0, 23, 0, 0, 0, 0, 0, 17, 0, 0, 0, 18, 0, 9, 0, 14, 0, 16, 22, 0, 8
|0, 0, 0, 0, 0, 7, 0, 0, 0, 0, 0, 0, 10, 6, 25, 0, 20, 0, 19, 0, 0, 14, 12, 0, 0
|17, 0, 0, 13, 0, 0, 0, 10, 14, 0, 0, 15, 0, 0, 0, 25, 3, 0, 0, 0, 0, 0, 0, 11, 0
|2, 0, 24, 20, 0, 0, 4, 0, 0, 11, 3, 0, 0, 5, 18, 0, 13, 10, 23, 0, 0, 21, 0, 0, 17
|3, 0, 0, 0, 0, 0, 0, 0, 0, 0, 0, 11, 0, 23, 0, 0, 0, 0, 0, 0, 0, 0, 0, 0, 0
|21, 0, 0, 0, 0, 0, 0, 18, 7, 13, 0, 0, 0, 4, 15, 6, 0, 20, 0, 0, 0, 0, 9, 0, 0
|0, 0, 0, 0, 0, 0, 19, 0, 0, 0, 6, 7, 0, 0, 0, 0, 15, 0, 4, 2, 0, 24, 0, 0, 0
|0, 9, 11, 0, 12, 21, 0, 0, 0, 0, 1, 0, 16, 0, 0, 0, 22, 0, 0, 0, 0, 7, 0, 0, 14
|0, 0, 25, 6, 9, 15, 0, 19, 0, 0, 5, 0, 0, 0, 0, 0, 0, 0, 0, 0, 22, 0, 0, 0, 0
|0, 0, 0, 24, 0, 0, 0, 0, 16, 0, 0, 2, 6, 7, 0, 0, 0, 0, 0, 0, 17, 19, 0, 0, 0
|0, 17, 0, 22, 0, 0, 0, 5, 0, 0, 0, 0, 0, 0, 0, 0, 0, 0, 0, 0, 0, 0, 0, 0, 9
|19, 0, 12, 0, 0, 0, 0, 22, 0, 0, 0, 0, 25, 0, 0, 0, 0, 8, 0, 0, 0, 18, 5, 6, 0
|20, 0, 0, 0, 18, 0, 0, 0, 0, 0, 0, 0, 17, 0, 0, 0, 5, 2, 0, 0, 0, 0, 0, 0, 4
|0, 24, 0, 0, 0, 18, 0, 0, 0, 22, 0, 0, 23, 0, 0, 0, 0, 0, 0, 3, 12, 0, 16, 17, 0
|0, 0, 1, 0, 0, 0, 11, 0, 0, 0, 0, 0, 5, 0, 17, 10, 0, 24, 14, 25, 0, 0, 0, 0, 0
|0, 10, 15, 0, 3, 0, 0, 21, 0, 0, 0, 0, 0, 0, 0, 0, 9, 5, 0, 1, 19, 0, 0, 0, 6
|0, 0, 0, 21, 14, 17, 0, 23, 1, 0, 0, 0, 22, 0, 0, 0, 0, 0, 0, 0, 0, 0, 0, 20, 0
|0, 0, 0, 0, 0, 0, 0, 6, 3, 0, 0, 0, 0, 0, 0, 0, 0, 23, 0, 0, 0, 9, 24, 0, 15|];