order = 5;
grid = [|22, 0, 0, 0, 5, 0, 0, 0, 0, 3, 0, 0, 2, 24, 0, 0, 0, 1, 6, 0, 4, 0, 0, 0, 15
|0, 0, 0, 6, 0, 0, 0, 5, 0, 21, 0, 20, 0, 0, 0, 0, 0, 0, 2, 0, 0, 0, 0, 0, 0
|0, 0, 0, 0, 0, 25, 10, 0, 0, 0, 0, 1, 0, 16, 0, 0, 0, 0, 7, 0, 0, 6, 5, 0, 0
|0, 0, 0, 0, 0, 0, 19, 0, 0, 0, 7, 5, 0, 22, 4, 0, 0, 20, 8, 0, 0, 0, 0, 0, 0
|0, 0, 0, 0, 0, 20, 0, 0, 18, 0, 0, 0, 0, 0, 0, 25, 0, 0, 0, 16, 0, 0, 0, 2, 0
|0, 0, 22, 0, 14, 0, 0, 0, 0, 2, 0, 0, 0, 0, 17, 0, 0, 0, 0, 0, 0, 0, 11, 9, 6
|8, 9, 0, 16, 3, 0, 0, 0, 0, 19, 0, 0, 0, 0, 5, 0, 0, 15, 0, 0, 12, 0, 0, 0, 7
|0, 0, 0, 0, 7, 0, 0, 4, 0, 9, 8, 0, 0, 0, 15, 0, 0, 0, 0, 0, 0, 5, 0, 0, 0
|0, 0, 0, 11, 18, 0, 0, 13, 0, 0, 0, 0, 0, 0, 10, 0, 0, 23, 0, 0, 0, 14, 0, 8, 0
|0, 0, 0, 23, 0, 0, 0, 0, 0, 0, 0, 0, 0, 19, 22, 0, 13, 0, 0, 0, 0, 0, 0, 3, 0
|0, 0, 0, 0, 0, 0, 6, 24, 1, 0, 0, 0, 0, 20, 7, 12, 15, 0, 0, 0, 23, 9, 0, 22, 0
|0, 0, 24, 0, 0, 0, 0, 0, 0, 0, 0, 0, 0, 0, 9, 0, 0, 0, 0, 0, 0, 0, 0, 0, 0
|23, 0, 0, 0, 0, 0, 17, 12, 0, 15, 0, 24, 0, 0, 0, 0, 0, 0, 13, 0, 0, 0, 14, 0, 11
|0, 0, 0, 0, 0, 3, 13, 0, 21, 0, 0, 0, 0, 15, 12, 0, 11, 8, 0, 0, 10, 4, 20, 0, 25
|0, 16, 0, 0, 0, 0, 0, 18, 4, 0, 22, 13, 0, 0, 0, 0, 0, 0, 25, 0, 0, 0, 0, 0, 0
|0, 0, 1, 0, 0, 14, 0, 0, 11, 0, 0, 0, 0, 0, 0, 20, 0, 0, 0, 0, 0, 0, 0, 5, 0
|0, 0, 0, 0, 0, 0, 4, 0, 17, 0, 0, 0, 0, 23, 25, 0, 5, 0, 0, 0, 0, 0, 6, 0, 0
|0, 0, 0, 0, 0, 15, 0, 0, 0, 0, 6, 0, 0, 0, 20, 17, 0, 0, 1, 11, 0, 0, 0, 0, 4
|0, 8, 0, 2, 0, 0, 0, 0, 20, 6, 3, 19, 17, 0, 0, 0, 0, 14, 0, 0, 0, 0, 0, 0, 9
|0, 0, 0, 3, 0, 0, 0, 0, 12, 0, 0, 0, 0, 0, 0, 0, 0, 0, 0, 0, 18, 1, 0, 0, 0
|0, 0, 0, 0, 0, 0, 0, 0, 0, 13, 25, 15, 0, 0, 14, 0, 0, 0, 0, 0, 11, 0, 0, 0, 23
|0, 0, 15, 0, 6, 0, 0, 0, 0, 0, 0, 0, 0, 0, 0, 0, 0, 5, 0, 0, 17, 0, 7, 0, 0
|0, 0, 21, 7, 13, 5, 0, 0, 10, 0, 19, 0, 9, 3, 0, 0, 0, 0, 0, 0, 0, 0, 24, 0, 0
|0, 0, 0, 0, 0, 0, 0, 0, 0, 23, 12, 0, 0, 18, 0, 13, 0, 0, 3, 20, 0, 0, 15, 0, 21
|0, 0, 0, 0, 0, 4, 0, 6, 0, 0, 0, 17, 23, 0, 0, 9, 0, 0, 0, 0, 0, 0, 0, 10, 0|];