order = 5;
grid = [|0, 9, 5, 0, 1, 0, 12, 0, 0, 0, 0, 0, 18, 0, 0, 0, 0, 0, 19, 20, 0, 0, 0, 0, 0
|0, 8, 0, 0, 0, 0, 0, 13, 0, 6, 0, 0, 23, 25, 11, 0, 0, 0, 3, 0, 0, 0, 0, 0, 17
|0, 0, 0, 0, 0, 0, 0, 0, 14, 0, 0, 0, 0, 0, 0, 0, 0, 16, 0, 0, 0, 0, 0, 0, 0
|0, 0, 0, 22, 0, 3, 0, 18, 0, 24, 0, 0, 9, 20, 0, 0, 0, 7, 0, 0, 0, 0, 0, 0, 0
|0, 0, 11, 0, 12, 0, 23, 0, 21, 2, 0, 3, 0, 10, 0, 0, 0, 0, 0, 0, 22, 20, 0, 1, 0
|0, 0, 0, 3, 0, 0, 0, 0, 0, 10, 0, 0, 2, 7, 0, 0, 15, 0, 23, 16, 17, 0, 0, 0, 0
|17, 0, 0, 0, 22, 25, 0, 0, 0, 0, 0, 0, 0, 21, 0, 0, 12, 0, 0, 0, 0, 0, 0, 0, 0
|0, 0, 6, 19, 0, 0, 17, 0, 0, 15, 0, 0, 0, 0, 0, 0, 0, 0, 0, 10, 25, 0, 20, 2, 11
|0, 0, 0, 12, 0, 7, 0, 11, 0, 0, 1, 0, 0, 0, 0, 0, 24, 0, 0, 0, 0, 0, 0, 0, 0
|0, 0, 4, 0, 0, 0, 0, 0, 5, 0, 0, 0, 0, 3, 0, 0, 0, 0, 18, 19, 0, 0, 24, 10, 0
|0, 0, 23, 0, 0, 13, 0, 0, 0, 0, 0, 0, 0, 0, 0, 0, 0, 6, 10, 22, 0, 0, 0, 0, 0
|13, 19, 0, 10, 2, 0, 0, 0, 11, 0, 0, 0, 0, 0, 0, 0, 0, 8, 0, 24, 0, 0, 0, 0, 0
|0, 0, 8, 24, 21, 23, 16, 9, 0, 14, 18, 0, 0, 17, 0, 0, 0, 0, 0, 0, 0, 0, 0, 0, 1
|0, 0, 0, 0, 0, 19, 0, 0, 0, 12, 3, 0, 0, 1, 0, 2, 0, 9, 0, 0, 0, 0, 0, 0, 0
|0, 0, 0, 0, 0, 0, 10, 17, 0, 0, 0, 23, 5, 2, 0, 1, 21, 0, 0, 0, 0, 0, 0, 0, 19
|19, 0, 0, 0, 17, 0, 0, 0, 0, 0, 6, 0, 0, 9, 2, 24, 0, 4, 11, 0, 0, 7, 0, 20, 12
|1, 0, 0, 0, 0, 16, 0, 12, 0, 0, 20, 11, 0, 0, 5, 0, 0, 15, 0, 0, 0, 0, 0, 0, 0
|0, 12, 16, 0, 24, 0, 0, 0, 0, 0, 25, 0, 0, 22, 0, 0, 14, 0, 0, 0, 0, 0, 0, 0, 0
|0, 3, 20, 0, 0, 14, 0, 0, 4, 0, 17, 0, 0, 0, 0, 0, 0, 13, 6, 0, 0, 0, 19, 0, 0
|0, 5, 0, 9, 0, 0, 3, 1, 24, 0, 0, 16, 14, 0, 21, 7, 0, 0, 0, 12, 0, 0, 0, 0, 4
|0, 6, 0, 0, 0, 0, 22, 0, 0, 0, 0, 0, 0, 0, 0, 0, 10, 0, 12, 0, 0, 4, 16, 0, 0
|3, 0, 0, 0, 9, 0, 25, 0, 17, 0, 8, 0, 0, 0, 0, 16, 20, 0, 0, 0, 0, 24, 0, 0, 7
|8, 18, 0, 1, 0, 0, 11, 14, 9, 0, 0, 0, 17, 0, 0, 0, 0, 0, 13, 15, 23, 10, 0, 0, 0
|0, 0, 0, 15, 11, 0, 19, 0, 0, 16, 0, 14, 21, 6, 0, 3, 8, 0, 9, 0, 13, 0, 0, 12, 0
|0, 21, 10, 17, 20, 0, 0, 0, 12, 0, 0, 5, 0, 0, 0, 0, 0, 0, 0, 0, 19, 0, 0, 0, 0|];